ITEM: TIMESTEP
0
ITEM: NUMBER OF ATOMS
228
ITEM: BOX BOUNDS pp pp pp
1.4782138700365630e+00 1.5681786129963589e+01
1.4782138700365630e+00 1.5681786129963589e+01
1.4782138700365630e+00 1.5681786129963589e+01
ITEM: ATOMS id type q x y z vx vy vz
1 1 1.78816 1.53685 1.59753 15.6541 0.0105921 0.000442237 0.00801417
2 1 1.63302 3.21363 3.20419 3.54007 -0.00370838 0.00122446 -0.00346795
3 1 1.72784 15.5486 4.96094 4.94292 -9.32639e-05 -0.000516069 9.86729e-06
4 1 1.67061 3.13511 6.47836 6.76675 0.00218952 -0.0060449 0.00404756
5 1 1.66413 5.15178 15.5521 5.14562 0.00544769 -0.000809468 -0.00342183
6 1 1.68533 7.00045 3.18632 6.78223 -0.00104506 -0.00577625 -0.00750706
7 1 1.54429 4.77877 5.1772 1.60379 -0.000781285 -0.00437163 0.00674819
8 1 1.56063 6.95281 6.72608 3.05379 0.00768705 -0.00598379 0.00984334
9 1 1.85384 15.6708 1.65415 8.80917 -0.00708536 -0.00108779 -0.00471431
10 1 1.72274 3.42312 3.29275 10.4383 -0.00183737 0.00794814 -0.00921995
11 1 1.84885 1.66572 5.0526 12.0618 -0.00588844 0.00385524 0.0089971
12 1 1.79109 3.09264 7.01755 13.918 -0.00399963 -0.00303303 0.0057175
13 1 1.63408 5.35233 1.57557 12.1351 0.00652106 0.0126331 0.00196504
14 1 1.58385 6.70462 3.3775 14.0869 -0.00797662 -0.00389519 -0.00106619
15 1 1.67815 5.06197 4.91057 8.53993 -0.00309415 0.0131218 -0.00505708
16 1 1.59702 6.51669 6.78104 10.3754 -0.0058464 0.00308336 -0.000199305
17 1 1.7447 15.6723 8.55665 1.62621 0.0102627 0.00330441 0.00416049
18 1 1.49608 3.34025 10.2378 3.31997 -0.00566418 0.00361112 -0.0103508
19 1 1.5531 1.52964 12.2053 4.99543 0.00126742 0.00178057 -3.83894e-05
20 1 1.66601 3.0492 14.1212 6.98143 -0.00136497 -0.00237165 -0.000278797
21 1 1.63179 4.95816 8.28378 4.92777 -0.00586352 -0.00948995 -0.000355292
22 1 1.41657 6.46158 10.236 6.98708 -0.0083482 -0.000318921 -0.00960277
23 1 1.5023 5.04124 12.1712 15.5807 -0.00117965 -0.00111165 0.00913721
24 1 1.48049 6.92756 13.8227 3.33653 0.00274066 -0.00559044 0.000386919
25 1 1.69205 1.67524 8.40648 8.72157 0.0130917 -0.00582391 0.00263043
26 1 1.83307 3.31025 10.4201 10.2709 -0.00966879 0.00914851 0.00311831
27 1 1.65049 1.80691 12.2996 12.108 -0.00902 -0.00432303 -0.00180935
28 1 1.79813 3.34077 14.1748 13.8592 -0.00695524 -0.00200396 -0.00694337
29 1 1.66692 4.94964 8.70456 12.1442 0.00190785 0.00132975 0.000153654
30 1 1.65933 6.96079 10.5537 13.724 -0.00272122 0.00648867 -0.00801812
31 1 1.66966 4.93102 12.4351 8.69314 -0.00246093 0.00709843 -0.0155221
32 1 1.73138 7.0036 13.9345 10.3099 0.00731328 -0.000244808 0.000130225
33 1 1.71286 8.47556 1.659 1.72417 0.00511007 -0.00228996 0.0144284
34 1 1.72205 10.5126 3.33621 3.23248 -0.00619012 -0.00100569 0.0063348
35 1 1.41854 8.73394 5.07818 5.03229 0.00608985 -0.00592928 -0.00312055
36 1 1.72506 10.5345 6.68964 7.01962 0.00679972 -0.000373537 -0.00149705
37 1 1.82781 12.2777 1.70974 5.05247 -0.00239313 -0.00193676 -0.00210627
38 1 1.8634 13.9889 3.39609 7.06298 0.00587844 0.00367789 -0.0056036
39 1 1.69304 12.0797 5.04626 15.4775 0.00626073 0.00186236 -0.0046945
40 1 1.73716 13.8877 6.67343 3.1423 0.0137385 -0.000711836 0.000915439
41 1 1.72692 8.85468 15.6186 8.56809 0.000787969 -0.00734061 0.00132252
42 1 1.84934 10.2284 3.15457 10.5752 0.00211994 0.00540852 0.00438425
43 1 1.65273 8.2399 4.96444 12.0216 0.00515876 -0.00280219 -0.00481744
44 1 1.74999 10.2504 6.63609 13.6657 0.00408712 0.00274676 -0.00319516
45 1 1.35891 12.0902 15.5863 12.2245 -0.00372611 0.0105397 0.000944081
46 1 1.79096 14.02 3.36142 13.786 0.00667072 -0.00467417 -0.00354139
47 1 1.6632 12.0232 4.87904 8.84496 -0.00137136 0.00356685 0.00453116
48 1 1.70052 13.8841 6.70877 10.5127 -0.00359094 0.00236756 0.00148277
49 1 1.4921 8.66256 8.56151 15.4458 -0.00565826 -0.00325089 -0.00117713
50 1 1.28333 10.6514 10.2471 3.49855 0.00543449 -0.00139456 0.00239495
51 1 1.64956 8.41042 12.0381 5.39692 0.00729795 -0.00457718 -0.0113824
52 1 1.55271 10.5776 13.8354 6.57631 0.00462926 0.00629 0.00418831
53 1 1.78259 12.2951 8.31337 5.16194 0.00590163 -0.00497284 -0.015246
54 1 1.40633 14.2781 9.94905 6.58527 -0.00346706 -0.00636305 0.000862786
55 1 1.7053 12.1123 12.2376 1.69857 -0.00413099 0.0197736 0.00778895
56 1 1.72152 13.9651 14.1099 3.24472 -0.00141926 0.00435169 0.00475994
57 1 1.56439 8.54364 8.4934 8.8683 0.00189822 -0.00204647 -0.00289974
58 1 1.69236 10.5965 10.3569 10.1417 -0.0128715 0.00390422 -0.00836507
59 1 1.63929 8.87208 12.1743 11.9494 0.00662181 0.00409639 -0.000559188
60 1 1.41983 10.3113 13.8616 14.1456 0.00497333 -0.00399065 0.00679933
61 1 1.557 12.0947 8.63273 12.0771 -0.00134712 -0.00261352 0.00263467
62 1 1.61817 14.7054 11.0788 14.6568 0.000816314 -0.000889212 0.00489037
63 1 1.47612 12.4674 11.9222 8.35286 0.00385423 0.00305108 0.00131399
64 1 1.5494 13.9898 13.893 10.2722 0.00208107 -0.00475078 0.00826338
65 2 -0.804824 2.42359 2.56731 2.30072 0.011708 -8.72527e-06 0.00253239
66 2 -0.998787 2.3003 14.9126 14.7335 -0.0209852 -0.00210392 0.00854629
67 2 -0.890647 14.7546 2.42824 14.7962 0.0164677 -0.00367354 -0.0128494
68 2 -0.869243 15.0216 14.9442 2.58696 -0.00870447 -0.0114583 -0.00407054
69 2 -0.907805 2.14709 3.79236 4.47523 0.00359564 -0.00372822 -0.0111524
70 2 -0.800016 4.33168 2.29525 4.20277 0.00141305 0.00743954 -0.00952929
71 2 -0.75656 3.98876 4.29725 2.62966 0.00616533 -0.00487864 0.00615757
72 2 -0.809838 1.95024 6.13575 5.87078 0.00602884 -0.00527419 -0.00699887
73 2 -0.843014 14.6528 4.40204 6.21986 0.0054828 -0.00114821 -0.0042141
74 2 -0.826742 14.8419 5.50685 3.80322 -0.0016576 -0.00679341 -0.00495449
75 2 -0.882365 4.02055 5.47233 7.42322 0.00201693 0.0055118 -0.00724133
76 2 -0.822429 4.06096 7.21253 5.70102 -0.0053983 0.00567579 0.00287629
77 2 -0.86208 2.559 7.3893 7.95879 0.0020263 -0.00641695 0.00314231
78 2 -0.841268 6.10248 2.23145 5.87742 -0.00318327 -0.00721056 -0.00893158
79 2 -0.775586 3.95137 15.1423 6.27289 0.00224072 -0.00426389 -0.00111061
80 2 -0.844302 5.65589 14.4196 4.32591 0.0050829 0.00363617 -0.00138486
81 2 -0.821169 5.98965 3.79467 7.67875 -0.0132536 0.0124368 0.00671228
82 2 -0.84153 7.90329 3.83294 5.70584 -0.00701537 0.00349093 0.00463385
83 2 -0.815807 7.95688 2.18088 7.50849 0.00518304 -0.00695217 -0.0098864
84 2 -0.854924 6.09936 5.85137 2.10245 -0.00489009 0.00492092 -0.00675975
85 2 -0.871492 3.87568 6.22253 14.9965 -0.0020347 -0.0018053 0.00306422
86 2 -0.742214 5.45223 3.88159 14.9682 -0.00101219 -0.000868071 0.0103208
87 2 -0.82369 5.9102 7.48318 3.91756 0.000235589 0.00430085 0.0118357
88 2 -0.798561 7.80922 6.14319 4.28984 0.00906876 0.00172035 0.00177808
89 2 -0.766167 7.72027 7.91727 2.30925 -0.000237318 -0.00113287 -0.00949744
90 2 -0.894299 2.59173 2.27308 9.6285 0.00784439 -0.000706234 0.0103062
91 2 -0.94561 2.09863 14.8645 7.95582 0.00413177 0.0111187 -0.00804111
92 2 -0.97146 15.0169 2.70809 7.84796 -0.01056 -0.00394854 0.00814991
93 2 -0.902356 14.9901 14.9932 9.91161 0.00385103 0.00286071 0.000911776
94 2 -0.949656 2.31403 4.07043 11.1627 -0.00989969 0.00341102 0.00847198
95 2 -0.779719 4.57243 2.86889 11.5347 -0.0142994 -0.00241425 0.00096475
96 2 -0.893926 4.38632 4.018 9.54745 0.00206633 -0.00803736 -0.00861895
97 2 -0.95178 2.49216 6.08883 12.9107 0.00959452 0.00539618 -0.00304502
98 2 -0.905699 15.0805 4.11843 13.0453 -0.00750409 -0.00380361 -0.00811906
99 2 -0.943596 14.8015 5.77182 11.208 0.002401 -0.00229275 -0.0155609
100 2 -0.923631 2.17216 8.01256 14.6182 0.00499441 0.00035882 -0.00379322
101 2 -0.820699 3.86496 8.10184 13.0355 0.00227629 0.00720798 0.00455243
102 2 -0.779812 6.38158 2.25682 13.0122 -0.00152855 0.00578536 0.00797898
103 2 -0.908309 4.49566 14.7897 12.9679 0.00849765 0.0139198 0.00281069
104 2 -0.883943 6.24402 14.9866 11.1519 0.00392826 -0.0141406 -0.0011901
105 2 -0.869891 7.63432 2.42914 14.9246 -0.0115965 -0.00583815 -0.00832353
106 2 -0.817674 7.60625 4.39331 13.4016 -0.00445267 0.00549502 -0.00483039
107 2 -0.85645 6.03421 5.82126 9.21708 0.0038636 -0.00121033 0.00488233
108 2 -0.827588 5.47943 7.41549 11.3529 -0.00729347 -0.0170043 -0.00589058
109 2 -0.781188 7.05932 5.64789 11.2636 -0.00792608 0.0111218 0.00310573
110 2 -0.78883 7.85671 7.48911 9.85092 -0.00140318 -0.00532879 -0.00649365
111 2 -0.823236 2.13525 9.56105 2.62348 0.00195848 0.0086048 0.00246835
112 2 -0.902278 15.0521 7.42845 2.48164 0.00346365 0.00327475 -0.00335035
113 2 -0.859253 14.7787 9.61051 15.1686 0.015195 0.00831082 -0.00329658
114 2 -0.721577 2.40401 11.4141 4.01726 0.00726999 0.00447101 0.0115772
115 2 -0.815859 3.88855 9.26561 4.39572 -0.000798396 0.00964124 0.0120804
116 2 -0.765049 4.44557 11.1594 2.37146 0.0165842 0.0074208 -0.00314661
117 2 -0.759853 2.18466 13.381 5.70939 -0.0119917 -0.00402847 -0.0140429
118 2 -0.713987 15.3746 11.248 6.18543 0.00268291 -0.00138864 0.00801725
119 2 -0.85749 14.616 13.0063 4.0881 -0.00187389 0.00078944 0.00443481
120 2 -0.885352 3.95981 13.1174 7.60712 -0.0109305 -0.0011047 -0.0148365
121 2 -0.889697 5.7063 9.11655 5.87054 -0.00144102 0.0140125 -0.00101129
122 2 -0.787643 5.58214 11.4743 7.76171 0.0105172 0.00848538 -0.0133707
123 2 -0.834809 7.43694 11.2067 6.35127 0.00975043 -0.00623035 -0.00735775
124 2 -0.717204 7.52349 9.47116 8.02803 -0.00568476 -0.00970327 -0.0114981
125 2 -0.75343 6.13563 13.1778 2.1497 -0.0064768 0.00626518 0.00532612
126 2 -0.868299 4.00746 13.1706 14.8036 -0.0040981 0.0074625 -0.000562863
127 2 -0.787298 6.00951 11.1873 14.8563 -0.00453229 0.010135 -0.010381
128 2 -0.821247 7.74644 15.0969 2.80484 -0.0068022 -0.00795628 0.00104851
129 2 -0.837776 7.70644 12.7919 4.26338 0.0101211 0.0144888 -0.00488925
130 2 -0.918881 2.38776 9.34324 9.73973 -0.00439141 -0.00631886 -0.0037881
131 2 -0.731606 14.7902 7.83803 9.76244 0.00559674 -0.00605405 -0.0141017
132 2 -0.788744 15.2357 8.99335 7.50753 -0.00301745 0.00591132 5.84576e-05
133 2 -0.871816 2.45497 11.1668 11.2822 -0.0108774 0.0108242 -0.00322669
134 2 -0.891621 4.37409 9.72353 11.0823 0.00291631 -0.00557719 0.00856292
135 2 -0.93323 3.86683 11.6365 9.59869 -0.0237776 -0.00193938 0.00204768
136 2 -0.965945 2.72939 13.2816 12.8857 0.00256408 -0.00476595 0.0112551
137 2 -0.847516 15.3449 11.5478 13.3447 -0.00323649 0.000662497 0.00477824
138 2 -0.812941 14.8077 13.0275 11.3506 -0.0104431 -0.00608319 -0.00769491
139 2 -0.797306 6.03459 9.39775 12.9996 0.000897535 -0.00836965 -0.00688195
140 2 -0.824424 7.88318 9.55938 14.4901 -0.0110257 0.00282125 0.0156018
141 2 -0.937774 7.85498 11.4662 12.9848 0.00681091 0.00435298 0.00399035
142 2 -0.929411 6.00561 12.9757 9.64809 -0.00194918 0.00235162 0.00252079
143 2 -0.825629 7.77381 14.664 9.19291 0.00315682 -0.00484906 0.00663396
144 2 -0.881316 8.09117 13.0368 10.9884 0.0108451 0.00470032 0.00529808
145 2 -0.868922 9.38986 2.33499 2.70056 -0.00374624 0.00932313 0.00176007
146 2 -0.692549 9.17364 14.647 15.2194 -0.0145153 -0.0104665 0.00995009
147 2 -0.832985 9.76036 4.4533 4.06773 0.0152274 0.00740762 0.00103527
148 2 -0.884752 11.4669 2.3937 4.01382 -0.00196928 -0.00309971 0.00729731
149 2 -0.857857 11.2513 3.9386 2.08053 -0.010624 -0.00572121 0.0114237
150 2 -0.808585 9.66183 6.21159 5.92595 -0.00697836 0.00569404 0.00235963
151 2 -0.889436 11.228 5.52463 7.65119 0.00187422 -0.00592138 0.00503827
152 2 -0.864976 11.5799 7.6856 6.41421 -0.00355566 -0.00112912 0.00770214
153 2 -0.763969 9.499 7.54129 7.90816 0.0119255 0.00219931 -0.000183425
154 2 -0.97383 12.9912 2.53442 6.09038 0.00271926 -0.0094442 0.00984041
155 2 -0.884851 11.3004 14.9327 5.61124 0.00451135 0.0134435 0.00410179
156 2 -0.826257 13.3404 15.2111 4.08015 -0.00904651 -0.00551695 0.00145138
157 2 -0.888435 13.162 4.03056 8.17199 0.0114478 0.00135105 0.000909562
158 2 -0.899963 12.9186 5.87563 2.31382 -0.0102021 0.00714909 0.0044817
159 2 -0.886687 10.9807 5.79388 14.6946 0.0101648 0.00423941 0.0117257
160 2 -0.861163 13.1314 4.40025 14.4573 -0.00529331 0.00493914 -0.00857508
161 2 -0.876749 13.1791 7.29979 4.36928 -0.00643003 -0.00138443 0.00678393
162 2 -0.970226 9.47822 2.24895 9.72658 -0.00353566 -0.00122065 -0.0103977
163 2 -0.818544 9.86489 14.858 7.75196 0.00468216 0.0173037 0.0119762
164 2 -0.867284 9.16026 4.09383 11.1913 0.00161017 0.00609511 -0.0041373
165 2 -0.807634 10.9365 2.32202 11.6811 0.00945797 0.0130617 -0.00282523
166 2 -0.953392 11.0303 4.19449 9.76106 -0.00716265 -0.0174337 0.00242145
167 2 -0.828746 9.2912 6.03836 12.6211 0.00794644 0.0108651 0.0049404
168 2 -0.824387 9.37378 7.35279 14.6706 -0.0255998 -0.00847642 0.00351192
169 2 -0.8571 11.2521 7.65561 13.0262 0.00930112 0.00146206 -0.0157316
170 2 -0.743644 13.0887 2.72168 12.7477 -0.00349049 -0.00119014 -0.003446
171 2 -0.689443 11.3937 14.9306 13.5013 -0.00452175 0.00217019 0.00668502
172 2 -0.750382 12.8548 14.4379 11.1302 -0.00171141 -0.00713308 -0.0100822
173 2 -0.802768 13.0044 6.06479 9.38647 -0.000344032 -0.0136578 0.0113131
174 2 -0.83514 13.1206 7.7143 11.4047 0.00140372 -0.00359117 -0.00620195
175 2 -0.678504 9.66336 9.28749 2.24256 -0.0011515 -0.00573398 -0.00241018
176 2 -0.73814 9.28118 11.0731 4.74408 -0.00843677 -0.0131696 0.0047042
177 2 -0.829289 11.3995 9.06203 4.21473 0.00977988 -0.0112508 -0.000245165
178 2 -0.856882 11.4204 11.0877 2.34532 0.00179488 -0.0134339 0.00176832
179 2 -0.806642 9.32492 13.1856 5.97246 -0.00177004 0.00299716 0.00803385
180 2 -0.830513 11.5544 12.8325 7.2105 -0.00205864 0.00129993 0.00827261
181 2 -0.905847 13.3017 9.34474 5.52721 -0.00542709 -0.00421124 0.00141973
182 2 -0.700455 13.4931 10.8401 7.66492 0.000103457 -0.00640894 0.00558234
183 2 -0.851448 12.6541 13.4609 2.53192 -0.00111095 0.00203118 0.00751002
184 2 -0.87849 11.0051 12.8195 15.0515 0.00759655 -0.0163252 -0.00030572
185 2 -0.900768 13.2793 11.6928 15.0837 -0.00928104 -0.0101807 -0.00202433
186 2 -0.842755 9.48093 9.27263 9.72423 -0.012305 -0.00706518 0.00238341
187 2 -0.872156 9.99389 11.4212 11.0902 -0.00802308 -0.00886435 0.00477238
188 2 -0.863612 11.5621 9.41776 10.9063 0.00484452 -0.00463539 0.00664182
189 2 -0.850514 11.4559 11.0795 9.11051 0.0123916 0.0132639 -0.00856862
190 2 -0.79071 9.47699 13.1825 12.942 0.0037216 0.00622266 0.00808143
191 2 -0.710396 13.2019 9.68361 12.7883 -0.00596801 0.00738992 0.00182163
192 2 -0.77847 13.5224 12.7211 9.15512 -0.0117177 0.00373133 0.00126176
193 2 -0.584726 13.7093 14.5041 13.4292 0.00278784 0.00559849 0.00307267
194 2 -0.577037 4.63845 11.8924 4.91149 0.000235689 0.0113742 0.00565369
195 2 -0.631153 6.98531 10.7299 3.65902 0.0044208 0.00124481 0.0108137
196 2 -0.528186 12.2513 12.0183 12.277 -0.00559539 -0.00447914 -0.00572964
197 2 -0.601093 12.5044 15.024 8.72947 0.00609569 0.000725395 0.00647866
198 2 -0.58282 6.66445 3.61288 3.20094 -0.000467289 -0.00252994 0.00258724
199 2 -0.6184 6.96659 7.21572 6.87816 -0.00733484 -0.0105917 -0.00627053
200 2 -0.638083 11.7978 11.4989 4.835 -0.00159519 -0.00423752 -0.00547319
201 2 -0.604806 5.28833 11.8274 12.3651 0.00271842 0.0151557 0.000809689
202 2 -0.701405 15.5581 12.0854 15.4609 0.00442346 -0.0267014 0.00966334
203 2 -0.645039 4.95074 9.16781 8.31059 0.00768766 -0.0096971 0.00207639
204 2 -0.67753 10.8147 10.3114 13.8664 -0.000486011 -0.000591029 -0.0264821
205 3 0.382874 14.3126 14.5561 12.6527 0.0685033 -0.0183181 -0.00140943
206 3 0.366598 13.3801 13.5191 13.2431 -0.0636832 -0.0457372 0.0352683
207 3 0.430846 5.24704 11.9845 4.22027 0.0141992 -0.0148335 -0.0436519
208 3 0.40341 5.11115 12.4761 5.57538 0.017191 -0.0251079 -0.0188392
209 3 0.421357 7.42827 10.872 2.83476 0.00912386 0.00301112 -0.00139223
210 3 0.412735 7.57788 10.3778 4.25673 0.00173769 0.0368797 -0.0164792
211 3 0.420904 11.9925 11.0036 12.3056 0.0720501 -0.00806701 -0.0388746
212 3 0.346604 12.4533 12.2071 13.2986 -0.0361985 0.0168092 -0.00954284
213 3 0.34054 12.8901 14.221 8.22126 0.0292616 0.0260998 -0.0736274
214 3 0.358515 11.9101 1.50968 8.09589 0.0116999 0.0675579 0.052357
215 3 0.421183 7.10031 2.79683 3.5776 0.00226382 -0.0194243 -0.0380492
216 3 0.379952 7.24226 4.03456 2.61619 -0.00107323 0.0260929 0.00177163
217 3 0.374084 7.38744 6.43129 6.41195 0.00760789 0.00961456 0.00632053
218 3 0.432797 6.86982 7.84414 6.27275 -0.0656262 -0.0334356 -0.0658882
219 3 0.374352 12.3668 11.8013 4.12337 0.0128412 -0.0365467 0.00586339
220 3 0.395388 12.3379 11.2733 5.66438 -0.0131931 0.0283147 -0.0164261
221 3 0.359239 6.09237 12.4329 12.1211 0.0577791 -0.0157659 0.0116423
222 3 0.427336 4.56339 12.2519 11.9422 -0.0405577 -0.00843363 0.00671885
223 3 0.397703 10.2277 11.0461 13.7729 0.0443051 -0.00169814 -0.0265482
224 3 0.472877 2.12305 12.6809 15.3889 0.00933871 -0.0228467 -0.0219107
225 3 0.342896 4.31406 9.89149 8.39065 -0.0130233 -0.0188156 -0.0123175
226 3 0.384923 4.61188 8.61265 7.56866 -0.0218237 -0.0355578 0.0396291
227 3 0.457917 14.0845 9.51303 12.4975 -0.0263865 -0.0110465 -0.000365522
228 3 0.429988 10.7033 9.87274 14.7114 0.0470484 0.0243931 0.0252263
ITEM: TIMESTEP
2000
ITEM: NUMBER OF ATOMS
228
ITEM: BOX BOUNDS pp pp pp
1.4605942075114031e+00 1.5699405792488740e+01
1.4605942075114031e+00 1.5699405792488740e+01
1.4605942075114031e+00 1.5699405792488740e+01
ITEM: ATOMS id type q x y z vx vy vz
1 1 1.25166 1.4897 1.65408 1.59039 0.00250928 -0.00349505 0.00329158
2 1 1.6437 3.37323 3.61645 3.317 -0.00864972 -0.0108032 0.000838601
3 1 1.54002 15.6252 5.12702 5.10367 0.00456984 -0.000872447 2.6264e-05
4 1 1.82338 3.14583 6.7905 6.89197 -0.0142546 0.00051711 -0.00037603
5 1 1.82061 4.82467 15.6555 4.7986 -0.00219444 0.0171777 -0.00737042
6 1 1.61453 6.55179 3.08119 6.71582 -0.00472608 -0.00683897 -0.00873343
7 1 1.55258 4.99305 5.08745 15.451 -0.00874342 0.00128562 0.00599553
8 1 1.56664 6.71488 6.76294 3.0752 -0.000110301 -0.01352 -0.00455039
9 1 1.77527 1.57461 15.4908 8.64502 3.28271e-05 -0.00842253 -0.00159154
10 1 1.59545 3.07835 3.18652 10.3268 -0.00552689 -0.00194801 0.000935796
11 1 1.75753 15.5716 5.01664 12.1936 0.00158003 0.00834134 -0.00327124
12 1 1.72184 3.16751 6.81139 13.6843 0.00177037 -0.00336637 0.00397901
13 1 1.57749 4.97922 15.6219 12.1178 0.000794619 0.00165586 -0.00629881
14 1 1.73666 6.74931 3.26384 13.7457 0.0135373 -0.00126145 0.00446433
15 1 1.69037 4.91333 4.91913 8.49514 0.0118015 -0.00815906 0.00385037
16 1 1.57985 6.5946 6.89452 10.2298 0.00919513 0.00265552 -0.003784
17 1 1.61328 1.51576 8.44578 15.6156 0.0037649 0.0109068 0.00796895
18 1 1.60603 3.40105 10.0105 3.15629 0.00418707 -0.0088293 -0.00522362
19 1 1.77958 1.57591 11.9338 4.88786 0.00161211 0.00411182 0.00173177
20 1 1.7999 3.18132 13.9014 6.59681 0.00790345 -0.00225752 0.00778939
21 1 1.53656 5.10045 8.44679 5.03499 -0.00746456 0.00117492 -0.00297937
22 1 1.40651 6.79555 10.149 7.07267 -0.000948797 -0.00327467 -0.00907574
23 1 1.38119 5.13998 12.0267 15.6262 0.0106921 -0.00473437 -0.00385236
24 1 1.73075 6.96206 13.9693 3.29668 0.00280553 0.00490202 -0.00264172
25 1 1.67016 1.60828 8.6327 8.66624 -0.00158677 -0.00141193 -0.00333958
26 1 1.60839 3.24391 10.4813 10.4737 0.00386039 -0.00191161 -0.00361551
27 1 1.64262 1.52493 12.5292 12.1916 0.00607332 0.000310513 0.00163104
28 1 1.56784 3.47139 13.8774 14.0515 -0.00324019 0.00316604 0.00791216
29 1 1.69755 5.08184 8.6162 12.1022 0.00181168 0.00150118 0.00377387
30 1 1.72977 6.87341 10.3887 13.8347 -0.00644722 -0.00433534 -0.0060074
31 1 1.49026 4.9765 12.2625 8.52235 0.000253888 -0.00133058 0.0100551
32 1 1.46492 6.9179 14.1496 10.2019 0.0106398 -0.000755682 -0.00139654
33 1 1.60523 8.62065 1.52649 15.6509 -0.00545112 -0.000908952 0.00139855
34 1 1.86768 10.3566 3.13065 3.36159 0.00426986 -0.00337135 0.00926225
35 1 1.29292 8.39579 4.92728 5.0426 0.00294106 -0.000926785 0.0107323
36 1 1.62449 10.3755 6.52369 6.85291 0.00954824 0.00522029 -0.0018796
37 1 1.6735 12.2746 1.60733 5.0803 -0.00108419 0.0067729 0.00974474
38 1 1.5559 14.1226 3.27885 7.00142 0.00602345 -0.0153801 0.00852159
39 1 1.55752 11.9809 5.01943 1.68524 -0.00348325 0.00973119 -0.0102707
40 1 1.68309 13.7794 6.87683 3.41318 -0.00253528 -0.00612315 0.00431482
41 1 1.55325 8.7188 1.77278 8.43182 0.00112114 -0.00399867 0.0104384
42 1 1.41935 10.3764 3.41227 10.4061 -0.00252689 -0.00874283 0.00982119
43 1 1.59521 8.31749 5.24825 12.138 0.0110767 -0.0049688 0.00307463
44 1 1.75502 10.2237 6.52915 14.0111 -0.0069005 -0.00524349 -0.00121852
45 1 1.41247 12.0443 1.62057 12.3665 -0.00363704 -0.00619603 0.00301648
46 1 1.5216 13.9451 3.48705 14.1598 0.00413384 -0.00294335 -0.0097557
47 1 1.53636 12.3074 5.04657 8.65974 -0.00151768 0.000988305 -0.00203163
48 1 1.64969 14.1308 6.841 10.3075 -0.00330599 0.000717667 0.00298422
49 1 1.56728 8.65444 8.55368 1.52163 0.00854231 -0.00751397 0.000905599
50 1 1.67794 10.7099 10.1473 3.38499 -0.00375545 -0.000558472 -0.00851236
51 1 1.42628 8.69882 11.9551 4.997 -0.0039703 0.00106609 0.00480907
52 1 1.40891 10.4016 14.022 6.74031 -0.0158304 -0.00280667 -0.000309315
53 1 1.57271 12.1706 8.36642 5.35145 -0.000435601 -0.00170591 -0.0190201
54 1 1.71003 13.8346 10.4054 6.94331 -0.00611441 -0.0102882 -0.00732387
55 1 1.7756 12.2461 12.3277 1.77607 0.00157367 -0.0060849 6.65748e-05
56 1 1.77427 14.084 13.9084 3.49395 -0.000488583 -0.00606704 0.00569599
57 1 1.65715 8.76199 8.31087 8.55225 0.00132784 0.00127704 -0.00419241
58 1 1.54606 10.5103 10.1154 10.2862 0.00245301 -0.00485548 0.00340465
59 1 1.41483 8.60031 12.1174 11.9723 -0.0157911 -0.00463762 -0.00385102
60 1 1.51689 10.5822 13.8595 14.0653 -0.0012529 -0.00502691 -0.0025288
61 1 1.30006 12.0316 8.09648 12.0364 0.00802399 -0.00170704 -0.00495027
62 1 1.59676 14.6931 11.1138 14.7178 -3.6286e-05 -0.00376729 0.00321079
63 1 1.63388 12.2284 12.2932 8.69351 0.00273698 0.00704393 -0.00274476
64 1 1.47096 13.7858 14.1994 10.4769 -0.00231841 -0.00202926 0.0014519
65 2 -0.635657 2.23472 2.6403 2.66141 0.000948749 0.000495268 -0.00242292
66 2 -0.690695 2.56971 14.7142 15.0674 -0.000393631 -0.00136089 0.00322902
67 2 -0.660511 15.3475 2.8335 14.6255 -0.0169511 -0.00156797 0.00215602
68 2 -0.711174 14.5728 15.0936 2.58893 -0.000824838 0.00202829 -0.00115361
69 2 -0.819785 2.45878 4.49786 4.02797 -0.0058198 -0.00674466 -0.00764134
70 2 -0.934992 3.99949 2.49245 4.24161 -0.00879779 0.00815107 0.00224055
71 2 -0.841023 3.90325 4.46834 2.14953 0.00148937 0.00460987 0.00549746
72 2 -0.90583 2.0303 6.03176 6.27798 0.00314717 0.00506812 -0.00944001
73 2 -0.740359 15.0742 3.88472 5.88948 -0.00369407 -0.00556814 -0.002103
74 2 -0.864291 14.5113 5.79561 4.12266 0.00545389 -0.00507119 0.00182569
75 2 -0.926249 3.84462 5.95321 7.92021 -0.00846551 -0.00680825 0.000473194
76 2 -0.897247 4.22028 7.53978 6.00805 0.013839 0.00789689 0.0109008
77 2 -0.866026 2.5582 7.96236 7.63207 -0.00202414 -0.0041399 -0.00852923
78 2 -0.885092 5.62919 2.11894 5.93066 0.00651678 0.016058 -0.00417802
79 2 -0.944772 3.83696 14.7044 5.5134 0.000417753 -0.00349524 0.00679951
80 2 -0.911916 6.00013 14.973 4.00003 -0.0130699 0.0079579 -0.000218704
81 2 -0.959994 5.91028 4.11319 7.7271 0.00648146 -0.00375681 -0.00416232
82 2 -0.828621 7.24645 3.88509 5.50696 -0.00211874 -0.000182726 0.0171517
83 2 -0.817328 7.6948 2.30777 7.38344 0.00702796 -0.00344219 0.000175203
84 2 -0.901127 5.98929 6.1142 1.9271 0.00167627 0.00507588 0.000924094
85 2 -0.732937 3.89335 5.56786 14.3545 0.00422236 0.0103655 0.00104439
86 2 -0.866568 5.77603 4.03001 14.5546 0.00656318 -0.00301521 0.0049464
87 2 -0.88583 5.8467 7.75903 3.96597 -0.00351411 0.00973833 -0.00271674
88 2 -0.801906 7.64747 5.87848 4.01133 -0.00820386 -0.00934424 -0.00919026
89 2 -0.79575 7.68581 7.98936 2.60688 0.00684468 0.0063062 -0.00595974
90 2 -0.864578 2.41162 1.89591 9.75365 -0.00909146 0.00124497 -0.0104994
91 2 -0.908335 2.27275 14.4479 7.65286 -0.00477224 0.00868048 -0.000487182
92 2 -0.848249 15.195 2.41277 7.93459 -0.0113887 0.0105744 -0.0142092
93 2 -0.786483 15.0056 14.5678 9.50093 -0.00755758 0.00240728 0.00534824
94 2 -0.802931 2.23253 3.98852 11.3422 0.00107514 0.00860083 -0.00449714
95 2 -0.695953 4.16512 2.53496 11.4123 -0.00920196 0.003897 0.00146189
96 2 -0.800629 4.12921 3.98212 9.45679 -0.00425803 0.0146265 -0.0029101
97 2 -0.947859 2.08058 6.11905 12.9764 -0.00314708 0.00895034 0.00842985
98 2 -0.833973 14.4719 4.30483 13.0159 -0.013969 0.00353572 0.00884334
99 2 -0.877802 14.8438 5.74279 11.0656 0.01045 0.00729171 0.00293452
100 2 -0.871075 2.59065 7.86908 14.6779 0.00675623 0.00346077 -0.0148094
101 2 -0.871363 4.27693 7.57285 12.8848 -0.000637358 0.00381802 0.00874867
102 2 -0.79884 6.05913 2.23263 12.8644 -0.00335816 -0.00587054 0.0128372
103 2 -0.83846 4.56133 14.6348 13.3429 0.00904729 -0.00907532 -0.018115
104 2 -0.772321 5.69837 14.8068 10.9886 0.00464487 0.00342636 -0.00417195
105 2 -0.792776 7.83907 2.64737 14.7332 -0.000504473 0.0231634 -0.0109338
106 2 -0.806069 7.52394 4.00564 12.59 0.00198814 0.00561995 0.0119175
107 2 -0.781703 5.71248 5.73362 9.52762 -0.0102656 0.00111975 -0.00253259
108 2 -0.887989 5.53864 7.83704 10.8888 0.00626722 -0.00120164 0.00068088
109 2 -0.788246 7.43562 6.36473 11.4719 -0.00689183 -0.00336766 0.00238301
110 2 -0.826975 7.82329 7.31393 9.39925 -0.00316751 -0.0023504 0.00150312
111 2 -0.86917 2.41414 9.17706 2.33258 -0.0019028 0.000305273 0.00282256
112 2 -0.778642 14.7463 7.70886 2.54739 0.00879539 0.00402992 0.0168672
113 2 -0.886534 15.2101 9.6439 14.8241 0.00405162 -0.0105261 -0.00134784
114 2 -0.865823 2.54526 11.1953 3.97204 0.00108829 0.00130686 0.00322272
115 2 -0.875387 4.0256 9.3862 4.34725 -0.0148162 0.00383587 0.00632862
116 2 -0.774434 4.4025 10.7429 2.2013 0.0158153 0.0192924 0.00679039
117 2 -0.89886 2.54906 12.7112 5.86464 -0.0021641 0.000778861 0.0153067
118 2 -0.796995 14.8597 10.9884 5.72729 0.00240298 -0.00558941 -0.0039104
119 2 -0.984141 15.017 12.9909 4.2429 0.00045395 -0.0110377 -0.0045432
120 2 -0.838252 4.3404 13.1924 7.43198 -0.0035082 0.00589536 0.00581389
121 2 -0.764551 6.29024 9.3187 5.82686 0.0144077 0.0050536 -0.00113992
122 2 -0.804363 5.83874 11.3326 7.51029 0.00227001 -0.0275832 0.0106093
123 2 -0.638242 7.99202 11.049 6.09845 -0.0107833 -0.0119336 0.00414491
124 2 -0.79786 7.76124 9.42418 8.14638 0.00213714 0.00711052 -0.00745915
125 2 -0.684918 5.85687 13.2871 2.44771 0.00101378 0.0047313 -0.0130632
126 2 -0.838416 3.91586 12.6328 14.8772 0.00495993 0.00292392 -0.0173619
127 2 -0.871638 6.26956 11.1607 14.904 -0.00411714 -0.00610965 -0.0134117
128 2 -0.8562 7.72173 14.6935 2.18693 0.00601139 -0.0105523 0.00484416
129 2 -0.826586 7.65851 12.9363 4.09028 -0.01603 -0.00838622 0.0071447
130 2 -0.868482 2.38531 9.61685 9.58385 0.00181023 0.00326743 0.0141701
131 2 -0.834363 15.3301 7.49971 9.50584 -0.012341 0.00541155 -0.00118939
132 2 -0.783716 14.7653 9.71701 7.99667 -0.00454325 -0.00517096 0.0034221
133 2 -0.808557 2.32215 11.635 11.2104 0.00342335 0.0073664 0.0042525
134 2 -0.88858 4.08071 9.78993 11.5224 0.00199281 -0.00198687 -0.00573619
135 2 -0.880339 4.08182 11.5238 9.58081 -0.00691588 0.00627762 0.00763245
136 2 -0.901378 2.5919 13.3587 12.8643 -0.00523034 0.000766086 -0.00703252
137 2 -0.838113 15.0718 11.704 13.2903 -0.010483 -0.00296278 0.00611512
138 2 -0.755271 14.7157 13.6238 11.7622 -0.00400447 0.00931186 0.00230304
139 2 -0.888685 6.22028 9.39544 12.8276 0.00783223 -0.00602206 0.00551377
140 2 -0.733431 7.85046 9.37967 14.6693 0.00226909 0.000564233 0.00105908
141 2 -0.788569 7.84143 11.3147 13.0649 -0.00861317 0.00425721 -4.91698e-05
142 2 -0.698094 6.22528 12.9994 9.20889 0.0118487 -0.00560446 0.00637684
143 2 -0.812152 7.90634 15.0935 9.46263 -0.00248304 -0.00907626 0.00149242
144 2 -0.708347 7.53878 13.0691 11.2703 -0.00309643 0.00415668 0.00354678
145 2 -0.908311 9.71279 2.17834 2.36455 -0.016025 0.00890248 0.016744
146 2 -0.783515 9.5043 14.881 14.7763 0.00771748 -0.0165383 0.00283006
147 2 -0.77063 9.19305 3.99529 3.94447 -0.00434116 -0.00131291 -0.00339007
148 2 -0.959117 11.27 2.49119 4.33618 0.0110525 -0.00728498 -0.00191656
149 2 -0.89443 11.1185 4.21387 2.72027 0.0124923 -0.00962555 0.00900154
150 2 -0.661514 9.92309 5.4093 5.81651 -0.00307695 -0.0064641 0.00539363
151 2 -0.817724 11.1343 5.72893 7.89615 -0.00598901 0.0128191 -0.0138536
152 2 -0.792542 11.6595 7.07336 6.12346 -0.00638897 0.0138588 0.00118496
153 2 -0.895952 9.30262 7.43332 7.44136 0.00398148 0.00197941 0.015562
154 2 -0.785129 13.0314 2.40958 6.13071 -0.00483634 -0.000673579 0.00095582
155 2 -0.777773 11.4211 15.0253 6.15015 0.0137063 -0.000710209 -0.00428091
156 2 -0.852929 13.3105 14.7749 4.40165 0.00229607 -0.00647966 0.00712416
157 2 -0.775555 13.5768 4.4519 7.76486 0.00352424 -9.62131e-05 0.0159861
158 2 -0.749262 12.6558 6.39361 2.47677 0.00679846 0.00283849 -0.00694061
159 2 -0.844716 11.315 5.67555 14.6268 0.00468721 0.00273792 0.0195051
160 2 -0.826031 13.1004 4.16038 15.2833 0.00109964 0.00783059 -0.00143271
161 2 -0.804859 13.1019 8.08763 4.12204 -0.0131951 0.00676534 -0.00594483
162 2 -0.793521 9.50336 3.04779 9.23238 0.011522 0.00783422 -0.00227721
163 2 -0.805524 9.51562 15.109 7.52823 0.0113613 -0.00394601 -0.0119646
164 2 -0.665888 9.62483 4.56726 11.4528 -0.00638856 0.00069952 -0.0148275
165 2 -0.742696 10.7944 2.30146 11.4356 -0.0025352 0.00469972 0.00422207
166 2 -0.767969 11.7644 3.98763 9.76073 0.00253578 0.0200234 -0.00250891
167 2 -0.837107 9.08545 5.7401 13.3823 0.00167629 0.00512632 -0.00347784
168 2 -0.853223 9.44862 7.54057 14.9619 0.00373633 0.0041904 -0.00218649
169 2 -0.774486 10.878 7.17803 12.8288 0.00749577 0.00564541 -7.38265e-05
170 2 -0.70423 12.8875 2.68564 13.1169 0.00616769 -0.00724709 -0.00929479
171 2 -0.819503 11.6808 14.5972 13.1616 0.00383338 0.0215379 -0.00148094
172 2 -0.765086 13.2018 15.3533 11.301 -0.00361872 0.00764852 0.00643165
173 2 -0.784476 13.0564 6.23142 9.29374 -0.0155591 0.0023959 -0.00204017
174 2 -0.821284 13.3469 7.92867 11.0654 0.00416592 -0.00134079 -0.00410027
175 2 -0.7056 9.90517 9.48097 2.26137 0.00355781 0.00256968 -0.0185156
176 2 -0.76741 9.70988 11.1071 4.0827 -0.00890167 0.000561842 -0.0131594
177 2 -0.832781 11.0784 9.13715 4.47138 -0.00150105 -0.00467682 -0.00491318
178 2 -0.859834 11.5493 11.0931 2.50762 0.00464211 -0.00129373 0.0129365
179 2 -0.741162 9.8944 13.0155 5.57027 0.0248931 0.00304114 -0.00727616
180 2 -0.808164 11.0849 12.9898 7.8919 7.81004e-05 0.00157859 -0.00308993
181 2 -0.845978 12.87 9.37508 6.30028 -0.0148363 -0.0136847 0.00205271
182 2 -0.831729 13.2738 11.4802 7.79018 -0.00587181 0.00325185 -0.0113063
183 2 -0.951586 12.8672 13.0637 2.90391 -0.0110476 -9.21066e-05 0.00716755
184 2 -0.944877 11.2702 13.0762 15.0874 0.00834842 0.00904396 -0.00332162
185 2 -0.915639 13.4056 11.7771 15.1449 -0.0030525 0.00430786 0.00170906
186 2 -0.826471 9.86528 9.20718 9.2683 -0.0064505 0.00238063 -0.00597914
187 2 -0.755776 9.39939 11.0435 11.1614 0.00312918 -0.0147377 0.00100102
188 2 -0.799758 11.0414 9.18262 11.3819 0.00701786 0.00629316 0.0033881
189 2 -0.772238 11.4551 11.0743 9.40753 0.00577827 0.00864017 0.0169342
190 2 -0.692399 9.99567 13.0269 12.7176 -0.00225644 -0.00120576 -0.00328971
191 2 -0.643135 12.703 8.48378 13.4619 0.00247119 0.00844541 -0.0168396
192 2 -0.884526 12.9546 12.9321 9.78893 0.0066282 0.005023 0.00097559
193 2 -0.616048 14.3599 14.7547 14.3911 -0.00565839 -0.0177533 0.00906147
194 2 -0.689869 4.97611 12.1361 4.79076 0.00240332 -0.0030154 0.0037137
195 2 -0.610183 7.18777 10.6203 3.76692 -0.00276708 -0.0123287 -0.00137015
196 2 -0.627823 12.6563 11.4298 12.2981 -0.00534798 0.00926731 -0.00231517
197 2 -0.64459 12.7872 15.4137 8.82115 -0.00155283 0.00337653 0.00299906
198 2 -0.610424 6.76038 3.18923 3.22993 -0.00741935 0.0058723 -0.00746149
199 2 -0.571973 6.98848 6.69736 6.64882 0.0136201 0.00995525 0.00449137
200 2 -0.652646 12.3922 11.5435 5.48607 0.00177058 -0.00676465 -0.00455018
201 2 -0.594739 5.2554 12.1028 12.083 0.00843108 -0.0011941 0.00589979
202 2 -0.637847 1.49595 11.7457 1.47819 -0.00544067 0.00342948 -0.00385404
203 2 -0.657441 5.15909 8.92911 8.2177 -0.00438325 0.00772094 7.70504e-05
204 2 -0.523327 10.4176 10.4909 14.0273 0.00149625 0.0102152 -0.0149464
205 3 0.449893 13.6982 14.234 14.0093 -0.00129852 -0.0293776 -0.00789018
206 3 0.383471 15.2276 14.7247 13.6013 -0.0186011 0.0106108 -0.01765
207 3 0.45186 5.03302 12.2455 5.70548 -0.0466014 0.00604789 -0.0166957
208 3 0.466428 4.15293 11.9096 4.69431 0.0456418 -0.000631333 0.0340072
209 3 0.476281 7.15521 9.70937 3.61733 0.0112855 0.00901728 -0.0150934
210 3 0.449654 6.33294 11.0229 4.04414 0.0205632 -0.00966361 -0.0222373
211 3 0.382088 11.767 11.6029 12.596 -0.0202445 0.0048462 -0.0560919
212 3 0.43514 13.0839 11.3382 11.4654 -0.0199978 0.05623 0.0411242
213 3 0.379917 12.3609 1.65712 9.53164 -0.0102578 0.00922833 0.02677
214 3 0.363462 11.9399 15.0199 8.47556 0.0109203 0.0476358 0.0411903
215 3 0.426783 7.11374 4.0209 3.51301 -0.0518322 -0.009769 0.0220218
216 3 0.40849 7.13768 2.52443 3.87584 0.000607253 0.0215565 -0.0300183
217 3 0.355461 6.12933 7.05954 6.4056 0.0551386 0.00462291 -0.000253285
218 3 0.330509 6.54762 5.8355 6.79938 0.0231333 -0.0589881 -0.0272201
219 3 0.440349 11.5694 11.906 5.41257 0.0463572 0.0204185 -0.039741
220 3 0.402911 12.6646 11.6016 4.56615 0.000322347 0.0487476 -0.0103128
221 3 0.398045 4.59625 12.3548 12.6782 0.035467 0.00418552 -0.00230652
222 3 0.425172 4.78337 11.8476 11.3113 0.00141143 -0.00926862 -0.0613294
223 3 0.431684 10.6095 9.70227 13.497 -0.0414186 -0.0375947 0.0734443
224 3 0.412789 2.42527 11.1824 1.49644 -0.0226664 -0.0158322 -0.0566623
225 3 0.366349 4.65949 9.81943 8.15155 -0.040392 -0.0340105 -0.00881544
226 3 0.412225 5.55945 8.81199 8.99632 -0.0141016 0.0123856 -0.0252995
227 3 0.396269 13.6754 8.37612 13.43 -0.0323629 -0.0310536 -0.0366548
228 3 0.347336 10.7571 11.3604 13.5534 0.0202838 0.0149532 -0.0582199
ITEM: TIMESTEP
4000
ITEM: NUMBER OF ATOMS
228
ITEM: BOX BOUNDS pp pp pp
1.4895430423158533e+00 1.5670456957684319e+01
1.4895430423158533e+00 1.5670456957684319e+01
1.4895430423158533e+00 1.5670456957684319e+01
ITEM: ATOMS id type q x y z vx vy vz
1 1 1.50798 15.6049 15.6211 1.4954 -0.00507621 -0.00547503 0.00225426
2 1 1.55252 3.19968 3.34734 2.95006 -0.00944511 0.00571626 -0.00915573
3 1 1.66206 1.53582 4.91233 5.10552 -0.00655347 -0.0052679 0.00506582
4 1 1.68658 3.24285 6.57445 7.03438 -0.00709337 0.0040775 -0.00019625
5 1 1.60465 5.30708 1.84259 4.83242 -0.00265206 0.00888362 0.002993
6 1 1.6815 7.14964 3.26784 6.79199 -9.0306e-05 -0.000752665 -0.00479582
7 1 1.70604 5.14208 5.01184 15.4978 -0.00523068 0.00176758 0.00459462
8 1 1.55403 6.6253 6.68111 3.40231 -0.00242511 0.0029129 0.00435425
9 1 1.55936 1.59529 15.6211 8.69457 0.00120862 0.00581042 0.00799044
10 1 1.49767 3.42909 3.25206 10.3647 -0.000533521 0.00392773 -0.000205497
11 1 1.43182 1.56838 5.02606 11.9424 0.00321345 0.000686018 0.00318527
12 1 1.39655 3.37136 6.7172 13.7029 0.00397362 -0.0104836 -0.00569006
13 1 1.59702 5.02876 1.65552 12.2979 -0.000748015 -0.000830272 -0.014383
14 1 1.6996 7.09173 3.3409 13.8722 0.0099637 0.0113747 -0.00029032
15 1 1.70052 5.34771 4.95897 8.64542 0.00351155 0.0014132 0.00278406
16 1 1.65775 6.64444 6.92302 10.5981 0.0135839 -0.00469458 0.00123936
17 1 1.56691 1.7647 8.3226 1.63739 0.00126245 0.00402564 0.00609967
18 1 1.54561 3.35195 10.3749 3.25907 -7.64991e-05 0.00962802 -0.0101631
19 1 1.70536 1.85688 12.2223 5.25029 0.00829407 -0.00400737 0.00458317
20 1 1.67751 3.62944 14.1488 6.89116 -0.000740011 0.00180966 -0.00735818
21 1 1.67427 4.96409 8.45387 5.35219 -0.0095155 -0.00445291 -0.000292258
22 1 1.76909 6.60517 10.4182 6.85456 -0.00481513 0.000897434 -0.00315107
23 1 1.61078 5.19008 12.1271 15.6368 0.00229774 0.00695862 -0.00436992
24 1 1.68631 6.83997 13.9625 3.26074 0.000730088 0.00714486 -0.00508981
25 1 1.63047 1.61177 8.56915 8.70566 -0.00965476 -0.00665407 0.00239835
26 1 1.73365 3.12226 10.616 10.4218 0.00488652 -0.00282614 0.0027439
27 1 1.76285 15.4815 12.3533 12.1066 -0.00362827 -0.00306019 -0.00497465
28 1 1.54671 3.30444 13.9024 13.959 -0.00190223 -0.00151086 0.00215411
29 1 1.60284 4.85808 8.83331 12.1479 0.00350086 -0.000887738 0.000439401
30 1 1.58519 6.77314 10.122 14.0296 -0.012547 0.00344018 0.000773055
31 1 1.84991 5.05833 12.2633 8.71024 -0.00198753 -0.00357001 -0.00661923
32 1 1.59972 6.78913 13.9495 10.5698 -3.98148e-05 0.00210835 0.0026617
33 1 1.75719 8.73839 15.6399 15.651 -0.0054474 0.00086573 0.000540764
34 1 1.83786 10.4701 3.25391 3.1186 -0.0032294 0.00763216 0.000158146
35 1 1.54894 8.84928 5.00207 4.8488 -0.00413485 0.00141096 -0.000447872
36 1 1.80206 10.4241 6.85004 6.76873 0.00790215 0.00106533 -0.00947706
37 1 1.59778 12.1045 15.6716 5.11938 0.00698406 0.00239044 0.00264097
38 1 1.61914 13.9033 3.20887 6.81174 -0.00218233 0.00661102 0.00193746
39 1 1.71146 12.2088 5.25812 15.6539 0.0104412 0.00190626 -0.00290564
40 1 1.74782 13.9233 6.81623 3.38927 0.00207878 0.00356565 0.00571937
41 1 1.57204 8.69227 15.5327 8.7249 -0.00356727 0.00620493 -5.00582e-05
42 1 1.66301 10.3935 3.22571 10.3266 -0.0063291 -0.00497578 -0.00215431
43 1 1.84683 8.74303 5.2134 11.944 -0.0123985 -0.00781846 0.000479744
44 1 1.89635 10.4528 6.76861 13.7543 1.52743e-05 -0.00212083 0.000552262
45 1 1.47341 11.9467 1.69588 12.428 -0.00716165 0.00201874 -0.0138396
46 1 1.54848 14.0813 3.52115 13.908 0.00826898 0.00685428 -0.00115693
47 1 1.56785 12.1346 5.0463 8.55174 -0.00240325 -0.00138901 0.00169117
48 1 1.50183 13.9687 6.78594 10.3642 -0.00481986 0.000130989 -0.0054482
49 1 1.75092 8.67826 8.09953 1.55549 -0.000458608 -0.0139255 0.0115491
50 1 1.67169 10.2289 9.90465 3.54261 0.00494789 -0.00753444 -0.00399011
51 1 1.58076 8.61784 12.1449 5.09405 -0.0118067 0.00998778 -0.00280442
52 1 1.75238 10.3626 13.8801 6.70561 -4.74767e-05 1.97808e-05 0.0068528
53 1 1.67729 12.4049 8.64452 5.30074 0.00247718 0.00258521 -0.0184848
54 1 1.78271 14.2295 10.388 6.94085 -0.00556199 0.00145808 -0.00611527
55 1 1.3933 12.0546 11.8174 1.62194 0.0105938 -0.0109421 -0.00508524
56 1 1.39504 14.0075 13.5739 3.4838 0.00240161 -0.00081665 -0.006242
57 1 1.66921 8.34009 8.40381 8.42878 0.00307274 -0.00194368 0.00287684
58 1 1.50606 10.064 10.4922 10.0652 0.00246282 -8.92759e-05 -8.00545e-05
59 1 1.79718 8.3679 12.0194 12.2584 -0.00802101 -0.00481132 0.0092867
60 1 1.63738 10.29 13.7006 13.9115 0.000303948 0.00580707 -0.0140033
61 1 1.44856 11.8536 8.43836 11.6651 0.00096449 -2.179e-05 -0.00362516
62 1 1.39264 14.6737 10.7988 14.6081 -0.00571829 -0.0021292 -0.0030367
63 1 1.66249 12.0224 12.1815 8.47458 0.00176146 0.0150566 0.00644694
64 1 1.54356 13.6221 14.1477 10.3533 -0.0124763 0.000540547 -0.00225716
65 2 -0.735938 2.23954 2.15775 2.66588 -0.00375801 -0.00656572 0.00852972
66 2 -0.855142 2.46569 14.7844 14.9469 0.00735673 -0.0102168 -0.00177584
67 2 -0.786375 14.9788 2.7272 15.0164 0.00255363 -0.000612694 -0.00363096
68 2 -0.69979 14.8981 14.3887 2.45951 0.0146037 0.00610778 -0.00481703
69 2 -0.730587 2.18782 4.31033 3.82707 0.000736797 -0.00344424 -0.00627126
70 2 -0.753035 4.25553 2.94471 4.00753 -0.00174454 -0.00325688 0.00837298
71 2 -0.860668 3.99071 4.12973 1.81403 -0.0108572 -0.00219003 0.0070482
72 2 -0.88301 2.47332 5.48866 6.175 0.012286 0.00448087 0.00509028
73 2 -0.74145 15.052 3.70309 5.7714 0.0051125 0.0021517 0.00701141
74 2 -0.81143 14.6562 5.78975 4.32442 -0.00868408 -0.000403606 0.00596055
75 2 -0.850593 4.36844 5.6516 7.78761 -0.00365252 0.00375 0.00362446
76 2 -0.904599 4.12515 7.61907 6.38424 -0.00170338 0.0109666 0.00323131
77 2 -0.903255 2.5355 7.46155 8.07751 0.00319568 -0.0103995 -0.0038036
78 2 -0.863519 6.09613 2.71173 5.81958 0.00243892 0.00345906 0.0083901
79 2 -0.804531 4.48843 15.0424 5.87733 -0.00886775 -0.0129564 0.00716416
80 2 -0.884017 6.04806 14.9161 4.09689 -0.00711276 -0.0217205 0.00317703
81 2 -0.874486 6.26748 4.2475 7.54069 -0.0018219 -0.00408921 0.000482399
82 2 -0.76775 8.31048 3.99957 6.04792 0.0019769 0.00484571 -0.010995
83 2 -0.828531 8.14011 2.40731 7.62938 -0.00872739 0.00351813 -0.000966817
84 2 -0.847219 5.74722 5.74515 2.58052 0.00411183 -0.00905127 -0.0122568
85 2 -0.776368 4.75803 6.01014 14.4652 -0.00807582 -0.0011008 0.000520942
86 2 -0.901705 6.2292 4.0925 14.8485 0.000395709 0.0232634 -0.00978196
87 2 -0.843905 5.57926 7.48195 4.29594 -0.00237838 -0.000220273 0.0104459
88 2 -0.811297 7.34833 5.67837 4.43906 -0.0178957 0.000911534 -0.00297996
89 2 -0.842769 7.71924 7.09738 2.31397 -0.0147128 0.00260607 9.15081e-05
90 2 -0.804159 2.60604 2.17598 9.69424 -0.00407273 -0.00611346 0.000821502
91 2 -0.803772 2.39943 14.8108 7.62941 0.000114801 -0.00678267 0.00512824
92 2 -0.795059 14.7721 2.50694 7.87273 0.00291806 0.00109975 0.00693048
93 2 -0.782152 14.9127 14.8897 9.76499 0.0119489 0.000123328 -0.00931703
94 2 -0.685539 2.45331 4.56733 10.578 -0.0081934 0.00437387 -0.016062
95 2 -0.786124 4.15067 2.71852 11.6219 0.0100293 -0.00299908 0.00606824
96 2 -0.742982 4.76702 3.76897 9.48365 -0.00060572 0.00313207 -0.00325796
97 2 -0.760995 2.80184 5.67196 12.5797 0.00747235 -0.00423126 0.00170597
98 2 -0.78812 14.7058 3.96348 12.569 -0.0120142 -0.014786 0.0040959
99 2 -0.800068 14.6278 6.03714 11.546 -0.000456474 -0.00126845 7.81735e-05
100 2 -0.804847 2.4095 7.28114 14.9809 0.00848112 0.0081639 -0.00325167
101 2 -0.81301 3.84303 7.91837 12.8642 0.000413763 -0.0126073 0.00393086
102 2 -0.801674 5.93277 2.65945 13.0507 0.0203666 -0.00067737 0.00800278
103 2 -0.851493 4.29088 14.8258 13.2039 -0.00116131 -0.00436281 0.00462028
104 2 -0.751291 5.83657 15.0844 10.9751 -0.00737737 0.00118015 0.00634188
105 2 -0.892519 8.02883 2.35034 14.5965 0.0112979 -0.0073801 0.0126033
106 2 -0.856118 7.89088 4.41969 12.9021 -0.00414106 0.00255124 -0.00501888
107 2 -0.92942 6.02457 5.89568 9.64682 -0.000990446 0.015488 0.0221804
108 2 -0.902265 5.98456 8.05152 11.3723 0.00673266 0.00199735 -0.000858301
109 2 -0.89412 7.98899 6.28212 11.2353 0.00193021 0.0170522 0.0102278
110 2 -0.795205 7.37339 7.68328 9.33702 -0.000842203 -8.67342e-05 -0.000981191
111 2 -0.812705 2.94112 9.28298 2.33805 0.0160478 0.000602137 -0.00664305
112 2 -0.794918 14.9571 7.90981 2.73544 0.00768607 -0.0128949 0.00171865
113 2 -0.704115 14.8667 9.14563 14.993 -0.00780291 -0.0120667 0.0106451
114 2 -0.791276 2.47885 11.1978 4.26267 -0.0063995 -0.00911781 0.0130516
115 2 -0.731241 3.96493 9.41192 4.49498 0.0138993 0.00352302 0.0020011
116 2 -0.864885 4.25146 11.468 2.46018 0.00122239 -0.00850704 -0.010571
117 2 -0.898069 2.78832 13.1322 6.1553 -0.00961631 -0.0110873 0.00588909
118 2 -0.843991 15.1848 11.3787 6.31453 -0.00605019 -0.011945 -0.010131
119 2 -0.822854 14.9387 12.5653 4.3536 0.000932106 -0.0059954 -0.0117664
120 2 -0.946853 4.45831 13.4027 7.938 0.00984926 -0.00792428 0.00108679
121 2 -1.00044 5.82018 9.4451 6.04092 0.00532171 0.00436166 0.0103031
122 2 -0.956312 5.78022 11.5133 7.63442 -0.00472705 0.00321628 0.000712929
123 2 -0.783973 7.70814 11.1669 5.91045 0.0139993 0.0117575 -0.00792176
124 2 -0.830256 7.49197 9.56375 7.75293 -0.00834003 -0.00184094 0.00779895
125 2 -0.875407 5.7063 13.174 2.51552 -0.0088585 -0.0059032 -0.00936813
126 2 -0.862608 4.18435 12.75 14.6193 0.00349533 -0.00622116 0.00630433
127 2 -0.937067 6.25948 11.165 14.9421 0.0075614 0.000305284 -0.00119615
128 2 -0.851503 7.61236 14.8066 2.20395 0.0173547 -0.0207067 -0.000470217
129 2 -0.884536 7.84151 13.2389 4.25804 0.00296134 -0.0010508 0.00290093
130 2 -0.924311 2.19527 9.54423 9.6573 0.00628727 -0.00207844 -0.0182929
131 2 -0.784774 14.7333 7.91481 9.76954 -0.00261824 0.00503187 0.0101034
132 2 -0.876598 14.7711 9.12323 7.61207 -0.000500734 -0.0177723 0.00474574
133 2 -0.948831 2.21428 11.6414 11.1988 0.0105216 -0.00728911 -0.000495956
134 2 -0.935677 4.07509 9.97767 11.4167 -0.0143535 0.0010556 0.0159589
135 2 -0.876405 3.8656 11.4413 9.39272 -0.00120601 0.00118261 -0.00506917
136 2 -0.848828 2.15343 13.3739 12.9715 0.00401911 -0.00192491 0.00871389
137 2 -0.955772 14.9152 11.6364 13.281 0.00548522 -0.0178643 0.00303919
138 2 -0.798722 14.2869 13.0617 11.4282 0.011155 -0.00340038 -0.0115859
139 2 -0.867103 5.57039 9.59116 13.4011 -0.00453067 0.0151586 -0.00120378
140 2 -0.874004 7.9643 9.17764 14.9696 0.000164142 0.000670137 -0.00654523
141 2 -0.93278 7.69197 10.8235 12.8422 -0.00066426 0.00669222 -0.0136971
142 2 -0.866388 5.79377 12.7531 9.91625 0.00326796 -0.00639142 0.00371005
143 2 -0.785311 7.89354 14.8082 9.84172 0.00794848 -0.0153437 -0.00983245
144 2 -0.851821 7.69498 13.2361 11.5467 0.011544 0.00260256 0.00551238
145 2 -0.926219 9.31133 2.53989 2.41213 0.0146716 -0.00235278 -0.00646421
146 2 -0.903893 9.61514 14.6003 14.9926 0.0160374 0.0157067 0.00552987
147 2 -0.921145 9.72586 4.34298 3.82109 0.00732196 0.00141395 -0.0067576
148 2 -0.861802 11.3571 2.36872 3.98858 -0.0110727 -0.00434451 -0.0108257
149 2 -0.854952 11.2616 4.05007 2.07825 -0.00263997 -0.00278108 0.00809458
150 2 -0.867489 9.66296 5.96091 5.73339 -0.00698561 0.0074086 -0.00527402
151 2 -0.836343 11.2095 6.15154 7.7912 0.00481942 -0.0107007 -0.00622619
152 2 -0.860134 11.5376 7.8184 6.27053 -0.00566693 0.00935403 -0.0172038
153 2 -0.865233 9.22316 7.5534 7.39007 -0.0117375 -0.00899711 -0.0138255
154 2 -0.791018 13.0136 2.63413 5.76039 0.00491727 0.00953635 -0.0172997
155 2 -0.983591 11.0433 15.007 6.06606 0.00168396 0.000509707 -0.00606452
156 2 -0.730177 13.2271 14.8326 4.45913 -0.0215836 -0.00157825 -0.000355715
157 2 -0.771164 12.9336 4.32854 7.26668 0.00372418 -0.00300992 -0.00444064
158 2 -0.924558 13.0589 6.03976 2.42714 0.00026443 -0.00530301 0.00623216
159 2 -0.901586 11.4794 6.17523 14.7738 0.00277739 0.00755367 0.00996089
160 2 -0.7375 13.4418 4.71398 14.6123 0.00183401 0.00194378 0.00272478
161 2 -0.856409 13.2178 7.62412 4.45578 0.000644417 0.00987635 0.000906491
162 2 -0.87885 9.78855 2.01872 9.59808 0.00033851 0.00590201 0.0107374
163 2 -0.834724 9.32287 14.3892 7.75656 -0.000451957 -0.01096 -4.11978e-05
164 2 -0.819488 9.21298 4.11847 10.874 0.0055785 0.00220292 0.0114242
165 2 -0.83921 11.3191 2.75637 11.5146 0.00897107 0.00822431 0.00822891
166 2 -0.887882 11.1711 4.18416 9.4521 0.00240616 -0.00282038 -0.00527061
167 2 -1.00066 9.81944 5.81715 12.7918 0.006831 0.0103093 -0.00839759
168 2 -0.955823 9.43112 7.27045 14.7419 -0.0113684 0.00451781 -0.000203435
169 2 -0.888677 11.3105 7.73808 12.9295 6.94646e-05 0.00438403 -0.00170253
170 2 -0.71724 12.8389 2.64398 13.5922 -0.00540319 0.00177579 0.00361452
171 2 -0.76019 10.8401 14.8541 12.8985 0.00760704 0.00935302 0.0133408
172 2 -0.767577 12.8005 14.9011 11.4899 -0.00211453 0.000584444 0.00722441
173 2 -0.756434 13.2658 5.77597 9.23867 0.00105223 -0.0020888 0.00272916
174 2 -0.718224 12.4392 7.39716 10.6777 0.00172043 -0.0121453 -0.00357469
175 2 -0.856447 9.66651 8.81346 2.5563 -0.000906901 0.00293272 0.0134102
176 2 -0.829278 9.44378 10.9717 4.19473 0.0149515 0.0110339 -0.00682759
177 2 -0.881817 11.2661 9.36827 4.47268 0.00558254 -0.00142175 -0.0059464
178 2 -0.711397 11.1051 10.8041 2.41291 0.00728875 -0.0099383 0.00172052
179 2 -0.885271 9.72704 12.6771 6.02455 -0.00054995 -0.0106844 0.000987426
180 2 -0.92293 11.5089 13.1473 7.45784 0.00678689 -0.0042733 0.0136034
181 2 -0.834482 13.4279 9.83943 5.83487 -0.00723284 0.00768737 -0.00410658
182 2 -0.794821 13.1754 11.274 7.63928 -0.00653754 -0.0041984 0.0142851
183 2 -0.700197 12.9827 12.8047 2.43218 -0.0201124 -0.00179677 0.0146507
184 2 -0.82386 11.3135 12.7222 14.4792 0.000194027 -0.00178503 0.00163836
185 2 -0.693785 13.1357 10.9074 15.1183 -0.0105361 0.00795419 -0.00106218
186 2 -0.785762 9.10264 9.42155 9.37918 -0.0144334 0.00292103 0.0062521
187 2 -0.836564 9.2833 11.4693 11.2401 0.00360523 0.00636629 -0.0151544
188 2 -0.715334 11.2485 9.70744 10.9939 0.00464009 0.00510849 -0.0084194
189 2 -0.844499 10.958 11.2408 9.09356 0.00779445 0.00909384 -0.00375243
190 2 -0.907804 9.23757 12.7544 13.2534 0.013583 0.00734819 -0.00699324
191 2 -0.645731 13.1282 9.09526 12.5668 0.00184728 0.0116119 -0.00339731
192 2 -0.791854 12.9356 13.0381 9.44592 0.0141352 0.00055775 0.00967864
193 2 -0.562559 14.123 14.1909 14.3229 0.00990213 -0.00581013 0.00987768
194 2 -0.655332 5.11713 12.0887 5.01686 0.0082386 -0.00530338 0.00954099
195 2 -0.575637 6.73092 10.0251 3.36291 0.00450112 -0.00115023 0.00192167
196 2 -0.560416 12.1481 11.7193 11.8863 -0.00379276 -0.00369245 0.00474982
197 2 -0.61964 12.5007 15.5136 8.84944 -0.00128928 -0.00286325 -0.00449017
198 2 -0.647148 6.73417 2.98888 3.27655 0.00831514 0.0107759 -0.0055705
199 2 -0.617836 7.20279 6.90766 6.94021 -0.00429451 -0.0035847 0.00799212
200 2 -0.659843 12.0576 12.7629 4.4471 -0.00419367 0.00393855 0.00460396
201 2 -0.593573 5.19911 12.2784 12.3019 0.00185591 -0.00164264 0.00898768
202 2 -0.705439 15.4494 11.5633 15.6153 -0.00906529 0.00283051 -0.00402913
203 2 -0.590157 5.01358 9.2464 8.76976 -0.00964165 -0.00483016 0.00780226
204 2 -0.585901 10.2974 10.3946 13.8268 -0.00964946 0.00522679 0.0103394
205 3 0.360689 14.9739 13.6539 14.7944 0.0305759 0.0044085 -0.00957786
206 3 0.395405 13.6102 13.3963 14.0711 -0.0623178 0.0489792 -0.0117312
207 3 0.460022 4.96069 12.4804 4.31445 -0.0181872 -0.0312316 -0.0237865
208 3 0.379996 4.99202 12.7548 5.81592 0.0247473 -0.0465781 -0.0776868
209 3 0.371853 5.88803 10.2116 3.95007 -0.0392658 -0.0170432 -0.000167991
210 3 0.369941 6.40895 10.4168 2.4939 -0.0222476 0.026603 0.0344958
211 3 0.43986 13.0853 11.6098 11.9795 -0.00912642 0.00417297 0.0101852
212 3 0.404904 11.8992 11.661 12.8082 0.0493207 -0.0303384 0.0252619
213 3 0.344537 11.9871 1.95 9.55338 -0.0349375 -0.0535851 0.0108552
214 3 0.389766 11.7618 15.2247 8.20129 0.00617564 -0.0468819 -0.00590533
215 3 0.438515 7.02268 3.2485 2.43565 0.00316327 -0.0153163 0.0245774
216 3 0.430312 6.39548 3.77358 3.61332 0.0939672 -0.00365058 0.0727391
217 3 0.400678 7.13888 6.24215 7.68048 -0.0206061 0.059472 0.0254771
218 3 0.448995 7.25006 6.38841 6.19136 0.0249154 -0.0234814 -0.0224211
219 3 0.395335 12.5993 12.9578 5.22731 0.00199044 0.0134548 -0.0268143
220 3 0.444292 11.7417 11.9094 4.51589 -0.0511994 0.00782607 -0.0260402
221 3 0.421364 4.29327 12.3853 12.4915 0.0124061 0.0367514 0.0200662
222 3 0.424186 5.58918 11.3905 12.0582 -0.0170578 -0.0208767 0.0446566
223 3 0.417698 9.36829 10.1023 14.1877 -0.00447504 0.0243501 0.0160893
224 3 0.38172 1.96761 12.204 15.2476 -0.0178145 -0.0245539 0.00288033
225 3 0.351827 4.07404 8.96744 9.11956 0.000261966 0.0312821 0.0356458
226 3 0.427232 5.28479 8.69069 8.03814 0.0273062 0.0179217 0.00288747
227 3 0.462991 13.3934 8.46923 13.133 0.00476392 -0.0109752 -0.0292081
228 3 0.418555 10.2181 10.9338 13.0935 -0.0238772 0.0707569 0.0674394
ITEM: TIMESTEP
6000
ITEM: NUMBER OF ATOMS
228
ITEM: BOX BOUNDS pp pp pp
1.4758989038441905e+00 1.5684101096155899e+01
1.4758989038441905e+00 1.5684101096155899e+01
1.4758989038441905e+00 1.5684101096155899e+01
ITEM: ATOMS id type q x y z vx vy vz
1 1 1.7474 1.50775 1.63323 1.52073 -0.0039924 -0.00445039 -0.00485505
2 1 1.74154 3.47639 3.0513 3.24567 -0.00572541 0.00210356 0.000109268
3 1 1.48307 1.65321 4.93526 4.84249 -0.000944634 -0.00911582 -0.0127938
4 1 1.42112 3.09401 6.87156 6.75163 0.00329514 -0.00894207 -0.00162847
5 1 1.56696 4.85935 15.4318 5.21476 -0.000539084 0.00323898 0.00743657
6 1 1.55104 6.75364 3.16326 6.81501 -0.00153383 -0.00518228 -0.0083431
7 1 1.73847 5.07576 4.93872 1.48005 0.000317655 0.00211743 0.00174983
8 1 1.48619 6.71867 6.91851 3.38221 -0.00842348 0.0054492 -0.00446759
9 1 1.74307 1.55715 1.63043 8.79125 -0.0057204 0.000308108 0.00132792
10 1 1.64063 3.42113 3.50635 10.3457 0.0130735 -0.00253435 -0.00129742
11 1 1.70761 1.76644 5.10324 12.1134 0.0119924 -0.00251793 0.00416588
12 1 1.66397 3.31879 6.71813 14.0275 0.000412776 0.00711475 0.00971642
13 1 1.75938 5.16642 1.66928 11.9896 0.00042887 -0.00211003 0.00102868
14 1 1.65609 6.8305 3.35094 13.8458 -0.005291 0.00785551 0.00160833
15 1 1.78558 5.17018 5.02512 8.47237 -0.00402438 0.000876504 -0.00661877
16 1 1.67062 6.69607 6.70639 10.4155 0.00410661 0.00350957 -0.00129306
17 1 1.75745 1.55207 8.44161 1.46321 0.00346296 0.00576182 0.0059114
18 1 1.70795 3.28461 10.4316 3.05929 -0.0064876 0.000249589 -0.00049883
19 1 1.57786 1.57713 12.1276 4.97076 -0.00300999 -0.00417459 0.000473564
20 1 1.70827 3.21258 13.8754 7.16871 -0.00502482 -0.00701017 0.00376052
21 1 1.66561 4.90035 8.76829 5.13074 -0.0150489 -0.00413179 -0.00613106
22 1 1.61817 6.94453 10.3109 6.82222 0.00237009 0.00130747 -0.00645261
23 1 1.49248 5.15551 12.2973 15.7469 0.0101038 0.00780217 0.00298622
24 1 1.62648 6.96665 14.0515 3.35669 -0.00163426 0.00940077 -0.00460275
25 1 1.6454 15.4277 8.65483 8.71475 -0.00875505 0.00338092 0.00539584
26 1 1.68166 3.04688 10.3901 10.4178 0.0031783 -0.00306598 0.00598932
27 1 1.45604 1.74298 12.5831 12.0662 0.00388778 -0.00555849 -0.00714838
28 1 1.67527 3.45108 14.2989 14.0269 0.00321986 0.00346216 -0.00740966
29 1 1.58886 4.80722 8.54049 12.1917 0.00313189 0.00588869 -0.00294929
30 1 1.42569 6.82234 10.2626 13.9928 -0.00244181 -0.000842785 -0.005316
31 1 1.60277 5.01559 11.8773 8.61354 -0.0042049 -0.00637318 0.00128325
32 1 1.53243 6.73925 13.8186 10.0753 -0.00705647 0.0087797 0.00505855
33 1 1.53258 8.68374 1.64082 15.7871 0.00365904 -0.00198365 -0.00217326
34 1 1.44073 10.6867 3.23583 3.19176 0.00283016 0.00370851 0.000976398
35 1 1.40345 8.78225 5.03713 5.00205 -0.001666 0.00576652 -0.0113879
36 1 1.80386 10.2886 6.74935 6.94936 0.0065999 0.00702701 -0.00178846
37 1 1.81507 12.2234 15.5343 5.12644 -0.00524773 -0.0018458 -0.00402946
38 1 1.54748 13.9757 3.07202 6.61564 -0.00576752 0.00305311 6.67092e-05
39 1 1.64401 12.4048 5.14815 15.4842 -0.00355719 -0.00386555 -0.000684878
40 1 1.67331 13.8947 6.79338 3.32882 0.00508127 0.0121 0.000827637
41 1 1.8314 8.627 15.5667 8.43321 0.00495481 -0.00719956 -0.00621338
42 1 1.77058 10.251 3.14557 10.2118 -0.00267215 -0.00331475 0.0113908
43 1 1.73634 8.68757 5.03497 12.2055 0.00265688 0.00165867 0.00353246
44 1 1.72108 10.3051 6.88793 14.0605 0.00308626 -0.0019028 0.00083633
45 1 1.41983 12.1015 1.78132 12.3627 -0.00384613 0.00929068 -0.00664522
46 1 1.61748 14.2086 3.43245 13.7408 0.0011872 0.00465669 0.00909562
47 1 1.54044 12.0959 4.88688 8.54481 0.000773504 -0.00287158 -0.00883106
48 1 1.4964 14.0708 6.50109 10.2615 -0.0113079 -8.27034e-05 -0.00447232
49 1 1.62177 8.53539 8.57988 1.59842 -0.00678052 0.00243798 -0.011036
50 1 1.78167 10.3965 10.2472 3.44473 0.0054447 -0.00267651 -0.0121387
51 1 1.82014 8.68244 12.1672 5.07504 -0.00791391 0.00984239 -0.0136847
52 1 1.75314 10.5303 13.7688 6.81091 0.0050921 0.000326575 -0.00411592
53 1 1.69409 12.0969 8.33566 5.17184 -0.00100092 -0.000553392 0.00274272
54 1 1.64875 13.8632 10.3455 6.66692 -0.00196452 0.00271611 -0.0134532
55 1 1.49993 12.0727 12.1742 1.60895 -0.00351572 -0.00571865 0.000629192
56 1 1.63446 14.0218 14.059 3.32119 -0.0047911 -0.00571643 -0.00999947
57 1 1.62505 8.49248 8.48236 8.70108 -0.00945207 0.000245966 0.00568048
58 1 1.58242 10.2579 10.1918 10.4904 0.00436686 -0.0057184 0.0066529
59 1 1.51985 8.58664 12.2319 12.0923 0.00173562 0.00468801 -0.000459001
60 1 1.52603 10.3586 13.9945 13.843 0.00356313 -0.00633473 0.0115782
61 1 1.50969 12.0474 8.24975 11.8362 0.00509818 0.000634461 0.00309564
62 1 1.46719 14.7975 11.0464 14.6211 -0.00599546 0.0144467 0.0100408
63 1 1.60338 12.089 11.9799 8.75762 -0.00413383 -0.0045147 -0.00180594
64 1 1.434 13.8023 13.9979 10.3655 0.000147704 -0.00197773 0.00559207
65 2 -0.880606 2.27949 2.62673 2.42767 0.00289901 -0.0129548 -0.011828
66 2 -0.879785 2.73005 15.0456 15.0737 -0.0140611 -0.0131364 -0.00944126
67 2 -0.85962 15.0036 2.46041 14.601 0.00942817 0.00776192 0.0096774
68 2 -0.828981 14.635 15.2841 2.43742 -0.000676607 -0.0137553 0.00304058
69 2 -0.761936 2.95085 4.18027 4.2034 -0.00422039 -0.00293691 -0.00458028
70 2 -0.844636 3.80785 1.9283 4.18403 -0.00283855 0.00128339 -0.00274445
71 2 -0.903654 4.55387 3.70963 2.35889 0.00926813 0.00523971 -0.00314568
72 2 -0.75496 2.15422 6.14403 5.68932 0.00115069 0.0185098 -0.000719414
73 2 -0.721819 15.1217 3.6877 5.7395 -0.00520071 -0.000141357 -0.0188151
74 2 -0.803873 14.703 5.66408 4.03642 -0.00508844 0.00184349 0.00398975
75 2 -0.776406 4.26739 6.04663 7.52202 0.00572426 0.00178339 -0.0143169
76 2 -0.791204 4.04447 7.61375 5.7521 0.0105996 0.00518542 0.004765
77 2 -0.683829 2.3616 7.74689 8.094 -0.00387402 0.00418129 0.00887748
78 2 -0.757538 5.5151 2.4579 6.01227 -0.00250235 -0.00796873 0.00438537
79 2 -0.90164 4.30686 14.6124 6.32492 0.013645 -0.00951878 -0.00581753
80 2 -0.875952 5.83135 14.5496 4.2191 -0.0125707 -0.00112884 0.00226503
81 2 -0.890182 6.11444 4.36456 7.54972 -0.0127565 9.81354e-06 -0.00761878
82 2 -0.661968 7.92596 3.83011 5.85517 -0.00194168 0.00810267 -0.0056653
83 2 -0.859338 7.52903 2.1387 7.66538 0.0213461 -0.00458249 0.0128708
84 2 -0.808376 5.77509 5.73892 2.57551 0.00681362 -0.00448182 -0.00194573
85 2 -0.839169 3.98764 5.86818 15.3496 -0.00103098 -0.00077673 0.000294736
86 2 -0.96387 5.74646 4.22811 14.5504 0.000356001 -0.0157493 0.00548976
87 2 -0.789692 5.89549 7.82594 4.38464 -0.0093564 -0.000636392 0.00740751
88 2 -0.757762 7.74887 6.14225 4.44579 0.0045762 0.0019674 0.00215938
89 2 -0.828397 7.29042 7.90744 2.40712 -0.00366535 -0.00529759 -0.000886356
90 2 -0.843652 2.20365 2.76145 9.67829 0.0035156 -0.00866938 -0.00463301
91 2 -0.887791 2.37071 14.9445 7.96052 0.0144393 -0.00287583 0.00946478
92 2 -0.771331 14.7697 2.18392 7.7261 0.000651707 -0.0159749 0.00138171
93 2 -0.780012 14.8781 14.7236 9.36673 0.00688041 0.0102684 -0.0105552
94 2 -0.918544 2.89468 4.39249 11.4592 -0.002611 0.00569269 0.000474143
95 2 -0.894512 4.25156 2.39829 11.0711 -0.00328047 -0.00845313 -0.0143981
96 2 -0.855974 4.31818 3.94775 8.98379 -0.00785683 0.00766283 0.0162405
97 2 -0.894352 2.31351 5.80531 13.3542 -0.0152128 -0.00671858 0.00721094
98 2 -0.806964 14.9093 3.93313 12.4322 0.0107285 0.00849712 -0.0127487
99 2 -0.83282 15.3024 6.07534 11.0753 -0.00657117 0.00119601 0.0134157
100 2 -0.856387 2.41319 7.82808 14.5426 0.00591303 0.00859154 -0.0094411
101 2 -0.834113 4.34662 7.36862 13.0833 -0.00723365 0.00597559 0.00515657
102 2 -0.847661 6.30852 2.36457 12.7424 -0.00124975 -0.0116183 0.00724909
103 2 -0.899533 4.30107 15.1861 13.0532 0.000346988 -0.00527294 -0.00118408
104 2 -0.795709 6.02816 14.9568 11.0456 0.0149524 0.0186508 0.00792305
105 2 -0.76946 7.82689 2.58696 14.8063 0.0112947 -0.00794715 0.00869571
106 2 -0.865491 8.02146 4.06391 13.1243 -0.0144042 0.00308529 -0.016448
107 2 -0.958295 5.88166 5.67485 9.62174 0.00764383 -0.00824159 -0.00190198
108 2 -0.78022 5.8438 7.55994 11.3673 -0.00380231 -0.000900769 -0.00492936
109 2 -0.802125 7.83036 5.97177 11.4039 0.00187977 -0.0154147 0.0129001
110 2 -0.908357 7.50018 7.62694 9.45629 0.000872096 -0.00349961 0.0124401
111 2 -0.84469 2.70014 9.25739 2.3105 -0.00153297 0.00534909 0.00849442
112 2 -0.886561 14.711 7.74137 2.22929 0.0101119 -0.00684364 -0.00999246
113 2 -0.828775 15.0233 9.58053 15.0369 0.0127747 0.0125925 -0.0100921
114 2 -0.889115 2.31974 11.1618 4.01286 -0.00381279 0.0121613 0.00620501
115 2 -0.869094 4.21893 9.51489 4.0092 -0.000376073 -0.00460005 0.00152604
116 2 -0.892594 4.0401 11.5788 2.43117 -0.0114242 -0.00993969 0.000204345
117 2 -0.778271 2.26316 13.1595 6.04997 -0.0109974 -0.0112633 0.00938877
118 2 -0.803476 14.9993 11.0912 5.8415 0.00516805 -0.0100235 0.00189119
119 2 -0.887266 14.7467 12.974 4.13838 -0.00527411 -0.00481908 -0.00819354
120 2 -0.893748 3.94566 12.8259 7.87659 0.0036562 -0.0114667 0.00519821
121 2 -0.874103 5.81363 9.44633 6.20231 0.00840884 -0.00399107 0.00253125
122 2 -0.839032 6.17671 11.4847 7.52759 -0.0120616 -0.000420169 0.0103424
123 2 -0.834584 7.74922 11.1012 5.75884 -8.30572e-05 0.00221154 0.00732151
124 2 -0.857824 8.03441 9.39337 7.5121 0.00156234 0.00092679 -0.00640108
125 2 -0.781969 6.17926 13.3019 2.26222 0.0155982 0.00738798 -0.00334654
126 2 -0.768596 4.3617 13.4372 14.9712 -0.0194285 0.0200829 0.00581384
127 2 -0.747261 5.69616 11.1331 14.6942 -0.00774377 -0.000925515 0.00641696
128 2 -0.866204 8.09824 15.0334 2.72859 0.0177895 -0.0028377 0.0105815
129 2 -0.885898 7.93133 13.0095 4.07462 -0.00186558 -0.00518454 -0.0232653
130 2 -0.849429 1.92096 9.77999 9.63304 0.0116183 -0.0106884 0.0153286
131 2 -0.888238 14.6308 7.5609 9.2559 -0.00399844 0.00630297 0.0010403
132 2 -0.781508 14.8438 9.3827 7.43362 0.00895966 -0.00397322 -0.00200662
133 2 -0.860534 2.63709 11.6419 11.1081 0.00138095 0.0075554 0.0078411
134 2 -0.821983 3.623 9.19105 11.4665 -0.00150969 0.000729291 0.00175552
135 2 -0.873997 4.06406 11.049 9.40048 -0.0129486 -0.0173519 0.00775081
136 2 -0.824802 2.27462 13.643 13.0942 0.00272314 0.0175484 0.00293812
137 2 -0.761069 15.4779 11.4484 13.279 -0.00105605 -0.0117536 0.0061723
138 2 -0.813247 14.6507 13.0114 11.3726 -0.000378186 -0.0173188 0.0155546
139 2 -0.711754 5.89795 9.42574 12.8882 0.00655487 0.000159082 -0.00120869
140 2 -0.825167 7.62285 9.04203 14.6223 0.00722142 0.00505808 0.00425754
141 2 -0.754843 7.70234 11.4046 13.3233 -0.0108629 0.00172284 -0.00585637
142 2 -0.89129 5.86169 12.593 9.72788 0.00282187 -0.00621779 -0.00399793
143 2 -0.865547 7.65858 14.5836 9.1258 -0.000255628 -0.00409545 0.00421597
144 2 -0.785705 7.73381 13.0361 11.1559 0.0103161 -0.0015679 -0.00856795
145 2 -0.789993 9.87598 2.49908 2.04073 0.0251713 -0.00738828 0.00601056
146 2 -0.68303 9.21376 14.7617 14.6686 -0.0027838 0.00834327 0.00436998
147 2 -0.685086 10.0139 4.36271 4.17809 0.00486631 0.00608497 -0.00508974
148 2 -0.765438 11.1953 2.23933 4.27371 0.0116634 -0.00171449 -0.0147605
149 2 -0.694424 11.9039 4.09777 2.35558 -0.00434058 0.0066957 0.00956428
150 2 -0.822344 9.32587 5.772 6.36787 0.00044917 0.00924036 0.0117953
151 2 -0.859287 11.3317 5.81041 7.54057 -0.0130244 0.00223954 -0.00706045
152 2 -0.898531 10.908 7.58492 5.82734 0.00360319 0.00172945 -0.00143301
153 2 -0.849952 9.63782 7.49138 8.10117 0.0133134 -0.00911206 0.00316636
154 2 -0.903177 12.7159 2.41778 6.04223 0.00443443 -0.00763768 -0.0133673
155 2 -0.965389 11.3509 14.5416 5.77014 -0.00479816 0.0020286 0.00244859
156 2 -0.931887 13.3673 14.8495 4.41821 0.00403428 -0.0140587 -0.00568762
157 2 -0.667478 13.2335 4.16095 7.54058 0.00622118 -0.0141037 0.00330582
158 2 -0.771944 12.9213 6.21343 2.3244 0.0103921 0.00590612 -0.00801886
159 2 -0.850411 11.3187 5.83496 14.6989 -0.0147878 0.00376996 -0.00706602
160 2 -0.804254 13.625 4.58265 14.6426 -0.0133342 -0.00346466 -0.0160048
161 2 -0.844757 12.8603 7.2916 4.30352 0.00805866 0.0116264 0.0187147
162 2 -1.02185 9.45183 2.12289 9.37571 0.00594351 0.00719535 -0.00757875
163 2 -0.858582 9.50053 14.8387 7.36217 0.00888967 0.00315214 0.00212036
164 2 -0.806311 9.48717 4.23893 11.0976 0.00112221 0.00165835 0.0065956
165 2 -0.826494 11.0009 2.49852 11.3314 0.00984491 0.00303254 -0.00652015
166 2 -0.870628 11.2494 3.82034 9.27801 0.00477617 -0.00740057 -0.00376465
167 2 -0.813246 9.57966 6.10881 13.0383 -0.0130173 -0.00614712 0.0202201
168 2 -0.887231 9.37805 7.48557 15.1885 -0.00179093 0.00702097 0.00348904
169 2 -0.809766 11.0495 7.73641 13.048 0.00702035 0.0121525 0.0139027
170 2 -0.761833 12.8312 2.80561 13.2324 0.00109491 -0.00519683 0.0170767
171 2 -0.759289 11.5252 14.9681 13.4624 0.00651309 0.00207487 0.00728667
172 2 -0.666 13.3348 15.0809 11.6393 -0.00886577 0.0143345 -0.0121012
173 2 -0.703553 13.2163 5.25765 9.65251 0.00657065 0.00405742 0.00266522
174 2 -0.737906 12.7192 7.05258 11.1615 0.00699221 -0.0135044 -0.00554503
175 2 -0.920098 9.44315 9.39306 2.42732 -0.00438868 0.0242751 -0.000825038
176 2 -0.901052 9.49682 11.0525 4.34546 -0.000851034 0.00760399 -0.0116313
177 2 -0.860301 11.4133 9.28885 4.03626 -0.0108582 0.00884159 -0.00144488
178 2 -0.866044 11.0984 11.1818 2.51014 -0.00413582 -0.00755053 0.00943683
179 2 -0.927284 9.40872 12.9981 6.0592 -0.00936653 0.00982222 0.00754427
180 2 -0.899803 11.3829 12.9802 7.82259 0.00193453 -0.00878892 0.000812684
181 2 -0.87014 12.966 9.22181 6.08425 0.00727997 0.00255364 0.006539
182 2 -0.808086 13.1103 11.2436 7.72369 -0.00291933 -0.0124493 0.00691678
183 2 -0.812134 12.9644 13.0911 2.57836 0.0185003 -0.00450814 0.00256794
184 2 -0.756743 11.136 13.149 14.9347 0.00359648 -0.00329089 0.00124732
185 2 -0.760557 13.1046 11.3398 15.0192 0.000589749 0.00312607 0.00508247
186 2 -0.7767 9.06807 9.47094 9.81615 -0.00223361 0.00645765 -0.0155211
187 2 -0.842623 9.52639 11.1771 11.4958 0.00350969 -0.0132132 -0.00393342
188 2 -0.765619 10.8949 8.82746 10.9499 -0.00387073 -0.00311163 -0.00334271
189 2 -0.891957 11.1898 10.9891 9.49622 -0.00211372 -0.0075479 0.00807061
190 2 -0.758038 9.47019 13.4649 12.6767 -0.0133817 -0.00728138 0.00162161
191 2 -0.757818 12.9056 9.42888 12.2929 0.00827638 0.00468004 0.00459563
192 2 -0.810543 12.7016 13.1375 9.74166 0.0168834 0.00378171 -0.0085984
193 2 -0.665315 14.5865 14.3136 14.5088 0.0124073 0.00358552 0.00996931
194 2 -0.643283 5.05629 12.1919 4.95696 0.00069414 -0.0109393 0.00851072
195 2 -0.623238 6.67758 10.791 3.07775 -0.00434852 -0.00258824 -0.00565865
196 2 -0.595984 12.5351 12.1129 12.668 -0.00410732 -0.00654417 -0.00058866
197 2 -0.591898 12.3094 15.4175 9.28221 -0.00355648 -0.0042251 0.000221336
198 2 -0.577756 7.45925 3.87635 3.46147 -0.000754831 0.011443 0.00359184
199 2 -0.647615 6.65942 6.94326 6.95961 -0.00376733 -0.000397492 -0.00684983
200 2 -0.609517 12.3457 11.3241 5.14727 -0.0144816 0.0151778 0.00597277
201 2 -0.629607 5.08699 12.3425 12.0724 -0.0205483 -0.00204987 -0.0095762
202 2 -0.800117 15.4647 11.7734 15.7045 0.0164952 -0.00126287 0.00647096
203 2 -0.562968 5.02741 8.80408 8.64772 0.000559293 -0.00109376 0.00198071
204 2 -0.624311 10.6834 10.288 13.93 0.00032874 -0.00284486 -8.92222e-05
205 3 0.413805 14.8914 13.4809 14.2455 -0.0520183 0.0469984 -0.0475944
206 3 0.44841 13.842 14.622 13.9754 -0.0868152 -0.0210848 -0.00660585
207 3 0.451606 5.91193 12.1365 4.78795 -0.0446092 0.00700765 0.0482437
208 3 0.433234 4.75385 12.7813 5.62409 0.017019 -0.0333769 -0.00819841
209 3 0.367851 7.1183 10.0937 2.56805 0.0218782 0.00756157 -0.0280617
210 3 0.389062 5.78089 10.5 3.11304 0.0711055 0.0255322 0.0195641
211 3 0.34957 13.3797 11.7319 13.0018 -0.0179786 -0.000131952 0.0529634
212 3 0.395888 12.8116 12.0628 11.7501 -0.0244021 0.00911704 0.0540935
213 3 0.387742 11.4041 15.4972 9.6862 0.0104443 0.0147026 -0.0217666
214 3 0.396133 12.2802 1.34872 8.24858 -0.0461789 -0.00108854 -0.0479755
215 3 0.379618 6.45312 3.8869 3.10133 0.0353116 -0.00771441 0.0327451
216 3 0.317077 7.65472 2.77956 3.34942 0.00827717 -0.00399947 -0.00391087
217 3 0.441623 7.44625 6.61673 6.45139 -0.0126142 0.0258615 -0.0060113
218 3 0.463559 5.97994 6.76683 6.42302 0.00628626 0.0392021 0.00346446
219 3 0.354375 12.5544 11.153 4.14004 -0.0745901 0.00929608 0.0406723
220 3 0.382884 12.8236 12.169 4.98636 -0.0622749 0.025585 -0.0211695
221 3 0.438749 4.56076 12.385 11.3493 0.00499154 0.0129449 -0.0220121
222 3 0.428573 5.83547 12.8157 11.8948 0.00782403 -0.0021808 -0.024396
223 3 0.375609 10.5532 9.48734 14.3191 -0.0279734 0.0362988 -0.0052751
224 3 0.462346 15.9384 12.0206 2.26876 0.0344886 0.0329043 -0.0127188
225 3 0.318794 5.7352 9.37405 9.07385 -0.0575621 -0.0113088 0.0137864
226 3 0.401847 5.59729 8.0121 8.42221 -0.00761836 0.0472147 0.0473619
227 3 0.42894 12.367 10.0593 12.8644 0.0831007 0.0192378 0.0522335
228 3 0.365856 9.75115 10.5511 14.0478 -0.0311062 -0.0236229 -0.00403985
ITEM: TIMESTEP
8000
ITEM: NUMBER OF ATOMS
228
ITEM: BOX BOUNDS pp pp pp
1.4578721535910617e+00 1.5702127846408999e+01
1.4578721535910617e+00 1.5702127846408999e+01
1.4578721535910617e+00 1.5702127846408999e+01
ITEM: ATOMS id type q x y z vx vy vz
1 1 1.71425 1.66064 1.52459 1.66564 -0.00323687 -0.00627163 -0.0029231
2 1 1.83855 3.31317 3.29378 3.44527 -0.00333373 0.00580944 0.0038125
3 1 1.78206 15.6623 5.05321 4.96605 -0.00179768 0.0070025 -0.00402147
4 1 1.49666 3.1003 6.67357 6.73785 -0.00780325 -0.00358135 -0.00688379
5 1 1.66935 4.96391 15.4125 5.1425 0.00739841 0.00745985 0.010477
6 1 1.71255 6.75762 3.13802 6.82571 -0.000602025 0.00952024 0.00025803
7 1 1.55325 4.9293 4.99898 1.56891 0.00241407 0.00359842 -0.00325977
8 1 1.54296 7.04671 6.73977 3.29783 0.0107977 -0.00635504 0.00654339
9 1 1.54454 15.6905 1.43054 8.59594 0.00714626 -0.00388653 0.00350715
10 1 1.7215 3.16033 3.3871 10.3125 -0.00209358 -0.0109047 0.00220093
11 1 2.06629 1.61555 5.07578 12.0835 -0.00430616 0.000601364 -0.00362171
12 1 1.84331 3.36298 6.73822 13.8918 0.00795173 -0.00219183 0.0102334
13 1 1.75148 4.91975 1.58433 12.0326 -0.00719401 -0.000653715 0.00106527
14 1 1.7344 6.61269 3.22898 13.9447 -0.00767993 0.000789466 -0.000276332
15 1 1.65129 5.00642 4.95565 8.48026 0.0034217 -0.00817024 -0.0103528
16 1 1.7621 6.67977 6.95022 10.2622 0.00348562 -0.00999597 0.00777893
17 1 1.78335 1.81114 8.58442 15.6268 -0.00387522 0.0138807 0.0014075
18 1 1.52461 3.78244 10.3357 3.13807 0.00157506 0.00808734 0.00153851
19 1 1.35244 1.73054 11.9662 4.84935 -0.00215912 -0.00640572 0.0153852
20 1 1.74547 3.09569 13.7569 6.91145 0.00670492 0.000161367 -0.00697146
21 1 1.35627 5.04435 8.42175 5.12411 0.00130108 -0.00107934 -0.00262154
22 1 1.49265 6.62268 10.5913 6.91383 0.00242347 -0.00955604 0.0037738
23 1 1.54966 5.33554 12.128 15.4268 -0.00574812 0.00320448 0.00534752
24 1 1.3542 6.81814 13.7396 3.30494 -0.00277393 0.00673997 0.00532597
25 1 1.38005 15.6969 8.63189 8.42607 -0.00232433 -0.00929478 0.00294273
26 1 1.49832 2.9572 10.1397 10.5504 -0.00592727 -0.00133551 0.00606035
27 1 1.55316 15.706 12.2528 12.3285 0.00430083 -0.00984709 -0.0112898
28 1 1.55952 3.31879 14.1415 13.9973 -0.00107906 0.00100964 0.00763352
29 1 1.68318 4.92724 8.54037 12.0831 -0.00438583 -0.00185876 -0.00866172
30 1 1.59757 7.12971 10.143 13.5822 -0.00690041 0.00579208 -0.000170811
31 1 1.62844 4.71478 12.0464 8.78444 -0.00395435 -0.010625 0.00181902
32 1 1.68412 6.6902 13.8477 10.5275 0.0041424 -0.00954393 0.0018362
33 1 1.52586 8.45689 1.47017 1.46144 0.00275424 -0.00844915 -0.00388751
34 1 1.50742 10.5088 3.23762 3.09845 0.00689596 -0.00355353 -0.00579885
35 1 1.6619 8.61985 4.70809 5.06302 -0.00584792 -0.00262417 -0.00195925
36 1 1.44044 10.573 6.87249 6.76425 0.00952893 6.4758e-06 0.00229834
37 1 1.345 12.1871 15.6746 5.19039 -0.00393329 0.00662928 -0.000431109
38 1 1.54499 14.0405 3.21814 6.67614 0.00324424 -0.000995071 -0.00234287
39 1 1.68339 12.3232 5.19421 15.7864 0.00281009 -0.00402851 0.00635889
40 1 1.86735 14.2569 6.91714 3.09043 0.00166652 0.0044163 0.0106827
41 1 1.58347 8.3712 1.70126 8.83498 -0.00368504 -0.00475027 0.0152607
42 1 1.42115 10.1338 3.47538 10.6028 0.000106115 -0.00806898 0.00020612
43 1 1.74921 8.26364 5.18497 12.2757 0.00793766 0.00391603 -0.0036254
44 1 1.73122 10.5197 6.51471 13.7855 0.00970783 0.00710376 0.00840297
45 1 1.41234 12.1209 1.88648 12.3565 0.00145367 0.000921073 0.00734132
46 1 1.69221 14.3901 3.35729 14.0758 -0.00846559 -0.00431974 0.00485145
47 1 1.54802 12.2069 4.89624 8.44283 -0.00760309 -0.00562572 -0.00211953
48 1 1.75753 13.9915 6.48235 10.3066 0.00451156 0.00163311 0.00227039
49 1 1.59925 8.70501 8.38985 15.5004 0.000834147 0.00433567 -0.00226065
50 1 1.38863 10.4199 10.2974 3.28086 0.00135646 0.0116196 0.0120947
51 1 1.50897 8.79045 12.1131 5.28299 0.00218463 0.000363245 0.0044067
52 1 1.40036 10.2652 14.1647 7.00375 0.0105293 0.00562274 -0.00282044
53 1 1.23287 12.2733 8.54226 4.87828 -0.0023415 0.00276767 -0.00429876
54 1 1.49443 13.8298 10.4291 6.65161 -0.0048341 -0.000886918 0.00294752
55 1 1.52912 12.0239 12.4915 1.79553 -5.35063e-05 -0.00598816 -0.00294016
56 1 1.55003 14.2689 14.0541 3.42529 -0.00182898 0.0161854 0.00189534
57 1 1.56606 8.54865 8.50007 8.51083 0.0104825 0.000183445 0.00400307
58 1 1.70866 10.5126 10.294 9.95433 -0.00452595 0.0023778 -0.00694167
59 1 1.6484 8.93651 12.1464 11.7526 -0.000252094 -0.00112622 -0.00251088
60 1 1.37878 10.1941 14.0763 13.9025 0.00364801 0.00122155 0.00267124
61 1 1.60371 11.9799 8.3314 11.8812 0.00190629 0.00165203 -0.00265614
62 1 1.55027 14.5408 11.2294 14.9278 -0.00124507 0.00133268 0.00570797
63 1 1.3351 12.476 12.3693 8.66075 0.00174614 -0.00174279 -0.00557124
64 1 1.58273 14.0853 14.1587 10.5861 -0.00439391 -0.00371173 -0.00832131
65 2 -0.943942 2.55252 2.60141 2.37466 0.00616999 0.0108478 -0.00926972
66 2 -0.839142 2.50119 14.5205 15.2151 0.00190032 0.00829213 -0.0160229
67 2 -0.936048 15.0093 2.32015 14.9249 -0.001779 -0.011135 0.00626537
68 2 -0.880801 14.8886 15.1458 2.55495 0.00871892 -0.00287116 0.0131639
69 2 -0.892409 2.59243 4.13228 4.47987 0.00203027 -0.00787114 0.00897692
70 2 -0.846009 4.12508 2.20647 4.23781 0.00347578 -0.00257439 -0.00624917
71 2 -0.866272 4.25572 4.25023 2.67147 -0.00381766 0.0168959 0.0111138
72 2 -0.872813 1.85309 5.91907 6.08424 0.0116659 -0.0019248 -0.00798411
73 2 -0.812524 14.5503 3.97309 5.46972 -0.00395105 -0.00429656 -0.00754639
74 2 -0.917327 15.096 5.86145 3.85188 -0.0138404 0.00295974 0.00498479
75 2 -0.784029 3.9068 5.77172 7.73515 -0.0108017 0.00329225 0.000970878
76 2 -0.636981 3.97086 7.03299 5.44719 -0.00541258 -0.0137921 0.00088116
77 2 -0.773903 2.64075 7.96899 7.5422 -0.00632253 -0.00762808 -0.00188016
78 2 -0.866899 6.02034 2.01857 5.98644 -0.00791064 -0.00262523 -0.00152489
79 2 -0.948297 4.0183 14.5736 5.99539 0.00393797 0.00731523 0.00852266
80 2 -0.882103 5.74431 14.5505 4.12581 0.00816661 -0.000868074 -0.00133364
81 2 -0.846171 5.65523 4.12521 7.36009 -0.00864028 0.00372494 0.00290994
82 2 -0.873058 7.68564 4.23155 6.2171 -0.00241953 -0.00819338 -0.00683567
83 2 -0.914658 7.49068 2.61839 8.02449 0.00595166 -0.000823847 0.00493262
84 2 -0.745095 6.14372 5.79746 2.52654 -0.0015551 -0.00338747 0.00162129
85 2 -0.885301 3.94579 6.06323 15.0933 -0.00712737 -0.00610395 0.00369466
86 2 -0.835365 5.42998 4.02151 14.6574 0.00414119 0.013065 0.000727403
87 2 -0.721937 5.96721 7.67229 4.10071 -0.000983673 -0.0157123 -0.00486501
88 2 -0.814495 7.78739 5.84025 4.37461 0.00322579 0.00359418 -0.00564353
89 2 -0.866703 8.01664 7.45732 2.22037 -0.0171945 -0.014254 0.00865396
90 2 -0.769846 2.61918 2.38674 9.03468 -0.00218801 -0.00873828 -0.00778151
91 2 -0.77456 2.05535 14.6848 7.40579 0.00697608 0.00828019 -0.00835181
92 2 -0.718965 15.1132 2.17601 7.34317 -0.00343136 0.0111819 -0.00131122
93 2 -0.960278 14.8124 15.1167 9.67463 0.0247331 0.00598303 -0.0018771
94 2 -1.05158 2.29791 4.37634 10.9712 0.00532136 0.000840644 0.00786717
95 2 -0.889629 3.85133 2.45293 11.3063 -0.00288837 0.00989156 -0.00141201
96 2 -0.847054 4.28605 4.19699 9.60126 -0.00254202 0.0113491 -0.00885886
97 2 -0.987889 2.53863 6.01512 12.8728 -0.00668922 0.0103139 -0.00972013
98 2 -0.980226 15.3334 4.11718 13.1439 0.00702501 -0.01154 0.0167444
99 2 -0.974468 14.8229 5.88762 11.4788 0.0135726 -0.0106711 -0.0134169
100 2 -0.833187 2.53701 7.9749 14.4572 -0.000374872 -0.00317274 -0.00726823
101 2 -0.811415 4.46806 7.57257 13.2955 -0.004218 -0.000855408 -0.0178105
102 2 -0.869494 5.89243 2.35227 12.8916 -0.01162 0.00500121 0.000484172
103 2 -0.849188 3.81754 15.1488 12.9952 0.00233019 0.00460112 -0.00185268
104 2 -0.920766 5.86002 14.8773 11.2871 0.00474168 -0.00553019 0.00698491
105 2 -0.887063 7.2935 2.43159 15.0468 -0.0022338 0.00687075 -0.0137925
106 2 -0.929083 7.38236 4.1249 13.0049 0.00417122 -0.00106665 0.00239035
107 2 -0.852441 5.94901 6.12055 9.18213 -0.00126526 -0.00142625 -0.00836704
108 2 -0.898988 5.49032 7.65447 11.1015 -0.00423609 -0.000111205 -0.0190876
109 2 -0.882923 7.57009 6.19141 11.297 -0.0122784 -0.0063437 -0.00375809
110 2 -0.958563 7.52776 7.90694 9.52877 0.0137784 0.00863985 -0.00672228
111 2 -0.784929 2.7884 9.37966 2.34732 -0.00411909 0.0123628 -0.00353405
112 2 -0.988217 15.0315 7.67244 2.04021 0.000688434 0.0128172 0.00611354
113 2 -0.772337 15.3645 9.80791 15.0437 0.0179763 0.00813937 0.00381159
114 2 -0.741989 2.79405 11.4426 3.6444 0.00559476 0.00594971 0.00574508
115 2 -0.762407 4.05723 9.36197 4.33017 0.00233771 -0.0119976 -0.00864992
116 2 -0.823475 4.70022 11.0153 2.01034 -0.00393304 0.00773594 0.0171639
117 2 -0.756099 2.50712 12.4912 6.1614 0.00302408 -0.00510105 -0.00566558
118 2 -0.709922 14.7343 11.0307 5.39465 0.0144341 -0.00586745 0.0125078
119 2 -0.75633 15.4575 13.1862 4.01723 0.00861288 0.00681608 -0.00620543
120 2 -0.918796 3.67463 12.9301 8.02405 0.00103703 -0.0103705 0.000406331
121 2 -0.748472 5.7426 9.46276 6.31139 0.00303829 -0.00105111 -0.011764
122 2 -0.838017 5.78724 11.1553 8.16379 0.00034262 0.00892304 0.00697531
123 2 -0.716783 7.68387 11.5794 6.25853 0.0102386 0.00964412 0.0188612
124 2 -0.686847 7.8048 9.5384 7.61508 -0.0114274 -0.00263861 0.00124987
125 2 -0.838147 6.50664 12.6318 2.20146 -0.00542258 -0.00328545 -0.00619426
126 2 -0.821198 4.64726 12.9937 14.4154 0.00556121 -0.00753112 0.00470603
127 2 -0.721927 6.11618 11.1537 14.4765 0.00646214 -9.0525e-05 0.000655081
128 2 -0.711666 7.76572 14.9977 2.59064 0.0113418 0.00365793 0.00959091
129 2 -0.73743 7.86385 13.0229 4.34851 -0.00580367 -0.00749681 -0.000819851
130 2 -0.74593 1.91687 9.76434 9.46692 0.0121376 -0.00916553 0.00260547
131 2 -0.751697 14.744 7.40165 9.30509 0.00867449 0.00142496 -0.0106607
132 2 -0.723974 14.7592 9.4987 7.44403 0.00403311 0.005118 0.00179181
133 2 -0.750933 2.30748 11.044 11.6672 -0.00708964 -0.00890418 -0.00273098
134 2 -0.768614 3.50313 9.05678 11.5976 0.00277318 -0.00261621 -0.00672115
135 2 -0.854849 4.01357 11.0907 9.78951 -0.00496877 -0.00746666 -0.00399285
136 2 -0.841628 2.40893 13.3079 13.1001 -0.011104 0.0125123 0.0133174
137 2 -0.789739 14.7913 11.7199 13.512 -0.00749465 -0.00250207 -0.0100235
138 2 -0.843311 14.9279 12.9252 11.2226 0.00536791 -0.00339026 0.0047007
139 2 -0.872181 6.03663 9.40246 12.7462 0.00220832 0.0261946 0.00446698
140 2 -0.94745 7.98073 9.43286 14.5669 -0.000840848 -0.000494877 0.0185747
141 2 -0.777264 8.08351 11.0562 12.6755 0.00541307 0.00340171 0.00513115
142 2 -0.756931 5.72501 13.0377 9.544 0.0111938 0.00928043 0.00147136
143 2 -0.715672 7.5109 14.6591 9.51114 -0.00259491 -0.00175299 -0.0106211
144 2 -0.825793 7.76373 12.7769 11.048 -0.00188536 0.00167554 0.0128508
145 2 -0.798642 9.50187 2.25223 2.48372 0.011777 -0.00333612 0.00523739
146 2 -0.808812 8.90102 14.7101 14.7008 -0.0123274 0.00408268 0.0151764
147 2 -0.86572 9.64448 4.00204 4.29047 0.00780295 -0.0048915 0.00223875
148 2 -0.700684 11.4911 2.27003 3.87337 -0.00770216 0.00729476 -0.00423511
149 2 -0.833247 11.2083 4.21759 2.00063 -0.0116213 -0.00222923 -0.00895141
150 2 -0.610338 9.60966 5.64475 5.86734 0.00593266 0.00580496 0.00100444
151 2 -0.840203 11.5038 5.83005 7.41758 0.000879702 0.00390192 -0.00584233
152 2 -0.687648 10.855 7.78998 5.53623 -0.0095383 0.00606633 -0.00433108
153 2 -0.763245 9.45443 7.38521 7.78521 0.000982008 -0.00724551 0.0039746
154 2 -0.786449 12.8314 2.53697 6.09222 -0.00170436 0.00510588 0.000185309
155 2 -0.840122 11.251 14.7632 6.01324 0.00684861 0.00241592 0.00678337
156 2 -0.685971 13.6447 14.5377 4.77804 -0.00458865 -0.0130195 0.00320415
157 2 -0.804129 13.4018 3.98991 7.97513 0.0184529 -0.00368306 0.00100024
158 2 -0.895818 13.2615 5.89792 2.43122 0.000350681 -0.00153844 0.00181507
159 2 -0.852693 11.7331 6.08196 14.6689 0.00613363 0.010575 -0.00858628
160 2 -0.722984 13.3264 4.08379 15.0527 -0.00789766 -0.000893288 -0.00359585
161 2 -0.843053 13.3796 7.55813 4.08423 -0.00453755 -0.00451973 -0.00483204
162 2 -0.797052 9.08998 2.43375 9.98389 -0.00973541 -0.00564575 0.00720399
163 2 -0.751412 9.11084 14.9021 7.90544 -0.00407473 0.00833148 0.00368452
164 2 -0.758656 9.03737 4.39925 11.1788 0.000293231 0.00763322 0.00963237
165 2 -0.765048 11.1732 2.93678 11.6947 -0.00769877 -0.0152809 0.00358674
166 2 -0.754971 11.1486 3.99223 9.22744 -0.0018692 0.0100285 -0.00255943
167 2 -0.955824 9.44395 5.73907 13.0285 0.00260504 -0.0189824 -0.0105292
168 2 -0.815896 9.7575 7.58199 14.6841 0.0044324 0.00752205 -0.00150346
169 2 -0.830297 11.2514 7.34244 12.7128 -0.000431763 0.00498575 -0.00682914
170 2 -0.754168 13.257 2.72166 13.0953 -0.00567701 -0.000724585 -0.00260665
171 2 -0.727706 11.149 15.2406 13.2964 -0.00189812 0.00655294 -0.0103902
172 2 -0.751418 13.2416 15.1251 11.5224 0.00640472 0.00977105 -0.00509868
173 2 -0.826344 13.1359 5.4512 9.5952 -0.0146643 -0.0225135 -0.00377496
174 2 -0.770952 12.937 7.3322 11.0133 -0.00244633 -0.00502212 -0.00658492
175 2 -0.789905 9.71011 9.25319 2.25697 -0.00682996 0.00488273 -0.0112081
176 2 -0.758386 9.52562 10.8486 4.47562 0.0162495 0.00462753 -0.000692437
177 2 -0.619182 11.8046 9.95731 3.90472 -0.00462952 -0.0116243 -0.0060084
178 2 -0.799786 11.024 11.5734 2.56568 0.0093936 -0.00601337 0.00211296
179 2 -0.757974 9.51527 13.0185 6.2864 0.00521507 0.0028826 0.00533033
180 2 -0.631283 11.0785 12.8914 8.10968 -0.0087034 -0.012428 -0.0128353
181 2 -0.717605 12.8334 9.30886 6.15393 -0.0225253 0.00837984 -0.0116658
182 2 -0.752298 13.4649 11.6823 7.63082 -0.0150777 0.00644727 -0.00343933
183 2 -0.815731 13.1851 13.1827 2.65544 0.00806265 -0.00834125 -0.0123757
184 2 -0.766945 11.1514 13.3475 15.0838 -0.0063257 0.0068409 -0.00735673
185 2 -0.800262 13.1128 11.4301 15.4732 2.08371e-05 -0.00296225 -0.00216771
186 2 -0.795828 9.70281 9.49396 8.93686 -0.00939995 3.33771e-05 -0.0132986
187 2 -0.932123 9.61427 11.1514 10.8379 0.0087111 0.00255351 -0.00387229
188 2 -0.85707 11.1484 9.14613 10.893 0.00968946 -0.00697387 -0.00449725
189 2 -0.768994 11.6964 11.0178 9.34345 0.00369767 0.010283 -0.0201896
190 2 -0.84871 9.83275 13.0186 12.6721 0.00206272 0.013512 -0.0038609
191 2 -0.61552 12.8405 9.1204 12.9795 0.000985978 0.00644569 -0.0100363
192 2 -0.762926 12.9838 13.291 9.91004 -0.00773204 0.000406213 -0.00768553
193 2 -0.589204 13.6015 13.9963 14.0085 0.00712377 8.66583e-05 -0.00397159
194 2 -0.653572 5.29471 11.9626 5.52531 -0.0130571 -0.001511 -0.000434485
195 2 -0.614054 7.24204 10.4885 3.62495 -0.00972232 -0.00562587 0.00685065
196 2 -0.61406 12.0595 11.7342 12.4528 0.000319255 -0.0089607 -0.00958087
197 2 -0.620321 12.368 1.65802 8.73265 0.000594736 -0.00242089 0.00229275
198 2 -0.627938 7.0303 3.25414 3.76508 -0.0058568 0.014326 0.0053576
199 2 -0.619649 6.34087 7.11118 6.76801 -0.00684883 -0.00624018 0.000512099
200 2 -0.619299 12.3793 11.9607 5.66284 -0.00746282 0.00346267 0.0116975
201 2 -0.59933 5.07668 12.4096 11.9544 -0.00221509 -0.0216338 0.00738505
202 2 -0.635698 15.531 11.9219 1.65392 -0.0132705 0.00379255 0.0145754
203 2 -0.579996 4.89474 8.47221 8.77339 -0.00150911 0.00813741 0.00340257
204 2 -0.683222 10.6369 10.2278 14.0011 -0.00585797 0.0152417 0.0038621
205 3 0.421502 13.4699 14.8204 14.382 -0.0269354 0.00902239 0.0251107
206 3 0.382771 14.3149 14.0756 13.3443 -0.0410831 -0.0265007 -0.0200002
207 3 0.361569 5.47354 12.3898 4.66231 0.0738599 -0.0136545 0.0295551
208 3 0.386665 5.10979 12.7141 5.96306 0.0350646 0.06176 -0.000493825
209 3 0.444523 7.02106 11.0988 2.99257 0.0136116 -0.0141927 0.00667791
210 3 0.375362 8.11582 10.0825 3.30259 -0.0296608 0.0206741 0.0108387
211 3 0.393736 11.2806 11.3033 12.836 -0.00235899 0.00711104 0.0433161
212 3 0.405732 11.8385 12.0199 11.5198 0.0686874 0.0116644 -0.0176544
213 3 0.418436 13.105 2.21204 9.00717 -0.00825199 -0.0279981 0.0119225
214 3 0.398438 11.6139 2.20374 8.60714 0.0116423 -0.0319623 0.0245906
215 3 0.442085 6.4152 2.5766 3.80657 0.00990309 -0.011629 -0.0195424
216 3 0.375684 7.69411 3.33873 2.92594 -0.0235876 -0.0790602 -0.0234446
217 3 0.415571 6.67308 7.1351 7.6813 -0.0319209 -0.016758 0.0224243
218 3 0.440315 6.6638 6.21376 6.47411 0.0297235 -0.0209109 0.0464713
219 3 0.43273 12.8052 12.6943 5.07573 -0.00672775 0.0246804 -0.0105945
220 3 0.431598 11.8966 11.9465 6.43806 0.00562284 0.0258326 0.0321416
221 3 0.446143 4.77521 12.0462 12.8125 0.010988 -0.00172765 -0.0232486
222 3 0.392195 4.25359 12.4764 11.4559 -0.0247029 0.0671462 0.0338213
223 3 0.401699 9.74868 10.5087 13.9556 0.0244288 -0.0407635 -0.0234916
224 3 0.421626 15.4498 11.5198 2.55586 0.0169252 -0.00882084 -0.0105584
225 3 0.418462 4.73683 8.74554 7.83378 -0.00706854 -0.0735675 0.00947419
226 3 0.407461 5.38264 9.20641 9.15138 0.00972073 0.0312496 -0.0895812
227 3 0.409788 12.4733 10.1254 12.9622 -0.0217933 -0.0597987 0.0194906
228 3 0.396697 10.87 10.5636 14.8656 -0.0405926 -0.0507559 0.0270055
ITEM: TIMESTEP
10000
ITEM: NUMBER OF ATOMS
228
ITEM: BOX BOUNDS pp pp pp
1.4905601335403516e+00 1.5669439866459669e+01
1.4905601335403516e+00 1.5669439866459669e+01
1.4905601335403516e+00 1.5669439866459669e+01
ITEM: ATOMS id type q x y z vx vy vz
1 1 1.63513 15.5341 1.70804 1.71918 -0.00754079 -0.00496813 -0.0132682
2 1 1.68773 3.57832 3.08901 3.22856 0.00711799 0.0050125 0.00250639
3 1 1.49948 1.7365 4.97057 4.77793 -0.00485066 -0.0093459 -0.00171593
4 1 1.69315 3.22125 6.82204 6.87781 -0.00291595 0.00489813 -0.00868981
5 1 1.64641 5.33796 15.5947 5.07682 -2.47943e-07 -0.00514696 0.0101744
6 1 1.69537 7.13883 3.28337 6.62753 0.0040424 -0.00353142 0.00337908
7 1 1.57183 4.99115 4.92933 15.5235 0.00302922 0.00218946 -0.00563472
8 1 1.63338 6.80312 6.53065 3.20272 0.00341943 -0.00355234 -0.00079663
9 1 1.7628 1.66193 15.486 8.42953 -0.0023252 0.000768922 0.0047211
10 1 1.59604 3.44904 2.97388 10.2224 0.00547875 0.00197562 -0.00237049
11 1 1.37314 1.98055 4.89712 12.1103 0.00568499 0.0085351 0.00420684
12 1 1.66604 3.30669 7.03107 14.2035 0.00301013 -0.00198668 -0.00862447
13 1 1.59944 5.03244 15.634 12.4366 -0.00751311 -0.00101485 -0.00576349
14 1 1.66205 6.91289 3.51172 13.8054 0.022362 -0.000723549 0.0034248
15 1 1.39464 5.22702 4.9591 8.53164 0.000160143 -0.0137931 0.00657159
16 1 1.63412 6.78228 6.99874 10.6227 -0.00384356 0.00321297 0.000141918
17 1 1.75976 15.5841 8.70562 1.69621 0.00545128 0.000768172 -0.00167954
18 1 1.69399 3.35651 10.4327 3.32822 0.00639488 0.0042167 -0.00810098
19 1 1.59803 1.58181 12.133 5.01927 -0.00783278 0.00148459 -0.0123253
20 1 1.7977 3.55653 13.8226 6.81689 -0.000459433 -0.000147918 0.00625241
21 1 1.79955 5.08511 8.33871 4.96001 0.0011931 0.00061955 -0.00232177
22 1 1.49894 6.79029 10.211 6.75467 -0.00322932 0.00792927 -0.00468715
23 1 1.47484 5.04658 12.4027 1.64251 -0.00554836 0.0039317 -0.00454521
24 1 1.60757 7.16107 13.8876 3.35674 0.0120565 0.0109308 0.0064465
25 1 1.58483 15.5227 8.61048 8.59094 -0.000915769 -0.00104916 0.00474403
26 1 1.70614 2.97058 10.338 10.4701 -0.00164983 0.0062065 0.00435966
27 1 1.63355 15.5722 12.2908 12.2359 0.00176305 -0.00238623 -0.00523464
28 1 1.63849 3.02885 14.1336 14.0716 -0.000977817 -0.00220642 0.000589304
29 1 1.76985 4.84676 8.7798 12.3535 -0.00479372 -0.00168163 -0.00480656
30 1 1.60084 6.72525 10.7606 13.8644 -0.00320612 -0.00256455 0.000104464
31 1 1.55388 5.06208 11.9521 8.8376 -0.00366464 -0.00239206 0.000722735
32 1 1.60721 6.84742 13.8962 10.4645 0.0109935 0.000517045 -0.00131109
33 1 1.51227 8.58014 1.72794 1.63231 0.00179533 0.00390661 0.00366473
34 1 1.75034 10.7287 3.21817 3.38324 -0.00456365 -0.00333047 0.00150462
35 1 1.67283 8.85713 5.09763 4.85643 -0.00989032 0.00444239 0.000192422
36 1 1.7449 10.3921 7.09518 6.8035 0.000621222 -0.00238274 -0.00269761
37 1 1.58496 12.1592 1.58117 5.446 0.00803172 0.0013725 -0.00269008
38 1 1.636 14.3493 3.31849 6.82867 -0.0109469 -0.00990332 0.00588277
39 1 1.81061 12.2298 4.9686 15.5327 -0.00373911 0.0107586 0.00330651
40 1 1.74134 14.0437 6.62794 3.15778 -0.00602467 -0.00823821 0.00408226
41 1 1.54612 8.61309 15.5957 8.54479 -0.00633284 -0.017404 -0.000935194
42 1 1.51218 10.4262 3.39601 9.99017 -0.0042393 -0.00431998 -0.00982614
43 1 1.77892 8.65322 5.14003 12.0059 -0.00366296 -0.00470673 -0.00657595
44 1 1.80363 10.2041 6.62132 14.0541 0.00387645 0.0103618 0.00437867
45 1 1.60914 11.9119 1.64892 12.0837 0.00286999 0.00475027 -0.000815188
46 1 1.74276 13.8835 3.24856 13.784 0.00653545 -0.00690512 -0.00588579
47 1 1.55767 12.3507 5.18582 8.21549 0.00358606 0.00204274 0.00603758
48 1 1.31991 13.8784 6.63048 10.3502 -0.00478367 0.000470778 0.00133353
49 1 1.45439 8.33108 8.55266 15.4623 0.00785192 0.00614189 -0.00797966
50 1 1.33682 10.3171 10.3774 3.26011 0.00427562 0.0092415 -0.00667026
51 1 1.60629 8.70049 11.968 5.30908 0.0054286 -7.55288e-06 -0.00247749
52 1 1.81949 10.4848 13.7911 6.9175 -0.00212297 -0.00668655 -0.000558572
53 1 1.67801 12.1508 8.42653 4.73514 -0.004447 0.00191764 0.00396705
54 1 1.63586 13.7069 10.2185 6.66436 -0.00257814 -0.00530382 0.00707201
55 1 1.59024 11.8844 12.6891 1.81118 0.00607542 0.000531007 -0.00331745
56 1 1.67277 13.9497 14.1544 3.6852 -0.00731162 -0.00622815 0.00311767
57 1 1.63451 8.52702 8.51646 8.70326 0.00836995 0.0104591 0.00852731
58 1 1.71819 10.3869 10.3387 10.5222 -0.00634037 0.00317481 -0.00519571
59 1 1.81606 8.75696 12.3167 12.0356 -0.00461096 5.05205e-05 0.00283436
60 1 1.81797 10.2596 14.081 13.9302 0.00574306 -0.00885627 0.00512469
61 1 1.48908 11.9701 8.35077 12.0251 0.00151923 0.00665999 0.000618101
62 1 1.40691 14.3008 11.1486 14.79 0.0018714 -0.0017737 -0.000504917
63 1 1.7058 12.2019 12.0149 8.70539 -0.00826121 0.000372985 0.00762708
64 1 1.67972 13.8438 14.0694 10.3437 -0.0189617 0.0089055 -0.00658273
65 2 -0.782525 2.72141 2.04222 2.41525 -0.00133959 -0.00490363 0.00151362
66 2 -0.906318 1.97834 14.8469 14.8872 -0.0059073 0.00977205 -0.0183087
67 2 -0.885242 14.639 2.67314 15.0185 -0.0114086 -0.00862834 0.0154401
68 2 -0.845554 14.8753 15.221 2.92979 -0.00760608 0.0082844 -0.0114509
69 2 -0.819901 2.95443 4.07102 4.21148 0.00963172 -0.00976622 -0.0140386
70 2 -0.827361 4.48467 2.10029 3.88132 -0.00229277 0.00164133 -0.006716
71 2 -0.90829 4.47148 3.72631 2.10014 0.015079 0.00122981 0.000845188
72 2 -0.734213 2.23841 6.20963 5.80621 0.00627226 0.00235544 -0.0143796
73 2 -0.771098 15.3318 3.77087 5.67673 -0.0134887 0.00657419 0.00704096
74 2 -0.858756 14.9835 5.55664 3.68882 0.0113141 0.00922964 -0.00408532
75 2 -0.795509 4.07076 5.77108 7.53345 0.00508766 0.000554085 -0.00466345
76 2 -0.912926 4.16439 7.53819 5.83631 -0.00412966 -0.00955437 0.00667096
77 2 -0.843195 2.27263 7.62287 7.82417 -0.000623346 0.000276029 -0.00411956
78 2 -0.860725 6.19766 2.57709 5.77348 0.00588955 -0.00823101 -0.000651228
79 2 -0.887442 4.22373 14.7129 5.84527 -0.00481239 -0.00373412 -0.00273734
80 2 -0.850113 6.25632 14.5805 4.48203 -0.0131656 -0.00780093 0.00366772
81 2 -0.736846 6.18341 3.93322 7.76852 5.1959e-06 -2.57901e-05 0.0107812
82 2 -0.858144 7.96721 3.98714 5.49819 -0.00366714 -0.0184653 0.00601134
83 2 -0.803086 7.96165 2.15792 7.26907 -0.00204947 0.0141486 -0.00492187
84 2 -0.850148 5.79325 5.66738 2.52216 0.00474947 -0.00738153 0.00527367
85 2 -0.796346 4.05343 6.22027 15.2061 -0.00781013 0.00155012 0.00698658
86 2 -0.839741 6.152 4.67329 14.4459 0.00150226 0.00026442 0.00852125
87 2 -0.871921 6.02121 7.39393 4.2766 0.00571439 -0.00682032 -0.000836637
88 2 -0.886885 8.10528 5.89209 3.74384 0.00621354 -0.0148596 0.00265367
89 2 -0.720767 7.29451 7.74552 2.22977 -0.011986 -0.00209192 0.00216052
90 2 -0.837504 2.66455 1.81096 9.48646 -0.0137879 0.00379908 -0.00631866
91 2 -0.918353 2.54668 14.7625 7.45212 0.00145847 0.0111549 0.00990654
92 2 -0.901873 15.1109 2.50829 7.88825 -0.00878357 -0.00597205 -0.00831784
93 2 -0.860331 14.6691 14.972 9.45676 0.0102276 -0.0041591 0.00133498
94 2 -0.769871 2.93299 3.97776 11.238 -0.009175 0.00195024 0.00623052
95 2 -0.735674 4.51384 2.41153 11.3547 -0.000763751 -0.0145536 0.00748051
96 2 -0.71403 4.26604 3.88308 9.28013 -0.000356959 0.00271216 -5.21522e-05
97 2 -0.671052 2.88938 5.62068 13.3794 -0.00724649 -0.0163151 0.00332234
98 2 -0.723286 14.8852 4.0664 12.808 0.00870031 -0.00391122 -0.000387639
99 2 -0.642281 15.2964 5.88031 11.2154 -0.00190778 0.00691598 -0.00197304
100 2 -0.906762 2.09893 7.80747 14.8294 0.00312274 0.00469904 -0.000240491
101 2 -0.905846 4.24796 7.75939 13.295 -0.0069879 0.00404938 -0.00621043
102 2 -0.814624 5.98338 2.39001 13.2611 0.00278543 2.06145e-05 -0.0036591
103 2 -0.901766 3.83286 15.1557 13.3142 -0.0140141 -0.00440527 -0.00260977
104 2 -0.783257 5.96944 14.5654 11.7911 0.0102811 0.0129638 0.00849211
105 2 -0.764416 7.99942 2.90947 14.842 0.00451826 -0.0113849 4.00518e-06
106 2 -0.860417 7.70338 4.08656 12.6406 0.0026745 0.0124447 -0.00548529
107 2 -0.689131 5.94747 5.84314 9.91902 -0.000611146 0.00761161 0.0100762
108 2 -0.855115 5.89166 8.02885 11.6463 -0.000597206 -0.0210896 -0.00644126
109 2 -0.874993 7.88279 6.24998 11.3556 0.00453825 0.0114795 -0.00412286
110 2 -0.930907 7.62364 7.72597 9.56261 -0.000392901 -0.0140932 -0.00203997
111 2 -0.877371 2.34204 9.72507 2.44971 0.0082564 -0.00247403 0.00215105
112 2 -0.905774 14.8063 7.79486 2.68563 -0.00074337 0.00261883 -0.00762284
113 2 -0.810859 14.543 9.69715 15.4196 -0.00227688 -0.00015314 -0.00147526
114 2 -0.889389 2.75809 11.481 4.26507 0.00584834 -0.00312641 0.00662855
115 2 -0.817258 4.0684 9.13648 4.0964 0.00416382 -0.011054 0.00450549
116 2 -0.810464 4.40306 11.1277 2.47872 -0.0059549 -0.0046102 0.0117442
117 2 -0.83641 2.70095 12.8261 6.0533 0.00123366 0.00274411 -0.00329417
118 2 -0.668729 15.0437 10.8765 5.73835 0.0170896 -0.000523234 0.00767735
119 2 -0.886424 14.698 13.0333 4.42295 -0.0143458 -0.00177773 -0.0074134
120 2 -0.837792 4.33037 13.1346 7.98117 0.00180738 -0.0158707 -0.00389196
121 2 -0.949189 6.03089 9.19095 5.85165 0.00352657 -0.0136243 -0.0070206
122 2 -0.831067 5.68269 10.8781 7.82715 0.00366789 0.0040755 0.00489591
123 2 -0.798445 7.96977 11.1999 6.39715 -0.00643901 -0.0125408 -0.00570464
124 2 -0.745117 7.77672 9.58845 7.83683 -0.0104746 -0.00328932 0.00480908
125 2 -0.795014 5.97969 13.1041 2.74341 -0.00879897 -0.0155769 -0.00319739
126 2 -0.881141 3.92853 13.1628 14.8906 -0.00236874 0.0100224 0.00628317
127 2 -0.836258 6.09786 11.8409 14.7823 -0.0119438 -0.00538152 0.00662139
128 2 -0.812393 7.53787 14.8015 2.21135 0.00890103 0.00838661 0.00502266
129 2 -0.824889 8.05366 12.7421 4.01717 0.00137805 0.00379359 -0.0133594
130 2 -0.936233 2.01605 9.56894 9.58133 -0.0079497 0.00259774 0.00557879
131 2 -0.744373 14.3539 7.70062 9.3256 0.00483776 0.000135586 0.00282697
132 2 -0.761315 14.7167 9.34139 7.40564 0.0123705 0.0135056 -0.00841575
133 2 -0.807628 2.01547 11.2851 11.1968 0.00337596 -0.00799998 0.0155327
134 2 -0.915383 3.67428 9.37329 11.5499 0.00768774 0.00141259 -0.00738936
135 2 -0.853422 3.98658 11.2748 9.85757 -0.00297198 0.0110124 0.00219885
136 2 -0.915242 2.34072 13.2835 12.8721 0.0149298 -0.00946601 -0.00786225
137 2 -0.941159 14.6997 11.6471 13.3402 0.000692421 -0.000624073 0.00868205
138 2 -0.792467 14.9246 13.1471 11.0955 -0.00396363 0.0126192 -0.000230916
139 2 -0.829428 5.622 9.79724 13.3527 0.0124816 -0.00239345 0.00653054
140 2 -0.711274 7.76216 9.80309 14.4221 0.00294918 0.00744688 0.001888
141 2 -0.769774 7.81655 11.3303 12.773 -0.00862618 0.00533798 -0.00164416
142 2 -0.795185 5.91338 12.8138 9.72942 -0.00813023 -0.0161221 -0.00327514
143 2 -0.737166 7.3693 15.0209 9.46849 -0.00181737 0.0035649 -0.00483212
144 2 -0.916319 8.00832 13.2468 11.1027 -0.000853496 0.00594351 -0.0208403
145 2 -0.791302 9.79344 2.16086 2.65847 0.000941158 -0.00156761 0.000310218
146 2 -0.789122 9.30505 14.9286 14.7787 -0.00306283 0.00553107 -0.00190147
147 2 -0.892035 9.89569 4.28177 4.02841 0.00193335 0.0166057 0.0110021
148 2 -0.880926 11.7125 2.5117 4.23847 -0.0132184 -0.0159377 0.0203252
149 2 -0.85064 11.7592 3.94569 2.39819 0.0113822 0.00807021 -0.00384858
150 2 -0.790943 9.58066 5.95678 5.92638 -0.00663299 0.012208 -0.00774357
151 2 -0.900502 11.2829 6.28754 7.61637 0.00340585 -0.00474751 -0.00429212
152 2 -0.853694 10.9563 7.857 5.5383 0.00858707 -0.00524551 -0.00676368
153 2 -0.903338 9.19805 7.64688 7.46613 0.00527954 0.00922663 -0.00748018
154 2 -0.818855 13.2836 2.30423 6.25164 -0.0124621 0.0100612 -0.00244071
155 2 -0.97403 11.1101 14.89 6.21628 -0.00751342 -0.00741832 0.00701085
156 2 -0.800902 13.172 14.5581 4.87728 0.00714188 -0.000888678 -0.00390453
157 2 -0.863644 13.2747 4.30551 7.38897 0.00831013 -0.0121097 0.0140425
158 2 -0.839996 13.3824 5.71438 1.88661 -0.0128865 0.00815467 0.0181357
159 2 -0.949402 11.155 5.82778 14.896 -0.0228784 -0.00498677 -0.010675
160 2 -0.849287 12.8115 4.08393 14.3047 0.0115983 0.00962328 0.00263487
161 2 -0.84296 12.8987 7.17064 4.02427 0.00969544 -0.0110206 -0.00562686
162 2 -0.886272 9.40864 2.46498 9.28785 -0.00111075 -0.0192708 0.00806411
163 2 -0.790157 9.3491 14.2962 7.96289 0.00378428 0.000947928 -0.000597507
164 2 -0.710335 9.55813 4.50009 10.8085 0.018356 0.0102145 0.00255508
165 2 -0.823825 11.1212 2.68806 11.2584 -0.00250141 0.00861322 0.000689232
166 2 -0.780387 11.2419 4.20454 8.9033 -0.00443434 0.0190631 0.0094151
167 2 -0.927875 9.58791 5.73374 13.0327 -0.0103045 0.0187734 0.0107606
168 2 -0.859122 9.07024 7.5766 14.6006 0.000826312 0.0110695 -0.000333873
169 2 -0.755791 11.2786 7.53267 13.2637 -0.00849033 0.00604246 0.00385221
170 2 -0.8427 13.1599 2.34593 12.8166 -0.0107403 -0.00434876 -0.00122069
171 2 -0.905344 11.0298 15.1532 13.1995 0.00969782 0.00208926 0.000123683
172 2 -0.87547 12.7924 14.7558 11.2173 -0.00431144 0.00343972 0.00192527
173 2 -0.733524 13.4091 5.55308 9.3273 0.0103438 -0.00874215 0.00440416
174 2 -0.715973 12.4737 7.14714 11.2094 -0.00429867 -0.00291864 0.00636911
175 2 -0.701747 9.29863 9.26727 2.45425 -0.020233 0.000583245 -0.0190749
176 2 -0.785596 9.63718 10.9332 4.48356 0.00132243 0.00263626 0.0112067
177 2 -0.767475 11.5054 9.19839 3.61577 0.00272 0.00291525 0.000663206
178 2 -0.781505 10.9552 11.7589 2.74478 -0.00408859 0.0126106 -0.00458796
179 2 -0.862067 9.65093 12.9825 5.91373 0.00710559 -0.0134539 0.00383735
180 2 -0.917792 11.2395 12.7667 7.75119 -0.0172993 0.00725769 -0.0172198
181 2 -0.871435 13.0752 9.20827 5.68595 -0.00808011 -0.0147191 0.00295116
182 2 -0.867862 13.1044 11.1473 7.71489 0.00860681 0.00651312 0.00874612
183 2 -0.837157 12.8476 13.6394 2.62289 -0.00262209 0.00452902 -0.00429046
184 2 -0.906252 10.8715 13.0794 14.9723 0.00253151 0.00774967 -0.0108637
185 2 -0.808156 12.7912 11.6291 15.2953 -0.00741976 0.00496385 -0.00216432
186 2 -0.7891 9.5543 9.37188 9.50814 -0.00291736 0.00598222 0.00549255
187 2 -0.902284 9.35853 11.2998 11.0376 0.000445245 0.0275308 -0.00022517
188 2 -0.906756 11.0727 9.56713 11.6499 0.0172653 0.00128617 0.00407613
189 2 -0.846003 11.4328 10.9038 9.52859 0.00758605 0.009078 -0.00146156
190 2 -0.992366 9.55201 13.074 13.0895 0.00538232 0.00757691 -0.00433508
191 2 -0.748813 13.207 9.06398 12.4972 -0.00429277 0.00107442 0.00149269
192 2 -0.836285 13.095 12.8893 9.61468 0.0100111 0.00340335 0.00881521
193 2 -0.707719 13.6851 14.0803 13.8102 0.00346278 -0.00773878 -0.00306908
194 2 -0.650775 5.50661 11.9441 5.55499 0.00354671 0.00441593 -0.00232918
195 2 -0.574157 6.93204 10.1435 3.23299 -0.0101578 0.000172752 0.0128582
196 2 -0.58524 12.2343 12.0175 12.0442 0.00366822 -0.0129939 0.0135941
197 2 -0.610413 12.158 15.2576 8.50804 0.010551 -0.0184063 -0.0117934
198 2 -0.625836 7.22363 3.02873 2.98 0.00294948 -0.00302078 -0.0139303
199 2 -0.664949 6.53582 6.29982 7.42468 0.0147428 -0.0018564 0.00294967
200 2 -0.676466 12.5889 11.4512 5.07313 0.0126104 -0.00126763 0.00971047
201 2 -0.573441 4.61004 12.6554 12.1934 -0.000202332 0.00670326 -4.88268e-05
202 2 -0.693368 15.0727 12.1872 1.52553 0.00838199 -0.0136991 -0.00106372
203 2 -0.644665 4.54092 8.2085 8.26387 -0.00281055 0.00237202 0.0101315
204 2 -0.590998 10.7922 10.2004 14.0841 0.0075221 -0.0206125 -0.00219734
205 3 0.406167 14.2846 13.7279 14.366 -0.007156 0.0186272 0.0353743
206 3 0.422544 13.9854 14.4194 13.0657 0.0152933 -0.022497 0.0447863
207 3 0.373214 4.87412 11.4917 6.14942 0.0247154 -0.00700268 0.0179186
208 3 0.429162 4.96626 12.5583 5.04243 0.0367041 0.0588445 0.0311023
209 3 0.398311 6.95958 11.239 3.17839 -0.0465557 -0.0782098 -0.0368924
210 3 0.426027 7.7567 9.81286 3.44496 0.0320798 0.0475487 -0.0228885
211 3 0.392942 11.4252 11.6779 12.4856 0.0297813 -0.0967854 -0.00245358
212 3 0.388524 12.8554 12.3594 12.8088 -0.00211476 -0.0039333 0.00746429
213 3 0.408518 12.7466 1.7925 8.30564 0.00548758 -0.0172069 0.00769207
214 3 0.324547 11.372 1.65718 8.78925 0.0375131 -0.00193993 -0.0475274
215 3 0.403019 6.32053 2.72311 2.71694 0.0544026 0.015743 -0.0360984
216 3 0.407481 6.99021 3.95033 3.06972 0.0108375 0.0273677 0.0186781
217 3 0.437132 7.33471 6.84155 7.4176 -0.0255391 0.0229451 0.00387097
218 3 0.390618 5.6747 6.87233 7.39225 0.0234813 -0.0823612 0.0427029
219 3 0.433446 12.6041 12.3101 5.51677 -0.0546976 0.0467964 0.000250273
220 3 0.441285 12.1709 11.2186 4.27175 0.0102399 0.0292566 0.0190095
221 3 0.410017 4.47358 12.4219 13.0366 -0.0359984 0.0675003 -0.0184541
222 3 0.392885 4.3756 13.6077 12.1222 -0.0183839 -0.00696268 0.0232997
223 3 0.432564 11.3657 9.5034 13.845 -0.0040772 0.048574 -0.0332986
224 3 0.38141 1.50172 12.7221 15.268 -0.0680412 0.0196018 -0.0330741
225 3 0.357173 5.02322 8.73904 7.55106 -0.0501945 0.0347716 -0.00504518
226 3 0.330884 4.14486 8.98457 8.87819 -0.0224167 0.00619297 0.0178519
227 3 0.423359 13.5323 9.69506 11.8625 0.0298117 0.0102526 0.00800099
228 3 0.40709 10.9783 10.748 14.9044 -0.0146075 0.0346226 -0.0592143
ITEM: TIMESTEP
12000
ITEM: NUMBER OF ATOMS
228
ITEM: BOX BOUNDS pp pp pp
1.4834308569256063e+00 1.5676569143074360e+01
1.4834308569256063e+00 1.5676569143074360e+01
1.4834308569256063e+00 1.5676569143074360e+01
ITEM: ATOMS id type q x y z vx vy vz
1 1 1.54911 15.4539 1.5848 15.6618 0.00580838 -0.00649079 0.00173776
2 1 1.57225 3.25546 3.19995 3.38438 0.00287701 0.00175932 -0.00915236
3 1 1.66435 15.6551 5.1206 5.06762 0.00132614 0.00315562 0.00207616
4 1 1.55475 3.47596 6.74445 6.74447 -0.00125851 -0.00335499 -0.00113702
5 1 1.49271 5.0124 15.4015 5.24769 -0.00431386 0.00595664 -0.00821647
6 1 1.68511 6.95128 3.17316 6.70318 -0.00363915 0.00033574 0.00697359
7 1 1.87564 5.13767 4.74155 1.61599 -0.00259582 -0.00530759 -0.00391224
8 1 1.43492 6.7881 6.72918 3.01488 0.00172703 0.00769026 -0.00580098
9 1 1.70179 15.6504 15.4431 8.5508 -0.00467408 0.00358144 0.00826209
10 1 1.79414 3.22339 3.00028 10.2874 0.000630131 -0.0015615 -0.00124673
11 1 1.71619 1.64628 4.89785 12.0938 0.0082548 0.00207799 -0.00129546
12 1 1.77935 3.43 6.44267 13.9929 0.000100982 -0.0091093 -0.00256493
13 1 1.65823 5.05036 1.66515 12.2142 -0.000261936 -0.00140172 0.00577893
14 1 1.79248 6.92415 3.28672 13.8305 -0.00705324 -0.000248746 0.00274549
15 1 1.76196 5.01472 4.72209 8.44248 -0.00487451 -0.000474778 0.00587746
16 1 1.40487 6.64236 6.84143 10.1353 0.00317326 0.00750583 0.00309522
17 1 1.44427 1.74104 8.2841 15.6556 0.00357775 -0.00925902 -0.00504804
18 1 1.70605 3.43095 10.3106 3.13765 -0.00259796 0.0117479 0.00265834
19 1 1.74645 1.74064 12.1699 4.78916 -0.00192893 -0.00610611 -0.00629074
20 1 1.77011 3.25244 13.6932 6.8529 0.00172357 -0.00695815 -0.0106142
21 1 1.59921 5.20064 8.47246 4.90257 7.62735e-05 0.0107873 0.00570339
22 1 1.34996 6.85212 10.4446 6.61356 0.00274722 0.00911788 -0.000312193
23 1 1.64901 5.15666 12.2083 1.51645 0.00321679 -0.010116 -0.00214121
24 1 1.73047 6.96829 14.0468 3.26128 0.00907767 0.00410151 -0.000909306
25 1 1.63003 15.6891 8.66218 8.41112 0.00715074 0.000947014 0.00519419
26 1 1.4423 3.2433 10.2654 10.6509 -0.00329655 -0.000822358 -0.00744265
27 1 1.68802 15.5629 12.1939 12.4343 0.00908 -0.00196903 0.00518068
28 1 1.74056 3.33989 13.9221 14.0107 -0.0111208 -0.00131294 -0.000543059
29 1 1.60213 5.00178 8.30251 12.2484 -0.00214603 0.0129575 -0.01022
30 1 1.62771 6.76546 10.4675 13.7237 -0.00106216 -0.000905936 0.0017727
31 1 1.40257 4.97076 12.2434 8.83536 -0.00221392 -0.00523051 0.00977771
32 1 1.60666 6.84107 14.1715 10.3401 -0.0100175 0.00138038 -0.00512068
33 1 1.48397 8.65631 1.68363 15.6335 -0.00617033 0.00313492 0.00587064
34 1 1.81783 10.5233 3.35146 3.21528 -0.000453677 -0.00667865 0.00575623
35 1 1.62737 8.78649 5.02249 5.14205 0.00663393 0.000408472 0.00721178
36 1 1.73291 10.4358 6.81706 7.01747 0.000428708 0.0015388 3.26817e-05
37 1 1.8722 12.1508 1.69765 5.08698 0.00897897 -0.00623477 -0.000419787
38 1 1.83381 14.0217 3.35486 6.84744 -0.00476098 0.00951718 -0.00361831
39 1 1.76199 12.169 5.22297 15.5693 0.00733315 0.0048371 0.00576083
40 1 1.55568 13.9166 6.81823 3.35198 0.00424822 -0.00374447 -0.0029039
41 1 1.59312 8.6684 1.6832 8.6653 -0.0113737 0.00829846 0.000946494
42 1 1.43015 10.4119 3.40296 10.6579 -0.00317318 -0.00682571 0.00783675
43 1 1.7309 8.41026 5.3036 12.2281 -0.00302247 -0.0084914 -0.00610536
44 1 1.74877 10.4155 6.84204 13.8091 -0.0117177 0.000102605 -0.00282344
45 1 1.60391 12.1955 15.4939 12.2758 0.00386872 0.00333275 8.44933e-06
46 1 1.67049 13.8476 3.41078 13.9327 -0.00113686 -0.0047948 -0.00689442
47 1 1.68227 12.3553 5.06473 8.58645 0.00279082 0.00256212 0.00824498
48 1 1.66811 14.1716 6.81948 10.2307 -0.00576686 -0.00345878 0.000279146
49 1 1.51935 8.69275 8.73325 15.5733 0.0025078 -0.000963099 -0.0108563
50 1 1.67237 10.4904 10.3307 3.43725 -0.00205607 0.00205061 0.00416364
51 1 1.66948 8.73979 12.3753 5.08112 0.000752851 0.00100206 -0.0140136
52 1 1.46933 10.5628 14.0094 6.86 0.00288778 0.00377878 -0.00260661
53 1 1.69589 12.1183 8.38633 5.17021 0.00492546 0.00156889 0.00619452
54 1 1.43802 14.0106 10.6633 6.77365 -0.0120859 -0.0056244 -0.00603571
55 1 1.59478 11.8428 12.4228 1.67643 -0.00269759 -0.00160853 -0.00820364
56 1 1.73727 13.7708 13.8761 3.59742 0.00329993 0.00200037 0.00321427
57 1 1.58728 8.62302 8.70429 8.63738 -0.00995425 0.0011691 -0.0106254
58 1 1.61063 10.2724 10.4327 10.4552 0.00206689 -0.00340928 0.00656742
59 1 1.73581 8.60415 12.2843 12.1014 -0.00165896 -0.00156303 0.0082727
60 1 1.72621 10.2137 14.0158 14.0268 -0.0112865 -0.000255567 -0.0073149
61 1 1.73928 12.0509 8.39822 11.7624 -0.000885401 0.00539236 -0.00830058
62 1 1.29936 14.3055 10.7374 14.8233 0.0102431 -0.00527752 0.00679586
63 1 1.57867 12.1624 12.067 8.8595 -0.00315184 -0.0155948 0.00811808
64 1 1.78401 14.0015 13.8058 10.4843 0.00376082 -0.00292582 -0.00135171
65 2 -0.692592 2.06411 2.53982 2.46093 -0.00292449 -0.0119178 0.0062875
66 2 -0.746553 2.33735 15.1238 14.7436 -0.0167829 0.0100136 0.00898048
67 2 -0.844338 14.7715 2.67675 14.8881 -0.0223553 0.000352959 0.00881045
68 2 -0.724726 14.8613 14.5516 2.61039 0.009444 0.00350482 -0.00240082
69 2 -0.817214 2.55533 4.36099 4.15528 0.00830414 -0.0224331 -0.00547887
70 2 -0.77589 3.86155 2.10345 4.31444 -0.00416227 -0.00659331 0.00232758
71 2 -0.875707 4.08505 3.90354 2.2419 -0.0112382 -0.00092901 -0.00162726
72 2 -0.74044 2.16367 6.18256 5.98763 -0.000393139 0.000228282 -0.0102641
73 2 -0.898201 15.0006 4.30868 6.17897 0.00509571 -0.0110022 0.00451677
74 2 -0.783257 14.4654 5.63886 4.28197 -0.00962465 0.00313569 0.0096067
75 2 -0.825362 3.95927 5.59197 7.68519 0.00158867 0.00833316 0.00342936
76 2 -0.809625 4.42509 7.26308 5.66138 0.00981015 -0.000812228 -0.00506758
77 2 -0.792345 2.47637 7.90056 7.55465 0.00837401 -0.00882765 0.000425244
78 2 -0.799528 6.20273 1.98039 6.06307 -0.00134142 -0.000781815 -0.0103066
79 2 -0.822529 4.45205 14.505 6.36257 -0.0109447 -0.00269653 0.0128852
80 2 -0.883131 5.90466 14.5259 4.25922 -0.0026443 -0.00355381 -0.00741929
81 2 -0.834645 5.67308 3.84501 7.37639 0.00340438 -0.00704954 0.00215637
82 2 -0.884843 7.98417 4.05584 6.02283 -0.00260484 0.00547723 -0.00338004
83 2 -0.81729 7.79892 2.6942 7.89607 0.00181908 -0.0116571 0.0070685
84 2 -0.90478 6.21741 5.41297 2.41473 0.0052188 -0.00236729 -0.0150024
85 2 -0.962002 4.26063 5.82696 15.0155 0.0034891 -0.00156084 0.00512865
86 2 -0.884039 5.80123 3.83579 14.8293 0.00573229 -0.000168535 -0.0107583
87 2 -0.843888 5.99457 7.89725 3.73412 0.00281086 -0.00732241 0.00580808
88 2 -0.622824 7.72068 6.2171 4.28578 0.00652066 0.016334 0.00490642
89 2 -0.734842 7.87714 7.62026 1.99393 -0.006464 -0.00177266 -0.00501857
90 2 -0.863491 2.16946 2.37331 9.44871 -0.000991825 0.0152084 -0.00446195
91 2 -0.890066 2.29588 14.7222 7.47524 0.000817297 0.0231146 0.0186773
92 2 -0.793741 14.7066 2.16892 7.66095 -0.000300238 -0.00446436 -0.0109215
93 2 -0.912877 15.0218 14.4238 9.55443 0.0177359 0.00830858 0.000911336
94 2 -0.821995 2.40419 4.05887 11.0988 0.0057647 -0.00598813 0.00878576
95 2 -0.912503 3.87767 2.25278 11.4725 0.002314 -0.00280654 -0.00137439
96 2 -0.882555 4.131 3.77501 9.30571 0.0131214 0.00835942 0.00926593
97 2 -0.925686 2.60356 5.82189 12.8401 -0.00711195 -0.00837663 0.00413827
98 2 -0.834206 14.9213 3.99223 12.9202 -0.00674006 -0.00698192 -0.00800298
99 2 -0.736695 14.9596 5.5638 10.877 0.000917508 -0.00462796 0.00412229
100 2 -0.768908 2.2411 7.45273 14.4707 -0.0082417 0.00624648 -0.00910202
101 2 -0.860156 4.37909 7.44478 13.3514 0.000431214 0.00691617 -0.00360988
102 2 -0.96706 6.25416 2.40304 12.8104 -0.00435655 -0.00731608 0.00472255
103 2 -0.835827 4.23728 14.8872 13.2106 -0.00180982 0.00262377 0.00261172
104 2 -0.876891 5.81034 15.03 10.9874 -0.00128514 0.00599896 0.0190762
105 2 -0.838696 7.88434 2.89068 14.9689 0.00195942 0.00231304 0.0019471
106 2 -0.933909 7.56512 4.43326 13.1094 -0.00742442 -0.00621302 -0.00367995
107 2 -0.835345 6.0941 5.46053 9.09963 -0.00927585 -0.0011543 5.40916e-07
108 2 -0.836416 5.47972 7.58325 10.8987 0.00238642 0.0107636 -0.0025871
109 2 -0.792925 7.53292 6.18413 11.3683 0.0116187 0.0020055 0.00118327
110 2 -0.815418 7.68218 7.72423 9.38363 -0.00326657 -0.00347199 -0.0176944
111 2 -0.791821 2.85952 9.28912 2.06757 0.00472378 0.00429028 0.00373946
112 2 -0.732037 15.2948 7.24278 2.62753 0.00825618 0.00623391 0.00140053
113 2 -0.711958 14.6522 9.17053 15.245 -0.0132154 -0.0101485 0.00449284
114 2 -0.927147 2.41898 11.1729 3.91403 -0.00580038 0.0105939 -0.00502436
115 2 -0.826557 4.15078 9.51413 4.31365 -0.00300822 -0.00188055 -0.00842685
116 2 -0.924005 4.4587 11.2394 2.49983 -0.00368745 -0.00114954 -0.00366189
117 2 -0.912523 2.82828 13.0498 5.51492 0.00217262 -0.00245359 0.00901594
118 2 -0.773471 15.2194 11.3586 6.00152 0.00134722 -0.0100739 -0.00140491
119 2 -0.932836 14.8687 13.1001 4.23916 0.00741877 -0.0197281 -0.00542372
120 2 -0.853658 3.812 12.8256 7.92857 0.00819321 -0.00897404 -0.0135084
121 2 -0.740304 6.17899 8.99172 5.95488 0.00953444 -8.56825e-05 -0.00424221
122 2 -0.632612 5.63173 11.2382 7.78239 -0.00126774 -0.0107207 0.000820132
123 2 -0.809829 7.94056 11.4183 6.09529 -0.0114777 0.0127496 0.00646875
124 2 -0.739197 7.5508 9.49562 7.69666 -0.0020168 -0.0134629 0.00399932
125 2 -0.879157 6.18096 13.1073 2.25684 -0.00463472 -0.00357205 0.0128505
126 2 -0.893412 4.17904 13.1971 14.928 0.0180039 0.00519565 0.0129235
127 2 -0.834629 5.78962 11.2823 14.5428 -0.00177748 -0.00410346 0.0151986
128 2 -0.920144 7.75118 15.008 2.43072 0.0148694 0.00354358 0.00586186
129 2 -0.927673 7.92311 13.0494 4.00322 0.011316 -0.0157582 0.0109523
130 2 -0.736392 2.41893 9.49509 9.48684 -0.00663442 -0.00221438 -0.000807185
131 2 -0.876151 15.1669 7.72975 9.52503 0.00725186 -0.0134992 0.00361988
132 2 -0.776313 14.7259 9.72196 7.8175 -0.000738197 0.0141735 -0.0142828
133 2 -0.735181 2.19896 11.2707 11.3782 0.00457676 0.00781564 -0.00177904
134 2 -0.796713 3.93097 9.33978 11.706 -0.00110503 0.00332712 0.00188341
135 2 -0.782104 4.38068 11.3402 10.0573 -0.00188168 0.00636778 0.00225261
136 2 -0.909271 2.3967 12.9459 13.3037 0.00422701 0.00109059 -0.00307009
137 2 -0.834317 14.9308 11.162 13.4726 0.00437471 -0.0140758 -0.00349114
138 2 -0.982088 14.7131 13.1709 11.7349 -0.00179159 0.00102236 0.00652948
139 2 -0.772369 6.12858 9.19196 12.9187 0.0135499 0.00509688 -0.012271
140 2 -0.814108 7.77073 9.6907 14.5346 0.00531809 -0.00378189 0.000689369
141 2 -0.827281 7.361 11.6402 12.8447 -0.0147409 0.0213177 -0.00955994
142 2 -0.752723 6.05941 13.4274 9.26726 0.00825257 0.000549721 -0.0049526
143 2 -0.827576 7.71725 14.9673 9.41517 -0.0127839 0.00437472 -0.00248234
144 2 -0.82766 7.93316 12.9758 10.986 -0.0116657 -0.00830754 -0.00442388
145 2 -0.805809 9.76012 2.28666 2.37872 0.00437254 -0.00901737 -0.00191411
146 2 -0.773267 9.55401 15.4146 14.3373 -0.00246809 0.00184427 -0.00462387
147 2 -0.903184 9.43541 4.23802 3.92506 -0.00577565 0.011418 0.00186523
148 2 -0.974947 11.1599 2.46614 4.21097 -0.000758467 0.00840057 -0.00983045
149 2 -0.910528 11.3296 4.13174 2.2064 0.00283112 0.00318886 0.00634747
150 2 -0.870213 9.6357 5.7846 6.05343 0.00392776 -0.00489 0.00560856
151 2 -0.867389 11.1948 5.80261 7.89305 0.0146626 0.00350757 -0.00981558
152 2 -0.930438 11.3675 7.78595 6.34194 0.0111176 0.000128768 0.00957046
153 2 -0.91567 9.43623 7.82072 7.75243 -0.00652116 -0.0128653 -0.00547326
154 2 -0.891955 12.9769 2.71658 5.90265 0.0109378 -0.0104967 0.0022156
155 2 -0.86749 11.2119 15.1674 6.05679 -0.0107466 0.00078039 0.0085613
156 2 -0.985142 13.159 14.9439 4.51661 0.00129654 0.0112043 -0.0120804
157 2 -0.932109 13.0803 4.03424 7.80191 0.00959746 -0.00637971 -0.00723286
158 2 -0.831093 13.2515 5.99579 2.21399 -0.0134958 0.00663062 0.00423512
159 2 -0.948794 11.1977 6.17411 14.84 -0.00902365 -0.00205057 -0.00483292
160 2 -0.893984 12.893 4.50542 14.4452 0.00114409 -0.00443548 0.000662377
161 2 -0.877267 12.8551 7.36707 4.34092 0.0181487 0.00630186 -0.000754193
162 2 -0.813093 9.7659 2.59592 9.49651 -0.0115362 0.0078933 0.0109916
163 2 -0.7562 9.48301 14.7437 7.88438 0.00388938 0.0021836 -0.00211787
164 2 -0.72644 9.46863 4.6371 11.1103 0.00600543 -0.00322777 -0.00108916
165 2 -0.71626 11.2288 2.51368 11.8024 -0.00641415 -0.000894594 0.00740548
166 2 -0.659045 11.6046 4.04794 9.78833 0.00571868 -0.000355878 -0.00436303
167 2 -0.865257 9.42256 5.79505 13.2082 0.0115562 0.0021165 0.00390951
168 2 -0.767768 9.44287 8.10377 14.3557 0.00709352 -0.00385822 0.00950949
169 2 -0.891782 11.0953 7.66941 12.6868 -0.00887901 0.00857762 0.00412556
170 2 -0.785695 13.1303 2.1292 13.1507 -0.00856849 -0.000344982 -0.00939253
171 2 -0.914642 11.3666 14.504 13.1594 0.00378903 0.00106957 -0.00718227
172 2 -0.885793 12.9398 14.8891 11.0862 -0.00181744 -0.0099078 -0.00458082
173 2 -0.836927 13.1995 6.1941 9.21705 0.00495932 -0.00159733 -0.00960582
174 2 -0.844517 13.0069 7.26462 11.133 0.000308272 0.00155264 -0.00370718
175 2 -0.77212 9.4382 9.62056 2.5494 0.0103627 -0.00810517 0.0104691
176 2 -0.81687 9.76948 11.3031 4.44236 -0.00598842 0.00652504 0.000656582
177 2 -0.91232 11.2454 9.16018 4.11722 -0.00468839 -0.0012409 -0.0206889
178 2 -0.893492 11.1451 11.2996 2.46539 0.00786252 -0.0017569 -0.00468195
179 2 -0.840784 9.80592 13.2142 5.72931 -0.00345082 -0.00104291 0.000854063
180 2 -0.778492 11.3772 12.8663 7.72319 0.00978311 -0.00802067 0.0131657
181 2 -0.709451 13.2088 9.22494 5.92151 0.000325414 0.00302235 0.00969531
182 2 -0.760697 13.2748 11.5451 7.91852 0.00877308 0.00424961 0.000979927
183 2 -0.906453 12.6886 13.1485 2.81394 0.00503918 0.00166098 -0.00435079
184 2 -0.970784 10.7492 13.3029 15.199 -0.0122261 0.0231393 -0.00477795
185 2 -0.803164 12.8975 11.6654 14.8757 1.22836e-05 -0.0051284 -0.00774008
186 2 -0.752453 8.96042 9.66653 9.79946 -0.00724354 0.00051568 -0.000726463
187 2 -0.867651 9.43665 11.0584 11.4895 -0.00730551 -0.00884308 0.016789
188 2 -0.927564 11.3151 9.35592 10.8721 -0.0172501 0.00455716 0.0194278
189 2 -0.841839 10.8513 11.6096 9.55544 0.0217021 0.00574663 -0.013749
190 2 -0.993323 9.38613 13.1274 13.0491 -0.00694378 0.00188353 -0.00179823
191 2 -0.770338 12.8901 9.40053 12.5705 0.00940923 0.010003 0.0143245
192 2 -0.92537 13.0878 12.8659 9.82448 -0.0134638 -0.001079 -0.00527076
193 2 -0.615298 13.9873 14.3291 14.4821 0.00936994 -0.00357141 3.14671e-05
194 2 -0.648274 5.63261 11.297 5.01407 -0.00650435 0.00731879 0.0105259
195 2 -0.584574 7.23131 10.1737 2.58553 0.00288314 0.00920764 -0.00135705
196 2 -0.556318 12.4649 11.9559 12.2947 0.00220767 -0.00506058 -0.000669321
197 2 -0.575485 12.1153 15.5866 8.38635 -0.00915699 0.0135677 0.00389098
198 2 -0.608618 6.82429 3.21325 3.23977 0.00416806 -0.00325574 0.0109783
199 2 -0.592614 7.16541 6.76733 6.78826 0.00427162 -0.0133221 0.000668211
200 2 -0.679788 12.595 11.6024 5.32329 -0.0035403 0.00759072 0.00413037
201 2 -0.540662 5.21431 12.6155 12.0645 -0.00917545 -0.00377373 -0.00788309
202 2 -0.652602 15.2381 11.5141 1.6374 0.0114545 -0.0041464 -0.013429
203 2 -0.667115 4.91823 7.78227 8.35694 0.00798459 0.00866463 -0.0104881
204 2 -0.63331 10.3305 10.5395 13.9328 -0.00582691 0.00334213 0.00997573
205 3 0.351828 14.3221 13.4547 14.5342 0.039379 0.0040254 0.0355662
206 3 0.374649 14.0725 14.293 13.4275 0.00659832 0.041814 0.0289706
207 3 0.349459 5.90119 12.2855 5.22876 0.00472903 0.00710484 0.0309572
208 3 0.402406 4.71655 11.6318 5.12526 -0.0432198 0.0340826 -0.0141655
209 3 0.382917 6.81517 11.1512 2.73478 0.013296 0.0179887 -0.0227455
210 3 0.422633 6.51771 9.63831 2.47169 0.0216032 0.0377381 0.0300587
211 3 0.414632 11.8765 11.6211 13.0616 -0.00595804 0.0176356 0.056963
212 3 0.360247 12.0116 12.9041 12.0786 0.0490821 -0.0353367 0.0594528
213 3 0.371373 11.7204 14.7498 8.66917 0.00573199 0.000773427 -0.0353116
214 3 0.452904 11.4785 2.09289 8.47022 -0.00878046 -0.0318892 -0.00296682
215 3 0.43572 7.69751 3.49445 2.81584 -0.0160327 0.0527123 -0.0512654
216 3 0.397745 6.99103 2.49303 3.69998 -0.0341928 -0.00835768 -0.0274139
217 3 0.44079 7.58193 7.70949 6.76682 -0.00750236 -0.00738014 0.00866494
218 3 0.462788 6.78075 6.69426 7.50404 -0.0127065 0.0578287 0.0167801
219 3 0.394511 12.2087 12.4716 5.45894 -0.0353276 0.0387557 -0.00318588
220 3 0.373617 11.7472 11.1592 5.3417 -0.00851902 0.0805284 0.00721353
221 3 0.421849 5.37418 11.82 11.4915 -0.0288808 -0.00266562 -0.013923
222 3 0.349767 4.94389 13.3703 11.3895 -0.0161838 -0.0082378 -0.0586927
223 3 0.460698 9.5717 10.0279 13.7254 0.0279962 0.0240154 -0.0117721
224 3 0.395284 14.9467 12.3854 1.80417 -0.034407 0.0165352 -0.00765693
225 3 0.383643 5.60413 8.33797 8.86038 -0.051694 -0.0267118 0.0286638
226 3 0.414376 4.11566 8.00189 8.82912 0.00930602 0.0169235 0.0116055
227 3 0.476757 13.5931 10.0113 12.8393 0.00170219 0.0203087 0.070472
228 3 0.374483 10.1446 11.2189 14.6496 -0.0126823 0.0613761 0.0165999
ITEM: TIMESTEP
14000
ITEM: NUMBER OF ATOMS
228
ITEM: BOX BOUNDS pp pp pp
1.4316946516834204e+00 1.5728305348316496e+01
1.4316946516834204e+00 1.5728305348316496e+01
1.4316946516834204e+00 1.5728305348316496e+01
ITEM: ATOMS id type q x y z vx vy vz
1 1 1.55437 15.7343 1.48251 15.4268 0.00778063 -0.00176337 -0.00338951
2 1 1.30818 3.20014 3.35105 3.06213 0.00506445 0.00590321 -0.0104338
3 1 1.71265 15.5602 4.94704 4.98291 -0.00178695 0.00438064 0.00649326
4 1 1.5252 3.20939 6.55553 6.62545 -0.00220673 0.000714426 -0.0079359
5 1 1.47657 4.96958 1.52269 5.02638 0.0104896 0.00957394 0.00445032
6 1 1.61626 6.50339 3.31736 7.00973 -0.00812365 -0.00272186 0.00516011
7 1 1.41826 5.10079 5.06237 1.43399 0.00199254 0.00339578 -0.000873529
8 1 1.56237 6.90464 6.87262 3.01141 0.00851388 -0.0111495 -0.00139522
9 1 1.49416 1.5824 1.62891 8.95725 0.00760829 -0.00224035 0.00336138
10 1 1.60477 3.12621 3.36443 10.8441 -0.00811036 -0.00194185 -0.00224473
11 1 1.74344 15.5522 5.14828 12.5376 0.000801238 0.00849711 -0.00458469
12 1 1.49426 3.33282 6.84875 14.1362 -0.00521345 0.00686533 0.00403925
13 1 1.70955 5.12338 15.5701 12.0961 -0.00350605 -0.00773263 -0.000587334
14 1 1.61196 6.65949 3.01007 14.0752 0.00129171 -0.0101752 -0.00284724
15 1 1.74129 4.68056 4.95955 8.83877 -0.00542243 0.00633976 0.00659835
16 1 1.68087 6.6309 6.58105 10.4076 -0.00573971 0.0119124 -0.00945849
17 1 1.54269 1.50259 8.59585 1.73253 -0.00166183 -0.00393486 0.00749831
18 1 1.39689 3.39094 10.1738 3.57967 -0.0052178 0.00435921 -0.00361805
19 1 1.62121 1.59948 12.3105 5.16388 -0.00172127 -0.00360031 0.0043775
20 1 1.54924 3.18389 14.2664 6.91965 -0.00114735 0.0095252 0.00170137
21 1 1.41726 5.30846 8.38361 5.07429 -0.00844614 0.00545233 -0.000355829
22 1 1.37341 6.96358 10.347 6.73388 -0.00725467 -0.00452386 -0.00345203
23 1 1.33149 5.06456 12.0055 1.51361 0.00287472 -0.0119943 0.00847666
24 1 1.48671 6.75954 13.9626 3.3915 -0.00224124 -0.0026565 0.00584216
25 1 1.55418 1.59476 8.51294 8.4973 -0.000529069 -0.00240843 -0.0022216
26 1 1.40031 3.41499 10.2295 10.1803 -0.0113656 -0.00459375 0.0135296
27 1 1.4744 1.70023 12.1666 12.1083 0.00311574 -0.0106539 0.000195251
28 1 1.71217 3.49905 13.8835 13.9574 -0.0104027 -0.00105639 -0.00497018
29 1 1.45808 5.11069 8.49649 12.2269 0.00423193 -0.00626963 -0.0173181
30 1 1.64623 6.91343 10.6218 13.7418 0.000409557 -0.000705372 -0.00310777
31 1 1.37956 5.26845 12.214 8.57599 0.00850908 0.000790926 0.00635157
32 1 1.71265 7.02458 14.1046 10.1681 0.00177258 0.00110589 -0.00633618
33 1 1.39739 8.75202 1.48657 1.63261 0.00623751 -0.00416618 0.00589985
34 1 1.47809 10.4304 3.35338 3.53826 0.0204871 -0.0074359 -0.00812372
35 1 1.32733 8.3641 5.13349 5.08832 8.69969e-05 -0.00426113 -0.00182673
36 1 1.42171 10.3786 6.69292 6.8559 -0.00247935 -0.00571144 -0.0110398
37 1 1.65925 12.5279 1.65374 5.11093 0.00169779 0.00585898 -0.00379611
38 1 1.60811 14.2313 3.3109 7.05571 0.00580195 -0.00599807 0.00902306
39 1 1.77529 11.8616 4.84955 15.5995 -0.00280734 -0.00480835 0.00038847
40 1 1.7607 13.8026 6.45044 3.01776 0.000243532 -0.00313136 -0.00416246
41 1 1.64329 8.71637 1.82859 8.44522 -0.00348051 -0.000286604 0.0123991
42 1 1.94044 10.3385 3.35481 10.5371 -0.00227713 0.00170507 -0.00230075
43 1 1.81755 8.30789 4.87244 12.195 0.00663538 -0.0113196 -0.00443033
44 1 1.53744 10.2304 6.63844 13.8271 0.000732362 -0.00849548 -0.00634014
45 1 1.53883 11.9341 15.737 12.3049 -0.00344259 -0.00362361 0.00882459
46 1 1.95502 13.7568 3.20523 13.9861 0.00177364 0.000115739 -0.000979712
47 1 1.55889 12.1901 4.86109 8.66319 0.00678954 -0.0087569 -0.00221646
48 1 1.63992 14.0974 6.76709 10.3953 0.00814095 0.00559016 0.00576748
49 1 1.45281 8.65723 8.76889 15.682 -0.0035939 0.000460088 0.00732998
50 1 1.57471 10.5868 10.2737 3.28617 0.00604081 0.00422682 -0.00199465
51 1 1.48066 8.9646 12.3973 5.01048 -0.0133828 0.00192143 -0.00553918
52 1 1.75814 10.5164 14.4008 6.66723 0.00209984 0.00447851 0.0104986
53 1 1.44731 12.3277 8.38225 5.03909 -0.000766989 -0.000116709 0.00818369
54 1 1.37063 14.2139 10.2593 6.72652 -0.0126228 -0.00976554 0.00666205
55 1 1.5626 12.2448 12.2821 1.5568 -0.00994021 0.00522952 -0.00498247
56 1 1.45131 14.0178 14.0267 3.25434 -0.00617864 -0.00547523 0.00158499
57 1 1.5436 8.4261 8.38696 8.62095 -0.00412226 -0.0133482 0.00594421
58 1 1.46125 10.2308 10.3714 10.0476 -0.00172471 0.00865038 0.0057539
59 1 1.63174 8.85746 12.2148 11.914 0.000663384 0.00483128 0.00316627
60 1 1.50521 10.2542 13.8754 14.152 -0.00294849 0.00291987 -0.00163986
61 1 1.56605 11.995 8.29919 11.8678 0.00301923 -0.00445472 0.00415332
62 1 1.45435 14.7899 11.0891 14.7711 -0.011769 0.00159072 -0.0116229
63 1 1.34681 11.9927 12.2518 8.33261 0.00461234 0.0205872 0.00523182
64 1 1.14147 13.6927 13.8987 10.3294 0.00098024 -0.00310819 0.00540046
65 2 -0.689051 2.64132 2.40887 1.95325 0.0168232 0.00741236 0.00468334
66 2 -0.822189 2.46834 14.8926 14.5277 -0.0183647 -0.0015553 -0.00619753
67 2 -0.916986 14.8065 2.4727 14.782 -0.00695595 -0.00427447 0.00953566
68 2 -0.720473 15.0418 15.068 2.39152 0.00466581 0.00126983 0.0135231
69 2 -0.723317 2.14759 3.85459 4.34389 0.0161065 -0.0107562 -0.00133878
70 2 -0.701954 4.15433 2.33364 3.90159 0.0167959 -0.00947684 0.0026811
71 2 -0.639593 4.07111 4.74336 2.77079 0.00857497 0.00729084 -0.0024609
72 2 -0.810632 2.1935 6.10452 5.53121 0.00273381 -0.00729443 0.00238374
73 2 -0.870241 14.5757 4.45059 6.03031 -0.00487377 -0.000212788 0.00316336
74 2 -0.861613 14.7768 5.61538 3.88086 0.00572538 0.00130361 0.00605951
75 2 -0.851606 4.13054 5.77621 7.63262 -0.00129553 0.00809608 -0.00604809
76 2 -0.792918 4.38547 7.46253 5.9849 0.000163643 -0.00295033 -0.0159915
77 2 -0.780679 2.3636 7.39993 7.69313 -0.00363423 -0.0155746 0.00739275
78 2 -0.759705 5.49823 2.32076 6.33751 -0.00470447 -0.00644348 -0.0040711
79 2 -0.7514 3.76284 15.0385 5.63694 -0.00322983 0.00687604 -0.00918434
80 2 -0.836959 6.06561 14.8887 4.29724 0.00623249 -0.00330141 -0.00261193
81 2 -0.854446 5.54199 3.91486 8.00001 -0.0178389 0.00768677 -0.00476826
82 2 -0.639139 7.29285 3.69961 5.55965 -0.00144397 -0.0109509 0.00930512
83 2 -0.865844 7.56984 2.72852 7.83909 -0.0144301 0.00439743 -0.015279
84 2 -0.861614 6.12491 6.04307 2.03815 -0.00548422 0.00182861 -0.00146149
85 2 -0.760156 3.88835 5.65311 14.8871 0.00428539 0.00938786 0.00188069
86 2 -0.74495 5.46529 3.93227 14.5644 0.00117463 -0.0140932 0.00919072
87 2 -0.882313 6.43521 7.9117 4.0761 -0.00354066 0.00972938 0.00505637
88 2 -0.73833 7.91315 6.05948 3.94904 0.0101531 -0.00315037 -0.0307107
89 2 -0.719409 8.03939 7.52808 2.06058 0.0011525 0.00605098 -0.00461815
90 2 -0.787596 2.4385 2.12124 10.1033 -0.0231858 -0.00532812 -0.00789214
91 2 -0.776404 2.55878 15.2587 7.75255 0.0146198 -0.00242691 -0.00570055
92 2 -0.811855 15.3505 2.72815 8.06222 0.00678202 0.00409931 0.00483944
93 2 -0.711988 14.8056 14.6744 9.43863 0.0118937 -0.00505624 0.00752982
94 2 -0.853171 2.31271 4.19815 11.948 0.00644634 0.00865563 -0.00149661
95 2 -0.799319 4.10873 2.31233 11.4418 -0.00529991 0.00351835 0.00862194
96 2 -0.897879 3.69855 4.38768 9.78747 -0.00158287 0.00871731 -5.43494e-06
97 2 -0.778124 1.9978 6.20526 13.3238 0.00503888 -0.00501509 -0.000689594
98 2 -0.910034 14.5231 4.29948 13.3199 0.0113006 -0.0132838 0.00565872
99 2 -0.849117 14.5653 5.79869 11.4763 0.00411711 -0.000221826 -0.00843721
100 2 -0.706978 2.63852 8.06877 15.1132 -0.00889349 0.00118909 -8.0979e-05
101 2 -0.776453 4.27571 7.69089 13.2087 -0.0153292 0.0008971 -0.00102682
102 2 -0.823488 6.03544 2.00945 13.1498 -0.00132544 0.00164233 -0.0144477
103 2 -0.8697 4.61806 14.5946 13.1645 -0.0104832 -0.00411129 -0.00830953
104 2 -0.88656 5.84237 14.7848 11.0054 0.0201634 -0.00279604 -0.0115188
105 2 -0.730703 7.87073 2.23654 14.8082 -0.0102475 -0.00286998 -0.00302679
106 2 -0.807822 7.50586 3.96386 13.1809 -0.0112775 0.022039 -0.0002651
107 2 -0.894716 5.42417 5.95287 9.76528 0.00652507 0.0117904 -0.0145495
108 2 -0.834312 6.12364 7.64127 11.4097 -0.0197982 0.00250167 0.00127758
109 2 -0.881402 7.21267 5.53438 11.3547 0.00575927 0.00513771 0.00791967
110 2 -0.83052 7.86693 7.29919 9.56758 -0.00456916 0.000586541 0.0095294
111 2 -0.753577 2.32416 9.08161 2.93921 0.0101358 0.00816003 0.00262728
112 2 -0.713123 14.7389 7.4887 2.09611 0.00632702 0.00158915 0.00591287
113 2 -0.754711 14.8389 9.63907 15.2061 0.000868296 -0.00200171 0.00573678
114 2 -0.687516 2.80439 11.3462 4.65553 -0.00402815 0.00454569 0.0164774
115 2 -0.721296 4.24579 9.51888 4.65896 0.019613 -0.00795595 0.00418924
116 2 -0.717097 4.33362 10.7384 2.46099 0.0111593 0.0131467 0.00873614
117 2 -0.832881 2.30809 13.1571 6.19789 -0.0113124 0.0164142 0.00268443
118 2 -0.788916 15.0287 11.1258 5.7287 0.0076741 -0.000206133 0.0090932
119 2 -0.820812 15.1667 13.0403 4.07563 0.00883371 -0.000589943 -0.0160829
120 2 -0.713508 4.22326 13.1563 7.66766 0.00323061 -0.000102601 -9.95383e-05
121 2 -0.783452 5.88399 9.46881 6.06647 0.00404741 0.000236319 0.00401602
122 2 -0.797015 6.23191 11.0522 7.93198 -0.00248442 -0.000136227 0.0147474
123 2 -0.704997 8.11974 11.229 5.82799 0.00704841 0.0125703 0.0103158
124 2 -0.74105 7.91763 9.19542 7.27376 0.00491249 -0.00755316 0.0126511
125 2 -0.763466 5.95144 12.945 2.47115 -0.00334241 0.00250735 -0.00537639
126 2 -0.862352 4.10628 12.8998 14.882 0.00365642 0.00128131 -0.00274048
127 2 -0.773776 6.32062 11.089 15.0203 -0.00593089 0.00695579 0.00106348
128 2 -0.632733 7.37346 15.3211 2.34116 -0.0214926 0.00973082 -0.0148751
129 2 -0.755673 8.04581 13.1427 3.97994 0.00546355 0.00235863 -0.00665433
130 2 -0.762184 2.52021 9.70589 8.99422 0.00982822 -0.00619123 -0.00286745
131 2 -0.798466 15.094 7.85881 9.6609 -0.00232711 -0.00573868 -0.0149763
132 2 -0.737689 15.0093 9.06978 7.30677 0.00270401 -0.0186463 0.0012216
133 2 -0.645915 2.23966 11.0797 10.9692 0.00292057 0.00810275 -0.00422575
134 2 -0.696612 3.86634 9.19592 11.2783 -0.00177369 0.000242072 -0.00124575
135 2 -0.740779 4.25469 11.5123 9.61472 -0.00759454 0.00150844 0.0083335
136 2 -0.843483 2.59679 13.2275 12.8326 -0.00287391 -0.000195568 0.00270038
137 2 -0.769713 15.3749 11.4191 13.3056 -0.0109001 0.00201335 -0.0013681
138 2 -0.646489 14.8752 12.928 11.3537 0.000847928 -0.0137333 0.00816905
139 2 -0.710499 5.67727 9.80831 13.1581 0.000895736 -0.00253523 -0.00693448
140 2 -0.774679 7.94783 9.59818 14.3555 -0.00916343 0.00508281 0.0014772
141 2 -0.887325 7.76052 11.3443 12.7246 0.00657435 -0.0158247 2.37788e-05
142 2 -0.850235 6.36841 13.2222 9.21024 0.00416464 0.00715622 0.0063433
143 2 -0.850771 7.99313 15.0015 9.43067 0.00549086 -0.00188119 0.00824421
144 2 -0.855868 7.81915 13.2205 11.2342 0.00472945 0.00600063 -0.00730168
145 2 -0.772099 9.41945 2.26363 2.86562 0.0093173 0.00147698 -0.0069962
146 2 -0.78411 9.26561 14.4614 15.2505 0.00685457 0.0123966 -0.00436019
147 2 -0.651634 9.56085 4.13438 4.68133 0.000456519 -0.0113714 0.0172152
148 2 -0.770474 11.7327 2.74858 4.26234 0.0117715 -0.00948987 -0.00897598
149 2 -0.838962 11.0131 4.33324 2.45925 -0.00578359 0.00517938 -0.000238894
150 2 -0.716909 9.42687 6.17366 5.77432 0.00884997 0.00467397 -0.00963729
151 2 -0.729473 11.2846 5.32323 7.56292 -0.0151764 0.00352561 -0.00181031
152 2 -0.701492 11.5982 7.48717 6.19692 -0.0024025 0.00804695 -0.00558147
153 2 -0.781429 9.38383 7.56591 7.77532 -0.00201509 -0.0108106 0.00405682
154 2 -0.80444 13.6365 2.24451 6.21312 0.00469447 -0.00426898 0.00904415
155 2 -0.961079 11.5234 15.0287 5.81414 0.0047964 0.000482914 -0.00640739
156 2 -0.809613 13.4122 15.1507 4.21431 0.0140052 0.00191261 -0.00639584
157 2 -0.766681 13.0756 3.73209 8.11066 0.00392209 -0.00349147 -0.00273629
158 2 -0.901333 12.8773 5.73589 2.08988 -0.000210525 -0.00910307 -0.00196129
159 2 -0.853093 10.9213 5.43046 14.5171 -0.00231005 0.00486308 0.00470809
160 2 -0.924021 12.9073 3.86278 15.0574 -0.0031096 0.0118371 0.00258126
161 2 -0.77116 13.3877 7.48816 3.96159 0.0110787 -0.000809995 -0.00180812
162 2 -0.918097 9.6061 2.65747 9.38882 -0.0132713 0.00352893 -0.00254301
163 2 -0.832115 9.68141 15.5626 7.30436 -0.00450278 -0.00538595 -0.0168833
164 2 -0.977257 9.35226 4.19397 11.3002 0.00595233 -0.0063937 -0.00331169
165 2 -0.91176 11.047 2.42498 11.4276 0.000413173 0.0139947 0.00509303
166 2 -0.841885 11.4196 4.23631 9.93169 0.00756142 0.00645818 0.000859901
167 2 -0.793773 8.97819 5.77202 13.1963 0.00490901 -0.00351434 0.00423289
168 2 -0.653388 9.70436 7.76498 14.8771 -0.00638269 -0.00720157 0.00145799
169 2 -0.781608 11.0357 7.31397 12.66 0.0119091 0.000783938 0.0124308
170 2 -0.961879 12.9556 2.45416 12.9947 0.00453518 0.00616212 -0.00530589
171 2 -0.856272 11.1104 14.9075 13.3618 0.00215102 0.00185079 0.0119164
172 2 -0.760184 12.6255 14.468 11.5688 -0.00150121 0.0120184 -0.00452407
173 2 -0.728319 13.2452 6.02457 9.21578 0.0060843 -0.000183266 -0.00836914
174 2 -0.845894 12.971 7.45475 11.0608 0.00827389 0.00682042 0.00165371
175 2 -0.743726 9.88641 9.43793 2.1662 -0.00161892 -0.00192874 -0.0117074
176 2 -0.794534 9.89814 11.5496 3.9585 -0.00326535 -0.00992395 0.00858645
177 2 -0.79959 11.1753 9.34509 4.31548 0.00040575 0.00647249 0.00158256
178 2 -0.810207 11.7157 11.0794 2.55994 -0.0112974 -0.00325592 0.00317851
179 2 -0.80439 9.38728 13.4094 6.07005 0.00599674 0.00979835 -0.00536201
180 2 -0.845592 11.0917 13.4238 7.64402 0.0110181 -0.00855844 -0.00852179
181 2 -0.696261 13.2864 9.35075 5.63257 0.001957 -0.00301195 0.0061061
182 2 -0.646756 12.7808 11.0038 7.33731 0.000979388 0.000203506 0.00404353
183 2 -0.933208 13.0028 13.189 2.47882 0.00145084 0.00317921 -0.00335329
184 2 -0.856479 11.2058 12.7504 14.7915 0.00953726 -0.00669329 0.000241716
185 2 -0.803106 13.3227 11.7713 14.8176 0.00215853 0.00285426 0.0109277
186 2 -0.816601 9.25614 9.30887 9.48501 -0.0144397 -0.00667498 0.00654087
187 2 -0.914115 9.80348 11.256 11.2457 0.000500609 -0.00731993 0.00502594
188 2 -0.693187 11.0913 9.12588 10.9894 -0.000613637 0.000636526 0.000866161
189 2 -0.705769 10.779 11.4527 8.90892 0.00289101 0.0124433 0.00350086
190 2 -0.870498 9.48505 12.9474 13.0657 -0.0104812 -0.00918343 0.000209609
191 2 -0.621498 12.6253 9.24513 13.0517 -0.0182988 -0.00114797 0.00664575
192 2 -0.724535 13.0781 12.7013 9.38554 -0.013721 0.0062685 -0.0094496
193 2 -0.668873 14.2797 14.5461 14.0675 0.00498415 0.00127021 -0.00139701
194 2 -0.658251 5.26116 12.5883 4.91671 -0.00157844 0.0161378 0.00240709
195 2 -0.639508 7.70141 10.3596 2.78714 0.00475112 -0.00505956 -0.00465312
196 2 -0.598118 12.2354 11.428 11.7697 -0.0022681 -0.0147108 -0.00393891
197 2 -0.618143 12.6008 15.5517 9.01051 0.00323412 0.00799588 0.0036398
198 2 -0.673408 6.13979 3.37621 2.60486 0.00428692 0.00372386 -0.00303427
199 2 -0.69924 6.99378 6.10022 6.61645 -0.00366241 0.00757446 -0.00295042
200 2 -0.583695 12.0842 12.1354 5.29796 -0.00243242 0.0138571 -0.0105829
201 2 -0.640795 5.30293 12.0475 12.4483 -0.00335532 -0.0104777 0.00510392
202 2 -0.733025 1.58369 11.9316 15.6196 -0.011999 0.00506331 -0.00822877
203 2 -0.655927 4.95532 8.41275 8.9002 -0.00494794 -0.00932348 0.000708064
204 2 -0.659045 10.3487 10.3667 13.4557 -0.00811982 0.00401846 -0.0116005
205 3 0.422414 14.5284 13.707 14.0484 0.0141175 0.00420655 0.0308596
206 3 0.379484 13.4993 14.8071 13.446 0.0242165 -0.00145495 -0.00289609
207 3 0.425764 5.15938 11.7193 5.07055 -0.00282935 0.044918 0.0321585
208 3 0.406523 4.8217 13.0732 5.60588 -0.0418711 0.0322455 0.00472307
209 3 0.437907 6.93334 10.9428 2.6012 0.0316907 0.0265139 0.00377106
210 3 0.375891 7.68245 10.1935 3.81017 -0.054071 -0.0228449 0.0459759
211 3 0.400897 13.0106 12.0206 12.0609 -0.0285806 0.0188587 0.0155961
212 3 0.427631 11.5625 11.854 12.1715 -0.00754654 0.029078 -0.0347938
213 3 0.35453 11.8404 14.9157 9.10057 -0.0209281 -0.0483218 -0.0816552
214 3 0.400691 13.2537 15.077 8.67545 0.0328904 0.00533374 -0.0647367
215 3 0.469511 6.68997 2.77881 3.02838 -0.0388215 0.0901517 0.00681648
216 3 0.353729 5.33262 2.90712 2.21109 -0.0160839 -0.0497539 -0.0466219
217 3 0.377605 6.42565 6.79051 6.26046 -0.00857472 -0.0454888 -0.00746244
218 3 0.387542 7.80329 6.6552 6.85574 0.0627122 0.0411556 0.0637044
219 3 0.432806 12.4874 11.2788 5.51729 0.0118609 0.0458955 0.0215614
220 3 0.399903 11.8363 12.0422 4.27718 0.0288048 0.0348252 0.0211952
221 3 0.415992 4.49699 12.3937 12.2273 -0.0413268 0.0438886 -0.0103708
222 3 0.431075 5.96508 12.4398 11.9089 0.0253499 0.0133315 0.0501357
223 3 0.453456 9.47013 10.1066 13.2128 0.0163873 -0.0377476 0.00636208
224 3 0.440742 16.0313 12.6905 1.75571 0.0405719 -0.0126726 -0.00990948
225 3 0.373598 5.54145 9.12492 8.81104 0.0444854 -0.0607598 0.0517549
226 3 0.43471 4.42328 8.1256 8.13523 0.00136302 -0.0312145 0.00641272
227 3 0.476627 11.8682 9.89296 13.2924 0.0106467 -0.0138137 -0.0477244
228 3 0.413256 10.1619 11.3331 13.8254 -0.0148594 0.0162949 -0.0458494
ITEM: TIMESTEP
16000
ITEM: NUMBER OF ATOMS
228
ITEM: BOX BOUNDS pp pp pp
1.5077632123386469e+00 1.5652236787661256e+01
1.5077632123386469e+00 1.5652236787661256e+01
1.5077632123386469e+00 1.5652236787661256e+01
ITEM: ATOMS id type q x y z vx vy vz
1 1 1.71777 15.5722 1.73478 1.88519 0.00114846 -0.00305054 -0.0087847
2 1 1.81138 3.42749 3.41042 3.30694 -0.00913627 -0.00748249 -0.00793029
3 1 1.76385 1.64559 5.14729 5.00166 0.00412125 0.00550648 0.00976668
4 1 1.70931 3.40151 6.90196 6.84949 -0.00896235 -0.00287682 0.00155005
5 1 1.65348 4.99935 15.7725 5.07486 0.00229715 0.0152514 -0.00417866
6 1 1.48047 6.80219 3.17161 7.08147 0.00300411 0.00435158 -0.00287263
7 1 1.77167 5.00178 5.1182 15.4053 -0.0155824 0.00186022 0.00191933
8 1 1.64039 6.9213 6.59979 2.96505 -0.00483463 -0.000208847 -0.00434856
9 1 1.77763 15.7054 1.65809 8.59653 0.00674324 -0.00119269 0.0150857
10 1 1.78583 3.25419 3.47765 10.3785 0.00848536 0.0158533 -0.00409623
11 1 1.58616 15.5327 5.08867 12.0953 0.00359426 0.00778808 0.0103357
12 1 1.6974 3.42658 6.7982 13.4497 -0.000737491 -0.00328556 -9.44713e-05
13 1 1.77998 4.74579 1.60455 12.1079 -0.0106876 0.0118873 0.00908447
14 1 1.65056 6.76897 3.15522 13.8746 0.00180989 -5.39084e-05 -0.0116119
15 1 1.74782 5.1347 5.23566 8.75172 0.00149872 4.30644e-05 -0.00726051
16 1 1.77778 7.14301 6.81605 10.4488 -0.00612328 0.0115115 0.00488558
17 1 1.57125 1.88461 8.20124 15.6384 -0.00242103 -0.00639073 0.00547845
18 1 1.47907 3.43645 10.0629 3.31773 -0.00936459 -0.00199326 -0.00504951
19 1 1.34759 15.6644 11.9182 4.97086 0.00515521 1.46651e-05 -0.0144673
20 1 1.51482 3.19254 13.9524 6.8166 -0.000978454 0.00943029 -0.00164851
21 1 1.49268 5.35947 8.25838 4.89579 -0.0068057 0.00229452 7.80797e-05
22 1 1.48086 6.71294 10.0805 7.03107 0.00149075 0.00581059 -0.0111674
23 1 1.33712 5.0488 12.2512 1.64376 0.0067939 -0.00034438 -0.00725424
24 1 1.54707 6.77179 13.7794 3.55984 0.00210242 -0.0015221 0.0027378
25 1 1.44472 1.86321 8.52574 8.84377 -0.00520054 -0.00699867 0.0118082
26 1 1.39429 3.35252 10.5386 10.5557 0.00860815 -0.00346716 0.00277567
27 1 1.50866 15.5581 12.225 12.5527 -0.00317437 -0.00652899 -0.0086473
28 1 1.66568 3.18943 14.1969 14.2253 0.00561926 0.00256646 0.00598492
29 1 1.64737 5.41868 8.62762 12.0388 -0.00666951 -0.00715797 -0.0025583
30 1 1.58898 7.18083 10.3582 13.9478 0.00862759 -0.00435115 -0.000372623
31 1 1.62329 5.01853 12.3889 8.72135 -0.000907783 -0.00748875 0.010365
32 1 1.68667 6.80377 14.0916 10.5141 -0.00125183 0.00607185 0.0080376
33 1 1.77507 8.42503 15.432 1.55453 -0.0104898 -0.00889885 -0.0117784
34 1 1.77509 10.2154 3.00318 3.17954 -0.00801181 0.000224361 0.00913589
35 1 1.44728 8.62807 4.7779 5.13033 0.00674418 -0.00257516 -0.00020966
36 1 1.78312 10.5133 6.86893 6.49445 0.000932055 0.00153186 0.00875143
37 1 1.76524 12.041 1.55432 5.09887 0.00912037 0.00582722 0.00395495
38 1 1.89934 13.9576 3.34063 6.54267 0.00572405 -0.00127678 0.00320261
39 1 1.55762 11.7894 4.96345 15.5713 0.00729585 0.00400474 0.0106166
40 1 1.72558 13.8829 6.65639 2.91214 0.00950656 0.0168458 0.0127118
41 1 1.79542 8.81143 1.62255 8.96675 0.00494416 0.00226798 0.00238899
42 1 2.00404 10.6382 3.49488 10.328 0.0119569 -0.00343906 -0.000357764
43 1 1.83786 8.56467 4.88369 12.1991 0.000110447 0.00304331 0.00724934
44 1 1.62139 10.4277 6.78082 13.6566 -0.00754982 0.00325934 -0.0010126
45 1 1.73716 12.1503 1.63115 12.0451 0.00150929 0.00634581 -0.00376028
46 1 1.61112 13.8722 3.34707 13.9468 -0.0096203 0.00979319 -0.00329618
47 1 1.92775 12.0861 5.00753 8.28338 0.00260444 -0.01569 -0.00287546
48 1 1.51386 13.87 6.69244 10.0488 0.0109344 -0.00422534 -0.0175521
49 1 1.48174 8.81716 8.68855 1.68312 0.000580379 -0.00054754 0.00391329
50 1 1.71017 10.494 10.3989 3.64686 -0.0110813 0.00884949 -0.000429925
51 1 1.75594 8.55709 11.932 5.39444 -0.0122089 0.00603492 -0.00850545
52 1 1.60277 10.1088 14.0569 6.92367 -0.00214861 -0.0140819 0.00544412
53 1 1.71193 12.4323 8.47432 4.79242 -0.0118398 -0.00428134 -0.00564795
54 1 1.60198 13.9615 9.86327 6.9159 0.00255911 -0.0074967 0.0102612
55 1 1.26689 11.8598 12.2248 1.66018 9.66243e-05 -0.00864236 0.00453928
56 1 1.40366 13.8602 13.8572 3.62582 0.000845493 -0.0108396 -0.00722837
57 1 1.72582 8.80977 8.45634 8.42671 0.00453469 -0.00637345 -0.0071233
58 1 1.63859 10.3471 10.4877 10.0901 -0.00184391 0.00730909 -0.00531672
59 1 1.64198 8.48135 12.0525 11.8668 0.000702102 0.00729871 0.00462659
60 1 1.47916 9.97783 14.0781 13.4994 -0.00197992 -0.00256989 -0.0110099
61 1 1.58631 11.978 8.46411 11.5418 -0.00511865 0.00150641 0.000623826
62 1 1.32145 14.5119 10.8417 14.9964 0.00550091 -0.0037797 0.00549935
63 1 1.42917 12.3121 11.866 8.39088 0.00888973 -0.00904408 0.00763828
64 1 1.56206 14.0477 13.8715 10.3399 -0.00395087 -0.00469634 -0.0112605
65 2 -0.937842 2.1824 2.66775 2.76676 0.00756311 -0.0187799 0.00893373
66 2 -0.923595 2.43595 15.106 15.2395 -0.00654147 0.00705335 -0.00709723
67 2 -0.787014 14.5675 2.67948 15.2268 0.00277249 0.0042708 -0.00913565
68 2 -0.821635 14.7895 14.6779 2.69276 0.00162554 0.000140103 0.00131642
69 2 -0.842716 2.80737 4.34959 4.29885 -0.00769988 0.0062264 0.0132037
70 2 -0.951427 4.34599 2.81173 4.36412 -0.00540537 0.00132638 0.000518613
71 2 -0.876915 3.87441 4.36958 2.26058 0.0014242 -0.00238146 0.00687268
72 2 -0.836202 2.26541 6.15398 5.98016 0.0118605 0.00524978 -0.0118497
73 2 -0.972105 14.8055 4.21425 5.69622 -0.00864052 0.00639862 -0.0011914
74 2 -0.760752 14.8126 5.7721 3.9217 0.0123585 0.00274202 -0.014672
75 2 -0.972428 4.26406 5.96139 7.72211 0.00663371 -0.00142887 0.00567453
76 2 -0.846381 4.37405 7.36265 5.75081 -0.00575272 0.0127175 0.00919087
77 2 -0.867335 2.88722 8.01302 7.71888 0.00321944 0.00567991 -0.011092
78 2 -0.702137 5.91614 2.06825 6.32555 0.0042113 -0.00816528 0.00965452
79 2 -0.835201 4.21365 14.6733 5.80404 -0.00637905 -0.00438366 -0.0049311
80 2 -0.765399 6.09419 14.9915 4.39272 -0.0120141 -0.00771896 0.00651385
81 2 -0.868177 6.12694 4.21124 8.12008 0.00350055 -0.0205487 0.00317799
82 2 -0.740964 7.74595 3.64688 5.92158 -0.00216166 -0.000286376 -0.00791321
83 2 -0.763083 7.78302 2.23187 7.99719 -0.0036812 -0.000823215 0.0141698
84 2 -0.939502 5.80971 6.0405 2.12478 0.00692331 -0.00831867 -0.0100274
85 2 -0.94371 4.19258 5.86546 14.3643 0.00622171 0.00194257 -0.00679487
86 2 -0.944988 6.04576 4.1745 14.8443 -0.00341669 0.00541428 0.0108595
87 2 -0.905157 6.37185 7.57205 4.03099 0.00654298 -0.0133177 -0.00484406
88 2 -0.787176 7.82796 5.5205 3.67697 0.00881522 0.00724055 0.00820542
89 2 -0.786998 7.68184 7.79002 2.17608 -0.00852658 -0.00530707 0.0025623
90 2 -0.924765 2.37373 2.43441 9.55523 0.0141903 0.00282983 0.00544464
91 2 -0.950701 2.16684 14.8677 7.64984 -0.00229403 -0.00498793 -0.0152793
92 2 -0.882739 14.7152 2.65953 7.69454 0.00212928 -0.00501941 0.00852005
93 2 -0.902264 14.8324 14.9442 9.56441 -0.0130609 0.00069489 -0.00934075
94 2 -0.925922 2.26387 4.14666 11.2681 -0.00278163 5.4905e-05 0.00441062
95 2 -0.921023 4.33963 2.69955 11.1414 0.0211385 -0.00489226 -0.0106081
96 2 -0.888184 4.15722 4.5737 9.7068 -0.0154414 -0.00728237 -0.00294915
97 2 -0.85047 2.19257 6.39587 12.6147 0.00100349 0.00230008 0.00731311
98 2 -0.836112 14.9401 4.32441 13.2718 0.0145298 -0.00869769 0.00275915
99 2 -0.744003 14.265 5.73527 11.1687 0.00025782 0.00326455 0.00672009
100 2 -0.750329 2.9144 7.99065 14.2654 0.00500076 0.00530299 0.00248609
101 2 -0.861696 4.5383 7.61532 12.6755 -0.000346925 0.0168703 0.000928791
102 2 -0.859456 5.6555 2.29092 13.2506 0.0125473 -0.000187948 0.0017968
103 2 -0.896989 3.73701 15.0447 12.9572 0.00653201 0.00296635 -0.00242942
104 2 -0.838829 5.74072 14.7868 11.4591 0.0070426 -0.00168965 0.0053948
105 2 -0.866931 7.65854 2.37391 14.8797 0.00270806 -0.00048779 -0.00133202
106 2 -0.878625 7.97807 3.8054 13.006 -0.0143901 -0.0118281 0.00153079
107 2 -0.927223 6.03623 6.21897 9.53444 6.52124e-06 0.00309321 -0.00547282
108 2 -0.946287 6.48335 8.0264 11.1853 0.00198246 -0.00154464 -0.00462037
109 2 -0.967929 7.57107 5.71272 11.3858 -0.00733561 0.0082606 0.00897041
110 2 -0.896437 8.17186 7.46815 9.49144 -0.00168565 -0.000221817 -0.0033582
111 2 -0.766054 2.76859 8.79169 2.60289 -6.11099e-05 -0.0033547 -0.0163902
112 2 -0.86024 14.9649 7.27011 2.0306 -0.00474508 -0.0258368 0.0145714
113 2 -0.733706 15.0007 9.31588 15.4236 -0.0169108 -0.00531191 0.0133321
114 2 -0.702544 2.53625 10.9511 4.34458 0.0139979 0.00378793 -0.0124342
115 2 -0.707916 4.12878 9.29601 4.42801 0.0122332 0.00237249 -0.00183961
116 2 -0.781854 4.34294 10.9867 2.32255 0.00578763 -0.0104657 -0.00777433
117 2 -0.812958 2.54038 12.8924 5.8386 -0.0117711 -0.0133526 0.00372922
118 2 -0.684888 14.9149 10.6139 6.02404 -0.00998447 0.00721916 -0.000394063
119 2 -0.783002 14.5713 12.4896 4.00012 -0.00538235 -0.00149279 0.00622428
120 2 -0.758318 4.04594 13.3016 8.01488 -0.00844746 0.00316887 -0.000558127
121 2 -0.790003 6.1928 9.2346 5.8791 0.00257493 0.00584577 -0.00315945
122 2 -0.762234 5.75142 11.735 7.61639 -0.00949088 -0.00688875 -0.00583549
123 2 -0.797541 7.78127 10.9178 6.24347 0.00808041 0.00572901 -0.00543797
124 2 -0.864979 7.60926 9.29031 8.06046 0.00975276 -0.00283398 0.00461863
125 2 -0.834 5.64958 13.1978 2.63157 0.00205268 -0.00276044 0.00192424
126 2 -0.85445 3.98752 13.1387 14.8916 0.00864103 -0.000206597 0.00892298
127 2 -0.676532 6.45023 11.3252 14.8335 -0.00273855 0.00476489 -0.00113233
128 2 -0.80051 7.33637 14.7985 2.41167 0.00185932 -0.00585333 -0.00327206
129 2 -0.884197 7.59612 12.8284 4.46738 0.000253913 -0.000862564 0.00376257
130 2 -0.772649 2.28158 9.60172 9.8894 -0.0098581 -0.00116701 0.00243459
131 2 -0.719162 15.2397 7.10973 9.33892 0.0114465 -0.000796178 0.00673407
132 2 -0.719138 14.7465 9.30936 8.18291 -0.00282867 -0.000928232 -0.00803069
133 2 -0.717453 2.39006 11.4903 11.5907 -0.0119944 0.000382583 -0.00105324
134 2 -0.80756 4.7546 9.82049 11.3955 -0.0103571 0.00492263 -0.00717275
135 2 -0.809725 4.055 11.4655 9.59089 0.00230632 0.000830712 0.0117952
136 2 -0.820655 2.08107 13.2579 13.4857 0.013492 -0.0102568 -0.00191193
137 2 -0.770477 14.8382 11.143 13.3874 -0.00292574 -0.0104691 -0.00230322
138 2 -0.807815 14.7204 12.8995 11.2847 -0.0101287 -0.00304102 -0.00827538
139 2 -0.675921 5.95335 9.44024 13.5444 0.0034397 -0.00132927 -0.00374885
140 2 -0.803113 8.20653 9.86769 15.054 0.00298777 -0.0049798 0.0150241
141 2 -0.851207 7.6083 11.0905 12.6845 -0.00100479 0.00453855 0.0220524
142 2 -0.753345 5.71071 13.6494 9.47393 -0.00310045 -0.00196274 -0.00601033
143 2 -0.819939 7.98215 15.0582 10.1566 0.00812332 0.00890418 -0.00591555
144 2 -0.8405 7.3336 12.852 11.1136 -0.0130063 -0.00302931 -0.00108289
145 2 -0.974356 9.30755 1.97238 2.55523 -0.00708523 0.00866767 -0.0132895
146 2 -0.884549 9.00979 14.4902 14.6067 -0.0102209 -0.00950267 -0.00706073
147 2 -0.77206 9.66604 4.01141 4.23114 -0.00288617 -0.0068112 -0.00129785
148 2 -0.854803 11.3874 2.53232 4.08281 0.00733159 0.00368404 0.0132413
149 2 -0.824725 10.8601 3.82093 2.06217 -0.000972522 -0.00848828 -0.000600762
150 2 -0.786265 9.71217 5.73877 5.7891 -0.00395918 0.00680815 0.00368424
151 2 -0.935862 11.2413 6.09489 7.54155 -0.00028154 0.00211735 0.00299591
152 2 -0.893182 11.4646 7.47335 5.41432 0.00433258 -0.00071019 -0.0148057
153 2 -0.893547 9.64336 7.9337 7.21379 -0.0153169 0.00106235 -0.00333814
154 2 -0.977964 13.2106 2.29751 5.709 -0.0100839 -0.015548 0.00439476
155 2 -0.878494 10.9194 14.8904 5.90061 -0.00376033 -0.00236853 -0.00182183
156 2 -0.860823 12.6801 14.4949 4.53185 -0.00676747 -0.0075928 -0.000220451
157 2 -0.931562 12.8904 4.03076 7.42503 0.0193813 0.00536777 -0.00878605
158 2 -0.832676 12.778 5.71685 2.41714 -0.0144436 0.0162616 0.000980914
159 2 -0.832131 10.9392 6.17924 14.9982 -0.0179497 -0.000828025 -0.0170658
160 2 -0.775217 12.7844 4.30915 14.4572 0.00257341 -0.0120933 0.00590595
161 2 -0.854733 13.3383 7.82425 3.77024 0.00836677 0.00289718 0.00567457
162 2 -0.99247 9.59238 2.68223 9.68011 5.23287e-05 -0.00444401 0.0105758
163 2 -0.899828 9.3209 14.637 8.12163 -0.0148517 -0.00266078 0.00206699
164 2 -0.873723 9.72808 4.18617 11.4045 0.000515461 0.00822163 -0.0134311
165 2 -1.00936 11.5848 2.67354 11.151 -0.00199577 -0.0127084 -0.0170313
166 2 -1.03517 11.1561 4.39877 9.23322 -0.00909149 -0.00551092 0.0111939
167 2 -0.868915 9.32672 5.90354 13.0781 0.00944621 -0.00197788 -0.00335084
168 2 -0.678773 9.52028 7.97571 14.3408 0.0213519 0.0107976 -0.00686149
169 2 -0.845001 11.1507 7.42381 12.502 0.0177991 -0.00280103 -0.010042
170 2 -0.830618 12.9952 2.25434 13.2541 -0.011494 -0.00526988 -0.00283198
171 2 -0.779073 10.8568 15.2148 12.7488 0.010382 -0.00330154 -0.00444464
172 2 -0.890207 13.0026 14.819 11.2327 -0.00232124 -0.0104059 0.0137771
173 2 -0.822691 13.221 5.60553 9.07889 0.0039035 0.00165875 0.00987219
174 2 -0.843001 12.6719 7.77016 10.4392 0.0123814 0.0105971 0.0122061
175 2 -0.852858 9.87927 9.26581 2.70001 0.00325115 -0.0020424 -0.00605905
176 2 -0.880568 9.56343 11.0017 4.66551 -0.00240153 0.00695249 0.0113359
177 2 -0.881358 11.781 9.82811 4.32643 0.00314647 0.00365367 0.00881404
178 2 -0.77914 10.7707 11.569 2.77024 -0.0129819 -0.0039725 -0.013054
179 2 -0.816793 9.12315 12.9668 6.29507 -0.001773 0.00543963 0.0183047
180 2 -0.640904 11.1883 12.9453 7.35487 0.00770774 -0.00305507 0.0195603
181 2 -0.759927 13.4559 8.64147 5.96357 0.00142895 0.0073876 0.000277046
182 2 -0.880549 12.9996 10.8229 7.56624 -0.00839712 0.00155287 -0.00737217
183 2 -0.628703 12.8269 13.1599 2.54753 0.0122482 0.0156238 0.00326262
184 2 -0.645966 11.1766 13.4771 14.4145 -0.0018842 0.00264894 0.000739391
185 2 -0.786941 13.0878 11.4747 15.1684 0.0179826 0.0123058 -0.0024089
186 2 -0.832922 9.83871 9.37552 9.13373 0.00704471 0.00241791 -0.00347036
187 2 -0.770522 9.03141 11.1063 10.6963 -0.00382237 -0.016837 -0.00235912
188 2 -0.901827 11.2427 9.76447 11.1292 0.00758798 0.00774009 0.00871874
189 2 -0.809444 11.0604 11.6135 9.35958 0.0192741 0.0110144 0.00189084
190 2 -0.877188 9.59483 12.9644 12.3644 -0.000105769 0.00344391 0.00544733
191 2 -0.732704 13.014 9.0245 12.62 0.000230804 0.00161492 0.00543591
192 2 -0.760492 13.149 12.8772 9.51996 -0.0141647 0.00479678 -0.00413425
193 2 -0.576169 13.7884 13.9938 14.1756 -0.00728297 0.00475801 -0.00982147
194 2 -0.617429 5.10219 11.6031 5.24049 -0.000647927 0.0209996 -0.00826065
195 2 -0.57414 6.77807 10.1544 3.23694 0.00722796 0.00210768 -0.00171958
196 2 -0.656893 12.6823 11.9622 12.2115 0.0192985 0.00542221 0.00624037
197 2 -0.593538 12.043 1.54691 8.39817 0.000548779 -0.0082921 -0.00724611
198 2 -0.535298 6.75339 3.26883 3.29967 0.00177703 0.00272627 0.00769478
199 2 -0.688897 7.29066 6.11553 6.39589 0.00618382 0.00222658 0.00971823
200 2 -0.715147 13.638 13.3345 7.26961 -0.012542 0.003686 0.0027908
201 2 -0.546284 5.19245 11.9537 12.8365 -0.00455477 -0.00116978 -0.0203765
202 2 -0.598644 15.4532 11.9315 1.52689 -0.00112367 0.00243509 -0.0208654
203 2 -0.616951 5.35162 8.91306 8.41661 -0.0213229 0.00766315 0.00683375
204 2 -0.63346 10.817 10.8997 14.2982 -0.00858339 -0.00427319 0.00236925
205 3 0.451562 12.8713 13.7694 14.1331 0.0324425 -0.061448 -0.0606892
206 3 0.368157 14.317 13.77 13.2839 0.0738356 0.011262 0.000193337
207 3 0.463849 4.30476 11.9538 5.47874 0.00493342 0.0225494 0.012021
208 3 0.428468 5.84138 12.036 5.79382 0.00582829 -0.027142 -0.0548278
209 3 0.40184 6.39393 11.0191 3.22353 0.0386749 0.0185823 -0.000617292
210 3 0.406636 6.07264 9.60004 3.1204 0.0154177 0.0459352 0.00141892
211 3 0.430568 12.7429 12.0183 11.2432 0.0267022 -0.0397399 -0.0237747
212 3 0.427581 11.8276 12.0877 12.488 -0.00270936 -0.0248013 -0.0283778
213 3 0.384472 12.8035 15.6652 9.16151 0.0127956 0.0244461 -0.00776501
214 3 0.367153 12.1631 14.8764 7.89894 -0.0133416 0.0188724 0.000909024
215 3 0.390675 6.51046 2.94039 2.33339 -0.0323933 -0.023114 0.047078
216 3 0.409784 7.37892 3.99838 3.01677 0.0266993 0.0292379 0.0320544
217 3 0.416215 7.12924 6.8484 5.9513 0.00735623 0.0165288 0.0737306
218 3 0.353019 6.42266 5.7727 6.91197 -0.0690561 0.0299556 0.00220526
219 3 0.416378 13.2424 13.3673 6.49138 -0.0420971 0.0495448 -0.0434663
220 3 0.38268 14.448 13.8699 7.24931 -0.0264304 -0.058838 0.0249516
221 3 0.428695 4.65204 11.5102 12.1146 0.0222005 -0.00461294 -0.0533518
222 3 0.404725 4.79191 12.0272 13.694 0.0035489 -0.0215683 0.0534886
223 3 0.385582 11.6232 10.4721 14.0106 -0.048758 -0.013166 -0.00845123
224 3 0.45099 14.8811 12.8071 1.7197 0.0532699 0.0285549 -0.0166078
225 3 0.408547 5.9841 8.57503 9.21946 -0.00189545 0.0360249 0.0101042
226 3 0.372754 4.95122 8.15159 7.88069 0.0283018 0.0123872 -0.036079
227 3 0.465989 13.5812 9.82484 12.6326 0.0178212 0.00617171 -0.044235
228 3 0.369263 10.3914 10.0352 14.737 -0.0258669 0.029722 0.00161497
ITEM: TIMESTEP
18000
ITEM: NUMBER OF ATOMS
228
ITEM: BOX BOUNDS pp pp pp
1.4465971901004346e+00 1.5713402809899449e+01
1.4465971901004346e+00 1.5713402809899449e+01
1.4465971901004346e+00 1.5713402809899449e+01
ITEM: ATOMS id type q x y z vx vy vz
1 1 1.23103 1.50673 1.61041 15.5189 -0.000174116 -0.00505137 0.00462064
2 1 1.51163 3.26118 3.25563 3.38341 -0.00542103 0.0067919 0.00471025
3 1 1.42997 1.77006 5.1822 5.20722 -0.00281879 -0.00436782 -0.00230773
4 1 1.52392 3.55742 6.91679 7.27465 0.00323682 0.00300228 -0.00716435
5 1 1.57971 5.02412 1.52417 5.07539 0.000866691 -0.00624232 0.0106019
6 1 1.66398 6.3854 3.18557 7.15286 -0.00767668 -0.00345671 0.00575686
7 1 1.56038 4.92086 4.92046 15.5917 -0.00188522 -0.0133074 0.00214737
8 1 1.57924 6.83302 6.68912 3.02521 0.0013513 0.00597408 -0.00250164
9 1 1.49351 15.6803 1.67683 8.77366 0.00523049 -0.00413298 0.00433485
10 1 1.60778 3.06695 3.41516 10.6827 0.00624311 -0.00201097 -0.00553862
11 1 1.7097 15.4219 5.17739 12.3271 0.012826 -0.00577596 0.00312524
12 1 1.64105 3.15193 6.94631 13.8466 -0.0058654 -0.00531731 0.00183328
13 1 1.56933 5.0546 1.76426 12.1492 0.00338659 0.00690004 -0.00949621
14 1 1.59936 6.87893 3.15855 13.9408 0.0028915 -0.00303115 -0.00302753
15 1 1.713 5.06875 5.07092 9.1468 -0.0103387 0.00676969 0.00597947
16 1 1.78827 7.05299 6.77282 10.6472 -0.00755041 0.00855237 0.0136242
17 1 1.54943 15.5072 8.32527 1.64657 0.00447912 0.00713323 -0.00468951
18 1 1.51405 3.02652 10.125 3.35535 0.00172958 0.0101375 0.0112273
19 1 1.72851 15.4597 12.0759 4.84624 0.00464611 -0.000489269 -0.00166873
20 1 1.45159 2.99805 14.0425 6.66562 0.02002 -0.00131774 0.00220332
21 1 1.3197 5.18258 8.50668 4.95626 -0.00829075 -0.00943677 -0.00540536
22 1 1.45877 7.11521 10.5639 6.6958 -0.0113592 -0.00225289 -0.0054204
23 1 1.44823 4.97307 12.1099 1.49356 -0.00834975 -0.00940913 -0.000648093
24 1 1.51953 6.73433 13.9808 3.37452 0.000498425 0.00365592 -0.00294941
25 1 1.51606 1.46239 8.68162 8.68022 -0.002382 -0.00332207 -0.00913815
26 1 1.3212 3.56002 10.2539 10.5362 -0.00708979 -0.00835316 0.00892792
27 1 1.37967 1.71647 12.2767 12.1027 0.00509048 0.00269898 -0.00162396
28 1 1.38051 3.61109 14.1398 13.9689 0.00572031 0.00222021 -0.00107221
29 1 1.76452 5.29445 8.51917 12.333 -0.00312372 -0.00670133 0.00393985
30 1 1.61106 7.02381 10.3234 14.1301 0.0100529 0.00810057 0.00395217
31 1 1.45647 4.89607 12.1276 8.3156 0.00491155 0.00689196 0.00104851
32 1 1.33456 6.33114 13.6794 10.5767 0.00506196 -0.00040601 -0.000280463
33 1 1.63786 8.45706 15.372 15.6364 -0.00459255 -0.000244222 -0.0141214
34 1 1.43251 10.1173 2.78203 3.28454 0.00208031 0.00154172 0.00644339
35 1 1.27841 8.28291 4.77153 5.05273 -0.00670984 -0.00148666 0.000528192
36 1 1.54396 10.2245 6.57787 6.77634 -0.00238865 0.00188297 -0.00542774
37 1 1.57183 12.1494 1.58375 5.01939 0.00688109 -0.00978716 -0.0107475
38 1 1.51324 14.0643 3.2893 6.59882 0.00689581 0.00766677 -0.00723413
39 1 1.57374 12.0667 4.94918 1.83182 0.000693929 -0.00928155 0.00447235
40 1 1.48725 13.9696 6.59193 3.48691 0.00522725 0.00757245 0.00827374
41 1 1.45222 8.25041 15.574 8.75289 -0.0137082 0.00161895 -0.00641703
42 1 1.35138 10.1702 3.14833 10.1484 -0.00470942 -0.00204865 0.00549353
43 1 1.58771 8.85455 4.92736 12.228 0.0052118 -0.0044725 0.00455002
44 1 1.77401 10.6815 6.72261 13.9018 -0.00482008 -0.00363834 -0.00361166
45 1 1.62697 12.0113 1.52409 12.2666 0.00508512 0.00560973 -0.0045249
46 1 1.72347 13.6978 3.39699 14.1303 -1.45036e-05 0.0109799 -8.47271e-05
47 1 1.66984 12.1292 4.73632 8.44094 -0.00109801 -0.0038108 0.00271539
48 1 1.57521 13.9797 6.49427 10.0051 -0.00370105 -0.00157218 -0.00724059
49 1 1.42098 8.98248 8.51838 1.50066 -0.00404186 0.00209787 0.00504847
50 1 1.60389 10.7401 10.5536 3.2075 0.00654142 0.00524564 -0.00614573
51 1 1.72476 8.82907 12.1791 4.80361 0.000948501 0.00276937 0.00695227
52 1 1.31978 10.1782 13.9604 6.83859 -0.00363069 0.00184918 0.0087586
53 1 1.55283 11.9439 8.48621 5.13524 0.00491173 -0.00898649 -0.00859293
54 1 1.6466 14.0219 10.1231 6.59612 0.00084162 0.00435076 0.0123068
55 1 1.61891 12.262 12.3032 15.6039 -0.00335652 -4.61377e-05 -0.00540198
56 1 1.67382 13.8765 14.0527 3.32177 0.00246806 -0.00520724 -0.00115457
57 1 1.6559 8.53341 8.44836 8.51764 -0.000508667 -0.000306446 -0.00172729
58 1 1.50956 10.4229 10.2901 10.2351 -0.0083205 -0.0112594 0.00789465
59 1 1.52556 8.66041 12.0046 12.1469 0.00218779 -0.00308186 0.0081307
60 1 1.85086 10.4228 13.8878 13.8395 -0.00987929 0.00676221 -0.00263843
61 1 1.56712 12.2172 8.24988 11.7345 -0.00419555 0.00675993 -0.00424555
62 1 1.47016 14.9229 11.097 14.8004 -0.00457241 0.00884035 -0.00279466
63 1 1.5113 12.2693 12.1034 8.30542 0.00591053 -0.00748137 0.00324834
64 1 1.37586 13.8539 14.144 10.3927 0.00161833 -0.00427777 4.6843e-05
65 2 -0.639733 2.20482 2.78056 2.23266 0.0198306 0.0195586 -0.0196849
66 2 -0.753305 2.77487 15.0211 15.0367 -0.000538881 0.00896748 -0.013234
67 2 -0.716606 14.9605 2.7158 14.5759 0.00688709 -0.00113094 0.0175092
68 2 -0.692173 14.5887 15.2512 2.68096 -0.01676 -0.00314294 0.00109754
69 2 -0.801616 2.8246 4.46788 4.3187 -0.00761844 -0.0135015 0.00497001
70 2 -0.858506 4.04964 2.14011 4.00091 -0.0151864 -0.00728882 -0.0196183
71 2 -0.794717 4.36734 4.06669 2.48506 0.0114012 0.000812334 0.00354653
72 2 -0.714223 2.64439 5.93694 6.48284 -0.00688807 -0.0100044 0.00133285
73 2 -0.76239 14.7661 4.52915 5.8682 -0.000560817 -0.00635099 0.000308058
74 2 -0.682828 15.1712 6.39487 4.62554 -0.000408577 0.00658383 -0.00151282
75 2 -0.833457 4.6971 6.23062 8.18501 0.00149523 0.00455278 -0.0016608
76 2 -0.671799 4.36022 7.70977 6.04199 0.00741385 0.00165157 -0.000541552
77 2 -0.76806 2.61804 7.95952 7.87468 -0.000128069 0.000284962 0.00250978
78 2 -0.922926 5.48162 2.64688 6.00805 0.00639751 -0.00652386 0.00131114
79 2 -0.799262 3.9561 14.6769 5.70519 0.00254301 -0.0105958 0.00761768
80 2 -0.842591 6.21257 15.088 4.42752 0.00889454 -0.0162595 0.00256197
81 2 -0.895309 5.83136 3.98373 8.34813 -0.0131085 -0.012667 0.00165442
82 2 -0.750877 7.49397 4.02994 6.57554 0.0106689 0.0115862 -0.00762567
83 2 -0.786119 7.23918 2.01949 7.85413 0.000395542 -0.00332739 0.00191826
84 2 -0.784099 6.07465 5.90849 1.97361 0.00552765 -0.000512076 0.00448514
85 2 -0.720548 3.97772 5.97089 14.7675 0.0065069 -0.00248817 0.0123985
86 2 -0.836707 5.71908 3.92565 14.7627 -0.00477479 0.00620611 -0.00683239
87 2 -0.796761 6.00981 7.6869 3.86392 0.0134307 -0.00431646 -0.00651432
88 2 -0.74934 7.81463 5.8017 3.85429 0.00670311 -0.0192037 -0.00269928
89 2 -0.713521 7.68431 7.81561 2.2789 0.0062457 0.00271694 -0.00740036
90 2 -0.817431 2.47419 2.604 9.40359 -0.00814076 -0.00220794 -6.51722e-05
91 2 -0.698635 2.15918 15.2002 7.59053 -0.00200722 0.0105478 9.63147e-05
92 2 -0.821969 14.7161 2.63197 7.86581 -0.00376589 0.000223102 -0.00173416
93 2 -0.80011 14.9459 14.7786 9.52423 0.00262981 -0.00794692 -0.00393976
94 2 -0.864891 1.96185 4.27394 11.3746 -0.0106024 -0.00248584 0.00331451
95 2 -0.879276 3.9172 2.5438 11.6982 0.000366259 -0.00917612 -0.0132
96 2 -0.838662 4.11453 4.48184 10.1986 -0.0164607 -0.013885 -0.00777808
97 2 -0.836302 2.12254 5.94771 13.2619 0.00716631 -0.000110292 -0.00496576
98 2 -0.831254 14.4191 4.44166 13.2143 0.00140247 0.00173834 0.00161794
99 2 -0.844313 14.8087 6.23981 11.2957 -0.00445766 -1.4903e-05 0.00307465
100 2 -0.768846 2.49869 7.73899 14.9541 -0.0104166 0.0115561 -0.0116355
101 2 -0.866184 4.30027 7.46695 12.8449 0.0130279 -0.0264531 -1.50328e-05
102 2 -0.781298 6.24935 2.8171 12.6532 -0.00619571 -0.00805512 -0.00182026
103 2 -0.737436 4.7673 14.7274 12.9872 -0.000761882 0.000154629 -0.0163412
104 2 -0.666087 5.7998 15.1867 11.0624 -0.015477 0.0135501 0.0104316
105 2 -0.861793 7.54052 2.04988 14.7473 0.0153318 -0.00367456 -0.00463166
106 2 -0.8195 8.11094 4.09577 13.2397 0.0115808 -5.11573e-05 0.0130128
107 2 -0.907029 6.0141 5.94067 9.97619 0.0035907 0.0218271 0.00222371
108 2 -0.899571 6.35932 7.80115 11.5463 0.00265003 -0.0100942 -0.0139722
109 2 -0.885438 8.0765 5.89439 11.3322 0.0152091 -0.00708099 -0.00757454
110 2 -0.864496 7.77315 7.87001 9.65631 0.00484311 -0.00638271 -0.00252513
111 2 -0.794956 1.94543 9.27914 2.70155 -0.0208027 -0.00700893 0.0188734
112 2 -0.819173 14.5939 7.22922 2.20268 0.000496666 0.000516322 -0.00527378
113 2 -0.774553 15.0872 9.48028 14.9461 -0.00629176 0.00853158 0.00782662
114 2 -0.876301 2.29707 11.2003 4.30554 -0.00774262 -0.00208233 -0.00801722
115 2 -0.698876 3.98524 9.05847 3.86726 -0.012642 -0.00593163 0.00930656
116 2 -0.710066 3.73048 11.2569 2.27923 -0.00130631 -0.00349643 0.00680208
117 2 -0.812642 2.00776 13.0303 5.79126 0.00229187 0.00301817 0.00851172
118 2 -0.880759 14.5962 10.8784 5.42918 0.011615 -0.0168615 -0.000256724
119 2 -1.00647 14.7339 12.9047 3.88005 -0.00623989 0.00691204 -0.00891306
120 2 -0.735021 3.77032 12.9873 7.65595 0.00417354 -0.00866997 0.000310241
121 2 -0.734847 5.96811 9.82691 5.76831 -0.00802047 -0.00124845 -0.0073856
122 2 -0.747163 5.99743 11.6599 7.16031 0.00585 0.0183064 -0.00252791
123 2 -0.85405 8.17202 11.1321 5.74238 -0.00254781 0.0112615 -0.00258832
124 2 -0.843451 7.69254 9.70955 7.90284 0.00371522 0.00147387 0.00452049
125 2 -0.705515 5.54508 13.1498 2.65083 0.000826784 0.0102573 0.00315336
126 2 -0.764695 4.51311 13.1081 14.7271 -0.00255083 0.00106045 0.00897254
127 2 -0.803587 5.92729 11.3996 14.7313 0.0207915 -0.0124869 -0.00796746
128 2 -0.787898 7.22638 14.8053 2.18708 0.00827063 0.016257 0.00175968
129 2 -0.82955 7.82107 12.8561 3.9267 0.00248935 0.0249091 0.0131647
130 2 -0.741086 2.51039 9.28849 9.79112 0.00205386 0.0100868 -0.0123781
131 2 -0.782488 14.6069 7.64492 9.06642 -0.00132574 -0.00723267 -0.0119706
132 2 -0.78767 15.1943 9.69535 7.60862 0.0175892 -0.00984932 0.00241804
133 2 -0.747962 2.7989 11.4404 11.4587 0.0102545 -0.00379671 0.012482
134 2 -0.88762 4.65089 9.62303 11.4826 -0.0093004 0.0127717 0.0036663
135 2 -0.822308 4.53807 11.1273 9.35644 0.000545779 0.000731741 -0.00418291
136 2 -0.740189 2.6721 13.368 12.8342 -0.00716659 0.00209476 -0.0115334
137 2 -0.81622 15.1858 11.5094 13.245 0.00449693 0.00289035 0.00318989
138 2 -0.650467 14.9554 13.0162 11.0086 -0.00194696 -0.00984711 0.00482285
139 2 -0.828 6.02071 9.25576 13.4948 0.00119457 0.000984397 -0.00194516
140 2 -0.795335 7.99317 9.47706 14.9959 -8.4934e-05 0.00897546 -0.00544667
141 2 -0.839299 7.96094 10.9865 13.2091 0.00362221 -0.00492003 0.00747899
142 2 -0.652573 5.45335 13.3236 9.23685 -0.00414673 -0.00580782 -0.00399729
143 2 -0.587 7.62312 14.3661 9.53339 0.00829279 -0.0126024 -0.00781047
144 2 -0.664011 7.47646 12.862 11.3758 -0.00421145 0.0051854 0.00157038
145 2 -0.853546 9.40006 1.61338 2.4177 0.00266413 -0.00165492 0.019579
146 2 -0.879428 9.35228 14.338 14.7869 -0.00609484 -0.000353216 -0.00341977
147 2 -0.645439 9.20194 3.64794 4.26966 -0.00244963 0.00545064 0.0103144
148 2 -0.803624 11.3968 2.48825 4.07024 0.00445982 -0.00300418 0.0109034
149 2 -0.665165 10.8446 4.16622 2.45324 -0.00655086 0.0112041 0.0025083
150 2 -0.644781 9.4806 5.78571 5.58711 0.00296386 -0.00180623 0.00203953
151 2 -0.819369 11.2872 5.6397 7.49261 0.00668755 -0.00887654 0.000266666
152 2 -0.80307 10.9315 7.55211 5.76886 0.00221819 -0.000499697 -0.00231379
153 2 -0.907793 9.09908 7.40451 7.56847 -0.00670931 0.00103232 0.00139077
154 2 -0.777248 13.3415 2.57256 5.44959 -0.000445327 -0.000523596 0.00402518
155 2 -0.751592 11.2439 14.9573 5.87585 0.00221106 0.0215213 -0.0117638
156 2 -0.836704 13.1076 14.6715 4.5123 0.0225116 -0.0101486 0.00908711
157 2 -0.790334 12.8666 3.66675 7.54219 -0.00606538 -0.00600059 -0.00963363
158 2 -0.732757 12.9944 5.53528 3.04147 0.00590918 0.00753766 0.00422006
159 2 -0.815339 11.4748 6.0828 15.0152 0.00867343 -0.00457241 0.00405666
160 2 -0.922021 12.943 4.06777 15.2064 -0.000213293 0.0106938 0.0073237
161 2 -0.676705 12.7065 7.5554 4.00384 -0.00537322 -0.0110069 0.00464691
162 2 -0.704388 8.9405 2.11872 9.98597 0.000289148 0.00933195 0.00611901
163 2 -0.650752 9.51913 15.1805 7.77421 -0.010374 0.0168487 0.00629879
164 2 -0.655054 9.84816 4.51641 10.9917 -0.00837753 0.00272339 0.00582953
165 2 -0.781753 11.2074 2.05688 11.1115 -0.0116364 -0.00494465 0.00104156
166 2 -0.815744 11.0352 3.85224 9.1262 0.00229387 0.004728 -0.00846952
167 2 -0.826127 10.0576 5.75919 12.8803 0.00753943 -0.0105537 0.0121926
168 2 -0.898524 9.71978 7.62053 14.6176 0.00130798 0.0104256 0.0113868
169 2 -0.859808 11.6639 7.48911 13.0475 -0.0146116 0.0127954 0.0115252
170 2 -0.786965 13.0391 2.57839 12.9113 0.00326456 0.00570061 -0.00889542
171 2 -0.95977 11.2157 15.0992 13.3685 -0.00299046 0.0200075 0.00499351
172 2 -0.789501 13.1192 14.8459 11.6572 0.0119882 0.0194235 -0.0147977
173 2 -0.910055 13.1063 5.41134 9.42028 0.0204591 -0.00157485 -0.00707806
174 2 -0.727777 12.8092 7.53932 10.5276 0.011939 0.00362221 -0.00594724
175 2 -0.83603 9.85515 9.49509 2.48799 0.0080202 0.00183615 -0.00321096
176 2 -0.908893 9.84015 11.6868 3.82969 -0.00033685 -0.00806774 -0.00468817
177 2 -0.758931 11.4441 9.87557 4.5991 0.0109457 -0.0109943 -0.0080817
178 2 -0.921633 11.6298 11.1169 2.18061 0.00310551 0.0132766 -0.0012662
179 2 -0.765649 8.99424 13.1386 6.00362 -0.00325156 -0.00239897 -0.00410244
180 2 -0.76868 11.2293 13.074 7.6652 -0.00305387 0.00702326 -0.00770181
181 2 -0.80681 13.1026 9.08354 6.04174 -0.00773863 0.0100325 -0.00402399
182 2 -0.801744 12.9235 10.9986 7.45993 0.000715065 -0.0080919 -0.00705484
183 2 -0.838741 12.9036 13.5605 2.27887 -0.0224854 -0.00223807 -0.00625532
184 2 -0.951644 11.3453 12.9794 14.5742 -0.00546318 -0.00204098 0.00338339
185 2 -0.872115 13.4668 11.6323 14.9873 -0.00346728 -0.0206588 0.0020699
186 2 -0.731233 9.55301 9.19895 9.34111 -0.00536017 0.00493268 -0.015392
187 2 -0.709982 9.08667 11.0711 10.9253 0.000886959 0.00591169 -0.00243652
188 2 -0.804002 11.27 9.45221 11.1425 -0.0168751 0.00701352 0.0217787
189 2 -0.684628 11.367 10.9474 9.21187 -0.00412634 -0.00730297 0.0111458
190 2 -0.882237 9.65738 12.9421 12.8359 -0.00359189 -0.00701285 -0.0036077
191 2 -0.692044 13.5024 8.92162 12.1969 -0.0135672 -0.00963094 -0.000330269
192 2 -0.634947 13.0339 12.8665 9.41112 0.00208174 0.0162498 0.00585344
193 2 -0.665889 14.7953 14.8305 13.8022 -0.0125819 0.0120061 0.00216519
194 2 -0.603379 4.89794 12.0579 4.91858 0.0224558 -0.00706114 -0.000117743
195 2 -0.683974 6.45355 10.4197 2.99477 0.00316081 0.000413644 0.00417889
196 2 -0.615298 12.5341 12.0881 12.1461 0.00987933 -0.00324558 0.00178356
197 2 -0.592422 12.5763 15.3083 8.92723 -0.017565 0.00674816 0.0016309
198 2 -0.619914 6.69644 3.49986 3.55959 0.0078672 0.00456756 0.00414093
199 2 -0.587346 6.54962 5.98127 5.85902 -0.00584494 -0.00177412 -0.00223934
200 2 -0.614775 13.8376 13.6328 7.2 -0.0137253 0.000957425 0.00190371
201 2 -0.694581 5.39083 12.2307 12.1291 0.000705876 0.00702232 -0.00582403
202 2 -0.706018 1.50584 12.0469 15.6942 -0.0124929 -0.00917544 -0.00625115
203 2 -0.57864 5.23506 8.76448 8.30047 0.00202088 -0.00323766 -0.00829072
204 2 -0.630878 11.26 9.8627 13.8232 -0.00880478 -0.0026093 -0.0087192
205 3 0.377816 14.2573 14.2721 14.2647 -0.0056565 -0.0264441 0.0177117
206 3 0.390535 15.4706 14.3009 13.4244 0.0166704 0.0126527 0.055308
207 3 0.436077 4.76617 11.6022 5.76281 0.00528575 -0.0810102 -0.0464865
208 3 0.414188 4.0141 12.3425 4.58655 0.0492683 0.0121574 -0.0363295
209 3 0.467567 7.10942 9.94663 2.56144 0.0616982 0.0198835 -0.0359278
210 3 0.466923 6.2912 10.7991 3.8104 0.0288893 0.0214207 0.0409771
211 3 0.465021 12.2397 11.4335 12.6913 -0.00387144 -0.0358944 0.0237052
212 3 0.404914 13.3327 12.5333 12.4373 0.0677433 0.0197219 0.0468294
213 3 0.373973 13.3053 15.5372 8.2491 -0.0221278 -0.0125678 0.0354661
214 3 0.390176 12.418 1.96785 9.35974 -0.0407219 -0.0363441 -0.00574331
215 3 0.406197 6.40912 2.85565 4.17785 -0.0286631 0.0117255 0.0106673
216 3 0.439322 6.08842 3.42688 2.79576 0.0168045 0.0252594 -0.025755
217 3 0.345589 7.0055 6.74287 5.26233 -0.0218115 -0.0187533 0.0498312
218 3 0.386418 6.99039 5.78619 6.83119 -0.0216929 -0.0118996 -0.0317645
219 3 0.345435 13.7173 12.8174 6.69642 0.0066225 -0.000915735 -0.0403265
220 3 0.390014 13.3443 14.3139 6.75335 -0.00832771 -0.00681264 0.0228133
221 3 0.452964 4.96866 11.5809 11.6167 -0.0250097 0.0324151 -0.0331617
222 3 0.512092 5.3778 12.1618 12.9726 0.0066335 0.0266789 0.019809
223 3 0.411717 10.6286 9.16398 13.6417 -0.026904 0.00322659 -0.00226857
224 3 0.422242 1.89997 12.5452 2.29712 0.00423791 -0.07479 -0.046411
225 3 0.39048 6.17589 8.58096 8.40068 0.0290147 -0.0073278 0.00298631
226 3 0.414102 5.15702 9.63276 8.76217 0.0316673 0.0303202 0.0138082
227 3 0.448338 14.3413 9.46421 12.2266 -0.0765019 0.0627825 -0.000993823
228 3 0.418682 11.1527 10.0634 14.7431 0.0338776 0.000991055 0.0396195
ITEM: TIMESTEP
20000
ITEM: NUMBER OF ATOMS
228
ITEM: BOX BOUNDS pp pp pp
1.4356107856692049e+00 1.5724389214330598e+01
1.4356107856692049e+00 1.5724389214330598e+01
1.4356107856692049e+00 1.5724389214330598e+01
ITEM: ATOMS id type q x y z vx vy vz
1 1 1.56128 1.64426 1.59863 15.7789 -0.00790053 0.00655701 0.020204
2 1 1.5937 3.45637 3.58753 3.07888 0.00517586 0.00305603 -0.00448747
3 1 1.6858 15.7446 4.97961 4.9522 0.00899939 0.000892955 0.00552963
4 1 1.47719 2.82881 6.90993 6.83443 0.0107478 0.00167937 -1.72425e-05
5 1 1.4772 4.67329 1.36634 4.85333 -0.00352859 -0.0112126 0.00188579
6 1 1.40071 6.50812 3.33948 6.67362 0.00379267 -0.00504562 0.00606557
7 1 1.71406 5.32971 5.20075 15.5242 0.000613299 0.00071986 -0.000254178
8 1 1.56349 6.88116 7.03416 3.09974 -0.000830398 -0.000559383 -0.00924208
9 1 1.44304 1.60564 15.7207 8.75526 0.010131 -0.00190153 0.00221725
10 1 1.60234 3.19211 3.35363 10.6591 -0.00424377 0.00216729 -0.0051162
11 1 1.63838 15.566 4.95844 12.2921 0.00695127 0.00308715 -0.002281
12 1 1.45036 3.10699 6.75465 14.2379 0.00273142 0.00448281 -0.0110004
13 1 1.73159 5.07166 1.54052 12.1526 0.00150907 0.0026428 -0.00505223
14 1 1.50309 7.13342 3.37633 13.8547 -0.0024782 -0.00117698 -0.00661961
15 1 1.42362 4.96576 5.18161 8.67823 -0.00124166 0.00764926 0.00488907
16 1 1.55693 6.76722 6.84303 10.5717 0.00412713 0.00695851 -0.0114138
17 1 1.55712 1.59974 8.72599 1.88314 -0.000816418 -0.00842899 0.00866047
18 1 1.49912 3.54818 10.7384 3.14571 0.00813444 -0.00315969 -0.000730241
19 1 1.63508 15.6133 12.1573 4.83455 -0.00736526 -0.00719279 -0.000601458
20 1 1.64245 3.09198 13.7404 6.77917 0.00211919 -0.00587375 -0.00773432
21 1 1.36486 4.89028 8.5207 4.99643 9.53083e-05 0.00824822 -0.00173739
22 1 1.4068 6.86618 10.5856 6.92713 0.00113403 -0.00248899 -0.008509
23 1 1.61484 5.35296 12.2503 15.4279 -0.00339054 0.00743641 0.00807752
24 1 1.40078 6.77565 14.0149 3.28946 -0.0046688 0.00412644 0.00284343
25 1 1.7227 15.4626 8.60089 8.70644 0.00759625 -0.00582924 0.00260817
26 1 1.47829 3.10308 10.1068 10.6199 -0.0070806 -0.00190305 0.00358522
27 1 1.59684 1.81844 12.3241 12.3468 0.0114352 0.00204184 0.00424153
28 1 1.68268 3.51687 14.143 13.9723 -0.00465005 0.00631586 0.00829345
29 1 1.62205 4.89682 8.45616 12.4619 -0.00122251 0.00874899 -0.000863225
30 1 1.71747 7.09562 10.2044 13.758 -0.00176172 0.0101723 -0.00423329
31 1 1.67981 4.73633 11.8818 8.58477 -0.00314442 -0.00356319 -0.00832464
32 1 1.47599 6.46052 13.7919 10.3731 0.00346718 -0.00981148 0.00692479
33 1 1.37219 8.82321 1.46866 1.53341 -0.0044732 -0.00456608 -0.00514051
34 1 1.54797 10.6633 3.33819 3.57544 -0.013778 -0.00755454 -0.00984021
35 1 1.40559 8.47042 4.91206 4.75386 -0.00147929 -0.0167689 0.000114151
36 1 1.49619 10.2121 6.71058 6.76315 0.0109352 0.00368555 -0.00179406
37 1 1.61688 12.1162 15.4707 5.0766 0.00421853 0.0100446 -0.00165998
38 1 1.47259 14.2004 3.13314 6.74409 0.00458279 -0.0014062 0.00893426
39 1 1.57631 12.3734 4.96078 1.67806 -0.00159053 0.00504911 -0.00620402
40 1 1.63537 14.0594 6.81448 3.21316 0.0198897 0.00128709 -0.0100036
41 1 1.46364 8.60359 1.52183 8.49859 0.00286 0.00862932 0.0119627
42 1 1.78998 10.2802 3.33974 10.1512 0.00273751 0.00342992 -0.004991
43 1 1.62358 8.9525 5.21937 12.126 -0.00405172 -0.00882957 0.00832243
44 1 1.66301 10.5247 6.51575 14.2955 -0.00163492 0.00469134 -0.00533806
45 1 1.38081 12.1213 1.62882 11.844 -0.00525251 0.00411443 0.00353642
46 1 1.67543 13.9607 3.06858 14.0434 0.00446744 -0.00153582 -0.00841501
47 1 1.63549 12.2645 4.95255 8.4242 0.00357433 0.00821809 0.0103763
48 1 1.66511 13.914 6.539 10.2886 -0.00234651 0.000988676 -0.00184319
49 1 1.62814 8.83462 8.56989 15.6164 0.00250532 -0.00625957 0.00129775
50 1 1.63446 10.3582 10.4351 3.40817 0.00781762 0.00554986 0.00334824
51 1 1.63008 8.65068 12.3123 5.15855 0.00263345 -0.0060111 0.000688938
52 1 1.74355 10.4668 13.845 6.92828 -0.0103916 -0.00678824 0.00551356
53 1 1.52265 12.0608 8.31185 4.82285 -0.0129605 0.00262737 -0.00104753
54 1 1.63793 14.0149 9.99827 6.3587 -0.009857 0.00046134 -0.0120348
55 1 1.69647 11.9436 12.3534 1.56602 5.02776e-05 0.000891559 0.0108248
56 1 1.72022 13.935 14.0123 3.14242 -0.00651401 0.00364859 0.000726079
57 1 1.53959 8.58106 8.59094 8.65836 0.0169959 -0.00759419 0.00552292
58 1 1.49343 10.6117 10.0808 10.4458 0.000693987 -0.0107326 0.0103612
59 1 1.76733 8.61537 12.0759 11.9147 0.0027914 0.00818883 -0.0129012
60 1 1.43095 10.2453 13.7775 13.7511 -0.00501197 0.00836699 0.00456477
61 1 1.52888 12.0559 8.07261 12.1446 -0.0052842 -0.00118403 0.00583307
62 1 1.30238 14.4728 11.1024 14.822 -0.000329431 -0.00538661 -0.00413112
63 1 1.37979 12.3127 11.843 8.50559 0.00212296 -0.00309873 -0.00513464
64 1 1.53818 14.0939 13.7526 10.4467 0.00259944 -0.00597955 0.00893922
65 2 -0.762108 2.47879 2.79958 2.18727 -0.0135179 -0.0145106 -0.000820936
66 2 -0.825867 2.40146 14.798 14.9216 0.00549385 -0.0066819 0.000381387
67 2 -0.886083 15.0225 2.30108 14.7626 0.0221151 0.00550183 -0.00674223
68 2 -0.76092 15.1475 14.9603 2.64892 0.000689153 -0.00443513 -0.00235815
69 2 -0.851004 2.59569 4.49417 3.86311 -0.0101536 0.00292521 0.00549242
70 2 -0.780091 3.76638 2.24619 3.88051 -0.00338542 -0.00525014 0.00646067
71 2 -0.852213 4.74579 4.17875 2.21025 -0.0053113 -0.00108236 0.00941243
72 2 -0.818235 2.07264 5.671 6.16253 0.00422374 -0.000945308 -0.00638978
73 2 -0.813935 14.8251 3.84491 5.49392 0.00991173 0.00626399 -0.0039866
74 2 -0.872019 15.1043 6.05543 4.15778 -0.0028937 0.00653448 -0.0156866
75 2 -0.665747 3.92913 6.12668 7.80755 -0.00184921 -0.0162623 0.0135574
76 2 -0.751892 3.67982 7.58175 5.6452 -0.00781968 0.00173672 0.000294929
77 2 -0.84952 2.13616 7.82511 7.91111 -0.00774218 0.00302196 -0.0223306
78 2 -0.712943 5.42714 2.24806 5.88953 -0.0163039 0.00300321 0.0135244
79 2 -0.820447 3.8621 14.5216 5.6808 0.010312 -0.00216134 -0.0087312
80 2 -0.81639 5.97523 15.0184 4.09691 0.0121069 -0.00820476 0.0084824
81 2 -0.713917 5.42234 4.01505 7.75155 0.00996132 -0.00968006 0.0104452
82 2 -0.785348 7.32735 4.36231 5.80514 -0.00560459 -0.00225554 0.0116917
83 2 -0.680824 7.56188 2.58514 7.50527 0.00202735 -0.00214031 0.00539
84 2 -0.891241 6.11526 6.30943 1.97594 0.0157215 -0.0164324 -0.0100058
85 2 -0.830586 4.17679 5.69403 14.6335 0.00539472 -0.000857542 -0.00457052
86 2 -0.873146 6.127 4.1962 14.695 0.0156679 0.001378 -0.00495
87 2 -0.850765 6.0438 7.98012 4.00815 -0.00259866 -0.0163343 -0.00680641
88 2 -0.698014 8.05436 5.97885 3.56389 0.00366185 -0.0124236 0.0101657
89 2 -0.844096 7.82747 7.86857 2.2594 0.0024167 -0.00273081 0.0165118
90 2 -0.790255 2.61442 2.44583 9.53178 -0.00236403 -0.00450729 0.00111392
91 2 -0.760383 2.47663 14.6454 7.81722 0.0105641 -0.0106744 0.00353245
92 2 -0.824839 15.0976 2.29523 7.7668 -0.0108549 0.010427 -0.0247548
93 2 -0.721279 15.2044 14.4901 9.72143 0.00692731 -0.00717383 -0.00682339
94 2 -0.81742 2.31654 3.95129 11.777 -0.00015958 -0.00375463 0.00844554
95 2 -0.834478 4.12955 2.59531 11.6561 0.00185336 0.00932522 -0.00707013
96 2 -0.625299 3.99787 4.5749 10.0841 -0.0152515 -0.00952278 0.00364915
97 2 -0.731412 1.87807 6.15532 13.2022 -0.00578516 -0.00564547 0.000174176
98 2 -0.813628 14.627 3.9536 13.019 0.0028089 0.00270937 0.00238304
99 2 -0.862102 14.6307 5.61958 11.2203 -0.00508845 0.00595768 0.00122409
100 2 -0.768105 2.47138 7.68668 15.4707 0.0103173 -0.00617105 -0.00390254
101 2 -0.741116 4.02821 7.89559 13.6662 -0.00588766 0.0120241 0.00857538
102 2 -0.653535 6.34396 2.37847 12.7355 -0.0106417 -0.00175888 -0.00844997
103 2 -0.975705 4.43392 15.0159 13.2396 0.0106944 -0.00535718 0.018356
104 2 -0.844676 5.72249 14.9677 11.0373 -0.0069684 -0.00406548 -0.00596304
105 2 -0.758002 7.9559 2.47132 14.86 0.00723741 -0.00539922 -0.0156643
106 2 -0.731541 7.76964 4.16257 12.6827 -0.0191769 0.00243909 -0.00826013
107 2 -0.749288 5.56387 6.01475 9.7786 -0.00263839 -0.0118349 -0.00760773
108 2 -0.800727 5.80241 7.49376 11.6257 -0.0157902 0.00188334 -0.00404713
109 2 -0.769576 7.874 6.13532 11.3883 -0.00771788 0.011881 -0.00873154
110 2 -0.857041 7.5284 7.81276 9.60343 0.00171945 -0.00127986 -0.00596178
111 2 -0.786466 2.36374 9.94249 2.6727 0.00850174 -0.0104634 -0.0106114
112 2 -0.856152 14.7412 8.02712 2.64994 -0.0107839 0.00529807 0.00101496
113 2 -0.722204 15.0526 9.71003 15.172 -0.0179423 -0.00276697 0.00214559
114 2 -0.812225 2.52524 11.7438 3.90785 0.00970332 -0.00115158 -0.00534484
115 2 -0.783798 4.14373 9.75215 4.25731 -0.0149624 0.0102236 0.0135447
116 2 -0.784909 4.3431 11.3295 1.91427 0.0117472 0.00717989 0.00830516
117 2 -0.823844 2.08156 12.8168 6.04111 -0.00418316 0.00219177 0.000111434
118 2 -0.869926 14.7282 11.0367 5.54418 0.0139802 -0.0114014 0.00205581
119 2 -0.890377 14.5717 13.003 4.14036 0.00175279 0.00430882 0.0234928
120 2 -0.790147 3.6659 12.5404 7.70113 0.000374712 0.00128072 0.0116348
121 2 -0.659258 6.0746 9.06944 5.83591 0.0005382 -0.000561589 0.0138497
122 2 -0.873687 5.83409 11.1435 7.98268 -0.00350131 0.0122616 -0.00232895
123 2 -0.798245 7.84555 11.7266 6.28374 -0.00870698 0.0117312 -0.0142067
124 2 -0.776749 7.78626 9.62659 7.77558 0.00368593 0.0141708 -0.00286875
125 2 -0.8096 5.94873 12.7264 2.36008 -0.00425483 0.0121572 -0.00933664
126 2 -0.876744 4.25686 13.2558 14.9135 -0.0172475 0.0093511 0.00524945
127 2 -0.872283 6.43155 11.2827 14.6034 -0.00823569 0.00498857 0.00211061
128 2 -0.738022 7.66523 14.9056 2.138 0.0011286 0.00120163 -0.0032432
129 2 -0.826187 7.72785 13.3253 4.27397 0.00212206 -0.00530716 -0.00279691
130 2 -0.78823 2.05015 8.97868 9.87109 -0.00161419 -0.0121965 0.00188996
131 2 -0.867679 14.6226 7.47707 9.26261 0.00435708 0.0125421 -0.00499747
132 2 -0.829591 14.6819 9.67636 7.74361 0.00432299 -0.00886528 0.00545468
133 2 -0.797282 2.55495 11.0647 11.7375 0.000712465 0.0082399 -0.00269898
134 2 -0.831353 4.198 9.51465 11.6227 -0.0121369 -0.00945941 -0.0150495
135 2 -0.812003 3.77408 11.0729 9.55897 0.00532233 0.00948505 0.00413031
136 2 -0.893939 2.86128 13.2882 12.6309 0.01897 0.0123669 0.00130805
137 2 -0.772619 15.2043 11.7379 13.5331 0.00453459 0.00404429 -0.0067328
138 2 -0.837145 15.145 12.9712 11.2659 -0.00499835 -0.00574038 0.00609426
139 2 -0.815429 5.97871 9.1996 13.3442 -0.00619795 -0.0058557 -0.00575541
140 2 -0.904717 8.21583 9.43463 14.4321 0.00975626 0.00422662 -0.00402692
141 2 -0.947786 7.98855 11.0449 12.7632 0.00730893 0.0149481 0.0159784
142 2 -0.822705 5.64613 12.9543 9.41801 0.0134845 -0.00369653 0.00557843
143 2 -0.575252 7.43681 15.0049 9.17334 -0.00313382 0.0101266 0.00239914
144 2 -0.802967 7.58179 13.0022 11.3865 0.007748 -0.00699609 -0.00599202
145 2 -0.689147 9.71071 2.23884 2.70361 -0.0125882 0.0108647 0.00262193
146 2 -0.665056 9.74076 15.0513 14.6614 0.0110649 0.01436 0.00713316
147 2 -0.77627 9.87223 4.46574 4.27952 -2.86826e-06 -0.022691 0.00393125
148 2 -0.793257 10.9434 2.18719 4.56008 -0.0178242 -0.00109694 -0.0138857
149 2 -0.822955 11.7859 4.09773 2.96781 0.00163982 0.0128424 0.00208686
150 2 -0.682343 9.12171 5.96793 5.81155 -0.00945556 0.00713854 -0.00334252
151 2 -0.813989 11.2541 5.92139 7.63649 0.0105829 0.00064224 -0.0195266
152 2 -0.672576 10.7343 7.92029 5.92494 -0.0222589 -0.00502519 0.00898236
153 2 -0.734342 9.10348 7.45117 7.61534 0.00747475 0.00412284 0.0161446
154 2 -0.730698 13.3572 1.88737 5.96122 -0.00558784 -0.00385981 0.0187658
155 2 -0.918012 11.4166 14.6728 6.11333 -0.00182165 -0.0108056 0.00364597
156 2 -0.877482 13.0646 14.7267 4.16512 -0.0132928 0.00983922 -0.00043694
157 2 -0.835673 13.1835 4.10688 7.4481 0.000319687 -0.000246207 -0.00578188
158 2 -0.837472 13.186 6.18691 2.01089 0.0158897 -0.00833346 -0.00848909
159 2 -0.811707 11.1081 5.24154 14.9808 -0.0138951 0.00459506 -0.010726
160 2 -0.801802 13.2291 3.9578 15.2 -0.00959106 0.00668251 0.000189185
161 2 -0.80909 12.9065 7.14286 4.20536 0.00674778 0.0155613 -0.0153998
162 2 -0.87954 9.2719 2.32193 9.6423 0.0174465 0.00362089 -0.0088886
163 2 -0.840486 9.45488 14.8654 7.55357 0.000572935 0.0138419 0.00156801
164 2 -0.859761 9.76799 4.48318 11.0564 -0.00360879 -0.000594049 0.0163474
165 2 -0.831054 11.2582 2.60222 11.0436 0.00756388 0.00732333 0.00677218
166 2 -0.897722 11.2013 4.0774 9.15514 -0.00909922 0.00969648 0.00334322
167 2 -0.902361 9.69587 6.10213 13.1274 -0.00560843 -0.00407192 0.0127358
168 2 -0.916317 9.88889 7.7085 15.0469 0.00997837 0.00315831 0.00765052
169 2 -0.727682 11.7584 7.18831 13.466 0.0120677 -0.00381423 0.00734158
170 2 -0.727051 12.9236 2.4695 12.9648 -0.0124787 -0.00142395 -0.0191829
171 2 -0.56051 10.8839 14.9347 12.6902 0.00537899 0.0122436 0.000153619
172 2 -0.775118 13.2749 14.8921 11.1228 0.00960801 -0.010113 0.00978247
173 2 -0.800927 13.377 5.41067 9.33622 -0.00265961 0.000776578 0.0126414
174 2 -0.750199 12.5606 7.20176 10.8294 -0.0207386 -0.007424 0.00144205
175 2 -0.832869 9.3974 9.67089 2.49477 0.00114135 -6.75002e-05 -0.00340121
176 2 -0.783721 9.35854 11.191 4.43302 -0.000956279 0.0125752 0.00973613
177 2 -0.817097 11.4605 9.47113 3.99309 -0.00585019 -0.00722725 -0.00408495
178 2 -0.911758 11.1862 11.4818 2.56304 -0.0101856 0.0107478 -0.00353837
179 2 -0.800441 9.97666 13.002 5.7495 -0.0126648 0.00347813 0.012301
180 2 -0.76683 11.2019 12.9122 7.89505 0.00493036 -0.00287971 -0.0109449
181 2 -0.823449 13.1044 8.89401 5.80066 -0.00322136 0.00314238 0.00536562
182 2 -0.608 12.9237 10.8263 7.14651 0.00226551 -0.0102205 0.00234822
183 2 -0.904927 12.9727 13.2584 2.21976 -0.00548921 0.000889498 0.00167297
184 2 -0.903932 11.1953 13.1707 14.8497 -0.0076015 -0.00704462 0.000385379
185 2 -0.76693 12.7528 11.3439 14.9182 -0.00631566 -0.00834311 -0.0112956
186 2 -0.741343 9.7083 9.26739 9.43184 -0.00347822 -0.00270325 0.00400656
187 2 -0.762309 9.4013 11.2583 10.8896 -0.00184395 0.00366787 0.0115284
188 2 -0.792818 10.9768 8.93554 11.4672 0.00737545 0.00820916 0.0060783
189 2 -0.750992 11.3663 10.8904 9.31511 -0.0160772 0.000364646 0.0050615
190 2 -0.882726 9.66662 13.0365 12.5752 -0.00987987 -0.0130429 -0.000601546
191 2 -0.744124 13.1998 8.91974 12.4275 0.0113572 -0.00740461 -0.00539831
192 2 -0.802749 13.0799 12.7947 9.62631 -0.00626097 -0.00205456 -0.0211732
193 2 -0.640361 13.9109 14.0394 14.329 -0.00349378 0.00892827 -0.00495479
194 2 -0.650019 5.4557 11.912 5.7339 -0.00330014 0.00606111 -0.00400617
195 2 -0.586979 7.26444 10.643 3.74952 0.0134165 0.00324463 -0.00885662
196 2 -0.644718 12.1069 11.2395 11.6784 0.00881254 -0.00995352 0.00802972
197 2 -0.607081 12.4981 1.36445 8.46707 -0.00233418 -0.0115716 -0.0113048
198 2 -0.665328 7.42381 3.5443 3.17571 0.0137279 0.00524992 -0.00748872
199 2 -0.645762 6.35516 6.47072 7.25125 0.00134068 -0.00854322 -0.0171671
200 2 -0.636537 13.8003 13.1576 7.38237 0.00802625 -0.0217078 -0.00573764
201 2 -0.609364 5.17202 12.6026 11.7637 -0.0075007 0.00317916 -0.0153653
202 2 -0.673286 15.3105 12.2274 15.6603 0.00399711 0.0188224 0.00632889
203 2 -0.586811 4.78215 8.90646 8.48723 -0.0109969 -0.00982431 0.00786234
204 2 -0.542966 10.8943 10.2797 14.0011 0.0112482 0.00333926 0.00818901
205 3 0.438461 14.8016 13.8786 14.2031 0.0383496 -0.00773429 -0.0203088
206 3 0.413944 13.2965 13.5458 13.891 0.0385565 -0.0350363 0.014972
207 3 0.389917 4.88807 11.7033 4.9845 -0.0444037 0.0110341 0.0228116
208 3 0.397632 6.08528 12.6148 5.41012 -0.0159453 -0.0473728 0.0167237
209 3 0.399812 6.78808 9.70907 3.89874 0.0678144 0.0277606 0.0174873
210 3 0.407508 7.35767 10.4272 2.8727 0.0411972 -0.0104761 0.021566
211 3 0.370881 11.6746 11.973 11.1838 0.0096898 -0.00966569 0.023728
212 3 0.327642 12.9151 11.5032 10.9859 -0.0149727 -0.0146591 -0.0148921
213 3 0.35824 13.0013 15.5681 7.62769 0.00556166 -0.0191876 -0.0244741
214 3 0.376792 12.4596 2.36465 8.47565 -0.0436252 0.00381803 -0.0177784
215 3 0.407251 7.18329 3.703 2.20764 0.04506 -0.0570139 0.00807114
216 3 0.40787 6.93797 2.74641 3.43761 0.0113714 0.0176278 0.0292856
217 3 0.357464 6.54485 7.31232 7.67951 0.0371507 0.00776063 0.0179525
218 3 0.421735 6.97491 6.51877 6.44982 -0.0147402 -0.0696729 -0.0210891
219 3 0.452826 14.2394 13.1187 6.57518 -0.00847491 -0.0470018 0.0232799
220 3 0.383123 13.2421 14.0231 7.53608 0.0321461 0.0824169 -0.0224832
221 3 0.437429 4.58015 11.8878 11.7586 -0.0231791 0.0596934 0.0246966
222 3 0.38169 4.45451 13.344 11.4103 -0.0181796 0.0252981 0.0167133
223 3 0.399408 11.0252 10.4112 14.8889 -0.053714 -0.0288999 -0.0198168
224 3 0.468747 1.43607 12.0576 2.1176 -0.0442152 -0.0707316 -0.00326805
225 3 0.383944 5.64304 9.29402 8.79075 0.0304273 0.0115233 0.0290892
226 3 0.374203 5.10151 8.10037 8.11549 -0.0120155 0.0257921 0.00607675
227 3 0.46092 12.9617 9.83872 12.7435 -0.0372026 0.0204281 0.010656
228 3 0.362816 9.7862 10.5545 13.9521 0.0307448 -0.0544632 -0.0530971
ITEM: TIMESTEP
22000
ITEM: NUMBER OF ATOMS
228
ITEM: BOX BOUNDS pp pp pp
1.4374251237863396e+00 1.5722574876213427e+01
1.4374251237863396e+00 1.5722574876213427e+01
1.4374251237863396e+00 1.5722574876213427e+01
ITEM: ATOMS id type q x y z vx vy vz
1 1 1.77187 1.67068 15.6964 1.62743 0.0147588 0.000179273 -0.00216172
2 1 1.97731 3.26223 3.26746 3.31088 -0.00864754 0.00402231 0.00476247
3 1 1.72959 15.7008 4.86997 5.06508 0.00320988 -0.00671808 0.0039862
4 1 1.67893 3.33527 6.52894 6.61979 0.0109282 -0.00608702 0.0110219
5 1 1.62746 4.92062 1.54144 5.11247 -0.00503818 0.00397995 0.00320316
6 1 1.77302 6.85476 3.0998 7.0338 0.00247859 -0.00650186 0.00990863
7 1 1.62841 4.7652 4.86882 15.5457 0.00288425 -0.00622293 0.0024696
8 1 1.69125 6.56397 6.5194 3.05047 -0.00127425 -0.00017738 -0.00153625
9 1 1.61971 1.74848 1.55446 8.76479 0.00757412 -0.0060067 -0.000811825
10 1 1.75355 3.57556 3.11048 10.5108 0.00187545 0.00295457 0.00624022
11 1 1.6047 1.57913 4.8037 11.9288 0.00642292 -0.000463832 0.00445582
12 1 1.66366 3.05355 6.72282 13.7545 0.000404351 -0.00153019 -0.0120458
13 1 1.832 5.28929 15.5302 12.2956 0.00312251 0.00042548 0.00560698
14 1 1.5589 6.86263 3.23957 13.9312 0.00825965 0.00763645 0.00195805
15 1 1.81489 5.10161 4.91959 8.61409 -0.0125366 0.00655422 0.00636435
16 1 1.54059 6.5448 6.93345 10.569 -0.00810991 0.00572025 0.0071011
17 1 1.52825 1.46408 8.2173 1.66126 0.00147473 -0.00245391 0.00347574
18 1 1.27745 3.43335 10.2227 3.15332 -0.0106897 -0.00185464 0.004225
19 1 1.56603 1.54482 11.944 4.93851 0.00158751 -0.00540428 -0.000767283
20 1 1.53621 3.1588 13.8828 6.70015 -0.0070415 -0.00904976 -0.0148085
21 1 1.34307 5.1009 8.40381 4.92543 -0.00450243 0.00610239 -0.00380328
22 1 1.24087 6.89807 10.5951 6.78651 0.0120288 -0.000882166 -0.00375563
23 1 1.64404 5.13653 12.4766 1.53418 -0.00173103 0.000533403 -0.00145558
24 1 1.73925 7.04468 14.1561 3.28824 0.00811832 -0.00106044 -0.00631044
25 1 1.56951 1.61777 8.193 8.69173 -0.00807837 -0.00178973 -0.00407082
26 1 1.73274 3.04682 10.3349 10.3787 0.000585669 0.0039039 -0.00815174
27 1 1.49823 1.52209 12.099 12.4285 -0.00155461 -0.00640266 0.00217774
28 1 1.67726 3.33211 14.017 13.9694 -0.00390813 0.00156323 -0.0118445
29 1 1.6335 4.82921 8.79883 12.3257 -0.0034242 0.0105315 0.0030235
30 1 1.63826 6.68891 10.3808 14.1697 0.000874682 0.00331222 0.00802893
31 1 1.41153 4.81362 12.0278 8.59381 0.010442 -0.00402869 0.0109043
32 1 1.63937 6.82066 13.909 10.2825 0.00351129 -0.0083346 -0.000171039
33 1 1.72641 8.65684 1.48406 15.6338 0.000705166 -0.0056554 0.00445518
34 1 1.56104 10.5027 3.28938 3.0262 -0.00448946 0.0088782 -0.00421109
35 1 1.42452 8.56513 4.62762 4.97495 -0.00149227 -0.00493464 0.0108656
36 1 1.53076 10.1347 6.78585 6.56256 0.0107982 -0.00578759 0.00477995
37 1 1.70846 12.3507 1.54327 5.00741 0.00274217 0.00824848 -0.00375449
38 1 1.6525 14.2058 3.04433 6.84207 -0.00592161 -0.0127906 0.00341204
39 1 1.67793 12.2457 5.19893 15.6838 -0.0142232 0.00334653 0.00443876
40 1 1.5742 13.8028 6.71167 3.64255 -0.0122114 0.00253366 0.0038123
41 1 1.85476 8.71546 1.48709 8.80107 -0.00911308 -0.00971381 0.000269913
42 1 1.43949 10.3882 3.48815 10.384 0.00159658 -0.00179456 -0.00586548
43 1 1.57161 8.48662 5.29651 12.1514 -2.90587e-05 0.00447572 -0.00704679
44 1 1.37834 10.2158 6.94964 14.1327 -0.00597649 -0.00384634 0.00663637
45 1 1.46551 12.4105 1.65107 12.206 0.00595498 0.0131646 0.0100192
46 1 1.52123 14.0793 3.32327 14.0813 0.00928015 -0.00397889 -0.0124502
47 1 1.56437 12.0846 4.84779 8.12862 0.00200497 0.0114765 -0.00440608
48 1 1.50255 13.804 6.35719 10.209 -0.00378932 0.00182623 0.0057479
49 1 1.55261 8.45685 8.5255 1.7503 0.00789924 0.0118001 0.00535368
50 1 1.74494 10.3149 10.5978 3.21637 0.00176377 -0.00780844 -0.00553233
51 1 1.59475 8.79134 12.3397 5.04825 0.00195943 0.00174766 0.00315662
52 1 1.69831 10.3808 14.3282 6.75828 0.00211605 0.00769686 0.00704025
53 1 1.36266 12.0311 8.70085 4.92829 0.00179425 -0.00262124 -0.00806791
54 1 1.42509 14.078 10.1137 6.86149 0.00375037 0.00180584 -0.00927026
55 1 1.46964 12.0248 12.4533 1.47424 -3.95142e-05 0.0042223 0.005054
56 1 1.68063 13.9668 14.0238 3.19439 0.00164221 0.010313 -0.00824624
57 1 1.41987 8.29822 8.32388 8.3629 0.00646081 0.00253528 0.00256808
58 1 1.51171 10.2037 10.3173 10.1779 -0.00359576 0.00762171 -0.00160348
59 1 1.40307 8.62289 11.9894 12.2419 -0.00348937 0.00869142 -0.00163646
60 1 1.66319 10.3511 14.1347 13.7386 0.00406471 -0.00691759 -0.00910684
61 1 1.54907 12.2746 8.39877 11.8693 0.00363791 -0.00838727 -0.00507214
62 1 1.45214 14.5853 10.9192 15.0384 -0.0117044 -0.00873998 0.000882333
63 1 1.34039 12.4144 12.2695 8.47245 -0.0019959 0.00265747 -0.00696492
64 1 1.32329 14.2803 13.9628 10.4886 0.00492812 -0.00436995 0.00579278
65 2 -0.988687 2.45866 2.14871 2.73563 0.0166759 0.0150774 0.00393393
66 2 -0.926159 2.66162 14.918 15.0501 0.00639693 -0.00463126 -0.0055022
67 2 -0.802128 15.0982 2.28422 14.8882 -0.00777349 0.0116993 -0.00375456
68 2 -0.958624 14.9702 14.8316 2.33905 0.00497544 -0.00038599 0.00771745
69 2 -0.986841 2.36737 4.11853 4.11893 0.0122516 -0.00530592 -0.00607269
70 2 -0.961135 4.3264 2.69676 4.23937 0.00141873 -0.0117979 -0.00658195
71 2 -0.971497 3.83718 4.16447 2.2767 -0.0115589 0.0117449 0.00544103
72 2 -0.901175 2.29258 5.96744 5.67494 0.00714484 -0.00234173 -0.0191159
73 2 -0.838624 15.0437 4.21073 6.37778 0.00645953 0.010323 -0.0090715
74 2 -0.837104 14.4753 5.44129 4.39641 0.00723017 0.0147713 0.00743967
75 2 -0.866884 4.16247 5.65437 7.66525 0.016452 -0.00292452 -0.00031984
76 2 -0.842562 4.32552 7.33896 5.79482 0.0105374 0.0140628 0.0158442
77 2 -0.797637 2.76303 7.59865 7.70054 0.0101278 0.00973814 -0.00892792
78 2 -0.814618 5.68797 2.31176 6.18053 -0.0234055 0.00379429 0.00767824
79 2 -0.844804 4.09314 14.7298 5.71149 0.00887152 0.00876764 0.000157174
80 2 -0.794546 6.212 14.8706 4.32172 0.00114774 -0.00747186 -0.00572307
81 2 -0.985802 6.17471 4.15281 7.8529 0.00333266 0.00345592 -0.00844759
82 2 -0.807635 7.93068 3.68585 6.14117 0.00384193 0.000651354 1.40885e-05
83 2 -0.896622 7.65035 2.11179 7.89333 -0.0195195 -0.00719214 0.0142484
84 2 -0.948167 5.78982 5.68362 2.03186 -0.0126794 0.00718207 -0.00249386
85 2 -0.838099 3.81842 5.79246 14.7108 0.00824758 0.00901361 0.00282815
86 2 -0.73128 5.37239 3.78817 14.3975 0.00480717 0.00172749 -2.68655e-05
87 2 -0.837763 5.75317 7.65127 3.71407 -0.00992077 3.76525e-05 -0.0141726
88 2 -0.750534 7.22562 5.69633 4.09607 -0.0221291 -0.00467493 0.00752828
89 2 -0.810624 7.82302 7.22325 2.41951 0.0023873 -0.0122879 0.00137506
90 2 -0.900336 2.46003 2.36007 9.82557 0.00551205 -0.0163144 -0.00480684
91 2 -0.803462 2.65457 15.0143 7.6711 0.00334521 -0.0192667 0.0055146
92 2 -0.873387 14.9607 2.36195 8.02787 -0.0121526 -0.00908574 -0.0154597
93 2 -0.765475 15.2762 14.5644 9.39027 0.00956948 -0.00209654 -0.00775716
94 2 -0.833566 2.78825 3.93159 11.5011 -0.000762831 0.00356403 -0.00152501
95 2 -0.918675 4.40319 2.08794 11.421 -0.00298656 -0.00237178 -0.0111159
96 2 -0.910464 4.09845 4.15202 9.45518 0.00166974 0.00613812 -6.84559e-05
97 2 -0.859683 2.17723 5.9379 12.7418 -0.00114221 -0.0136531 -0.00272026
98 2 -0.729763 15.112 3.76242 12.9627 -0.00469636 -0.00260853 0.0030904
99 2 -0.80208 14.6635 5.38246 10.9922 0.0041933 -0.00797306 -0.00539555
100 2 -0.70469 1.88734 7.53864 14.5046 -0.00304392 -0.000422863 -0.011583
101 2 -0.827065 3.96786 7.84838 13.187 0.00435987 0.000919285 -0.0111497
102 2 -0.841062 6.41019 2.11918 13.087 -0.0187698 0.00271109 0.00258487
103 2 -0.958034 4.54572 14.6548 13.2192 -0.00415719 -0.00530815 0.0137945
104 2 -0.965034 5.99523 14.6645 11.2373 0.00551732 5.16576e-05 0.00692005
105 2 -0.931 7.69947 2.54143 15.0283 0.00654135 0.0107677 0.00780834
106 2 -0.765441 7.33521 4.41605 12.9386 0.00384237 -0.0140604 0.00733822
107 2 -0.865919 5.65664 5.95416 9.65761 -0.0071669 -0.00975788 -0.000703177
108 2 -0.778232 5.97824 8.08166 11.4982 -0.0110913 -0.0122037 0.0129555
109 2 -0.775345 7.56119 6.29834 11.5562 0.0096434 -0.00492675 0.0233288
110 2 -0.710076 7.65268 7.75561 9.79594 0.0168978 0.00533451 -0.0103299
111 2 -0.697579 2.71641 8.8747 2.17984 -0.0104543 -0.00427927 -0.01159
112 2 -0.75126 14.5857 7.74999 2.54853 0.00866078 -0.00284283 -0.0220906
113 2 -0.715195 14.9667 9.44558 15.3576 0.000723508 -0.010338 0.0181482
114 2 -0.802688 2.33538 11.1794 3.81472 -0.0208087 -0.0180895 -0.00545573
115 2 -0.691781 3.86295 9.39433 4.50879 -0.00121507 -0.00169825 0.00822823
116 2 -0.765446 4.47261 11.2406 2.44289 -0.00258421 -0.00721136 -0.000682254
117 2 -0.933339 2.17642 13.005 5.78357 -0.0159174 0.00389379 0.00917729
118 2 -0.776282 15.0099 10.8841 5.77173 -0.00299732 -0.000179706 0.00801524
119 2 -0.744736 14.8178 12.8127 4.0051 0.0168688 0.0153136 0.0126307
120 2 -0.795925 4.16092 13.0858 7.58945 0.0123418 0.009481 -0.00793491
121 2 -0.693501 6.39865 9.30294 5.4562 -0.00122364 0.0105582 -0.000599863
122 2 -0.761453 5.74672 10.9875 7.74933 0.0128065 0.00590658 -0.00204813
123 2 -0.63513 8.08908 11.7328 6.53482 0.00338211 0.00253206 -0.00954531
124 2 -0.724194 7.84824 9.47582 7.47718 -0.00173082 0.00313629 -0.00583896
125 2 -0.858268 5.93742 13.3963 2.46923 0.00426126 3.24141e-05 0.0159219
126 2 -0.843462 4.04405 13.0301 14.9706 -0.00166996 1.83401e-06 0.00138496
127 2 -0.779011 6.17144 11.6643 14.9893 -0.0148562 -0.00238395 -0.0132712
128 2 -0.916959 7.83978 14.7518 2.14415 -0.0166418 0.0103323 0.0197029
129 2 -0.902742 7.89076 13.1093 4.14474 -0.00949343 -0.0238211 -0.00322556
130 2 -0.906789 2.30188 9.23516 9.73338 0.0142347 -0.00179173 0.00926283
131 2 -0.747337 14.8117 7.23501 9.03975 0.00637084 0.0140954 0.0014747
132 2 -0.723329 15.0393 9.13949 7.90803 0.0018402 0.00953501 -0.00124665
133 2 -0.815309 2.11944 10.8911 11.4945 -0.000861237 0.00245449 -0.0010194
134 2 -0.870842 4.1355 9.6781 11.2917 0.013606 0.0104878 0.0208428
135 2 -0.919551 3.85197 11.0419 9.25864 0.00400805 0.00179687 -0.00546357
136 2 -0.817116 2.771 12.8835 13.096 -0.0165157 -0.00177247 0.00043712
137 2 -0.798569 15.0242 11.2087 13.3018 -0.0231834 -0.000973407 0.00663058
138 2 -0.799338 15.0797 13.3187 11.7762 -0.0083286 0.0022753 0.00341133
139 2 -0.746842 5.52742 9.46428 13.6052 0.0014497 -0.0027978 0.00143165
140 2 -0.738327 7.29692 9.46804 15.24 -0.00931059 -0.00407161 0.0022959
141 2 -0.762366 7.30664 11.014 12.9916 0.0152158 -0.00053235 0.00688356
142 2 -0.7133 6.12783 13.0815 9.12394 -0.00631477 0.000359241 0.0156177
143 2 -0.875584 7.98698 14.802 9.78162 -0.005725 0.00806736 0.0115315
144 2 -0.697917 7.54365 12.6999 11.1076 0.0117213 -0.00642063 -0.00490566
145 2 -0.839257 9.40989 2.26207 2.49239 0.00139344 0.0209776 -0.0100658
146 2 -0.889954 9.57785 15.2013 14.5526 -0.00450512 0.0121391 0.00128147
147 2 -0.767798 9.70301 3.98126 4.11342 0.0073422 0.00339739 0.00462573
148 2 -0.76758 11.4003 2.38008 4.06439 -0.00938295 -0.0189571 -0.00383485
149 2 -0.857724 11.4935 4.11838 2.05732 0.00184122 -0.00783827 0.00484704
150 2 -0.725766 9.48417 5.87204 5.44619 -0.00183515 0.00374681 0.00266423
151 2 -0.72483 11.3273 5.90608 7.16742 0.00847047 0.00322757 -0.00416039
152 2 -0.685041 10.8252 7.95198 5.83529 -0.00466061 0.00337685 0.00385452
153 2 -0.757145 9.29818 7.30523 7.8414 0.00184676 -0.0015477 -0.00414454
154 2 -0.938179 13.5634 2.06816 5.78451 0.00176047 -0.0115039 -0.0192292
155 2 -0.916324 11.4937 15.0521 5.987 0.00414544 0.00602169 0.00410929
156 2 -0.874433 13.0553 14.6933 4.24278 -0.00501481 0.00262496 0.0135494
157 2 -0.839816 12.9645 3.84013 7.44669 -0.00387569 -0.00459794 -0.00389021
158 2 -0.765714 13.0667 6.04311 2.47551 -0.00957262 0.00883224 -0.0100736
159 2 -0.8284 11.0729 6.09356 15.0598 -0.00332676 0.01654 -0.0134661
160 2 -0.82861 13.3597 4.32032 15.066 0.00107104 0.000340354 0.00280889
161 2 -0.776069 12.7863 7.45599 4.44484 0.00600714 0.0106042 0.00109799
162 2 -0.878347 9.47838 2.58031 9.59884 0.000473022 -0.00472546 -0.00943678
163 2 -0.938967 9.49963 15.1284 7.71957 -0.0081749 0.00194664 -0.00516301
164 2 -0.817926 9.50862 4.44816 11.4188 0.00720414 0.00789689 0.00391535
165 2 -0.680596 11.803 2.93332 11.2217 0.00756305 -0.00161232 0.0092792
166 2 -0.71318 10.9143 4.36086 9.1507 0.00119448 -0.00718912 -0.00888216
167 2 -0.737213 9.09713 6.3914 13.1254 -0.000748154 -0.00166541 -0.0122811
168 2 -0.750897 9.46235 8.04644 15.0275 -0.00918352 0.0213926 -0.00376652
169 2 -0.714306 11.5201 8.03984 13.1249 0.0147727 0.000583525 0.00983612
170 2 -0.779188 12.936 2.52438 13.339 -0.0030851 -0.00621886 -0.00350993
171 2 -0.76192 11.2917 14.9229 12.5651 -0.00205155 -0.00862059 0.0120663
172 2 -0.656048 13.5271 15.2959 11.1117 0.00648568 0.0107714 0.0133782
173 2 -0.723499 12.9823 5.35034 9.30016 0.00933476 -0.00279888 -0.0226303
174 2 -0.783688 12.6912 7.22114 10.9282 -0.00848608 0.00521928 -0.0063115
175 2 -0.821489 9.30832 9.68029 2.47978 -0.00930667 0.00324315 -0.00538114
176 2 -0.875518 9.75919 11.3408 4.45489 -0.00354128 -0.00765574 0.00411947
177 2 -0.770281 11.3486 9.60355 3.6536 0.0124678 0.00846293 0.010589
178 2 -0.833389 11.0342 11.6759 2.45332 -0.00114541 0.00708971 -0.014124
179 2 -0.775139 9.80548 13.2697 5.70711 0.00379105 0.00263286 0.00552457
180 2 -0.668788 11.2885 13.3878 7.63972 0.0070228 -0.0282765 0.000592272
181 2 -0.67314 13.1882 9.09454 6.22355 -0.0144202 -0.000558512 -0.0105139
182 2 -0.739043 13.2601 11.3618 7.57083 -0.00572585 -0.0210051 -0.00925002
183 2 -0.857438 12.9863 13.5001 2.22772 -0.00607918 0.00754462 -0.00526131
184 2 -0.885782 11.1057 13.3602 14.744 0.00934455 -0.00190204 0.00173254
185 2 -0.805804 13.1052 11.3095 15.2967 0.00126212 -0.010129 -0.00400723
186 2 -0.657601 9.47738 9.54337 9.15727 -0.0022823 -0.0065647 0.00589638
187 2 -0.804578 9.5184 10.9954 11.3386 0.00195603 0.00156143 -0.0010137
188 2 -0.733858 11.5092 9.5642 11.0316 -0.00259344 -0.0004787 0.0104245
189 2 -0.638286 11.3556 11.0992 9.4376 -0.0117436 0.000171251 0.00517495
190 2 -0.824137 9.35148 13.1606 13.0945 0.00472268 -0.0165134 -0.00778618
191 2 -0.772663 13.6206 8.94028 12.0672 -0.005373 -0.00554253 0.0123003
192 2 -0.700576 13.1136 13.0094 9.6948 0.00875569 -0.00486814 -0.00489243
193 2 -0.637958 13.523 14.6761 13.6973 -0.00174093 0.00439092 0.00745136
194 2 -0.706401 5.38288 11.5783 5.32459 0.0114559 -0.00628649 0.00336875
195 2 -0.564515 6.97611 10.5977 3.29746 -0.0172465 -0.00299046 0.00181717
196 2 -0.589838 12.4587 12.0668 12.3696 -0.0113438 0.00997619 -0.0122839
197 2 -0.585924 11.9003 1.47256 8.94749 0.00946186 0.00207584 0.0029671
198 2 -0.561057 7.16741 3.34665 3.75055 -0.00570774 -0.0123506 0.00656618
199 2 -0.657235 6.76059 7.26324 7.03564 0.00116183 -0.00444168 -0.000643021
200 2 -0.633415 13.724 13.6699 7.08246 -0.00738974 0.0151532 -0.00516796
201 2 -0.684311 4.78165 11.9801 11.3646 -0.0120227 0.00526171 0.00534019
202 2 -0.729359 15.6416 11.7929 1.38005 2.77542e-05 -0.00543422 -0.0187899
203 2 -0.71709 4.90294 8.64928 8.4406 -0.000295851 0.00175559 -0.0013419
204 2 -0.583527 9.88527 10.815 13.6071 -0.00159191 -0.00229932 -0.0014564
205 3 0.421746 13.3889 14.3464 14.5114 0.0129037 -0.0197046 -0.0586554
206 3 0.375279 14.5166 14.7138 13.7635 0.0203425 -0.0149596 -0.0392179
207 3 0.42832 5.55526 12.4464 5.43168 0.0529627 -0.020665 0.00221298
208 3 0.361692 4.32609 11.3981 5.34086 -0.0166958 0.0286902 -0.00329754
209 3 0.427473 6.07564 10.8415 3.55894 0.0539157 -0.0373447 -0.0491844
210 3 0.385539 7.3062 10.201 4.12677 -0.00940642 0.0609405 0.0533145
211 3 0.364122 13.1982 11.5349 12.8231 0.03568 0.0234659 -0.0359014
212 3 0.405467 12.2322 11.4688 11.6271 -0.0113369 0.0441165 -0.0124259
213 3 0.399844 12.1455 2.30075 9.56794 -0.0033398 -0.0318408 -0.0357532
214 3 0.425561 12.4532 15.5472 8.25166 0.0207266 0.0554955 -0.00178218
215 3 0.36824 7.50303 3.05306 2.77245 -0.0325006 0.00843157 -0.0547818
216 3 0.350479 6.21997 3.77389 3.37905 0.0172967 -0.0642609 0.0354188
217 3 0.426647 6.00299 7.61986 7.4959 0.0483473 0.100303 -0.000744334
218 3 0.390899 6.62892 7.42212 6.04553 0.0472452 -0.0334583 -0.035256
219 3 0.411259 14.6654 13.5408 6.9826 0.00764958 -0.0297939 0.0251359
220 3 0.442249 13.2644 14.2554 6.42826 0.012402 0.0373838 -0.0703947
221 3 0.440509 4.6752 12.8363 11.6882 -0.0123558 -0.0363667 -0.0513723
222 3 0.455174 5.5623 11.5222 11.5029 0.0865452 0.0215405 0.0564563
223 3 0.410028 10.5879 10.1562 13.22 0.00718105 -0.0293912 -0.0609013
224 3 0.471853 2.06782 12.1089 2.01807 -0.0151996 -0.0389128 0.000146932
225 3 0.42949 5.41323 9.3583 8.7445 0.0132785 -0.0267862 0.00612249
226 3 0.47145 4.06874 8.89266 8.34807 0.0291794 -0.0307735 -0.00715415
227 3 0.460275 14.3093 9.61227 11.8194 -0.0244034 -0.0165235 -0.0328563
228 3 0.376327 10.3073 11.6633 14.1589 -0.0292533 0.0153381 0.000768877
ITEM: TIMESTEP
24000
ITEM: NUMBER OF ATOMS
228
ITEM: BOX BOUNDS pp pp pp
1.4454155145713434e+00 1.5714584485428404e+01
1.4454155145713434e+00 1.5714584485428404e+01
1.4454155145713434e+00 1.5714584485428404e+01
ITEM: ATOMS id type q x y z vx vy vz
1 1 1.32803 15.6709 1.59173 1.74956 -0.00416743 -0.00354222 0.0140939
2 1 1.42208 3.73694 3.32774 3.20381 0.00528584 0.00607314 -0.00135726
3 1 1.42642 1.80301 4.88149 5.19945 0.00455366 0.00223101 -0.00576534
4 1 1.73835 3.39935 6.90017 6.9073 0.00893354 -0.0119344 -0.00300803
5 1 1.58251 5.31934 1.49239 5.24324 0.0111388 0.0026336 0.00697197
6 1 1.60057 6.90367 3.47192 6.93434 -0.00708612 -0.000970833 -0.000166637
7 1 1.59597 4.99271 5.5036 1.59138 0.0117764 0.00992991 0.0156434
8 1 1.49987 6.97389 6.96782 3.47289 0.00238808 0.00287704 0.00011295
9 1 1.44212 1.73292 15.5591 8.72609 -0.00683899 -0.00196117 0.00554153
10 1 1.89673 3.37082 2.88627 10.5205 0.00851783 0.00215909 0.00349065
11 1 1.89041 1.53934 4.63505 12.0443 -0.00544343 0.016102 0.0099637
12 1 1.62352 2.94564 6.56656 13.9097 -0.00299185 0.00707926 0.00495808
13 1 1.55599 5.31251 1.67524 12.4651 -0.0105432 -0.00296412 0.0100385
14 1 1.71051 6.76234 3.7992 14.0729 0.00221476 0.00419928 -0.00497634
15 1 1.75913 4.77899 4.82401 8.66179 0.000162189 -0.002661 -0.00515686
16 1 1.21345 6.59865 7.14477 10.4359 0.00391779 -0.00211118 -0.00411383
17 1 1.65628 15.634 8.36532 1.72163 0.00286107 0.00206094 0.00171099
18 1 1.65066 3.36575 10.1427 3.44241 -0.00162326 0.00558564 -0.00742222
19 1 1.68997 15.6662 11.9008 4.92351 0.00205586 -0.011064 0.005111
20 1 1.26726 3.06811 13.6696 6.80565 0.00165922 -0.00848984 -0.00343345
21 1 1.61206 5.17703 8.5383 5.26017 -0.00323283 -0.00715872 0.00156789
22 1 1.20474 6.9778 10.6558 6.81724 0.0072344 0.0132215 0.00350551
23 1 1.32577 5.03504 12.0026 1.66934 -0.00910357 -0.00575452 0.0041066
24 1 1.603 6.78902 14.0781 3.13136 -0.00816422 -0.0081446 -0.00382426
25 1 1.59713 15.6534 8.48201 8.28897 -0.00437768 0.00943977 -0.0130355
26 1 1.50024 2.98801 10.1688 10.3784 -0.00366756 0.00709384 -0.0136818
27 1 1.67899 1.52882 11.9426 12.4058 0.00392273 -0.00486535 -0.00485648
28 1 1.45933 3.3706 13.8781 14.0084 0.000476547 -0.00242638 -0.00360002
29 1 1.50762 4.81853 8.62193 12.6148 0.00032528 -0.0067935 -0.00279797
30 1 1.50961 6.87786 10.3026 14.1679 -0.00162725 -0.00501665 -0.000391514
31 1 1.4082 5.00096 12.1932 9.04908 0.0104748 0.00177883 0.00686463
32 1 1.46206 6.88769 14.0742 10.4942 0.000129312 0.00402878 -0.0080594
33 1 1.61841 8.40452 1.82259 1.45929 -0.00716197 -0.00102797 -0.00264649
34 1 1.63235 10.5161 3.3602 3.19769 -0.00375903 0.00472958 0.0038926
35 1 1.7078 8.80464 5.06383 5.02094 0.0120536 -0.00352602 -0.00522653
36 1 1.55304 10.48 6.97427 6.76841 0.00288619 0.00733823 -0.00459573
37 1 1.64941 12.19 1.7729 5.05096 -0.00121025 0.00257191 0.0027782
38 1 1.53083 14.0606 3.355 6.8396 -0.00239207 0.00452768 -0.0109989
39 1 1.49124 12.1737 5.09992 15.4185 -0.00807306 -0.00353205 0.00750352
40 1 1.54898 13.8821 6.34923 3.33193 -0.0136813 0.00653445 0.00367161
41 1 1.70618 8.54694 1.49665 8.52975 0.00746406 0.00145166 0.00362931
42 1 1.4895 10.4869 3.23155 10.1461 0.000232744 -0.000272499 0.0103967
43 1 1.64973 8.63004 4.87663 11.8566 0.00132995 0.00193444 0.00201652
44 1 1.62639 10.3851 6.6389 13.5442 0.0145869 -0.00547872 -0.00331155
45 1 1.49215 12.0534 1.59894 12.1187 -0.00312365 -0.00146341 0.000324114
46 1 1.57139 13.9658 3.19175 13.927 0.00346583 0.00972037 -0.0150665
47 1 1.75995 11.9958 4.95089 8.26854 -0.00314028 -0.00991562 0.00257165
48 1 1.5619 14.0126 6.38065 10.2322 -0.000260987 -0.0111687 -0.0154791
49 1 1.42461 8.80337 8.43027 15.6793 -0.00326453 0.00447419 0.0027669
50 1 1.45369 10.365 10.5575 3.00652 0.0031484 -0.00138285 -0.00604899
51 1 1.45971 8.77713 12.4107 4.90451 0.00011921 -0.00130861 -0.000375244
52 1 1.63499 10.2594 14.3554 6.52385 0.00247322 0.00629308 0.00780373
53 1 1.38451 12.0562 8.60143 4.73219 -0.00456918 0.0063481 0.00082095
54 1 1.68086 13.7821 10.2176 6.76786 -0.00413299 0.00914906 0.00036868
55 1 1.53033 12.122 12.4631 1.47196 -0.00814932 0.00040289 0.00631064
56 1 1.61047 13.8937 14.068 3.55544 -0.0163701 1.41067e-05 -0.00798152
57 1 1.43242 8.68766 8.55602 8.45499 -0.000210389 -0.00101975 -0.00219106
58 1 1.53943 10.4619 10.384 9.98592 0.00337014 -0.00161257 0.00759439
59 1 1.42591 8.71153 11.9554 12.2414 0.00647512 0.000813724 0.00390217
60 1 1.43727 10.1716 14.1021 13.9114 0.00674973 -0.005154 0.00219484
61 1 1.75504 12.0104 8.22212 11.5526 -0.00367357 0.00768766 0.00758891
62 1 1.48968 14.4464 10.8334 14.8382 -0.00160826 0.0105752 0.00725803
63 1 1.51479 11.8617 12.1905 8.0911 -0.00758884 -0.00771826 -0.00732699
64 1 1.27172 14.068 13.648 10.4795 0.00663017 0.00410718 0.0198267
65 2 -0.604716 2.89883 2.14775 2.37668 -0.0092772 -0.00523782 -0.00325601
66 2 -0.620252 2.35607 14.8996 14.8418 -0.00707927 -0.00777405 -0.0111953
67 2 -0.786181 14.5448 2.29322 15.1444 0.00910122 0.0111688 -0.00918362
68 2 -0.765293 14.815 14.8488 2.46416 -0.00751898 -0.00732951 0.00516839
69 2 -0.709132 2.47499 3.7637 4.06274 0.00446071 0.0139323 0.00224339
70 2 -0.819985 4.57364 2.43736 4.23166 -0.0188779 0.00859288 -0.00929965
71 2 -0.85588 4.57511 4.15908 2.18807 -0.0144466 0.00404686 0.00612592
72 2 -0.806125 2.77083 5.96559 5.80056 -0.00159958 -0.0210788 -4.74665e-05
73 2 -0.76623 15.2442 4.25408 6.38431 -0.00484579 0.00461447 0.00776638
74 2 -0.733088 14.953 5.69909 4.35015 0.00592628 -0.0030465 0.00238977
75 2 -0.934763 3.95879 5.742 7.81695 0.00518692 -0.00382722 -0.00680361
76 2 -0.900416 4.62119 7.44457 6.19323 -0.00097532 -0.0113218 0.00213691
77 2 -0.949601 2.70179 7.98186 7.63558 -0.00457721 0.00555838 -0.0147637
78 2 -0.861951 6.29965 2.33888 6.05088 0.00684086 -0.0277018 0.0191908
79 2 -0.638321 4.38312 14.8 6.16246 -0.0160273 0.00194084 0.00568482
80 2 -0.830188 6.1069 14.8246 4.32212 -0.00539142 -0.0130131 0.00899319
81 2 -0.894688 5.9268 4.43427 7.74813 -0.00872657 -0.00365777 -0.0186206
82 2 -0.87643 7.96834 4.13874 5.94955 -0.00470418 -0.00423966 -0.0209956
83 2 -0.819708 7.57537 2.52512 8.01703 -0.00243373 0.00579264 -0.0121048
84 2 -0.828649 5.6152 6.50704 2.52632 -0.0144193 0.00466187 -0.00251479
85 2 -0.77795 3.6143 5.88052 15.1548 -0.00770904 -0.0193027 0.00306351
86 2 -0.825204 5.8816 4.9007 14.6044 0.0250645 0.00249627 0.0157589
87 2 -0.755327 6.53666 7.99142 4.59688 -0.000669244 0.0110231 0.016957
88 2 -0.876518 7.861 6.15318 4.4327 0.00249136 -0.00711159 0.00383398
89 2 -0.715628 7.94619 7.57005 2.43595 0.000338854 0.000259953 0.00834643
90 2 -0.947017 2.84794 1.85276 9.51963 -0.00453871 0.0176094 0.00309659
91 2 -0.681065 2.02935 14.732 7.29073 0.00108423 -0.00705933 -0.00379257
92 2 -0.665976 15.0541 2.60564 7.92554 0.0125037 -0.0023074 -0.00706285
93 2 -0.803556 15.1288 14.5087 9.32254 -0.00607676 -0.0156961 0.00496891
94 2 -1.05016 2.461 3.86793 11.0934 -0.0118566 -0.00351311 0.00591425
95 2 -0.911027 4.18426 2.33912 11.6217 0.00344879 0.000504361 -0.0010049
96 2 -0.888393 4.42018 3.76654 9.63095 -0.00710611 0.00986461 0.00821652
97 2 -0.888522 2.19596 5.77734 12.7563 0.000548793 -0.00805885 -0.0154612
98 2 -0.935883 15.0513 3.9414 13.1417 -0.0123418 0.0111531 0.00783752
99 2 -0.846164 14.7506 5.43895 11.255 -0.00665549 -0.00292678 0.00562078
100 2 -0.735821 1.97179 7.44604 14.8377 -0.000902029 -0.00332543 -0.0176554
101 2 -0.835954 3.95158 7.59268 13.3131 0.00600328 -0.0101999 -0.00406858
102 2 -0.750708 5.76696 2.65931 13.6664 0.0031751 -0.012985 -0.00848901
103 2 -0.735206 4.57382 14.8061 13.3558 -0.00319762 -0.0230756 0.00449751
104 2 -0.781973 6.2098 15.2575 11.3951 -0.00404503 -0.0123066 -0.00400732
105 2 -0.885735 7.5484 2.90559 14.9856 -0.00331531 0.0205867 -0.0110126
106 2 -0.800238 7.69264 4.03412 12.8263 -0.00293819 -0.00779128 0.00835508
107 2 -0.705539 5.5636 5.90601 9.53923 -0.0053278 -0.00532176 -0.00447587
108 2 -0.665329 5.66127 7.6897 11.6742 -0.000385263 -0.0114619 0.00440526
109 2 -0.611904 7.67095 6.14285 11.4224 -0.00391524 0.00499544 0.00556372
110 2 -0.604551 7.94463 7.89497 9.9386 -0.0120518 -0.0144923 -0.00536953
111 2 -0.778506 2.29368 8.99859 2.69477 0.011256 0.00356836 -0.0123589
112 2 -0.754318 14.6996 7.43744 2.67616 0.00660865 0.00550243 0.00458203
113 2 -0.830604 14.9273 9.28699 15.0606 0.00715845 0.00118883 -0.00964479
114 2 -0.963249 2.45055 11.1204 4.1816 -0.000391462 -0.0102497 0.00863022
115 2 -0.910059 4.13617 9.16185 4.30162 -0.000714368 0.00151995 -0.0118525
116 2 -0.847975 4.22123 10.6804 2.31442 0.00267696 0.0131375 0.000105908
117 2 -0.854011 2.15944 12.8566 5.89133 -0.00314491 -0.0210385 0.0143138
118 2 -0.880254 14.6615 11.1488 5.82178 -0.00287811 -0.00722995 -0.00279901
119 2 -0.873816 14.8345 12.9946 4.10835 -0.000927004 0.000999924 0.0142353
120 2 -0.658251 4.21508 13.0022 8.00562 0.00126786 0.00640337 -0.00501977
121 2 -0.709692 5.74418 9.71878 6.02205 0.0205394 -0.000221688 -0.00347876
122 2 -0.635215 5.94936 11.2663 8.29814 -0.0114814 -0.00324104 0.002128
123 2 -0.597305 8.22415 11.7897 6.30754 0.00713801 -0.0012538 0.00348932
124 2 -0.587878 8.02124 9.46514 7.2244 0.00865553 0.00293625 -0.011587
125 2 -0.780543 5.60432 13.0777 2.80376 0.000702503 0.0136317 -0.000702796
126 2 -0.698951 4.15944 13.0742 15.0877 -0.00630724 0.00533756 -0.0200096
127 2 -0.781055 6.23816 11.4467 15.0632 0.0132916 0.00557059 0.00352323
128 2 -0.887135 7.6491 15.0074 2.25473 0.00262525 0.012251 0.00267277
129 2 -0.786597 7.69903 13.2157 4.03928 0.00111868 -0.00760844 -0.00358543
130 2 -0.753193 2.07378 9.13578 9.49595 -4.10393e-05 0.0279622 0.000720853
131 2 -0.745073 14.9455 7.12133 9.26155 -0.00167781 -0.00356356 -0.000308458
132 2 -0.939655 14.7885 9.50888 7.6699 0.0137662 0.0151013 -0.0196463
133 2 -0.870373 2.14441 10.9969 11.4745 -0.00814302 -0.00455677 -0.0015217
134 2 -0.718045 4.16798 9.38924 11.1575 -0.010133 -0.0177999 -0.011548
135 2 -0.76542 3.7191 10.96 9.3468 -0.00251338 0.00754485 -0.0119505
136 2 -0.826926 2.35653 12.9383 13.3084 -0.00729496 0.00240622 -0.00334722
137 2 -0.833481 14.8792 11.0514 13.4246 0.00741607 -0.00611204 -0.00838763
138 2 -0.832538 14.9383 12.8239 11.4544 0.00963882 -0.0179844 0.00122003
139 2 -0.814039 5.64135 9.69459 13.3656 0.00163217 0.0153166 0.00284752
140 2 -0.743148 7.49494 9.19958 15.1178 0.0106722 0.00887602 0.013932
141 2 -0.798472 7.73374 11.1475 13.1481 0.00367802 -0.00604207 0.000103695
142 2 -0.788192 5.93703 13.2646 9.54212 0.00839745 0.000756254 -0.00266866
143 2 -0.781205 7.80479 14.9825 9.64412 -0.00971952 -0.00434874 1.22535e-05
144 2 -0.663196 7.52244 12.7034 11.2071 -0.00729942 -0.00563171 0.000853989
145 2 -0.756173 9.52701 2.24126 2.46949 -0.00900731 0.0101533 7.1058e-06
146 2 -0.690548 9.53308 15.3397 14.8463 0.00851844 0.00682711 0.00353427
147 2 -0.85581 9.62153 4.35147 3.96357 -0.015314 -0.00748722 0.0102082
148 2 -0.905604 11.2613 2.78095 4.36782 0.0183126 0.00803112 0.00219459
149 2 -0.779687 11.1125 4.32711 2.11034 -0.00781651 0.00108897 0.0032345
150 2 -0.832622 9.78941 5.73079 6.01455 0.0077269 0.00400764 -0.00734684
151 2 -0.843697 11.6698 6.10483 7.33519 0.000813082 -0.0084926 -0.00157842
152 2 -0.716174 10.8527 8.13216 5.73119 0.0224363 0.0179015 0.00603929
153 2 -0.811487 9.9139 7.84063 7.89239 0.00830702 0.0020426 0.00390884
154 2 -0.799788 13.4812 2.44522 5.6434 0.000989679 0.0112786 0.00759874
155 2 -0.844773 11.4911 15.2004 6.23967 0.0157508 -0.000146747 0.0247898
156 2 -0.859816 12.7634 15.035 4.04316 0.0127448 -0.0141665 -0.0129668
157 2 -0.904271 12.7966 3.99098 7.43424 -0.00840089 0.0150538 0.00391995
158 2 -0.774413 13.4932 5.48591 2.15654 0.0115446 0.0133526 0.0157408
159 2 -0.85403 11.3983 6.2621 14.6373 0.0104636 0.00180943 0.00113842
160 2 -0.809715 12.7958 3.98656 14.5695 -0.00220355 0.0188573 0.00113848
161 2 -0.719595 12.8699 7.50769 3.86219 0.00531089 -0.00623002 -0.00770568
162 2 -0.838386 9.73321 1.98194 9.30117 -5.76316e-05 -0.0131389 -0.0114549
163 2 -0.863542 9.0932 15.0547 7.17512 -0.00168731 0.00389188 0.00217417
164 2 -0.834534 9.30471 3.83568 11.0875 -0.0124005 -0.00244036 -0.0150042
165 2 -0.801834 11.6619 2.40561 10.8772 0.00309693 0.00665006 0.00884121
166 2 -0.88528 10.9307 4.38966 9.17695 0.0100435 0.00208094 -0.000666667
167 2 -0.829855 9.62311 5.52006 12.8057 0.00251597 -0.00483955 0.00568122
168 2 -0.671976 9.14081 7.31635 14.2943 0.00271282 -0.00659137 0.0047315
169 2 -0.889499 10.8956 7.45465 12.3631 -0.0150154 -0.00207065 -0.00270259
170 2 -0.805583 13.1321 2.42579 12.7329 0.0109545 -0.00455367 0.00040911
171 2 -0.792337 11.0795 14.9755 12.9903 0.0162931 0.00912616 -0.00134932
172 2 -0.620755 13.108 14.5871 11.3531 -0.0175976 0.0153286 0.00329927
173 2 -0.744003 13.0634 5.31281 9.33227 -0.0087094 -0.00433642 -0.0102515
174 2 -0.872025 12.7852 7.2481 10.7211 0.0145245 -0.00410893 0.0308144
175 2 -0.763505 9.89073 9.09042 2.15498 0.00792126 0.0128329 0.00596859
176 2 -0.768671 9.47908 11.2289 4.0723 0.00354154 -9.13796e-05 -0.00354908
177 2 -0.660895 11.5741 9.82349 3.7005 -0.00300174 -0.00271123 0.00785963
178 2 -0.807768 11.1502 11.7591 2.36308 0.0115831 -0.00083617 0.00781505
179 2 -0.735819 9.75812 13.6119 5.22653 -0.00850596 -0.00826423 -0.00878334
180 2 -0.778394 10.8947 13.1036 7.24192 -0.00862938 0.00185222 -0.00781129
181 2 -0.772577 13.1765 9.26622 5.76909 -0.00523879 -0.00590472 -0.0115976
182 2 -0.856243 12.6166 11.0714 7.52842 0.00688587 -0.0236021 -0.00165397
183 2 -0.778038 13.1933 13.1401 2.54038 -0.00855192 0.00609807 0.00596233
184 2 -0.803236 11.2741 13.3151 14.6943 0.00445604 -0.0138995 0.0104991
185 2 -0.820354 13.0145 11.3991 14.8935 -0.0159396 0.00591881 -0.00227892
186 2 -0.692934 9.18378 9.7859 9.20108 0.00914089 -0.00423797 -0.005322
187 2 -0.776904 9.78063 11.1393 11.3122 -0.00826101 -0.00974155 -0.00898865
188 2 -0.847141 11.2219 9.10267 10.5575 0.00612741 -0.0200317 -0.00737243
189 2 -0.787078 10.8211 11.4973 9.09706 -0.00186061 -0.00229081 0.0104183
190 2 -0.776733 9.04703 13.1603 13.0865 -0.0102112 0.00645296 -0.00362396
191 2 -0.897208 12.7828 9.02713 12.5016 0.0131519 -0.00738646 0.00777507
192 2 -0.656381 12.8604 12.8819 9.61171 0.00870155 0.014833 0.00175484
193 2 -0.588314 13.7823 13.9619 13.9887 -0.00109482 0.00412758 -0.00986662
194 2 -0.664526 5.57083 12.0392 5.66086 0.012707 -0.00970709 -0.00458051
195 2 -0.529472 6.91338 10.2766 2.8721 -0.0153111 0.0041532 -0.00365685
196 2 -0.65372 12.3975 11.6427 12.0799 -0.00974118 -0.00316672 -0.00355585
197 2 -0.633596 12.5295 15.5919 8.9096 0.0021134 -0.000415976 0.00849284
198 2 -0.632188 7.0774 3.27384 3.49265 -0.00464107 0.00153181 -0.00250099
199 2 -0.669964 7.14022 7.21154 7.42131 0.00286601 -0.00165855 0.0124535
200 2 -0.664474 13.6824 13.3054 7.23116 -0.00183886 -0.00325628 -0.0110603
201 2 -0.671355 4.63314 12.0335 11.8448 0.0121372 0.00349446 -0.015344
202 2 -0.705323 15.3469 11.8072 15.6722 -0.0132382 0.00596925 -0.0022142
203 2 -0.648538 5.35734 8.4226 9.0827 -0.0105245 0.00795197 0.0148423
204 2 -0.592639 10.6094 9.96504 13.6742 -0.00645094 -0.00542843 -0.0120798
205 3 0.4032 13.1868 14.532 14.4403 0.0246516 0.0150036 0.0264978
206 3 0.403976 14.6422 14.4566 14.2317 0.0327729 0.0681737 -0.0290253
207 3 0.379894 4.6523 11.762 5.72893 -0.00741183 0.0024277 0.00419314
208 3 0.449277 5.45238 12.7683 5.20153 -0.023832 0.00939008 0.057962
209 3 0.382961 5.8867 10.206 2.92668 -0.0431985 -0.0295664 0.0380594
210 3 0.355403 7.04289 11.2575 2.63558 0.0186671 -0.00251643 0.0183896
211 3 0.411167 12.6792 11.7629 11.158 0.0632033 0.0674901 -0.0510262
212 3 0.485849 12.8031 12.0194 12.7632 -0.0128307 -0.0301299 0.0327086
213 3 0.436001 11.5559 15.3237 8.86617 0.0259474 -0.0116223 0.0223037
214 3 0.439231 13.199 1.85598 9.16906 0.0436421 0.0254689 0.0505607
215 3 0.420814 7.44425 2.63528 4.19005 -0.0802317 0.0133561 0.0236611
216 3 0.426446 6.17795 3.21217 3.20991 -0.0063405 -0.010462 0.00151131
217 3 0.436808 6.38656 6.74949 7.77583 0.00836805 0.055367 0.030898
218 3 0.417805 7.30929 6.79473 6.53395 -0.0252022 0.0290639 -0.0239558
219 3 0.436671 13.9503 13.9003 7.94403 0.0363477 -0.0348808 0.0292652
220 3 0.431894 14.4602 13.0314 6.70494 -0.00610097 -0.0199457 -0.0622287
221 3 0.411963 5.25606 11.3655 11.6488 0.0552495 -0.0410028 -0.0215999
222 3 0.387835 4.98504 12.8239 11.76 -0.010156 -0.00600654 0.0605832
223 3 0.397906 11.1068 9.13303 13.5961 0.064528 -0.0467531 -0.0792349
224 3 0.465841 15.0123 12.0704 2.1684 -0.0297925 0.0310284 -0.0100072
225 3 0.400411 4.56911 7.68451 9.22322 0.0482704 0.00959274 -0.0257002
226 3 0.463294 5.22348 9.36781 8.99373 0.00372871 0.0152367 -0.0444387
227 3 0.512107 13.4371 9.595 12.879 0.0421071 -0.032001 -0.0110073
228 3 0.403113 10.3725 10.3226 12.7133 -0.0168938 -0.0250684 0.00995342
ITEM: TIMESTEP
26000
ITEM: NUMBER OF ATOMS
228
ITEM: BOX BOUNDS pp pp pp
1.4717663784462243e+00 1.5688233621553429e+01
1.4717663784462243e+00 1.5688233621553429e+01
1.4717663784462243e+00 1.5688233621553429e+01
ITEM: ATOMS id type q x y z vx vy vz
1 1 1.51333 15.7919 15.6783 1.76335 0.0128762 0.0156137 -0.000700762
2 1 1.66509 3.47437 3.36457 3.31254 0.0025848 0.00991914 -0.00821262
3 1 1.70121 1.4355 4.90812 5.08953 -0.00670551 0.00104208 -0.00350333
4 1 1.54636 3.12846 6.83031 6.79608 0.00496987 0.00181436 -0.00803942
5 1 1.71749 5.02558 15.6354 5.12758 -0.0106151 0.00638722 -0.0111878
6 1 1.66745 6.61145 3.3031 7.0009 -0.00690131 -0.0074873 0.00787526
7 1 1.54357 5.32684 4.99249 15.4847 0.00323719 0.00707275 -0.000892836
8 1 1.53357 6.85368 6.91223 3.26912 -0.00366245 -0.0139163 0.0105387
9 1 1.419 1.52137 15.5741 8.32497 0.000835654 -0.00891726 0.00223525
10 1 1.6772 3.12032 3.29752 10.3692 0.0029614 0.00922542 0.00216287
11 1 1.71894 1.56623 5.05591 12.2117 -0.00332461 -0.000136679 -0.0101265
12 1 1.5919 3.28931 6.72384 13.8721 0.0135 -0.00267877 -0.00496007
13 1 1.55088 4.68655 1.45928 12.1459 0.0129949 -0.00383089 0.000549001
14 1 1.61454 6.83888 3.18146 13.5376 0.00130767 -0.00456505 -0.00532703
15 1 1.7486 4.85634 5.12413 8.7918 -0.00736818 0.000976214 0.000317706
16 1 1.63605 6.84559 6.60654 10.5788 0.0106828 0.00882504 0.0057615
17 1 1.7066 1.57008 8.35679 1.50095 0.0111961 0.00719046 -0.0130778
18 1 1.61855 3.21528 10.1275 3.35914 0.00874982 -0.00851314 0.0100918
19 1 1.52207 15.5493 11.8142 4.94467 0.00271966 -0.00134594 0.0030827
20 1 1.69532 3.24584 13.5829 6.66845 0.005247 -0.001032 -0.00699852
21 1 1.58218 5.02486 8.50673 5.2218 0.000913214 -0.00642181 -0.00110644
22 1 1.31455 6.89233 10.2737 7.06431 0.000450597 0.0141483 0.000895098
23 1 1.27281 5.02415 12.0274 15.8272 0.00507816 -0.00511291 0.00819393
24 1 1.57059 6.89022 14.1042 3.26952 -0.00600169 0.00294457 -0.000862582
25 1 1.69382 1.55982 8.62575 8.78954 -0.0144108 0.0035662 -0.00963722
26 1 1.57971 3.54375 10.6225 10.7001 0.000945925 -0.00811254 0.0130215
27 1 1.73819 15.6151 12.0065 12.1643 -0.000270899 0.00994613 0.00869806
28 1 1.49186 3.08976 13.9495 13.9823 -0.0084972 -0.0111831 0.00460653
29 1 1.75767 5.26665 8.43145 12.2466 0.00678317 -0.00251566 0.00408639
30 1 1.22902 6.99547 10.4051 13.9635 -0.0062757 0.00359689 -0.00949964
31 1 1.66417 5.10457 12.2447 8.68276 -0.00895894 -0.0124789 -0.00132301
32 1 1.49341 6.72515 14.0919 10.3779 -0.00108397 -0.00263668 0.000616183
33 1 1.50873 8.49333 1.56814 15.4038 -0.0118969 -0.00506471 -0.0130929
34 1 1.58349 10.0379 3.46197 3.07487 0.014627 -0.00216656 -0.00122789
35 1 1.61007 8.32767 4.97478 5.09661 -0.00310018 0.00793113 -0.00255298
36 1 1.58014 10.5718 6.48421 6.59857 0.00272856 -0.00614829 0.00434256
37 1 1.57369 11.7731 1.64962 4.76664 0.00327327 0.0041182 -0.00828185
38 1 1.50126 13.7242 3.17975 6.61387 -0.00958265 -0.00913869 -0.0182081
39 1 1.65706 12.1365 5.08529 15.6905 0.0182153 0.00949302 -0.00309158
40 1 1.64858 13.8739 6.86902 3.31323 -0.00228539 0.00662914 0.00664495
41 1 1.63335 8.57574 1.71777 8.67229 0.00165357 0.0044585 -0.00190836
42 1 1.72254 10.6118 3.22539 10.3255 -0.016141 -0.00397335 -0.0107571
43 1 1.58701 8.79731 4.86722 12.0215 0.00156196 0.000229804 0.00780296
44 1 1.62917 10.4884 6.71903 13.6707 0.00974591 -0.00814695 0.000170196
45 1 1.32827 12.3843 1.49664 12.2336 -0.0133694 0.00347055 -0.000263186
46 1 1.48884 14.3586 3.49482 14.315 0.0165729 0.00410868 -0.00406808
47 1 1.64035 12.2916 4.90862 8.51265 -0.000178536 0.000986505 -0.00376873
48 1 1.60335 14.0634 6.67836 10.3816 0.0111 0.00485117 0.00180301
49 1 1.44082 8.97639 8.543 1.51932 0.000594143 -0.00360455 -0.00323517
50 1 1.62301 10.5535 10.1812 3.48817 0.00105947 -0.00283619 0.00882982
51 1 1.75894 8.59969 12.2712 4.92281 -0.00140285 0.00779536 -0.00277772
52 1 1.52722 10.1545 14.2205 6.72704 0.00358709 -0.00410937 -0.00369037
53 1 1.78771 12.3694 8.48549 5.29296 -0.00817867 -0.00838285 0.00878036
54 1 1.80521 14.0445 10.3041 6.98684 0.0145515 -0.00521767 -0.00161369
55 1 1.52487 11.9187 12.1672 1.57996 -0.00136866 0.00114755 0.00893291
56 1 1.50371 13.7624 13.6845 3.33677 -0.00612421 -0.00928374 -0.00132264
57 1 1.56422 8.92853 8.20535 8.65949 0.00316242 0.00867753 -0.00719176
58 1 1.66965 10.6166 10.465 10.1449 -0.00669347 -0.0010989 0.0022124
59 1 1.56153 8.70026 12.1513 11.9028 -0.00195964 -0.00325315 -0.00696712
60 1 1.36128 10.3523 13.9442 13.8473 0.00579899 0.00492442 -0.00205149
61 1 1.38623 12.2288 8.53254 12.0221 -0.00160303 0.000616723 -0.00105166
62 1 1.47999 14.4292 10.8341 14.6058 -0.00671387 0.00518727 -0.00424156
63 1 1.53792 12.1032 12.3263 8.32505 0.000514101 0.0135672 -0.000564022
64 1 1.56936 14.0943 13.9145 10.4024 0.000309037 0.0115108 0.01064
65 2 -0.798843 2.38444 2.57107 2.5533 0.00655079 -0.00994706 0.00815559
66 2 -0.773375 2.2677 14.4199 15.2607 -0.00233985 -0.000644501 -0.0158193
67 2 -0.736768 15.3328 2.32978 14.705 0.000543663 -0.0185184 -0.00901157
68 2 -0.683585 14.7084 15.035 2.68991 -0.00404511 -0.00807668 -0.0104334
69 2 -0.8083 2.66232 4.26359 4.32491 0.00885618 0.0126628 0.00672605
70 2 -0.881256 4.36323 2.42018 4.14291 -0.0145395 -0.00440937 -0.000328743
71 2 -0.766941 4.24169 4.08552 2.16268 -0.0027419 0.0100001 -0.00344116
72 2 -0.865472 2.23701 5.90143 5.90498 -0.00417915 -0.00461925 -0.000653711
73 2 -0.77268 15.0102 3.69233 5.71638 0.00155327 0.00127112 0.0121043
74 2 -0.815573 14.6976 5.79794 4.18882 -0.00812692 -0.00349141 0.0137996
75 2 -0.833069 3.84168 5.82539 7.88463 -0.0125056 -0.0016321 -0.00402508
76 2 -0.89819 4.3251 7.77507 6.36258 0.00369667 0.00129504 0.0060943
77 2 -0.788246 2.41807 8.00944 7.57332 0.00617586 0.0126365 -0.00217569
78 2 -0.879551 5.96269 2.26634 6.07163 -0.00393854 0.00369472 -0.014815
79 2 -0.826286 3.91355 14.7904 6.0024 0.00218632 0.000161333 -0.000266083
80 2 -0.853275 5.7712 14.7248 4.24316 0.00473551 0.00801531 -0.0209205
81 2 -0.892886 5.54826 4.36865 7.65204 -0.0121584 0.0100818 0.0049697
82 2 -0.888824 7.53028 3.95306 5.99132 -0.0109005 -0.000891658 0.00104945
83 2 -0.867916 7.58489 2.76746 8.08253 -0.00916691 -0.0054237 0.00758196
84 2 -0.825474 5.9427 6.11302 2.31221 0.000491096 0.00656819 0.0217896
85 2 -0.72953 4.24783 5.64448 14.6984 0.00402734 -0.00394489 -0.00536837
86 2 -0.758646 5.97709 4.35075 14.1605 0.0009276 0.0116527 0.00473344
87 2 -0.779957 6.19648 7.95108 4.13309 -0.0195602 0.00568277 -0.00637037
88 2 -0.85131 7.28059 6.01305 4.52982 -0.0174521 -0.00762267 0.00221868
89 2 -0.688301 8.16378 7.59746 2.57105 0.00301637 -0.012395 0.00366802
90 2 -0.729083 2.42294 2.58784 9.16889 -0.00217669 -0.00514731 0.00159174
91 2 -0.739445 2.38217 14.2989 7.73876 -0.000737156 0.0069029 0.000287603
92 2 -0.734205 14.6708 1.91083 7.44448 -0.00608793 -0.0188674 0.000681076
93 2 -0.797977 15.1249 14.7392 9.56076 -0.00150371 0.00160659 -0.000550228
94 2 -0.80527 2.34368 3.75415 11.5928 0.00346489 -0.0127751 0.0113327
95 2 -0.789654 3.91402 2.05889 10.9183 0.00131105 -0.0202284 0.0094252
96 2 -0.907758 4.11015 4.34401 9.85014 0.0140255 -0.00329851 -0.00914341
97 2 -0.782812 2.87434 5.73034 12.7207 0.00829668 -0.00050134 -0.0128943
98 2 -0.861646 15.0102 4.65439 13.4146 -0.00464478 -0.00577317 0.00230263
99 2 -0.924041 14.9867 5.68589 11.1246 0.00401154 0.0115299 0.00021744
100 2 -0.860983 2.31293 7.70646 14.3995 -0.00536462 -0.000650079 -0.0109287
101 2 -0.812965 4.40966 7.6359 13.192 0.00246884 0.000556059 0.0131536
102 2 -0.805179 5.88948 2.21579 12.6888 -0.00736559 0.000912303 -0.00806551
103 2 -0.806739 3.80311 15.1488 13.2807 -0.0103657 0.0277221 0.00564912
104 2 -0.712362 5.49576 14.3066 11.4179 -0.00471543 0.00934673 0.00159875
105 2 -0.799667 7.36672 2.16351 14.5644 -0.00883641 0.0112731 -0.00469558
106 2 -0.768326 8.15102 3.60693 12.8088 -0.00363348 -0.000875586 0.001982
107 2 -0.899142 5.8341 6.01905 9.61271 -0.00858943 -0.00750267 0.0117379
108 2 -0.918771 5.91999 7.55589 11.2153 0.00229576 -0.00128066 -0.00801724
109 2 -0.844547 7.52899 5.61455 11.5806 -0.0101899 -0.0099204 -0.00325892
110 2 -0.777402 8.18493 7.44103 9.68931 0.00167853 0.00720917 -0.00802203
111 2 -0.799425 2.58757 9.25292 2.20172 -0.00172102 -0.000309598 0.00226896
112 2 -0.89672 14.9322 7.54216 2.41204 -0.0082503 -0.021108 -0.000694049
113 2 -0.777286 14.9025 9.40033 14.9929 0.00771952 -0.00137197 0.00414426
114 2 -0.779352 2.03036 10.6108 4.08231 0.0102727 -0.00226802 -0.00546252
115 2 -0.869287 4.12033 9.16274 4.26474 -0.00287509 -0.00776933 0.00262195
116 2 -0.767165 3.74294 11.3063 2.44229 0.00225673 0.00660772 -0.00329682
117 2 -0.836124 2.10674 12.8471 5.85975 -0.00367327 0.00601493 -0.00153977
118 2 -0.8743 15.1056 10.7792 5.96779 -0.00197799 -0.00349796 -0.0118013
119 2 -0.86188 14.7717 12.8115 3.91556 -0.00853951 0.0139184 0.00751103
120 2 -0.847099 4.07068 12.8588 7.74133 -0.0184187 -0.00740425 -0.00161695
121 2 -0.727839 5.85775 9.6489 5.91739 -0.00517642 -8.9192e-05 -0.00552161
122 2 -0.708412 5.92402 11.4002 7.54819 0.00269015 -0.00784759 -0.00440449
123 2 -0.655786 7.63036 11.7165 5.97807 0.00342317 -0.0034709 0.00963792
124 2 -0.686519 7.96492 9.47241 7.93896 0.0056408 -0.00719466 0.0122334
125 2 -0.731266 5.9611 13.236 2.26112 -0.00640221 0.00212364 -0.00760896
126 2 -0.647569 4.28509 13.0879 14.7944 0.00642216 0.000878786 0.00840509
127 2 -0.700871 5.70503 11.295 14.5269 0.00236622 0.00120937 -0.000616269
128 2 -0.8389 7.72579 15.1839 2.47957 0.0156553 -0.00701918 -0.00715965
129 2 -0.953048 7.75725 13.0556 4.04086 -0.0108535 -0.00792562 0.00596979
130 2 -0.70192 2.43027 9.57233 9.57146 -0.00686541 -0.00817332 0.00433885
131 2 -0.853991 14.9716 7.79643 9.84525 -0.000115388 0.00481833 0.00645922
132 2 -0.864622 14.8267 9.4624 8.02637 0.00514924 0.00567147 0.0166425
133 2 -0.806406 2.34069 10.8883 11.5884 0.00997191 0.0018532 -0.0104375
134 2 -0.789403 4.37566 9.33038 11.2081 0.000426258 0.00976822 0.0204095
135 2 -0.924109 4.21002 11.5343 9.76139 0.00620672 -0.00687654 0.0040829
136 2 -0.831249 2.20887 13.0749 13.052 0.00790607 0.0143359 0.0145613
137 2 -0.906034 14.9768 11.1256 13.1951 0.00528112 -0.00982335 -0.00324647
138 2 -0.911628 14.9269 12.8749 11.1919 -0.0154993 -0.0123398 -0.0160538
139 2 -0.820259 6.18439 9.25611 13.0821 0.00347026 -0.00114012 0.000517154
140 2 -0.720345 7.78724 9.61225 15.1456 0.00916145 -0.0151426 0.00120134
141 2 -0.769305 8.14285 10.9614 12.8714 0.000334543 -0.0115851 0.0145592
142 2 -0.836602 6.14165 13.2047 9.21017 -0.000834693 0.00275823 -0.00909452
143 2 -0.720647 7.75924 15.1355 9.93049 0.00603801 0.001647 0.00288715
144 2 -0.779734 7.84246 13.093 11.0688 0.00988768 -0.0243193 0.0240784
145 2 -0.742105 9.4287 2.84169 1.69886 0.000937704 0.0156398 0.00216935
146 2 -0.7497 9.14253 14.7041 14.508 0.0046945 0.00497701 -0.00763493
147 2 -0.891828 9.18965 4.33173 4.07851 -0.00226491 0.0012158 -0.0120872
148 2 -0.885978 10.9485 2.4472 3.74292 0.00496215 -0.000794994 -0.000848961
149 2 -0.764764 10.9187 4.52873 2.24974 0.0030316 -0.0176895 0.00535139
150 2 -0.829858 9.39512 5.68721 6.10712 -0.00408579 0.000344519 0.0114143
151 2 -0.802764 11.568 5.88862 7.64878 -4.7144e-05 -0.0127214 0.000114622
152 2 -0.854076 11.5177 7.24381 5.56272 -0.00659247 -0.00976595 -0.00216175
153 2 -0.783775 9.90598 7.5479 7.77475 -0.00573207 -0.00473331 -0.0219464
154 2 -0.814196 12.8418 2.45261 5.68768 0.0175172 0.00564743 -0.0148863
155 2 -0.807902 10.6994 15.4108 5.7304 -0.00038062 -0.00501209 0.0144957
156 2 -0.710083 12.8444 14.6861 4.36903 -0.00598791 0.000813522 0.0231386
157 2 -0.831043 13.3907 4.44295 7.43141 -0.00156953 -0.00267227 -0.011449
158 2 -0.827273 12.888 6.03323 2.29106 -0.00400135 -0.0027775 0.0167554
159 2 -0.823618 11.4898 6.02124 14.5901 -0.00171608 -0.0199032 0.00206865
160 2 -0.803525 13.369 4.03126 15.3636 -0.00893846 0.00947619 0.00709815
161 2 -0.869272 13.3145 8.02731 4.21899 -0.012297 0.00950995 -0.0157907
162 2 -0.870623 9.56325 2.42936 9.67362 -0.00297666 -0.00190287 -0.00562047
163 2 -0.878121 9.33373 15.0754 7.67251 0.00553902 0.0126633 -0.00638526
164 2 -0.888778 10.0178 4.33495 11.1996 -0.00361443 0.00299817 0.0034608
165 2 -0.714348 11.8859 2.55943 11.1281 -0.00664677 0.00341465 0.0101737
166 2 -0.891352 11.3203 3.87513 9.12045 0.0121155 -0.00518579 0.00765698
167 2 -0.822885 9.33325 5.97833 13.0299 -0.011787 -0.00365123 -0.00839534
168 2 -0.648199 9.68171 7.25531 15.0365 -0.00473909 0.019653 -0.00419684
169 2 -0.833827 11.0926 7.91204 12.974 0.012404 -0.00412057 0.00909511
170 2 -0.580543 13.3275 2.75633 13.2241 0.0165305 0.0195739 0.0128876
171 2 -0.730929 11.0126 15.0866 12.9455 -0.0128137 0.00751595 -0.000251002
172 2 -0.77912 13.3874 14.836 11.3678 -0.000282041 0.0135289 -0.00469981
173 2 -0.812089 13.0037 5.9855 9.40252 0.00606904 -0.0101084 0.0144264
174 2 -0.770866 13.2466 7.44885 11.5927 0.00656449 -0.00110303 -0.0062861
175 2 -0.819959 9.55576 9.52199 2.5137 -0.0199692 -0.0169054 0.00590417
176 2 -0.798094 9.44738 11.2499 4.10623 0.00169458 0.00707586 -0.0202266
177 2 -0.8745 11.2967 9.451 4.64151 0.00274017 -0.00206349 -0.0115173
178 2 -0.806191 11.3185 11.3236 2.79567 -0.00259594 0.00436413 0.00423706
179 2 -0.851281 9.31303 13.219 5.83314 0.00762378 0.0256212 0.0196809
180 2 -0.804948 11.1946 13.32 7.72905 0.0225413 0.00218891 0.000826103
181 2 -0.909253 13.2314 9.20211 6.30928 0.00822542 0.0116716 -0.000242556
182 2 -0.946665 13.0892 11.2027 7.64971 0.00850683 0.013162 0.0124906
183 2 -0.877981 12.9532 13.1105 2.17992 -0.00129274 -0.0189388 -0.00431287
184 2 -0.813387 10.8527 13.0828 15.128 -0.0016993 -0.00121618 -0.00601251
185 2 -0.853385 12.9601 11.148 15.1138 -0.0209067 0.000863167 -0.00177348
186 2 -0.741191 9.6813 9.31933 9.64262 -0.00930823 -0.012495 0.0031043
187 2 -0.795215 9.80255 11.4272 11.0051 -0.00192532 0.00296869 0.00863203
188 2 -0.82541 11.7767 9.71353 10.838 0.00908718 0.0130577 -0.0114348
189 2 -0.79356 11.0545 11.4004 9.0679 0.000810539 -0.0123712 -0.00454673
190 2 -0.733797 9.69445 12.7114 12.8698 -0.000238634 -0.00877129 0.00753584
191 2 -0.764624 13.142 9.26645 13.0376 0.0019814 0.0057164 0.0151916
192 2 -0.744113 12.8936 13.0857 9.6744 -0.00339496 0.00483527 0.00556339
193 2 -0.595216 13.4132 14.3826 13.8978 0.000347711 -0.00839171 0.00862809
194 2 -0.640105 4.90813 12.4762 4.81723 0.000473458 -0.00465648 0.00321211
195 2 -0.724435 6.14724 10.7332 3.00037 0.00232601 -0.018438 -0.00835432
196 2 -0.629597 12.4364 11.9716 12.3366 -0.00343907 0.00283861 0.00543171
197 2 -0.609873 12.1568 15.5629 8.60922 -0.00651369 0.0150701 0.00548918
198 2 -0.663176 6.94641 3.86274 2.62286 -0.00745884 0.00331349 -0.000773565
199 2 -0.644462 6.83007 6.65085 7.15543 0.00343291 0.0143406 0.00459497
200 2 -0.58798 13.7984 13.6171 6.94104 -0.0104375 0.00579411 -0.0160338
201 2 -0.62342 4.65941 11.7706 12.2005 0.0150116 -0.00303774 0.000577592
202 2 -0.581695 15.5344 11.5599 15.6579 0.00170057 -0.000161108 0.00438576
203 2 -0.60535 5.54594 9.16047 8.56706 -0.00260451 -0.0110465 -0.0078637
204 2 -0.634943 10.3372 9.73523 14.2778 -0.00810391 0.0119665 -0.00588403
205 3 0.335582 12.5343 14.4248 14.4258 0.0204084 -0.0166539 -0.0156853
206 3 0.373462 13.6986 13.468 13.6464 0.0379855 0.0261462 -0.0992817
207 3 0.396237 4.85107 12.2437 3.92178 -0.0149575 0.0221275 0.0375894
208 3 0.460249 5.518 11.8598 5.1527 0.0548994 -0.0335467 -0.00223969
209 3 0.436294 6.41066 9.96578 2.45399 0.0362801 0.032641 0.0419464
210 3 0.401856 6.83816 11.3868 3.10587 0.069953 -0.0216503 0.0159129
211 3 0.436759 12.3633 11.3393 11.6561 0.00612425 -0.0230657 0.0242301
212 3 0.35379 12.7076 11.4468 13.111 0.0943896 -0.0350027 -0.00795829
213 3 0.442333 11.4652 15.5223 8.0327 -0.0166871 -0.00755394 -0.0273623
214 3 0.39439 13.0115 15.1537 8.90276 0.0740169 -0.0051944 -0.0286953
215 3 0.38334 6.68504 4.25583 3.44299 0.0586127 -0.0112743 -0.0258581
216 3 0.402488 7.32967 2.95483 2.74299 0.0377321 0.0134473 0.00351593
217 3 0.394271 6.01364 7.06368 7.0318 -0.0207499 0.0202701 0.00904862
218 3 0.413743 6.75055 5.86019 6.68948 0.0370149 0.0583437 -0.0542046
219 3 0.335271 14.6418 13.6966 7.66162 -0.0195753 0.00238767 0.0350005
220 3 0.350719 14.002 12.7915 6.77121 -0.0369663 0.0219087 0.00714204
221 3 0.357026 5.53297 11.2524 12.2619 0.041498 0.0367197 0.0597799
222 3 0.424426 4.84776 12.5271 12.8386 0.0137669 0.0620432 0.0161415
223 3 0.40986 11.3272 9.92353 13.965 -0.0139715 -0.0593528 -0.0458164
224 3 0.46104 16.0743 12.3777 1.76832 0.0667886 0.00654611 -0.0559081
225 3 0.400409 5.4634 8.18011 8.75257 0.0506117 -0.0267323 0.0336176
226 3 0.384815 4.54992 9.45983 8.7587 -0.045447 -0.0742724 -0.0248317
227 3 0.488121 14.014 8.93068 13.0688 -0.0777478 0.0296617 -0.0146607
228 3 0.434827 9.54897 10.2388 13.9617 0.0461955 0.00154994 0.0211053
ITEM: TIMESTEP
28000
ITEM: NUMBER OF ATOMS
228
ITEM: BOX BOUNDS pp pp pp
1.4358823813553974e+00 1.5724117618644337e+01
1.4358823813553974e+00 1.5724117618644337e+01
1.4358823813553974e+00 1.5724117618644337e+01
ITEM: ATOMS id type q x y z vx vy vz
1 1 1.36022 15.5915 15.5509 15.5817 0.00226149 0.00625756 0.00275001
2 1 1.62872 3.12502 3.08292 3.21536 0.0126025 0.00412079 -0.00735674
3 1 1.63714 1.55961 4.94634 4.93344 0.00824131 -0.00330009 0.00130438
4 1 1.42892 3.33332 6.61427 6.75645 0.00883282 0.00218827 -0.00175899
5 1 1.8111 5.13436 15.716 4.7639 -0.00379843 0.00333047 -0.00603159
6 1 1.36145 6.55027 3.302 6.78921 0.00547384 -0.00621189 -0.0124656
7 1 1.7316 4.90198 4.91281 1.5031 -0.00219663 0.00585404 -0.013469
8 1 1.67928 6.71678 6.7023 3.25422 0.0163818 -0.00748432 0.00545326
9 1 1.82554 1.48541 15.6907 8.38504 -0.00769521 0.012483 -0.000672798
10 1 1.7485 3.27246 3.13696 10.075 -0.0110785 0.00297411 -0.00393079
11 1 1.54746 1.66358 4.99245 11.8912 0.000149191 -0.00544439 -0.00907043
12 1 1.63656 3.25313 6.75889 13.873 0.00759076 0.00177524 0.00774452
13 1 1.72323 4.73545 15.6537 12.1066 0.00705708 0.00482575 0.00577746
14 1 1.82793 6.52427 3.23896 13.7552 0.00537067 0.0125901 -0.00127514
15 1 1.41311 5.13728 5.08988 8.74351 -0.00197189 -0.00471654 2.51862e-05
16 1 1.4358 7.18698 6.72359 10.4005 0.0137788 0.00149728 -0.00256282
17 1 1.5428 15.6189 8.18526 15.5695 0.0038943 0.00904523 -0.00549229
18 1 1.37971 3.00678 9.9192 3.13834 -0.00900365 0.00655367 -0.00228191
19 1 1.57459 1.62994 11.9193 5.27092 0.0140391 -0.00793422 0.00678019
20 1 1.56847 3.36195 14.0562 6.60655 -0.00960729 -0.000224446 0.010502
21 1 1.49172 5.02867 8.57092 4.94242 0.00321113 -0.00174194 -0.000456624
22 1 1.29809 6.76813 10.3255 6.94246 -0.00532337 0.00180807 0.0112686
23 1 1.41351 5.04965 11.8789 1.62638 -0.00364985 -0.00374663 -0.00501205
24 1 1.47165 6.92256 14.0255 2.85941 -0.0012263 0.0020179 0.00235867
25 1 1.4485 1.65324 8.50697 8.49914 -0.00458202 0.00653711 -0.0062361
26 1 1.43854 3.20982 10.2031 10.6449 -0.00343414 0.0134548 0.00440224
27 1 1.61403 15.6712 11.9655 12.3829 0.00808929 0.00620654 -0.00495534
28 1 1.59605 3.36958 13.7665 13.982 0.00806322 0.00983285 0.0133739
29 1 1.43128 5.14798 8.38119 12.3165 -0.00936728 -0.00829052 -0.0078566
30 1 1.41669 6.96019 10.4577 13.8019 -0.00641928 0.00711582 -0.00620291
31 1 1.39107 4.77227 12.3012 8.52856 -0.00471281 0.000618734 -0.0077812
32 1 1.497 6.58203 13.8605 10.3276 0.015109 0.0101616 0.00467119
33 1 1.60418 8.44107 1.64509 15.5656 0.0140399 -0.0075659 0.00923011
34 1 1.5135 10.2817 3.11146 2.96134 -0.0130974 0.00544834 0.00790952
35 1 1.46105 8.48285 4.98862 5.05222 0.00517384 -0.00244353 -0.0108956
36 1 1.31199 10.2728 6.70871 7.10334 -0.0124223 -0.00832831 -0.00169481
37 1 1.60127 12.1515 1.64908 5.00412 4.38017e-05 -0.00389353 -0.00698415
38 1 1.55546 13.9875 3.29664 6.75249 0.00614616 -0.00164007 0.00172093
39 1 1.79763 12.182 4.81415 15.7025 -0.00624403 -0.00456997 -0.00568196
40 1 1.65714 13.8575 6.68553 3.39083 -0.00672891 -0.00269935 -0.00203975
41 1 1.44302 8.46187 15.7857 8.91665 -0.00259457 0.00655526 0.00363266
42 1 1.73256 10.297 3.31924 10.5716 0.00408523 -0.00302065 -8.53236e-05
43 1 1.67252 8.49852 5.01003 12.4536 -0.00295373 -0.012004 -0.00235257
44 1 1.4895 10.5877 6.6148 13.9038 -0.0087465 -0.0108984 -0.000979075
45 1 1.5303 12.2783 1.56773 12.0269 -0.00205124 0.00320443 0.000793236
46 1 1.57165 13.9507 3.42221 13.7722 -0.00479262 0.00636085 -0.000584518
47 1 1.70457 12.2243 4.8242 8.62925 -0.00504537 0.00665986 -0.00844408
48 1 1.59729 13.9696 6.77226 10.2275 0.00174393 0.00540873 0.00297802
49 1 1.25695 8.83145 8.47631 1.53783 0.00840917 0.00464955 0.00971502
50 1 1.60601 10.4431 10.1871 3.66833 0.000219372 -0.0102935 -0.00432087
51 1 1.38091 8.72557 12.3514 5.19815 0.00117398 -0.00425227 -0.00268046
52 1 1.40046 10.5435 14.2067 7.08882 0.00658189 0.002069 0.00320533
53 1 1.5662 12.3284 8.55767 5.39143 -0.0179203 -0.00282051 -0.00636412
54 1 1.56787 14.2202 10.255 7.0113 -0.0101863 -0.000530045 0.0108028
55 1 1.31736 11.9925 12.3054 1.94105 0.00586927 -0.0253274 -0.00635568
56 1 1.42744 14.1493 13.9199 3.63254 0.00359507 0.0102608 -0.000213566
57 1 1.28617 8.67918 8.766 8.63563 -0.000834947 0.00660134 0.00315934
58 1 1.38418 10.3783 10.648 10.4127 -0.0118484 -0.00763575 -0.00405352
59 1 1.44244 8.56769 12.4864 12.3784 -0.000217649 0.00412041 -0.00138521
60 1 1.44903 10.4223 14.2606 14.04 -0.00335794 -0.01126 -0.00384006
61 1 1.70463 11.8453 8.30489 11.6975 0.00794767 -0.00697557 -0.0044681
62 1 1.4368 14.4463 10.8715 14.9213 0.00575386 0.0015668 -0.00696362
63 1 1.47845 12.589 12.211 8.5792 -0.00704285 -0.000422507 -0.00485521
64 1 1.72604 14.2991 13.8993 10.4964 -0.0148816 -0.000417807 0.0110673
65 2 -0.656804 2.37282 2.43254 1.95063 0.0103068 -0.00267412 0.0100006
66 2 -0.763249 2.45569 14.8457 14.58 0.012661 -0.0151987 -0.00546721
67 2 -0.705381 14.5706 2.1858 14.8748 0.00366709 0.0227387 0.0131609
68 2 -0.697432 15.1011 14.7114 2.61469 -0.0112904 0.00416746 -0.00672184
69 2 -0.926125 2.18906 4.09991 3.8785 -0.0106126 0.0270659 -0.00194928
70 2 -0.920124 3.95933 2.15229 4.1071 0.00693494 0.00255074 0.00152072
71 2 -0.821726 4.2108 3.77599 2.23575 -0.00560304 0.00432465 0.0144897
72 2 -0.77966 2.72062 5.83073 5.4888 -0.00832126 0.00772731 0.0146294
73 2 -0.744602 15.0691 4.58381 6.22947 0.00515824 0.00111834 0.00493335
74 2 -0.809634 14.6634 5.8274 4.30038 0.00809379 -0.00452821 -0.00437819
75 2 -0.767597 4.29147 6.19544 7.90287 -0.0177883 0.0197763 -0.0116954
76 2 -0.739366 4.41811 7.7282 6.12587 0.004762 -0.0109282 -0.00750341
77 2 -0.714224 2.41288 7.80161 7.28007 0.0104973 0.0192793 0.016221
78 2 -0.829614 5.91817 2.43827 5.4667 0.000580427 -0.0031521 0.0031782
79 2 -0.919266 4.51297 14.6919 5.7274 0.00783995 -0.00723707 -0.00108425
80 2 -0.845347 5.96993 15.0713 3.63444 -0.00931527 0.0046615 0.014801
81 2 -0.778536 5.58902 4.32472 7.39957 0.0129496 -0.014869 -0.00628663
82 2 -0.717376 7.74509 4.12463 6.16652 0.00227005 -0.00708883 0.0033092
83 2 -0.666288 7.68114 2.55662 7.98572 -0.0175236 -0.00380078 -0.00540673
84 2 -0.879395 5.79837 5.77429 2.35955 0.00474919 -0.000680537 -0.0133985
85 2 -0.784065 3.78762 5.70189 14.9743 -0.0173213 -0.00984768 -0.006439
86 2 -0.919771 5.71864 4.10075 14.6952 -0.00346499 -0.002917 -0.00965758
87 2 -0.866084 6.00941 7.55441 4.25715 0.00142154 0.00167401 0.00767144
88 2 -0.825443 7.40586 5.78043 4.30925 0.0063556 -0.013756 0.006752
89 2 -0.737658 7.72296 7.36774 2.26223 0.00578579 0.0125248 -0.00829125
90 2 -0.953039 2.48324 2.28316 9.1276 0.00622683 0.00912961 -0.00152641
91 2 -0.902874 2.11038 14.9579 7.26972 -0.0103235 0.0114758 0.00566359
92 2 -0.935339 14.9193 2.42791 7.67245 0.00548553 0.00301008 -0.000713365
93 2 -0.970043 14.9232 14.8116 9.32904 0.0120284 0.00271161 -0.00699676
94 2 -0.751771 2.06963 4.07318 10.7096 0.00375918 0.00207826 0.0112902
95 2 -0.917571 3.86565 2.22654 11.1554 0.0183877 -0.00169882 -0.00495048
96 2 -0.848308 4.11336 4.30645 9.7648 0.00914963 0.00438055 -0.00744542
97 2 -0.78879 2.82912 5.7363 12.7151 0.00919204 -0.0106916 -0.00103048
98 2 -0.792697 14.8496 4.42385 12.9052 -0.00506995 0.0119529 -0.0127048
99 2 -0.795304 14.9183 5.84965 11.0873 0.00237846 0.00689452 0.00201911
100 2 -0.916847 2.29967 7.69929 14.5382 0.00588713 0.00351174 0.00873454
101 2 -0.825433 4.53738 7.44956 13.3347 -0.00261261 0.000993286 0.00590047
102 2 -0.909027 5.67425 2.20416 13.0027 0.00257713 0.00253071 0.00182981
103 2 -0.901803 4.31198 14.4865 13.0359 -0.00356797 0.0115679 -0.00711764
104 2 -0.786641 5.49544 14.7798 11.0201 0.0139006 -0.00232792 -0.000600915
105 2 -0.932583 7.62434 2.58183 14.6025 0.0121002 -0.00874753 0.00428242
106 2 -0.911805 7.3306 4.14343 12.7924 -0.00563579 -0.00389015 -0.0154586
107 2 -0.774127 6.44107 5.63439 9.53205 -0.00460452 0.00152628 0.00244946
108 2 -0.654676 5.92274 7.33538 11.3272 0.00401385 -0.0033771 0.00136224
109 2 -0.780361 8.1818 6.11038 11.4149 0.00543251 -0.00857287 0.000612264
110 2 -0.73202 7.8386 8.05124 9.9814 -0.00580787 -0.00282256 0.00240048
111 2 -0.749504 2.25188 9.36015 1.78274 0.00507743 -0.00270304 -0.00561466
112 2 -0.845049 14.9065 7.29967 2.39846 0.00535141 -0.000759155 -0.00135282
113 2 -0.719813 14.5816 9.31415 14.89 0.00116458 0.0224469 0.00676343
114 2 -0.740121 2.29286 10.7025 4.39392 -0.00323175 -0.00320375 0.00538374
115 2 -0.806715 4.05523 8.95681 3.72308 -0.0121947 0.0107217 0.00975704
116 2 -0.776564 3.98214 11.1508 2.47693 -0.0121419 -0.0152978 -0.000446549
117 2 -0.91769 2.50111 13.0389 5.82989 -0.00622608 -0.00654078 0.00107439
118 2 -0.834263 14.7036 11.2683 5.96163 0.00280168 -0.00868714 0.0203507
119 2 -0.714364 15.1586 12.8979 4.27314 -0.00409022 0.0119515 0.00139839
120 2 -0.841978 3.96537 13.5427 7.90189 -0.00164814 0.00212833 0.00791899
121 2 -0.807605 6.06427 9.39899 5.73387 -0.00882007 -0.0013379 0.00471141
122 2 -0.662618 5.87059 11.2774 7.78273 -0.0098366 -0.00957452 0.00104628
123 2 -0.603544 7.62588 11.7186 6.12458 0.00897281 0.000374234 0.00483054
124 2 -0.593064 8.21237 9.87749 7.41637 -0.0311999 -0.0072431 0.00483035
125 2 -0.771848 5.86963 12.9162 2.64562 -0.00231784 -0.00239041 0.0180808
126 2 -0.794294 4.1281 12.8707 15.0483 -0.0103083 -0.00663211 -0.00544736
127 2 -0.833989 5.8153 11.0805 14.7804 -0.00162672 0.00821059 -0.00351135
128 2 -0.847575 7.85868 14.5849 1.81298 -0.00057428 -0.000667727 0.0104015
129 2 -0.609523 8.10596 13.3937 4.02345 0.0085079 -0.00299707 0.000531025
130 2 -0.73886 2.33135 9.38276 9.59145 0.00772089 0.00677347 0.00147033
131 2 -0.751133 14.6636 7.73279 9.05615 0.000347346 0.00325305 -0.0120097
132 2 -0.706184 15.6546 9.70254 7.48426 -0.00027007 0.0036345 -0.00172769
133 2 -0.853138 2.30666 11.2447 11.439 0.00953635 0.00324561 -0.0087139
134 2 -0.704439 3.83848 8.9192 11.3857 0.0111414 0.000858502 0.0117083
135 2 -0.626798 3.96895 11.3981 9.61137 0.00475643 -0.0118619 -0.00535545
136 2 -0.870299 2.33995 12.8477 13.1658 0.00900047 0.015825 0.00923983
137 2 -0.854566 14.5797 11.4873 13.5255 -0.00280957 -0.00395575 0.00803483
138 2 -0.899689 14.952 13.0408 11.4573 -0.0144601 0.0036227 0.00571868
139 2 -0.722399 6.13888 9.58782 12.6797 -0.0151879 0.00515336 -0.00883483
140 2 -0.690536 7.99445 9.46494 14.3182 0.00328809 -0.000544144 0.00394024
141 2 -0.801366 7.70482 11.8139 13.3641 0.000425559 -0.00276184 -0.0117377
142 2 -0.728411 5.96861 12.833 9.32635 0.00379709 -0.0109889 -0.00298408
143 2 -0.735554 7.53156 15.1506 9.87215 0.0042745 -0.0064798 -0.00249935
144 2 -0.718058 7.63863 12.9999 11.1414 -0.00428482 -0.00495503 -0.0198968
145 2 -0.825336 8.99157 2.43374 2.50249 -0.00575149 0.00222763 -0.017666
146 2 -0.770396 9.70608 15.3751 14.8745 0.00368206 -0.00286832 0.00876778
147 2 -0.625431 9.51711 4.14764 3.97578 0.00259017 0.000166584 -0.00740852
148 2 -0.734257 11.0031 2.27802 4.08993 0.00918325 -0.0120442 -0.0108627
149 2 -0.870797 10.9972 4.04433 1.80763 -0.00851563 0.00192678 0.0107038
150 2 -0.686852 9.57599 5.90892 5.70136 0.0129372 -0.000670803 0.00803213
151 2 -0.722208 11.1582 5.67103 7.89332 -0.00834697 0.00251221 -0.00474746
152 2 -0.586255 11.6547 7.29952 6.3419 -0.006974 0.0074808 -0.00682726
153 2 -0.723995 9.70892 8.05324 7.64175 0.0136988 0.00325278 0.0135764
154 2 -0.890389 13.0855 2.63818 5.6851 0.00103199 -0.00963108 -0.0176671
155 2 -0.804972 11.2894 15.3401 6.15098 -0.0111901 -0.00573034 -0.000860672
156 2 -0.623762 12.843 15.3287 3.74127 -0.0108181 -0.00964841 0.00208359
157 2 -0.889265 12.9332 3.94892 7.59374 0.00290924 -0.00482141 -0.00226461
158 2 -0.817795 12.7341 5.7145 2.54389 0.0116964 0.0254766 -0.0132764
159 2 -0.789035 11.8183 5.81887 14.6005 -0.00365836 -0.0102167 0.0157628
160 2 -0.891667 13.1252 3.96583 14.8884 4.05507e-05 0.00212554 -0.012342
161 2 -0.788846 13.1764 7.67827 4.3406 0.00540939 -0.00238392 0.00974893
162 2 -0.803422 9.45869 2.2817 9.92729 -0.00671377 0.00148229 0.00797935
163 2 -0.703882 9.48077 14.5512 8.18227 0.00782173 0.00721031 -0.0103602
164 2 -0.828288 9.36936 4.25712 11.4715 8.95914e-05 0.00358975 0.0113672
165 2 -0.866802 11.3984 2.63741 11.2599 0.0188746 -0.00192191 9.44454e-05
166 2 -0.787319 11.0999 4.12249 9.35105 0.00593572 -0.00200007 -0.000780452
167 2 -0.793305 9.57573 5.55825 13.6381 0.000988381 -0.0107659 0.00551669
168 2 -0.716634 9.96636 7.73292 15.0409 0.000499708 -0.0067354 -0.00254092
169 2 -0.848454 10.9747 7.40939 12.5331 -0.00930644 -0.00129563 -0.0010101
170 2 -0.845543 13.1527 2.44801 12.887 0.00763611 0.000913907 -0.00503037
171 2 -0.753852 11.4782 15.1863 13.3231 -0.0126742 -0.00391329 0.00165687
172 2 -0.849213 13.2663 14.6779 11.3606 -0.00303124 0.00497258 -0.000296417
173 2 -0.823536 12.9197 5.80694 9.66544 0.0104624 0.00843891 0.000664279
174 2 -0.828479 12.9893 7.78227 10.8571 -0.0111315 -0.00185854 0.00524212
175 2 -0.718594 9.71452 9.00997 2.68342 -0.00192553 -0.0163005 0.00635341
176 2 -0.753804 9.50481 11.172 4.44472 -0.00961802 0.00879444 0.0129872
177 2 -0.861923 11.4701 9.54464 4.48877 -0.00242004 -0.00104021 -0.00851221
178 2 -0.752723 10.8913 11.217 2.60792 0.00276644 0.0138898 0.000484176
179 2 -0.656402 9.85483 13.2243 5.97211 -0.013159 -0.0189486 0.0124453
180 2 -0.758843 11.6809 13.1517 7.60263 -0.00553613 -0.000440923 0.00946887
181 2 -0.838864 13.169 9.37241 6.33794 -0.00298805 0.00551312 0.00954658
182 2 -0.766456 13.4475 10.9921 8.21126 -0.000409228 -0.0111692 0.0128673
183 2 -0.689467 13.035 13.216 2.9938 0.0146367 -0.0111721 0.00172607
184 2 -0.687956 11.2299 13.015 15.1194 -0.00378431 -0.000815717 -0.00921775
185 2 -0.654227 13.1109 11.097 1.52739 -0.00211748 0.00922575 -0.0151041
186 2 -0.650497 9.36339 9.97136 9.3912 -0.00517753 0.0168922 -0.00587371
187 2 -0.669261 9.79844 11.333 11.652 -0.00902744 -0.000771826 0.000504721
188 2 -0.775355 11.2677 9.289 10.7196 0.00975197 0.00313635 -0.00362595
189 2 -0.669112 11.5682 11.6809 9.64079 -0.00964968 -0.00739116 -0.00164262
190 2 -0.770981 9.47602 13.6869 12.9871 0.00578714 0.0214969 0.0161682
191 2 -0.741833 12.4607 9.11876 12.8622 -0.00648724 -0.0150347 -0.0146373
192 2 -0.823247 13.5821 12.8494 9.63484 -0.00299931 -0.0161859 -0.0186573
193 2 -0.595377 13.7071 14.3642 14.5553 -0.00642566 -0.00463363 0.0083874
194 2 -0.597319 4.82872 11.7843 4.97243 -0.0101136 -0.0157616 -0.00610317
195 2 -0.645716 7.13439 9.72949 2.75509 -0.00708606 -0.00487068 0.0129893
196 2 -0.59683 12.1361 11.9001 12.5656 0.00670548 -0.00739092 -0.00602894
197 2 -0.577529 12.3543 1.51996 8.64979 0.0037869 -0.00484701 0.00611212
198 2 -0.517201 6.59974 3.67077 2.88888 0.0103199 -0.0120899 -0.00342782
199 2 -0.722255 7.4331 7.7027 6.97894 -0.00513665 0.00120079 -0.00430563
200 2 -0.742429 13.7987 14.3979 5.93137 -0.00409646 0.0143024 -0.00118127
201 2 -0.557798 4.91026 11.4575 11.7236 -0.00554574 0.00242076 -0.00455409
202 2 -0.637734 15.4281 11.6646 15.8074 -0.00558562 -0.0107914 0.00941746
203 2 -0.584257 5.39374 8.99443 8.35539 0.01691 -0.00641252 0.019342
204 2 -0.657485 10.5424 10.3553 14.1217 0.0126279 -0.00932022 0.00174267
205 3 0.44991 13.0021 15.0663 14.4927 -0.0390559 -0.0232681 -0.0349433
206 3 0.401015 14.2296 14.5243 13.759 -0.0450826 0.0306997 0.0138256
207 3 0.381919 4.6413 12.3196 5.70078 0.0153891 0.0167519 0.0166186
208 3 0.421403 4.27572 11.972 4.09248 0.0104216 0.0409701 0.0733726
209 3 0.381495 6.61773 9.69026 3.63881 -0.0457817 -0.00524701 0.033838
210 3 0.36606 6.59376 9.9987 2.04002 -0.0109334 0.0179786 -0.067992
211 3 0.39678 12.8381 11.2577 12.392 0.0025848 0.0452549 0.0490124
212 3 0.426543 12.2426 12.4536 11.8468 0.0220723 -0.0301347 0.00600239
213 3 0.398015 12.1125 1.83002 7.75937 0.0450437 -0.00198441 -0.0245033
214 3 0.34988 13.2695 15.4588 8.38626 -0.0400316 0.0569645 0.0220408
215 3 0.373946 7.39128 3.7981 2.09801 0.00606095 0.0252645 0.00565425
216 3 0.405311 6.07072 2.98364 2.51099 0.0152423 0.0627568 0.0114945
217 3 0.412629 7.82269 8.01663 6.14038 -0.0358904 0.0362271 -0.115945
218 3 0.416631 7.04861 6.91851 6.6827 0.0249969 0.0317136 -0.0483116
219 3 0.393386 14.6606 14.7405 6.11747 -0.0321053 -0.0140097 0.0649898
220 3 0.371899 13.5692 13.8472 6.7163 0.0393072 -0.00440346 0.0596697
221 3 0.388663 4.36595 12.2142 11.7323 0.0674174 -0.0227363 0.0568017
222 3 0.340556 4.96446 11.6773 12.7924 0.0241825 -0.0492676 -0.0448988
223 3 0.44951 10.1648 9.66233 14.2517 0.0216536 -0.0586532 0.00292246
224 3 0.398343 2.02449 11.6029 1.05601 0.0128806 0.0802913 0.0447113
225 3 0.374362 5.92292 8.29823 8.88607 -0.0304745 0.00694556 -0.0213669
226 3 0.42997 5.03826 8.65002 7.40257 0.00285905 0.0144569 0.00249169
227 3 0.45115 12.02 9.91555 13.3058 0.0710536 -0.0562648 0.0383038
228 3 0.404619 10.8808 10.6218 15.0362 -0.0192704 -0.00413332 -0.0724556
ITEM: TIMESTEP
30000
ITEM: NUMBER OF ATOMS
228
ITEM: BOX BOUNDS pp pp pp
1.4371893633883923e+00 1.5722810636611394e+01
1.4371893633883923e+00 1.5722810636611394e+01
1.4371893633883923e+00 1.5722810636611394e+01
ITEM: ATOMS id type q x y z vx vy vz
1 1 1.55883 1.54551 1.62324 15.5645 0.00541308 0.0044925 -0.00596873
2 1 1.73652 3.19593 3.18662 3.37401 -0.00119722 -0.00100465 0.0118255
3 1 1.60739 1.48251 4.7432 5.4519 -0.00854258 0.00549009 -0.00108684
4 1 1.57926 3.24446 6.84204 7.09189 -0.00876347 0.00542715 -0.00812963
5 1 1.51876 4.94311 15.4528 4.74597 -0.00388296 -0.0141911 0.00964766
6 1 1.58675 6.90383 3.05885 6.64942 0.00228868 0.00237028 -0.0132993
7 1 1.44592 4.83872 5.05809 1.64302 0.00457765 0.00238983 0.00617303
8 1 1.35305 6.74331 6.83841 3.23491 -0.00675932 0.00544171 -0.00833102
9 1 1.60909 1.59364 1.60787 8.66419 -0.0201124 0.00437811 0.00598021
10 1 1.58975 3.30272 3.22848 10.4848 -0.00163902 -0.00374108 -0.00463821
11 1 1.5399 1.49048 5.28273 11.8288 -0.00621666 -0.00121375 -0.00661375
12 1 1.61757 3.07344 6.77049 14.0456 -0.000407852 -0.00155231 0.00182967
13 1 1.3981 5.07283 15.5648 12.1247 0.00261022 0.00793293 0.00513684
14 1 1.35012 6.50829 3.27329 14.0714 0.00663489 0.00752683 -0.0102719
15 1 1.3649 5.22804 4.9937 8.64973 -0.00807541 0.00349326 -0.00299536
16 1 1.40783 6.89797 6.7753 10.7021 0.00609698 -0.00338485 0.0112981
17 1 1.56427 15.698 8.42179 1.66288 0.0120823 0.00335406 0.00727792
18 1 1.76349 3.34014 10.2239 3.08467 0.00140077 0.00847504 -0.00640858
19 1 1.52942 1.54912 11.7694 5.01218 -0.0147241 -0.00487174 -0.00745487
20 1 1.61845 3.2585 14.0781 6.88455 -0.00409435 0.00177131 -0.00255958
21 1 1.26291 5.15314 8.52946 5.44453 0.0063296 -0.000831795 0.000480639
22 1 1.68796 6.63779 10.654 7.11757 0.000618927 -0.00263617 -0.000596883
23 1 1.62102 5.14659 11.9738 15.6883 0.00114616 0.00979608 -0.0083409
24 1 1.47066 6.82947 13.6173 3.24062 0.00397471 0.0050731 -0.0019092
25 1 1.65288 15.7454 8.80659 8.44713 0.00924274 -0.000571173 0.00777536
26 1 1.54556 3.26624 10.6079 10.4965 0.0074692 0.00982948 -0.0102483
27 1 1.45454 1.59527 12.1346 12.3325 -0.000136756 0.00554315 -0.0100173
28 1 1.69077 3.43385 13.8722 14.1043 -0.011416 0.00565715 -0.00414796
29 1 1.46566 4.93763 8.50798 12.3968 0.00598912 0.00316575 0.0107709
30 1 1.44464 7.04184 10.2861 13.8165 0.00592084 -0.00175617 -0.00189984
31 1 1.64283 4.91496 12.4167 8.75479 0.00881997 -0.00916989 0.009833
32 1 1.61387 6.99971 14.2357 10.2054 0.00158924 -0.00746033 -0.000121222
33 1 1.5806 8.46515 15.7018 1.5328 -0.00294296 -0.00224083 -0.00609394
34 1 1.85172 10.4687 3.31671 3.0103 -0.0049095 0.00525432 0.000786537
35 1 1.45302 8.8685 4.90705 4.98838 -0.00812129 -0.00741358 0.00482601
36 1 1.68684 10.1222 6.90641 7.03686 -0.0116873 -0.0142609 -0.00152482
37 1 1.73539 12.0964 1.52037 4.74904 -0.00386273 -0.00279507 0.00644028
38 1 1.56278 13.7117 3.20414 7.07556 -0.00342634 -0.0071325 0.00491154
39 1 1.61527 12.1382 5.26701 1.45758 -0.000262452 0.0062509 -0.00471076
40 1 1.56872 14.0658 6.41012 3.48657 -0.00449685 -0.00711489 -0.00112735
41 1 1.73029 8.95752 1.41992 8.29521 -0.0100986 -0.0177004 0.00273241
42 1 1.53653 10.3936 3.23688 10.4167 -0.00292306 0.000570826 -0.00401723
43 1 1.71787 8.70272 4.82078 12.3838 0.00556956 -0.00818378 -0.00374438
44 1 1.68403 10.4917 6.77801 13.8003 0.000860949 0.00922983 0.00407636
45 1 1.51193 12.3794 1.58482 12.3278 0.00694336 -0.00368711 -0.00123928
46 1 1.4629 14.0464 3.7153 14.0162 0.000563472 0.00552416 -0.0175114
47 1 1.76458 12.0417 5.18925 8.6771 -0.00980021 0.00400677 -0.0107135
48 1 1.65211 13.9633 6.98836 10.0117 -0.00185159 0.000434089 0.00925536
49 1 1.38698 8.76905 8.61723 1.51998 4.31864e-05 -0.00384841 -0.000457622
50 1 1.58541 10.6169 10.1095 3.4883 -0.00617152 0.00816608 0.00755365
51 1 1.76117 8.58344 11.7281 5.04942 -0.00396974 0.00333309 0.000502923
52 1 1.70794 10.2463 13.9339 6.22178 -0.00805216 -0.0139612 0.00138466
53 1 1.53924 12.0914 8.10894 5.06067 -0.000327064 -0.00330845 0.00586989
54 1 1.56457 13.7724 10.0335 6.58517 0.00445537 0.00621545 0.00405569
55 1 1.39527 11.9936 12.1625 1.80511 0.00647809 -0.00233149 -0.00213874
56 1 1.33485 14.1652 13.8572 3.28889 0.00565626 0.00971505 -0.00268628
57 1 1.77654 8.52673 8.86766 8.72053 0.00189211 0.00587489 -0.00943647
58 1 1.55036 10.6531 10.4678 10.153 0.00720125 0.00283289 -0.00478208
59 1 1.47994 8.5557 12.418 12.0344 0.000870564 0.00329915 0.00637321
60 1 1.40677 10.3824 13.9726 13.9441 0.0027587 0.00284935 9.09632e-05
61 1 1.60815 12.0936 8.41912 11.9031 -0.00156874 -0.000536505 -0.00703758
62 1 1.45615 14.5214 10.9013 14.6663 0.0101496 -0.00835928 0.0108488
63 1 1.29598 12.1142 12.2981 8.1994 -0.00703713 -0.00630717 0.0014893
64 1 1.65175 14.2118 14.1205 10.5106 -0.0128464 0.0088864 0.0110284
65 2 -0.755002 2.52535 2.5011 2.24169 -0.00375743 -0.0101011 -0.000707517
66 2 -0.779992 2.69797 14.8481 15.0522 0.0118797 -0.00610766 0.0119924
67 2 -0.766378 15.0865 2.86839 14.9842 -0.00595401 -0.00536892 0.00294216
68 2 -0.642744 15.1585 15.005 2.25012 0.00104745 0.0106515 0.000871346
69 2 -0.80476 2.14909 3.73296 4.42709 0.00837897 0.0108958 -0.00329276
70 2 -0.835968 3.94983 2.06752 4.00135 0.0141852 -0.0124241 -0.0081357
71 2 -0.856019 4.07798 4.397 2.78304 -0.00511242 0.00152838 -0.0152346
72 2 -0.767738 2.37814 5.64269 6.41585 0.00479995 -0.00731327 -0.0158468
73 2 -0.826648 14.7157 3.89129 6.17231 -0.00170936 0.0123747 -0.016822
74 2 -0.778091 14.9681 5.83695 4.58988 -0.0109507 -0.00365752 0.0109302
75 2 -0.871629 4.3434 6.05772 7.89966 0.000789747 -0.000443056 -0.00467523
76 2 -0.781027 3.84899 7.90666 6.14783 -0.00894244 -0.00601965 -0.0129428
77 2 -0.878521 2.19855 7.63443 7.8496 0.000820758 -0.00578368 -0.000918078
78 2 -0.751378 6.06798 2.02269 5.88895 0.0160609 0.0174112 -0.00551409
79 2 -0.824868 3.79676 14.8161 5.72732 0.00116467 0.0107942 -0.00171131
80 2 -0.788309 5.76452 14.7407 3.70751 -0.0068232 -0.00023614 -0.0103044
81 2 -0.72364 6.031 4.09694 7.41993 0.00195311 -0.00960072 -0.00529472
82 2 -0.742713 7.71778 3.99511 5.67065 8.52586e-06 -0.00350599 -0.00940496
83 2 -0.813697 7.91442 2.33209 7.62989 0.0177627 0.00776432 0.00228625
84 2 -0.793835 6.08265 5.95717 2.13293 -0.0136267 -0.00432783 -0.00674855
85 2 -0.788913 3.69925 5.82676 15.0636 0.00283585 0.00797857 -0.00535197
86 2 -0.782493 5.32243 3.87122 14.9248 0.0104788 -0.0043056 0.0132941
87 2 -0.725932 5.61139 7.4342 4.3415 0.00789017 -0.00117826 -0.00560999
88 2 -0.675817 7.67085 5.8073 4.04775 0.0112504 -0.000362127 0.0143846
89 2 -0.670747 7.739 7.52891 2.2444 -0.00511065 -0.00419261 0.00178033
90 2 -0.832734 2.86903 2.23909 9.49752 -0.018086 0.00990299 0.00446732
91 2 -0.818848 2.22011 14.9434 7.63289 -0.0025583 0.00973788 0.00203409
92 2 -0.826877 14.7173 2.34678 7.93479 0.00952816 0.00891013 -0.00259209
93 2 -0.898264 15.0112 15.0652 9.72006 0.0114854 0.00566354 -0.00407252
94 2 -0.835581 2.07956 4.02679 11.0309 -0.0154874 -0.0146922 0.00463249
95 2 -0.752543 4.00476 2.3586 11.6471 -0.00815381 -0.00173303 -0.0108674
96 2 -0.771343 4.38879 4.14571 9.6803 0.0130722 0.00316601 0.00185479
97 2 -0.820868 2.40902 5.95501 12.9853 -0.0176657 -0.00202431 -0.000103618
98 2 -0.7133 14.6597 4.70383 12.8088 0.0144303 -0.014469 0.0107288
99 2 -0.7906 15.1233 6.34407 10.8918 0.00957545 0.000925192 -0.00305729
100 2 -0.745207 1.84947 7.50047 14.7176 0.0185686 0.0192495 0.00800517
101 2 -0.793978 3.95166 8.05019 13.5308 0.00349725 0.0108038 0.00585908
102 2 -0.633755 6.19062 2.23795 12.894 -0.00163231 -0.00909218 -0.00191657
103 2 -0.851571 4.56111 14.4849 13.1828 0.0072656 0.0022455 -0.00134352
104 2 -0.754183 5.83054 15.1785 10.7347 -0.00750092 -0.0052913 0.000451596
105 2 -0.682967 7.45331 2.10894 14.8197 0.0114132 -0.00114828 -0.013168
106 2 -0.745092 7.77141 4.1518 13.4276 0.00299284 0.000607677 -0.0116276
107 2 -0.692684 6.47162 6.00277 9.44768 -0.00492384 0.0101433 0.00728455
108 2 -0.850836 5.82047 7.4183 11.5734 0.00644845 0.000646004 -0.00656772
109 2 -0.783351 7.75563 5.71604 11.5517 -0.0122031 -0.00987396 -0.015475
110 2 -0.714025 8.13643 7.97387 9.90289 -0.00018693 0.00604532 -0.00630281
111 2 -0.823909 2.76017 9.03144 2.33895 0.00407222 -0.00343226 -0.00307678
112 2 -0.779632 14.9964 7.54041 2.73179 -0.00685095 0.00285949 -0.012737
113 2 -0.813378 14.8948 9.71186 15.4753 0.00629146 -0.00485812 0.0197306
114 2 -0.901172 2.38231 11.0642 3.92366 -0.01114 0.00687667 -0.0042399
115 2 -0.661537 4.15439 9.43952 4.06672 -0.00722024 -0.00835033 0.00459072
116 2 -0.910666 4.28213 11.2198 2.48717 0.0046518 -0.0109519 0.0158738
117 2 -0.658572 2.18542 12.8712 6.09524 0.00171484 -0.00560679 0.0193662
118 2 -0.748983 14.6638 10.8827 5.54384 -0.00248403 -0.00201156 -0.00712462
119 2 -0.736091 15.2247 12.8599 4.05741 0.00184426 0.00582337 -0.0142065
120 2 -0.878151 4.16027 13.401 7.88086 0.00320494 0.0139269 0.0112455
121 2 -0.709366 5.86033 9.94304 5.95384 0.00387 -0.00165335 -0.0038644
122 2 -0.881407 5.52454 11.5418 7.59442 5.60432e-05 0.00149278 0.0045703
123 2 -0.843496 7.76898 11.3028 6.22993 0.0103884 0.00238363 -0.0116204
124 2 -0.890937 7.42773 9.7165 8.11318 -0.0048222 0.0132046 0.00639293
125 2 -0.817908 6.13505 13.0127 2.05444 -0.0103915 0.00104437 0.0133436
126 2 -0.855034 4.14197 12.6457 14.8015 0.0114209 -0.00836108 -0.0050978
127 2 -0.808371 5.88119 10.7661 14.8953 -0.00254785 -0.000594145 0.0016954
128 2 -0.727302 8.00758 14.5879 2.49391 -0.000169627 -0.00513666 0.00454212
129 2 -0.820874 7.70572 12.3438 3.97866 -0.000260868 -0.00697408 -0.00132933
130 2 -0.693525 2.4127 9.79848 9.4389 0.0035946 0.00355144 0.00279604
131 2 -0.880295 14.6257 8.07774 9.23739 -0.00454955 0.00809713 -0.00844178
132 2 -0.807069 15.0639 9.60905 7.32993 0.00639342 0.00179613 0.00761742
133 2 -0.829359 2.11264 11.1097 11.28 -0.0059871 -0.0126073 0.00226544
134 2 -0.759735 4.06877 9.15493 11.3178 -0.00925461 -6.31995e-05 -0.00334344
135 2 -0.831514 3.81735 11.5227 9.41403 0.00341012 -0.00289833 0.0178604
136 2 -0.870151 2.50515 13.1688 13.2153 0.00421954 0.0101959 0.00032431
137 2 -0.83385 14.8695 11.1661 13.2432 0.00551172 0.0133315 0.00598054
138 2 -0.835539 14.8967 13.2011 11.5292 0.0180105 -0.00277975 -0.00103467
139 2 -0.794662 5.98815 9.64296 12.7561 -0.00030553 -0.00382993 0.00326834
140 2 -0.828992 8.07177 9.43164 14.6058 0.00410024 -0.00800439 0.00814403
141 2 -0.790639 7.68708 11.3852 12.9409 0.017753 -0.0241978 -0.00681837
142 2 -0.781951 6.08298 13.3872 9.21851 0.00685953 -0.00572836 0.00825462
143 2 -0.806028 8.21044 14.8835 9.31864 0.00629279 0.0069012 0.00202209
144 2 -0.889242 7.77641 13.2542 10.9814 0.00143568 -0.000221566 0.000388072
145 2 -0.843709 9.29737 2.42727 2.3928 0.0149801 0.00932951 0.00493697
146 2 -0.728629 9.38521 14.8599 14.7979 -0.00205163 0.00221876 0.0135419
147 2 -0.890794 9.79658 4.15547 4.07455 0.0181615 -0.00175013 -0.0153444
148 2 -0.956953 11.3781 2.50313 3.89082 -0.0119286 -0.0108092 -0.00043174
149 2 -0.883115 11.073 4.1923 1.97709 0.00515723 -0.016467 -0.00333812
150 2 -0.766811 9.23324 5.8914 6.28872 0.0114062 0.00367783 -0.00687229
151 2 -0.881328 10.9381 6.04886 7.99437 -0.00816576 0.00265187 0.00710516
152 2 -0.804593 10.7808 7.54192 5.6947 -0.00954339 -0.00140596 0.00471198
153 2 -0.863802 9.30813 7.87286 7.9011 0.00766265 -0.0056176 0.00522497
154 2 -0.74265 12.629 2.43422 5.89297 0.0047102 -0.00601356 0.00819168
155 2 -1.00429 11.1703 14.7483 5.42591 0.00577987 0.00777105 0.00171898
156 2 -0.779836 13.2714 15.0469 4.09821 -0.00457832 0.00204203 -0.000905493
157 2 -0.856675 12.629 4.13619 7.7833 -0.00201212 0.0145366 -0.00166044
158 2 -0.780374 13.4051 5.4556 2.46917 0.00936177 -0.0100117 -0.00629861
159 2 -0.877543 11.5776 6.21683 14.6932 -0.00704341 -0.0149039 0.0124336
160 2 -0.747141 12.954 4.25002 14.8803 0.00733243 -0.000772884 0.00954613
161 2 -0.773801 12.7745 6.88658 4.25818 0.00437634 -0.00560664 0.00782204
162 2 -0.8171 9.7578 2.46137 9.20383 -0.000668701 -0.00858214 0.0211915
163 2 -0.928337 9.44003 14.8276 7.14825 0.00713993 -0.0132072 -0.00153875
164 2 -0.780384 9.2656 3.76865 11.4034 0.0012245 -0.00873333 -0.00523441
165 2 -0.75664 11.3256 2.44131 11.467 0.00937619 0.00649191 -0.0181295
166 2 -0.772526 11.1698 4.5344 9.77804 -0.0068285 -0.00219007 0.00247871
167 2 -0.909006 9.77789 5.6857 13.0839 -0.000528093 0.00261004 -0.013369
168 2 -0.661928 9.37801 7.32323 14.7765 -0.00819581 -0.0136658 0.00289491
169 2 -0.858202 11.224 8.038 13.0271 -0.000422576 0.00280913 0.00313045
170 2 -0.81422 13.2719 2.42293 13.2948 -0.000522511 0.00785377 -0.000579975
171 2 -0.783677 11.4339 14.9335 13.1162 0.00829533 -0.00632673 -0.00417358
172 2 -0.831082 13.1755 14.9328 11.2594 0.00774334 0.0119087 -0.0003098
173 2 -0.875188 13.3086 5.80381 9.25514 0.00357715 -0.00119767 0.00830198
174 2 -0.747596 12.6374 7.28706 10.946 0.00243866 0.00275146 -0.00946776
175 2 -0.750392 9.94764 9.18858 2.40479 0.0093835 -0.0132413 0.0111721
176 2 -0.838907 9.57251 10.6311 4.52257 0.00243146 0.00825978 0.00797991
177 2 -0.882345 11.7009 9.22102 4.12729 0.00185741 0.00515934 -0.00566332
178 2 -0.810993 10.9231 11.289 2.42511 -0.0037922 0.0045046 -0.0092347
179 2 -0.893671 9.54961 12.6011 5.85335 0.000228633 0.00875215 0.00268913
180 2 -0.754171 11.1682 13.4007 7.48653 -0.0102898 0.00330887 0.00313326
181 2 -0.8202 13.1194 8.72796 6.22858 -0.0073493 0.010494 0.0024572
182 2 -0.708159 12.9538 11.2968 7.13825 0.000103499 0.0026205 -0.000254999
183 2 -0.808967 13.1893 13.2231 2.33692 -0.0127121 -0.00943336 0.00774529
184 2 -0.764441 11.3643 12.8921 14.7795 0.00580196 0.00731349 0.00943348
185 2 -0.728983 12.9817 11.2315 15.2359 -0.0050036 0.000476047 -0.0109693
186 2 -0.789561 9.7167 9.78387 9.02339 -0.019471 -0.0055404 -0.00196936
187 2 -0.699682 9.62833 11.2008 11.2628 -0.000869509 -0.016564 -0.0146999
188 2 -0.824332 11.4459 9.26891 10.7908 -0.0112739 0.0047457 -0.000140126
189 2 -0.788923 11.4627 11.4241 9.32598 -0.00550381 -0.00188899 0.00726718
190 2 -0.842519 9.33669 13.0974 13.1453 -0.00587825 -0.000976242 0.00591346
191 2 -0.665603 13.4788 8.91016 12.4518 -0.00413154 -0.010044 -0.00513312
192 2 -0.698181 13.1434 13.3255 9.63656 -0.0083509 0.00557144 0.0162425
193 2 -0.634444 14.3047 14.4557 14.5003 0.00521865 -0.00147654 0.000165544
194 2 -0.612956 5.1563 12.4461 4.87074 0.00183113 0.0106827 0.00845094
195 2 -0.585962 7.18339 9.61607 2.90849 -0.0148912 -0.0144241 0.00511962
196 2 -0.687232 12.3626 11.4305 12.2281 0.0112936 0.0184073 0.011463
197 2 -0.679361 12.1146 15.4768 8.51247 0.00793007 -0.00843236 -6.51672e-05
198 2 -0.499201 6.64656 3.31282 2.87545 -0.00485341 -0.00806826 -0.0104745
199 2 -0.646235 6.8225 7.68498 6.52886 0.00149713 0.00431644 0.000665016
200 2 -0.599731 13.7218 13.6317 7.3764 -0.00539307 0.00618499 -0.00512073
201 2 -0.703501 4.61457 11.8926 11.7225 0.000144229 0.00913703 0.00436328
202 2 -0.607086 15.6371 11.8115 15.3644 -0.0124451 -0.0013576 -0.0099182
203 2 -0.557921 5.17058 8.7166 8.97901 -0.0138477 -0.0151379 0.00790268
204 2 -0.593982 10.6097 10.7249 13.7217 0.0100985 0.00185875 0.000955433
205 3 0.383722 14.0429 15.3296 14.1121 -0.0120679 -0.0335465 0.0143866
206 3 0.411628 13.5599 13.9123 14.3914 0.0346978 0.0445539 0.0165979
207 3 0.421307 4.90787 12.4458 5.75273 0.0401051 -0.0252812 -0.00578181
208 3 0.395398 4.27099 12.2089 4.3611 -0.0276388 -0.00768374 0.00303128
209 3 0.338622 6.15063 9.19407 3.07838 0.0392351 0.00691381 -0.0050422
210 3 0.386083 6.93996 10.0017 2.06555 -0.0659865 0.0652637 0.0178862
211 3 0.440792 12.2212 11.5953 13.1477 -0.0149016 -0.0116877 0.0518318
212 3 0.421437 13.0343 11.9486 11.8493 -0.00819873 0.0542559 0.0138246
213 3 0.456205 11.7337 15.1723 9.17223 0.0153494 0.0488269 -0.0537791
214 3 0.401746 11.7776 15.1926 7.65141 -0.0292364 0.0237007 -0.0191436
215 3 0.356345 6.02649 4.09058 3.21728 0.0134823 -0.0316101 -0.0397769
216 3 0.330808 6.75698 3.83354 1.96212 0.0246023 -0.0539817 0.000680678
217 3 0.332499 6.00837 7.09607 6.87995 -0.026459 -0.0283302 0.00872887
218 3 0.42197 7.16448 7.0201 6.01776 -0.0354651 -0.00685594 0.0211046
219 3 0.372009 13.4805 14.5112 6.86065 -0.0368353 -0.034833 -0.0141968
220 3 0.424488 13.7723 13.8611 8.2843 0.0191211 -0.0224165 0.0478697
221 3 0.40487 4.28995 12.6936 12.1827 0.0163608 -0.0121056 -0.0105966
222 3 0.407964 4.99286 11.1776 12.4128 0.0546989 -0.0081709 -0.0331685
223 3 0.435908 10.3014 11.565 13.8181 0.00470458 -0.0185006 0.0170995
224 3 0.400124 15.2271 12.1495 1.96452 -0.0234568 0.0260534 -0.0273049
225 3 0.350662 4.54568 8.006 8.6628 -0.0308394 0.00172623 0.0112484
226 3 0.376801 5.1475 8.42898 9.99481 -0.00816613 0.041116 0.0109318
227 3 0.435615 13.5724 9.95418 12.4364 -0.0228031 0.062853 -0.0081346
228 3 0.415043 9.821 10.3001 13.3198 -0.084258 0.0548773 -0.0492583
ITEM: TIMESTEP
32000
ITEM: NUMBER OF ATOMS
228
ITEM: BOX BOUNDS pp pp pp
1.4348325452587334e+00 1.5725167454741037e+01
1.4348325452587334e+00 1.5725167454741037e+01
1.4348325452587334e+00 1.5725167454741037e+01
ITEM: ATOMS id type q x y z vx vy vz
1 1 1.34345 15.6205 1.54845 15.4526 -0.00190239 -0.00203706 0.00147596
2 1 1.44211 2.69565 3.27434 3.41871 -0.00509567 -0.0128475 -0.0147509
3 1 1.4407 15.7232 5.39349 5.24246 -0.00287127 0.00728789 -0.0051599
4 1 1.67934 3.3896 6.8878 6.97873 0.0147897 0.00340437 -0.00635955
5 1 1.38396 4.79941 1.48512 4.79355 -0.00474684 -0.00940061 -0.0016372
6 1 1.22285 6.75661 3.31043 6.77424 0.0086748 -0.000325889 -0.000399514
7 1 1.45495 4.59719 5.02619 1.62319 0.00420048 -0.00336427 -0.00945453
8 1 1.52063 6.94061 6.78864 3.40608 -0.00622778 0.00730433 0.000899508
9 1 1.50452 1.45163 15.5611 8.70169 -0.00699039 -0.00291326 -0.00135498
10 1 1.62243 3.35279 2.89393 10.402 0.00963516 0.0011519 -0.0061993
11 1 1.56822 1.88663 5.11136 11.8351 0.0136935 0.000999987 0.00986515
12 1 1.74892 3.32664 6.69685 13.8582 -0.00493457 -0.00655093 0.0090427
13 1 1.71011 5.09573 15.8212 12.3012 -0.0153209 0.00107306 0.000272496
14 1 1.37537 6.91912 2.96348 14.2101 -0.0103741 0.00132358 0.00936834
15 1 1.42185 4.87068 4.96384 8.77371 0.000839506 0.00732108 -0.00779258
16 1 1.48245 6.75069 6.2938 10.84 -0.00993093 -0.0117028 -0.00169812
17 1 1.48165 1.52781 8.42018 15.7444 -5.91959e-05 -0.00232151 0.0109807
18 1 1.68939 3.33415 10.1555 3.09552 -0.011478 -0.00357871 -0.00519235
19 1 1.53864 1.72886 11.972 4.88527 0.0100842 0.0203656 0.0020756
20 1 1.54709 3.17476 13.9533 6.79649 -9.16226e-05 -0.0121994 0.0078835
21 1 1.49112 5.23226 8.65515 5.14547 0.00498876 0.000721229 -0.00979456
22 1 1.50078 7.09397 10.5888 6.68946 -0.00209978 -0.00645356 0.0223565
23 1 1.54663 4.96344 12.0389 15.5346 -0.0152618 -0.0111618 -0.00275734
24 1 1.68356 6.51591 13.8106 3.1796 0.00126007 0.0124001 -0.000651575
25 1 1.69263 15.6211 8.7356 8.40892 0.00850095 0.010244 -0.0130511
26 1 1.44978 3.27486 10.1379 10.385 0.00612002 -0.00331932 -0.000859439
27 1 1.45169 1.50426 12.1374 11.995 -0.00498789 -0.00949965 0.00302713
28 1 1.25216 3.2985 14.0037 13.9752 0.0163898 -0.000398979 -0.00903449
29 1 1.48222 5.00592 8.56312 12.4409 0.00419554 -0.00991419 0.00522918
30 1 1.514 6.97034 10.2252 14.0891 0.00613621 -0.00453017 -0.00130478
31 1 1.49084 5.08444 12.2138 8.41201 0.0108163 -0.0165705 0.0105768
32 1 1.60078 6.7478 14.1781 10.3397 -0.0116304 -0.0145242 0.00585228
33 1 1.44344 8.53824 15.5848 1.84424 0.0136544 0.000157387 -0.00318359
34 1 1.36123 10.7575 3.31854 3.20741 0.00230687 0.00674175 4.95632e-05
35 1 1.36638 8.73348 4.9112 5.038 0.00226118 0.008833 0.00205749
36 1 1.45821 10.4584 6.71476 6.88865 0.00267747 -0.00355253 0.00126785
37 1 1.31362 12.5604 1.61712 5.10814 0.0035374 -0.0120528 0.0239355
38 1 1.55522 14.0739 3.31997 7.14409 0.0113267 0.0098444 -0.000596315
39 1 1.59882 12.3739 5.27551 15.6504 0.00569558 -0.00596518 -0.00476213
40 1 1.75247 13.9735 6.88699 3.4074 0.00394635 0.00173368 0.00944338
41 1 1.27456 8.51919 1.56558 8.56626 -0.0136997 -0.00224538 0.000176718
42 1 1.64603 10.1392 3.24682 10.439 -0.00533039 -0.0124014 0.00836103
43 1 1.62935 8.61357 4.73973 12.5215 -0.00491887 -0.00601622 0.0139119
44 1 1.67038 10.5719 6.62005 13.7052 0.00353961 -0.000719943 -0.000750915
45 1 1.33578 12.134 1.68381 12.1794 0.00199426 -0.0110444 -0.00115462
46 1 1.56204 14.197 3.70877 13.5513 -0.00668665 -8.13704e-05 0.00531784
47 1 1.48308 12.1649 5.02398 8.82951 -0.00632387 0.00561354 0.000553513
48 1 1.75406 14.0902 6.90511 10.1894 0.00952109 -0.00059127 -0.00110295
49 1 1.60318 8.7378 8.15721 15.5693 0.00581916 0.00147946 0.00335444
50 1 1.71039 10.2138 10.2808 3.05651 -0.00404361 -0.0113668 -0.00263034
51 1 1.65336 8.75428 12.4127 4.84611 -0.010753 -0.00444778 -0.00773797
52 1 1.49247 10.3782 14.2313 6.54092 0.00662673 3.81623e-05 0.00367155
53 1 1.50996 11.9473 8.52466 4.76892 0.00125179 -0.00159841 -0.000679641
54 1 1.57156 13.9058 10.2782 6.32438 0.0119286 -0.00532758 0.00672457
55 1 1.66684 12.3903 12.0181 1.69781 0.00740908 -0.0104503 0.00478249
56 1 1.59437 14.1952 14.0073 3.20934 0.00118644 0.00225192 -0.00559379
57 1 1.09656 8.35832 8.13564 8.77002 -0.00199422 0.00507453 0.00137142
58 1 1.41162 10.3465 10.3596 10.4063 -0.00504119 0.0135976 0.00941194
59 1 1.19627 8.72538 12.4915 12.0569 0.00549361 -0.00476976 -0.00300549
60 1 1.53957 10.6178 14.0615 14.3099 0.00596765 0.000484199 0.0028693
61 1 1.76241 12.1905 8.47676 11.9824 0.0106926 0.00115365 -0.0144301
62 1 1.5648 14.8326 10.9409 14.6435 0.0073654 0.00417733 -0.00436288
63 1 1.3937 12.1324 12.1203 8.22078 -0.00488229 -0.0100785 0.00640388
64 1 1.35259 13.6877 13.9662 10.2668 -0.00413029 -0.0114246 0.00128942
65 2 -0.718776 2.12633 2.36677 2.21697 0.00580086 0.0145648 -0.00138438
66 2 -0.631646 2.80037 14.9118 15.2096 -0.0135194 -0.00512838 -0.000460669
67 2 -0.709164 15.1394 2.72988 14.253 -0.00856017 0.00493459 -0.0045483
68 2 -0.815861 14.6353 14.9269 2.10647 -0.00991111 -0.00404653 0.00734313
69 2 -0.761716 1.9272 4.52075 4.04493 -0.00446209 -0.00885844 -0.0176878
70 2 -0.773262 3.48315 2.21147 4.12878 -0.00477378 0.00499685 -0.0158376
71 2 -0.694487 3.79123 4.4554 2.80851 0.0027147 0.00177558 0.0190267
72 2 -0.751613 2.72379 6.26167 5.70273 -0.0205181 0.00612745 0.00276548
73 2 -0.770009 14.7468 4.4001 6.28641 -0.0119721 -0.00269375 0.0101066
74 2 -0.85935 14.6309 6.37791 4.61981 -0.00306715 -0.000289345 -0.0111844
75 2 -0.892857 3.8831 5.9886 8.11237 -0.0138815 -0.0218707 0.00470526
76 2 -0.811664 4.46991 7.70744 6.40923 0.00434039 -0.0174869 -0.00528808
77 2 -0.733419 2.27122 7.86641 7.27282 -0.024923 0.0131908 0.00643816
78 2 -0.637523 6.1358 2.15845 5.91594 0.00553695 0.00927062 0.0058508
79 2 -0.762054 4.09237 14.9606 6.02181 0.0119371 0.00151329 3.44066e-05
80 2 -0.820623 5.75171 14.7774 4.11679 0.00910144 0.00822534 -0.00386654
81 2 -0.625954 5.86431 4.56551 7.49861 0.00299466 -0.000744863 0.000515384
82 2 -0.666347 8.06433 3.67645 5.75971 -0.00425623 0.0127794 -0.0127222
83 2 -0.588929 7.64865 2.95972 8.09868 0.00749172 0.00689172 -0.0109783
84 2 -0.597387 5.87842 5.83254 2.46074 -0.00485664 -0.00164049 -0.00117905
85 2 -0.93394 4.08569 6.04623 14.9338 -0.0203314 0.00525455 0.00207698
86 2 -0.63137 5.75599 4.10047 15.1606 0.00107657 -0.00617108 -0.0125498
87 2 -0.798721 6.18058 7.53813 4.44343 -0.00669262 -0.00897136 -0.00948957
88 2 -0.779768 7.65949 5.65428 4.22584 0.0138334 -0.00272504 0.0140861
89 2 -0.801592 7.96913 7.63944 2.48729 -0.00281384 -0.0134919 0.00379278
90 2 -0.745116 2.63432 1.58186 9.73686 -0.005899 0.00888375 -0.00151614
91 2 -0.764603 1.91367 14.7625 7.4608 -0.0129597 0.0211128 -0.000565434
92 2 -0.737419 15.1825 2.71316 8.16501 0.00602616 -0.00869376 -0.0110769
93 2 -0.815532 14.8618 14.5951 9.4746 -0.006684 0.00631017 -0.0120601
94 2 -0.865188 2.49136 4.11249 10.8173 -0.00827998 0.0145605 0.00537719
95 2 -0.932134 4.38563 2.5191 11.4811 -0.0105128 0.004318 0.000306301
96 2 -0.745374 4.14095 3.54347 9.26074 0.0081376 -0.00552728 -0.0022436
97 2 -0.901329 2.8871 6.01788 12.5824 0.00111092 0.00805236 -0.0121118
98 2 -0.822823 15.1416 4.70453 12.9549 -0.00855861 -0.00101848 -0.00544585
99 2 -0.747699 14.8314 5.86363 11.0268 -0.00322514 -0.00903631 -0.00394662
100 2 -0.687984 1.9994 7.21276 14.6819 -0.000529465 0.00551471 0.0172962
101 2 -0.808265 3.88799 8.01927 13.4423 0.0151697 -0.00478273 0.00373906
102 2 -0.811436 6.05712 1.81435 13.4614 0.00660938 0.00248199 -0.0173056
103 2 -0.732937 3.86255 14.9351 12.9541 0.00475891 0.011812 -0.00224428
104 2 -0.865868 5.93907 14.8842 11.4402 -0.00443313 0.00173913 0.00265643
105 2 -0.816312 7.72556 2.30824 15.4278 -0.00208789 -0.00809531 0.0185046
106 2 -0.795861 8.0646 3.75121 13.5614 0.0131135 0.00151588 -0.0155518
107 2 -0.790394 5.90964 5.40885 9.90734 -0.00636978 -0.0143501 -0.0131707
108 2 -0.670612 5.9245 7.14532 11.921 -0.00492022 -0.0039472 -0.00556682
109 2 -0.812213 7.37901 5.28678 11.7421 -0.00576583 -0.00432681 0.0110688
110 2 -0.589598 7.6426 7.58475 10.4916 -0.00374769 0.00715923 0.00191024
111 2 -0.885983 2.41066 9.27118 2.38408 0.00717431 9.3679e-05 0.00167878
112 2 -0.770115 14.5558 7.91883 2.40946 0.00350649 0.0067606 -0.0158317
113 2 -0.748081 15.1894 9.39946 14.6355 0.0261885 0.0101794 0.00411992
114 2 -0.894342 2.6121 10.8679 4.29932 0.000111313 0.00955752 -0.0125068
115 2 -0.713591 4.28734 9.10093 3.98785 -0.00666115 0.00977875 -0.00648845
116 2 -0.891215 4.27607 11.0636 2.28993 0.00567164 0.00854238 0.00690893
117 2 -0.80811 2.31224 13.0085 5.89483 -0.00458235 -0.00592087 0.0119665
118 2 -0.785831 14.7089 11.437 5.67604 0.00697203 0.012943 -0.00918415
119 2 -0.77869 15.1681 12.8773 3.8212 -0.00136321 -0.0069713 0.00416235
120 2 -0.847483 3.97212 12.9313 7.64669 -0.00503152 0.0103132 0.00614381
121 2 -0.832946 5.99244 9.76771 5.99102 0.00202674 -0.00118376 0.00148748
122 2 -0.780934 6.2458 11.4772 7.69386 0.00410426 0.0163407 -0.00841437
123 2 -0.879697 7.75064 11.5638 5.68985 -0.0143148 0.0166457 0.00458155
124 2 -0.575043 8.08378 9.49636 7.52491 -0.000564147 0.000168515 -0.00412921
125 2 -0.833093 5.40639 13.025 2.37516 -0.010666 0.0167236 -0.0132284
126 2 -0.82772 4.40182 12.9228 14.4204 0.0101498 0.00279103 0.00524362
127 2 -0.831896 6.23016 11.239 14.8282 -0.024029 -0.00155368 0.00886553
128 2 -0.821252 7.40082 14.534 2.20481 0.0216076 -0.00345968 0.00525463
129 2 -0.834426 7.65779 13.0687 3.9053 -0.0106444 0.00611089 0.00531616
130 2 -0.845614 2.46139 9.21033 9.26402 0.00566156 -0.0162042 0.0100707
131 2 -0.908586 15.0093 7.58019 9.19826 -0.00957514 0.00662861 0.00428352
132 2 -0.84773 14.8267 9.36956 7.32999 -0.00540804 0.0122814 0.000175461
133 2 -0.788546 2.3604 11.1187 11.2439 -0.00479473 -0.00630758 0.00131406
134 2 -0.764974 4.04099 9.02816 11.2374 0.012512 0.0135388 -0.00146265
135 2 -0.687259 4.2233 10.9329 9.41771 0.0131174 0.0139388 0.0185556
136 2 -0.58803 2.66892 13.2187 12.2929 0.0141075 0.000513922 -0.00110063
137 2 -0.871916 15.3037 11.4741 13.3081 0.000589897 0.0110347 0.00232027
138 2 -0.678089 14.6446 13.0462 11.1828 0.00272618 0.00425995 -0.000271927
139 2 -0.832645 5.90384 9.49029 13.2037 0.00761727 -0.00430809 -0.00691441
140 2 -0.805163 7.65881 9.10214 15.0221 0.00226634 0.00884116 -0.00813943
141 2 -0.565002 7.82175 11.4502 13.2564 -0.0051854 -0.00607178 -0.00417123
142 2 -0.734075 5.69183 13.3782 9.26634 -0.00764767 0.00323126 -0.0121784
143 2 -0.797634 7.89202 14.8341 9.63163 0.0147302 -0.0042074 -0.00104525
144 2 -0.668785 7.45049 13.1094 11.1972 0.000700701 0.00114803 -0.000983544
145 2 -0.642899 9.62134 2.09688 2.97571 0.0107557 0.00070956 0.00115132
146 2 -0.732368 9.87234 14.9017 15.3493 0.00604342 -0.00115567 -0.00405056
147 2 -0.674084 9.8776 4.52952 3.91712 0.00495262 -0.00939081 0.00283414
148 2 -0.716175 11.8928 2.8831 4.18432 -0.00150331 0.00814171 -0.00939052
149 2 -0.748893 11.5213 4.25559 2.10065 -0.000351308 0.00916105 0.00197106
150 2 -0.728172 9.17168 6.07211 6.1992 -0.000503244 -0.0011792 0.00022918
151 2 -0.756324 10.9859 5.73926 7.88193 0.00145679 -0.0162064 -0.00200783
152 2 -0.744845 11.197 7.87006 6.11784 0.0167712 0.00222633 0.00399785
153 2 -0.609914 9.58522 7.62704 7.99369 -0.0164639 -0.00690872 -0.00332033
154 2 -0.747336 13.404 2.15756 6.46295 0.0105147 0.00744672 -0.00654683
155 2 -0.768292 11.5062 15.0798 6.15628 0.00963644 -0.00569672 0.00297927
156 2 -0.734269 13.4509 14.7874 4.29866 -0.00329093 -0.00820736 0.00276149
157 2 -0.81706 13.0284 3.92013 8.18071 0.0158442 -0.00214905 -0.00436506
158 2 -0.819187 13.3733 5.94611 2.30763 -0.0105395 -0.00137498 0.00972131
159 2 -0.850156 11.4682 6.39652 14.9091 0.00265513 -0.00427752 -0.0158781
160 2 -0.772631 13.1754 4.25628 14.6194 -0.0146411 -0.00214976 0.00635381
161 2 -0.829368 12.6391 7.42493 3.84917 -0.000210196 -0.00801219 -0.00321244
162 2 -0.690066 9.76865 2.71963 8.98599 -0.0147054 0.000246768 -0.00671342
163 2 -0.726213 9.20987 14.93 7.49077 -0.0186163 -0.00923122 -0.00461331
164 2 -0.81817 9.06075 3.79949 11.2843 -0.00129998 0.00898199 0.0104112
165 2 -0.85226 10.9114 2.15573 11.2116 2.04558e-05 -0.00331868 0.00609861
166 2 -0.759515 11.0868 4.29946 10.014 -0.00181985 0.0187942 0.00233979
167 2 -0.850467 9.92319 5.38874 13.0251 -0.0138145 0.00412435 -0.00746781
168 2 -0.846775 9.29908 7.18664 14.4416 0.0188999 0.00343857 0.0230151
169 2 -0.862682 11.1908 7.40991 12.5002 0.00715246 0.0160769 -0.00703995
170 2 -0.744195 13.371 2.57397 12.6402 0.00301036 0.00884476 0.00370226
171 2 -0.776254 11.3306 15.1391 13.3992 -0.00905787 -0.00692699 -0.00351627
172 2 -0.777793 13.0128 14.8427 11.4517 -0.0100986 0.00804794 -0.00432815
173 2 -0.852906 13.0451 6.19052 9.33374 -0.0186068 -0.00153099 -0.00519236
174 2 -0.886972 13.3483 7.86175 11.2045 0.00167152 0.0152503 -0.00424045
175 2 -0.889257 9.52478 9.34491 2.04344 -0.00257918 0.00765728 0.0130758
176 2 -0.868738 9.56596 11.3716 3.79095 -0.0165287 0.00217039 -0.000443403
177 2 -0.823746 10.8861 9.46449 4.17011 -0.0127033 0.00326874 0.0101271
178 2 -0.874798 11.4761 10.8666 2.25812 -0.00326127 0.000748017 -0.00896966
179 2 -0.851947 9.57266 13.502 5.42899 0.00998008 -0.00212097 -0.00223769
180 2 -0.702332 11.1756 12.9136 7.23684 0.00228208 -0.00195343 -0.00649467
181 2 -0.791338 13.147 9.51667 5.26036 -5.30492e-06 0.0192066 0.00303259
182 2 -0.782628 13.0435 11.077 7.44715 -0.00800124 -0.0105995 -0.000277318
183 2 -0.8025 13.1146 12.948 2.70906 -0.00771168 0.00846549 -0.0012785
184 2 -0.818798 11.5523 12.916 15.0265 0.0012958 0.00599768 -0.00577305
185 2 -0.961964 13.5297 11.5697 15.0655 0.00757782 -0.0112063 -0.00563365
186 2 -0.512594 9.14099 9.32169 9.84893 0.0104688 0.0132411 0.00764732
187 2 -0.728364 9.50901 11.2835 11.2812 0.0152645 0.00997559 -0.00592112
188 2 -0.829931 11.4786 9.58665 11.11 0.00377753 -0.0202673 0.00531319
189 2 -0.620101 10.8756 11.5069 9.27483 0.00640552 0.00285732 -0.00453013
190 2 -0.735101 9.63322 13.2515 13.5379 0.013303 0.00274793 0.00738137
191 2 -0.819664 12.7966 9.10693 13.1731 0.00191794 0.00486979 0.0101794
192 2 -0.705375 12.8515 12.4843 9.49926 -0.0110342 -0.0112015 -0.00633719
193 2 -0.65882 14.4964 14.5299 13.896 0.0125552 0.000673102 0.00130527
194 2 -0.703809 4.90949 12.0164 4.69509 0.0122388 -0.0168857 0.00356408
195 2 -0.605549 6.5196 9.80732 3.62488 -0.012738 0.0188684 -0.0092164
196 2 -0.59423 10.0362 13.8027 10.8027 -0.0196283 0.0024355 -0.00242211
197 2 -0.66853 12.38 15.1253 8.8973 -0.000592515 -0.00894909 0.00676263
198 2 -0.658689 5.87685 2.46792 3.08121 0.00705492 0.0112744 -0.00260035
199 2 -0.655074 6.9774 6.92537 7.51738 0.0179072 -0.0199411 -0.0112146
200 2 -0.5754 13.6529 13.5228 7.00187 -0.00576859 0.00323324 0.0146718
201 2 -0.587054 4.98043 11.8752 12.1385 -0.00294656 -0.00526654 -0.000921856
202 2 -0.753608 1.64461 11.4308 15.6162 -0.00267116 -0.00347175 -0.00254647
203 2 -0.662475 5.45328 8.54215 8.83137 -0.007636 -0.00726147 0.00158838
204 2 -0.612617 10.5377 10.2447 13.8079 -0.0113016 0.0114859 -0.0044434
205 3 0.427265 13.8708 14.8073 13.1942 -0.0326239 -0.0570283 -0.0513045
206 3 0.378081 14.1938 13.6136 13.8408 -0.0356512 0.0498096 -0.0592658
207 3 0.436464 4.94807 12.5312 5.37325 0.0230302 -0.028824 0.0239986
208 3 0.445892 4.37443 12.0514 3.99358 -0.0161585 -0.00230237 0.0561454
209 3 0.42749 7.00264 10.1015 2.88398 0.0347634 -0.0115979 -0.00872955
210 3 0.410531 6.57803 10.6316 4.28694 0.0613032 -0.0158965 -0.0380408
211 3 0.386585 10.7322 13.066 10.5836 -0.050514 0.0426495 -0.00127218
212 3 0.368329 10.4492 14.363 11.5627 -0.0501684 -0.0346477 0.0396213
213 3 0.364733 11.6189 15.1674 8.09012 -0.0365537 0.0424773 0.00951524
214 3 0.393188 11.9546 1.61246 9.31303 -0.0243017 0.0471489 0.0163469
215 3 0.414391 6.40306 2.8206 3.74903 -0.0187021 0.0450988 -0.0197007
216 3 0.454358 6.29394 2.41092 2.1753 0.00999174 0.0106529 -0.0651868
217 3 0.449268 7.40674 6.97892 6.67263 -0.0163522 0.0417709 -0.0383503
218 3 0.393999 6.20932 7.61409 7.3633 -0.0142801 0.00152772 0.0369344
219 3 0.426458 13.88 14.1112 7.7235 0.0175937 -0.0175297 0.0126985
220 3 0.439502 14.0349 12.6112 7.02295 0.00282299 -0.0331823 0.0191435
221 3 0.451752 5.01693 11.7103 13.0583 0.0102396 0.0180367 -0.0110116
222 3 0.471624 4.52866 12.6979 11.9846 -0.0181741 0.0299947 -0.0088281
223 3 0.420472 9.97915 10.9866 13.7702 -0.000994053 -0.00954101 -0.0638811
224 3 0.412444 15.7023 12.1094 1.90148 -0.0522426 0.0263824 -0.0343841
225 3 0.376587 5.43121 7.66442 8.89875 -0.0342667 0.0506704 0.0415795
226 3 0.443352 4.6393 8.91194 9.15385 -0.00423473 0.0181211 -0.0275383
227 3 0.485367 13.2674 9.64797 13.6719 -0.00662909 -0.110855 -0.00397248
228 3 0.405257 10.7291 10.053 14.7497 0.0426207 0.00453565 -0.0169092
ITEM: TIMESTEP
34000
ITEM: NUMBER OF ATOMS
228
ITEM: BOX BOUNDS pp pp pp
1.4392081245645372e+00 1.5720791875435214e+01
1.4392081245645372e+00 1.5720791875435214e+01
1.4392081245645372e+00 1.5720791875435214e+01
ITEM: ATOMS id type q x y z vx vy vz
1 1 1.94716 1.6501 15.6074 15.6693 0.00174908 -0.00109052 0.00201287
2 1 1.5414 3.22808 3.39039 3.05737 -0.00184856 0.00517256 -0.012261
3 1 1.64116 1.56396 4.98252 4.99802 -0.00757392 -0.00183213 0.00297969
4 1 1.54318 3.00412 6.46528 7.16467 -0.00103326 -0.00403368 0.0101302
5 1 1.5203 5.42006 1.63503 4.70075 0.0117612 -0.00362988 -0.00114408
6 1 1.35632 6.75149 3.03132 7.05694 0.00306146 -0.00207579 -0.00695736
7 1 1.83307 4.9378 4.9098 15.4203 -0.00345589 0.00921981 0.00128244
8 1 1.49216 6.31025 6.6029 3.39794 -0.00601153 -0.0119626 0.00138135
9 1 1.63341 1.82123 1.45079 8.62721 -0.00542838 -0.00468655 -0.000288435
10 1 1.6232 3.30088 3.06387 10.6372 0.0149349 0.00248693 -0.00692273
11 1 1.52529 15.5025 5.00189 12.0999 0.00509579 0.00613114 -0.002185
12 1 1.62008 3.22297 6.70541 13.7431 -0.00325139 0.00154058 -0.00203949
13 1 1.52826 5.08956 1.48775 12.5336 0.00781267 -0.00345755 -0.00836015
14 1 1.72267 7.06138 3.34269 13.9071 0.00491987 -0.00858904 0.00134049
15 1 1.60253 4.85693 4.75695 8.74134 -0.00167756 -0.00933033 0.00344036
16 1 1.24772 6.75304 6.8328 10.3863 -0.0138755 0.0032054 0.00053201
17 1 1.53101 1.48135 8.56689 1.45423 0.00790659 0.00524675 0.0048976
18 1 1.58012 3.31198 10.1783 3.29593 -0.00382517 -0.0024478 0.00933057
19 1 1.54127 1.55291 12.2299 4.92935 -0.00460538 0.00196149 -0.0144224
20 1 1.45761 3.4698 14.2771 6.57072 -0.00863111 0.013156 -0.00113697
21 1 1.41734 4.6192 8.37806 5.32405 0.00785993 -0.00301737 0.0049536
22 1 1.52082 6.75853 10.3917 6.54916 0.00216997 -0.00954662 0.0136232
23 1 1.7115 5.0775 12.0814 1.68599 -0.00229654 -0.00153362 0.00492616
24 1 1.7481 6.94554 14.0287 3.02861 -0.00195216 0.00735687 0.00947523
25 1 1.50628 15.628 8.56349 8.89281 -0.00693478 0.00258373 0.00686151
26 1 1.63699 3.28514 10.4583 10.2418 -0.00617308 0.00207516 -0.00231202
27 1 1.60635 1.5708 12.3624 12.0368 -0.00929853 -0.00269059 -0.00531071
28 1 1.6343 3.4414 13.7162 13.9929 0.0040107 0.000357085 -0.00292109
29 1 1.50587 4.86298 8.66794 12.1224 0.00504738 -0.013713 0.00932356
30 1 1.25264 6.78222 10.3662 13.7332 -0.00264325 -0.000721553 -0.00673211
31 1 1.55092 5.19039 12.163 8.56967 -0.000479359 0.00203351 -0.00490638
32 1 1.73326 6.68941 14.0219 10.5145 0.00699547 -0.00461608 4.23944e-05
33 1 1.65467 8.67558 1.74996 1.6319 -0.00946977 -0.00732182 0.00841524
34 1 1.52285 10.4243 3.12535 3.65502 -0.00410374 0.00334606 -0.00185246
35 1 1.24093 8.23566 4.95176 5.41037 -0.000268105 0.0132277 -4.78496e-06
36 1 1.3156 10.2979 6.99033 6.65811 -0.00178874 0.000108849 0.00192955
37 1 1.67271 12.2418 15.5116 5.01155 -0.00796815 -0.0102526 0.00725534
38 1 1.56739 14.1389 3.11145 6.59846 -0.0096142 -0.000464444 -0.00293692
39 1 1.8114 12.2784 4.72811 1.81447 -0.0114395 -0.0044221 0.00938673
40 1 1.72943 13.9828 6.72006 3.32913 0.0116471 0.0109624 0.00365121
41 1 1.71337 8.64238 15.5634 8.69922 0.014585 0.00485169 0.000215979
42 1 1.51522 10.251 3.44902 10.4224 0.00680463 -0.00170055 0.0013237
43 1 1.67863 8.72424 5.25697 12.2519 -0.00104924 -0.000281629 0.00506837
44 1 1.67258 10.6328 6.65281 14.2805 -0.0150216 -0.00619451 -0.00306925
45 1 1.5022 12.18 1.81245 12.091 -0.00802401 0.00903784 -0.0016271
46 1 1.686 13.9668 3.24066 14.1127 -0.000250748 -0.0034365 0.00553368
47 1 1.42807 12.1497 4.92217 8.06441 -0.00330533 -0.00396509 -0.00237794
48 1 1.6354 13.7087 6.58585 10.2103 -0.000732508 0.00716369 0.00528122
49 1 1.2633 8.38574 8.35376 1.51648 -0.0014843 0.00326592 -0.00532747
50 1 1.45054 10.4322 10.3139 3.01328 -0.00177208 0.000323213 -0.000819507
51 1 1.60407 8.5209 11.9348 4.77216 0.00459825 0.00984952 -0.010799
52 1 1.47886 10.4239 13.7838 6.78273 -0.0199423 0.00332892 -0.000803614
53 1 1.39624 12.1994 8.77704 5.01506 -0.000773985 -0.00183202 -0.00726242
54 1 1.5397 14.0525 10.42 7.00827 0.0166643 0.00793638 -0.00270898
55 1 1.31486 12.0373 12.1863 15.6907 -0.00523733 -0.00590972 -0.00704314
56 1 1.67504 14.0529 13.8967 3.11912 -0.00498078 -0.00566265 -0.0145469
57 1 1.24648 8.57944 8.76602 8.81654 0.00332847 0.00508393 0.00216271
58 1 1.65982 10.4302 10.3765 10.6299 -0.00658489 0.000965772 -0.00586444
59 1 1.4548 8.68347 12.3831 12.2697 0.00384654 -0.00214509 0.00713326
60 1 1.40822 10.4625 14.4451 14.0405 -0.00446839 0.00720823 -0.000624913
61 1 1.65629 12.0233 8.2491 12.1007 0.000448053 0.00299094 -0.00387516
62 1 1.43679 14.6613 11.0809 14.4739 0.00900358 0.00634355 -6.71803e-05
63 1 1.51625 12.1467 12.2006 8.7529 0.00153121 0.000494886 -0.00680386
64 1 1.61899 14.0116 14.2218 10.2623 0.0165998 -0.010802 0.00234484
65 2 -0.900166 2.30924 2.35217 2.22652 0.0049793 -0.00377651 0.00256805
66 2 -0.914706 2.4343 14.6898 14.7822 0.00142163 0.00316047 -0.0111123
67 2 -0.882631 15.0178 2.1014 14.8443 -0.0113645 -0.000353694 -0.00682614
68 2 -0.951872 15.0839 14.6765 2.26838 0.00674197 -0.00321716 0.00787976
69 2 -0.788762 2.81535 4.14352 4.40453 0.000172375 -0.0146893 0.00207714
70 2 -0.6946 4.48116 2.41118 3.54875 -0.0137248 -0.0125809 0.00383157
71 2 -0.879141 3.81026 4.26959 1.92013 0.00374327 -0.000767412 0.00687209
72 2 -0.881708 2.02039 5.86567 6.22309 0.0102801 0.0113054 0.00135502
73 2 -0.808673 14.8401 3.98181 5.52456 0.00811568 -0.0167239 0.0137126
74 2 -0.846244 14.9686 5.6649 3.9329 0.00550389 -0.00575901 0.0236252
75 2 -0.849382 3.8219 5.28996 7.85391 -0.00191878 -0.00807469 -0.0123565
76 2 -0.710116 4.24241 7.51781 6.59397 0.00819281 0.00631721 -0.0193265
77 2 -0.767896 2.366 7.60127 8.07035 -0.00852858 0.00763166 -0.00683844
78 2 -0.81377 6.24954 2.47975 5.68797 -0.00391948 -0.0139346 0.0128844
79 2 -0.763353 4.17865 15.2814 5.60138 0.00962462 0.00898231 0.00339231
80 2 -0.929187 6.50471 15.072 4.03489 0.0180649 -0.000609788 0.011811
81 2 -0.771044 5.63359 3.94001 7.65434 0.00476381 -0.00243061 0.00092165
82 2 -0.669026 8.13582 4.04297 6.83462 -0.00347961 0.0132252 0.0104149
83 2 -0.816457 7.76847 1.83765 7.58507 -0.00959892 3.88952e-05 -0.011734
84 2 -0.769574 5.61886 5.58322 2.28463 -0.0132007 0.0118808 0.0133727
85 2 -0.893832 4.38492 5.97722 14.5455 0.00101919 0.0128426 0.00360025
86 2 -0.905214 6.09173 4.04726 14.7669 -0.011784 -0.00943441 -0.00424934
87 2 -0.698576 5.14612 7.45934 3.94594 -0.000823387 -0.00424691 0.00457644
88 2 -0.784298 7.13148 5.84827 4.5447 0.000267823 -0.00245815 -0.00529901
89 2 -0.662679 7.12598 7.36259 2.37315 0.00359928 -0.0225238 0.00125204
90 2 -0.921188 2.67294 2.08095 9.63275 0.0139034 0.00824038 0.014356
91 2 -0.814436 2.29982 14.8153 7.46565 0.0127415 0.00451699 -0.00149156
92 2 -0.697945 15.5216 2.49908 7.57419 -0.00409033 -0.0027122 0.0081345
93 2 -0.811357 14.7068 15.1625 9.19436 0.000635767 0.00338293 0.00691546
94 2 -0.757077 2.28431 3.88282 11.5022 -0.00813463 -0.00263035 0.00671853
95 2 -0.745581 4.01354 2.52321 11.9802 0.0165962 -0.0146319 0.000862977
96 2 -0.837945 4.3689 3.64832 9.66875 -0.0120922 0.0183067 0.00327484
97 2 -0.796555 2.40061 5.8174 12.7558 0.00462879 0.00372196 0.00247959
98 2 -0.819304 14.4032 4.32273 13.0215 -0.00297806 0.00742921 -0.00693741
99 2 -0.848029 14.7479 5.77369 10.8933 0.00881834 0.00502758 0.00553529
100 2 -0.679785 2.01913 7.42404 14.6461 -0.0148499 0.00268817 -0.00108957
101 2 -0.787346 3.72778 7.88111 12.99 0.0108908 0.00466595 -0.00875132
102 2 -0.774289 6.17962 2.5305 12.9271 0.00975657 -0.0115556 0.0246642
103 2 -0.793662 4.72819 14.6918 13.593 0.015495 -0.0108146 0.00989892
104 2 -0.806092 5.88703 15.0852 11.2913 0.00148895 0.00279811 -0.00374721
105 2 -0.914096 7.79271 2.63442 15.0142 0.01857 0.00343765 -0.00411565
106 2 -0.811444 7.78878 4.16616 12.6514 -0.00648645 -0.0139549 -0.00543211
107 2 -0.737572 6.08115 5.77428 9.24027 -0.00834232 -0.00268467 -0.0182866
108 2 -0.698656 5.66998 7.52039 11.4368 0.00757969 -0.004833 0.0199823
109 2 -0.654489 7.75697 6.30552 11.8408 -0.0184529 0.000412411 -0.00561561
110 2 -0.680943 7.95977 7.62576 9.87587 -0.0137776 0.00845954 0.0193382
111 2 -0.791949 2.56035 9.04819 2.37807 0.00572573 0.0131445 0.0054988
112 2 -0.763054 14.6609 7.66546 2.31535 0.016252 -0.00415675 -0.0165909
113 2 -0.761139 14.8653 9.59293 14.9936 -0.0222204 0.00168034 0.00505192
114 2 -0.797145 2.21223 11.1505 3.9749 0.00582515 0.00136827 0.0136174
115 2 -0.81323 3.65691 9.26585 4.50616 0.00524551 0.0168139 -0.0117401
116 2 -0.89498 4.31 11.0136 2.52274 -0.00287928 -0.00327828 0.0163114
117 2 -0.788341 2.66371 13.2989 5.67039 -0.00298139 0.0087161 0.00621423
118 2 -0.69456 14.9644 11.353 5.90599 0.000748386 -0.00249161 -0.000292985
119 2 -0.849164 14.8481 12.986 4.11718 -0.0186598 0.0109573 -0.00630801
120 2 -0.69163 4.47832 13.2389 7.54726 0.00851163 0.00299189 0.000127843
121 2 -0.808594 5.84498 9.281 5.6224 0.00829972 -0.00755699 0.00399729
122 2 -0.84154 5.98134 11.1691 7.61407 0.0119053 0.000133047 0.00263438
123 2 -0.908975 7.69047 11.2595 5.77346 -0.00135812 0.0152441 0.0111056
124 2 -0.694558 7.72531 9.52145 7.63341 -0.021392 0.00508942 -0.00482208
125 2 -0.925077 5.77402 13.1922 2.47041 0.00315948 0.00359214 0.00166924
126 2 -0.855622 4.23743 12.6409 14.8666 0.0124213 0.0164992 0.0029281
127 2 -0.645188 6.07094 11.0557 15.2267 0.000454253 -0.00976749 -0.00291027
128 2 -0.844535 7.89896 14.7215 2.00468 0.00369647 -0.0107955 0.013903
129 2 -0.818307 7.88574 13.0459 3.75227 -0.0032096 0.0107307 -0.00484801
130 2 -0.74836 1.95718 9.6253 10.0143 0.00666337 0.0155881 -0.0164949
131 2 -0.714528 14.2992 7.84722 9.23113 0.00344878 -0.0136281 0.0119184
132 2 -0.765843 15.0459 9.42389 7.82227 0.0126608 0.00754367 0.00396358
133 2 -0.795278 2.60069 11.5639 11.1377 -0.0031766 0.00643631 -0.0137204
134 2 -0.905855 4.23834 9.46805 10.7678 0.000690072 -0.00714331 -0.00771782
135 2 -0.871195 4.12873 11.3377 9.29433 -0.00169791 0.00766597 0.00454752
136 2 -0.864517 2.48783 13.2721 12.9485 -0.00287182 0.00199936 0.00600845
137 2 -0.837977 15.1431 11.4552 12.9891 -0.000678165 -0.00520469 -0.0055908
138 2 -0.824275 15.1261 13.5117 11.1418 -0.00270073 -0.00132819 0.0060585
139 2 -0.831274 5.83726 9.34081 13.0082 -0.00557529 -0.0203731 0.00229053
140 2 -0.649526 7.80353 9.0176 14.658 0.0138726 -0.01641 -0.00930596
141 2 -0.783126 7.94163 11.3931 13.1728 -0.00101743 -0.029328 -0.0119775
142 2 -0.852306 5.8117 13.1935 9.67497 0.00972241 -0.00583361 0.0134689
143 2 -0.834421 7.60889 14.8436 9.47601 -0.00899962 0.00486183 -0.00768838
144 2 -0.805404 7.74381 13.0658 11.0385 0.0023849 0.00737742 0.00875545
145 2 -0.86652 9.42749 2.44608 2.77975 -0.0107913 -0.0068344 -0.010735
146 2 -0.776759 9.94589 15.3554 15.1079 -0.000628163 0.00343203 0.0103319
147 2 -0.6399 9.23261 4.47036 4.47112 -0.00536727 -0.000495705 -0.00556447
148 2 -0.787152 11.7055 2.26097 3.98927 0.00108073 -0.00401503 -0.00370411
149 2 -0.811587 11.1846 4.16187 2.75464 -0.00281083 0.000132106 0.0023153
150 2 -0.631736 8.9646 6.37357 6.04015 0.00916209 -0.0187602 -0.010068
151 2 -0.729518 11.3495 5.73175 7.02865 0.020854 0.00356459 -0.0103319
152 2 -0.694021 10.8978 8.2946 5.68824 0.00705926 -0.0181347 0.0124812
153 2 -0.602956 9.56844 7.59839 7.88646 -0.00078785 0.00307275 0.00226979
154 2 -0.827916 13.1895 2.10499 5.9095 -0.0278098 0.0153792 0.0028042
155 2 -0.868842 11.2268 14.6851 5.74431 0.00408292 0.00348425 -0.00624704
156 2 -0.789796 13.3566 14.8775 4.03666 -0.00808466 -0.00298751 -0.0121776
157 2 -0.807354 13.1149 3.98494 7.25575 -0.00141331 -0.00191037 -0.00195161
158 2 -0.888746 13.2034 5.70266 2.50204 -0.00921232 -0.00554157 -0.0108396
159 2 -0.806896 11.3609 5.46741 15.077 0.00229363 0.00211548 -0.00775588
160 2 -0.910784 13.1782 3.92213 15.168 0.00669426 -0.00116286 -0.00945129
161 2 -0.813542 13.0873 7.58735 4.23522 0.012595 0.00675037 -0.0150527
162 2 -0.869983 9.48772 2.21549 9.49266 -0.0126735 0.0148059 0.00864059
163 2 -0.803084 9.72916 14.5117 8.02933 5.30105e-05 -0.000510717 -0.0105297
164 2 -0.823531 9.34479 4.45864 11.1148 0.000950729 0.0123433 -0.00219317
165 2 -0.886415 11.3489 2.82325 11.378 -0.0227342 0.00916718 -9.00624e-05
166 2 -0.648366 10.814 4.3481 9.25483 -0.000545836 -0.00517801 0.000734418
167 2 -0.879375 9.84229 5.90933 13.239 0.00197372 0.00700495 -0.000419657
168 2 -0.747058 9.93572 7.53769 15.2626 -0.0150512 0.00576314 -0.0164302
169 2 -0.840966 11.5842 7.64108 13.4517 0.00869524 -0.000413288 0.00269914
170 2 -0.815064 13.0806 2.29794 13.3835 -0.0166578 -0.00640614 -0.0104419
171 2 -0.867898 11.2163 15.0819 12.9117 0.00869827 -0.00547833 -0.0116596
172 2 -0.845228 13.1051 15.184 11.0484 0.0210011 0.000732157 -0.0114551
173 2 -0.784617 13.053 5.67139 9.09036 -0.00147679 -0.00330382 0.0124438
174 2 -0.853989 12.8308 7.30854 11.2288 0.0164069 0.00500355 0.0054414
175 2 -0.792322 9.33462 9.56814 2.16252 -0.00155562 0.0214874 0.00426465
176 2 -0.786981 9.3847 10.8853 4.038 -0.000804444 0.000614724 0.0124761
177 2 -0.69211 11.6251 9.85897 3.86559 -0.00659792 0.0133428 0.00493007
178 2 -0.658297 11.0776 11.7147 2.60866 0.01027 0.0109311 -0.00612803
179 2 -0.66919 9.42366 12.9857 5.78029 0.00812181 0.000575499 -0.000964182
180 2 -0.767781 11.4445 12.7625 7.54662 0.00636581 0.00441048 -0.000556924
181 2 -0.731188 13.0493 9.75393 6.06203 -0.00190953 0.00564397 -0.00848913
182 2 -0.68532 13.3997 11.2793 8.08536 -0.00334214 -0.00576188 -0.00390301
183 2 -0.768104 12.9243 13.0283 2.55463 -0.00428189 -0.00351638 0.00163462
184 2 -0.710695 11.0233 12.9244 14.7196 0.00223097 -0.0245169 0.00267737
185 2 -0.80728 13.1275 11.4009 14.8773 0.0035267 -0.000185952 0.00632
186 2 -0.7531 9.32638 9.63116 9.97367 -0.0097408 -0.00942848 -0.00455336
187 2 -0.836436 9.75944 11.5074 11.4258 0.00242659 0.0164892 -0.00492275
188 2 -0.880171 11.1479 9.11511 11.2419 0.0053217 -0.0025698 -0.0020086
189 2 -0.799296 11.2896 11.1249 9.48492 -0.00177222 -0.00512123 0.0143029
190 2 -0.699473 9.209 13.5657 13.1698 0.0126235 0.00317759 -0.00880613
191 2 -0.612053 13.2419 9.22738 12.4501 0.00157178 -0.00608595 -0.0104534
192 2 -0.838467 13.2566 13.297 9.35306 0.00114469 0.00288135 -0.00318405
193 2 -0.609577 13.3168 13.2846 13.1707 -0.0132084 -0.0216017 0.000731572
194 2 -0.602404 5.28327 12.0916 4.7689 -0.0102563 0.00538447 -0.0036109
195 2 -0.562511 6.91552 9.44018 2.88403 0.0114963 -0.000544994 -0.00521463
196 2 -0.586923 10.4718 13.9266 10.7297 0.00772117 -0.00408501 0.00423421
197 2 -0.647409 12.2599 1.63552 8.18568 -0.0106523 -0.00455522 -0.00198711
198 2 -0.687189 9.16871 2.09576 5.22041 -0.000796808 0.000352188 0.000308084
199 2 -0.618876 6.41154 6.92588 7.08137 -0.0122321 -0.000668626 -0.00415278
200 2 -0.525283 13.979 14.0501 6.76695 0.00408099 0.000588965 0.013101
201 2 -0.596475 5.60626 11.7733 12.4484 0.00296795 0.00846058 7.17195e-05
202 2 -0.69832 15.5675 11.9562 15.3793 -0.0048188 -0.00176904 -0.00965406
203 2 -0.580321 5.27368 7.94225 8.99491 0.00658083 -0.00519489 0.0060929
204 2 -0.648856 10.4264 10.0916 13.8082 -0.00187036 0.00124756 -0.00913934
205 3 0.382209 14.2246 13.5705 13.1678 -0.0261849 -0.000270976 -0.011701
206 3 0.347289 12.8365 13.6229 13.9965 -0.072423 0.0130995 -0.0359208
207 3 0.37162 4.39914 12.3908 5.08417 -0.021808 -0.0321312 0.0259786
208 3 0.371674 5.05134 11.2269 4.57421 -0.028781 -0.0139972 0.027201
209 3 0.407643 7.58328 10.047 2.57113 -0.000331854 0.046584 -0.0129047
210 3 0.361761 7.28717 9.30016 3.82678 0.0962916 -0.0735764 0.039366
211 3 0.37511 10.6672 14.809 11.0584 0.0582506 0.0225038 0.0754486
212 3 0.387138 10.7165 13.4217 11.5344 -0.014496 0.0499444 -0.0500851
213 3 0.376647 11.4257 2.02227 7.98977 0.00553278 -0.0368087 0.0430768
214 3 0.384112 11.9398 15.3452 8.84682 0.047027 -0.0590286 0.0323652
215 3 0.456761 8.77057 2.43735 5.90747 -0.00468224 -0.121127 -0.0310283
216 3 0.416974 8.53763 1.30249 4.76956 0.00325019 -0.0377396 0.019638
217 3 0.418228 6.42136 6.0087 7.37357 0.0423595 0.00148555 -0.0326215
218 3 0.396611 6.85966 6.77845 6.13518 -0.0101026 0.00482726 0.0434917
219 3 0.454665 13.5382 14.5317 7.5452 -0.0341856 0.038261 -0.0140447
220 3 0.411634 14.7501 14.6054 6.28896 0.0516737 0.0122695 -0.000115626
221 3 0.335173 6.28772 11.4999 11.8358 -0.0069186 0.00956099 0.0164268
222 3 0.327999 5.01069 11.0584 12.0172 -0.0400028 -0.0403964 -0.0434119
223 3 0.430347 9.60668 9.6577 13.7036 0.0189291 0.0367031 0.052046
224 3 0.385835 15.0618 12.4388 1.73208 0.00412879 0.0456754 0.0506495
225 3 0.389757 5.54092 8.62932 9.55007 0.0400768 0.0181306 0.034594
226 3 0.424835 6.09662 7.78196 8.31732 -0.0372366 0.0180954 -0.0305989
227 3 0.394492 12.8614 9.99066 13.0198 0.0199354 0.0113743 -0.0196004
228 3 0.396658 10.4738 10.4374 14.6488 -0.0224154 -0.00442648 -0.0504162
ITEM: TIMESTEP
36000
ITEM: NUMBER OF ATOMS
228
ITEM: BOX BOUNDS pp pp pp
1.3968055699390574e+00 1.5763194430060658e+01
1.3968055699390574e+00 1.5763194430060658e+01
1.3968055699390574e+00 1.5763194430060658e+01
ITEM: ATOMS id type q x y z vx vy vz
1 1 1.50719 1.55853 1.40591 15.7074 0.00440941 0.000621089 0.0121387
2 1 1.33927 3.53193 3.32024 3.0414 -0.00505342 0.000864425 -0.00626178
3 1 1.44211 15.6181 4.81668 4.94937 0.0146026 0.0142207 -0.0106613
4 1 1.46158 3.11993 6.42764 6.90699 -0.00441306 -0.00921688 -0.00295003
5 1 1.39007 5.48252 1.67449 4.83085 0.00504212 0.00185319 0.00122446
6 1 1.58663 6.67809 3.2462 7.28893 -0.00951508 0.00992042 0.00136371
7 1 1.58111 5.02122 4.9832 15.4162 0.00574763 -0.00177604 0.00423085
8 1 1.49085 6.5281 6.43933 3.24604 -0.00453561 0.00869703 -0.00121341
9 1 1.60601 1.40678 15.5881 8.60949 -0.00969451 0.00476256 0.00619093
10 1 1.465 2.77559 3.07799 10.5999 -0.00914978 -0.0115288 -0.000578293
11 1 1.5027 15.5486 5.07591 12.373 0.00164007 -0.00742565 -0.00687935
12 1 1.4876 3.2197 6.97361 13.9122 -0.000723591 0.00342373 0.00547968
13 1 1.50059 5.01834 1.57322 12.1526 0.00365627 0.00716916 3.26406e-05
14 1 1.66716 6.99077 3.3745 13.6943 -0.00272369 0.0162158 -0.0043489
15 1 1.49144 4.79343 4.90379 8.86714 -0.00816672 -0.00124558 -0.0144353
16 1 1.73179 6.69964 6.58269 10.52 0.0173021 0.00904522 0.0072464
17 1 1.57193 1.47184 8.60448 1.57418 0.00397859 -0.00638921 0.0034638
18 1 1.48221 3.31545 10.4586 3.19754 -0.00670301 -0.0159341 0.00725273
19 1 1.62049 1.52495 12.0717 4.97872 0.00399063 -0.00833959 -0.0153695
20 1 1.49043 3.26083 14.1051 6.37155 -0.000821738 -0.00800694 0.00144234
21 1 1.57279 4.75539 8.36122 4.95859 -0.00143352 -0.00560175 -0.0013664
22 1 1.39144 6.67386 10.0632 7.11153 -0.00203674 -0.00323545 -0.00105389
23 1 1.47432 5.11203 12.0828 15.5758 0.00530099 0.00473309 -0.0063176
24 1 1.3929 6.88602 14.0805 2.97004 -0.000910899 0.000277169 -0.00734224
25 1 1.54937 15.6848 8.32493 8.8965 0.00084762 0.00470703 -0.00497714
26 1 1.61021 3.34551 10.2444 10.1537 0.0170721 0.0161099 0.00352601
27 1 1.61231 1.52588 11.8911 12.1012 0.00467756 -0.00253499 -0.00413368
28 1 1.57425 3.1791 13.9459 13.7253 -0.00379296 0.00310313 -0.00845919
29 1 1.47174 5.07966 8.63575 12.0595 1.13295e-06 0.00434152 -0.00367878
30 1 1.32444 6.93254 9.91704 14.0472 -0.00400904 -0.00966852 -0.00206015
31 1 1.49021 4.8439 12.2954 8.33902 0.00951883 0.00585237 0.00966801
32 1 1.41363 6.77576 13.6607 10.5646 0.0017974 -0.00546809 -9.93783e-05
33 1 1.63426 8.47673 1.69802 15.6096 -0.00284239 -0.00223366 0.0112655
34 1 1.425 10.406 3.36618 3.7066 0.00138425 -0.0141285 0.023265
35 1 1.0832 8.54291 5.21744 5.238 -0.0114419 -0.00435935 -0.0162245
36 1 1.23966 10.6923 7.16309 6.66511 -0.00374941 0.00428453 -0.00144356
37 1 1.48586 12.3773 1.56784 5.32032 -0.00725677 0.00204603 -0.0035205
38 1 1.31549 13.948 3.37841 7.27284 0.0167653 -0.00837335 0.0109492
39 1 1.4883 11.9609 5.05595 1.72307 0.000153465 0.00925956 -0.0030692
40 1 1.52593 13.9391 6.80169 3.12768 0.00353426 -0.00616939 -0.00354455
41 1 1.49441 8.42892 15.4725 8.55843 -0.00827453 -0.0132509 -0.0107706
42 1 1.46866 10.4995 3.01892 10.2938 0.0100092 -0.00492669 -0.00190339
43 1 1.45311 8.91797 5.10377 11.9136 0.008306 0.00669179 0.00093192
44 1 1.50314 10.5314 6.80178 13.9815 -0.00141446 -0.00471003 0.00257943
45 1 1.55175 12.4101 15.7511 12.1656 0.00901819 0.00488714 -0.00889202
46 1 1.34826 13.8835 3.16917 14.2466 -0.00683554 -0.00879886 -0.00317863
47 1 1.55512 12.0518 5.24481 8.71826 0.00664352 -0.00813746 0.003389
48 1 1.79081 13.7529 6.76502 10.6122 0.0106477 0.00409746 0.0100488
49 1 1.46346 8.69671 8.13762 1.78598 0.0047934 0.00630475 0.00911804
50 1 1.42919 10.7138 10.479 3.25091 0.00188683 0.0155642 -0.0134391
51 1 1.26005 8.46934 11.9085 4.91065 0.0015307 -0.00340226 0.00275423
52 1 1.24729 10.2462 13.9392 6.58141 0.00660916 0.000828904 -0.00923241
53 1 1.56864 12.5768 8.91992 4.93919 -0.00601139 0.0140258 0.00511281
54 1 1.31601 14.2157 10.5452 7.16339 -0.00230635 -0.00193267 -0.00437838
55 1 1.48907 12.1863 12.4994 15.6927 -0.00353061 -0.00132557 -0.0067757
56 1 1.34617 13.967 14.2223 3.30103 0.0102122 -0.00575492 0.0100358
57 1 1.47275 8.60754 8.37668 8.92588 0.00389239 0.00371615 0.00240729
58 1 1.80652 10.3339 10.4472 10.1761 0.00915166 -0.00445368 0.00521499
59 1 1.44434 8.89366 12.0454 12.3823 -0.00625668 -0.0142376 -0.00210331
60 1 1.416 10.2817 14.0982 14.0842 0.00322992 0.00225171 -0.00758825
61 1 1.30002 11.9544 8.60812 11.9758 -0.00478492 -0.00642339 -0.004334
62 1 1.61453 14.7663 11.2237 14.8327 -0.0186615 -0.000432737 0.00597401
63 1 1.50818 11.9485 12.3595 8.51871 0.00449236 0.000291932 -0.00774977
64 1 1.40042 14.1153 13.905 10.3831 -0.000457061 0.000690394 0.00812301
65 2 -0.648977 2.90422 2.00442 1.89056 -0.00281153 0.00411767 -0.0190755
66 2 -0.740986 2.15939 14.6629 14.5666 -0.00373472 -0.00306433 -0.00823432
67 2 -0.803938 14.9519 2.39629 15.277 -0.012276 0.000625766 -0.0208664
68 2 -0.706076 15.0707 14.7747 2.27284 -0.000309634 -9.9531e-05 -0.000778088
69 2 -0.63444 2.12469 3.76578 4.15838 0.0122798 0.00406158 0.00353301
70 2 -0.753688 4.65515 2.67159 3.84076 0.00226041 0.0089569 -0.0118029
71 2 -0.79474 3.98549 4.33883 2.02379 0.00643635 -0.00754886 -0.00923701
72 2 -0.803047 2.2511 5.62534 5.90331 -0.000776267 -0.0116447 0.00385044
73 2 -0.672767 14.5186 3.88745 5.7567 -0.00966927 0.00575889 0.0177331
74 2 -0.75082 14.9556 5.80198 3.88091 0.0263607 -0.0238896 -0.00883407
75 2 -0.852602 4.13963 6.01994 7.85893 0.0113912 0.00717591 -0.00276029
76 2 -0.785249 3.84008 7.7966 6.08607 0.0102374 0.0068796 0.00249018
77 2 -0.700376 2.09351 7.23703 8.04604 -0.00503559 -0.00984629 0.00929233
78 2 -0.789263 6.12466 2.30824 6.07647 -0.00887892 0.0113424 -0.0138289
79 2 -0.655005 4.08894 14.988 5.36006 -0.00882702 0.0101347 -0.00519297
80 2 -0.771362 5.96745 14.7077 4.14416 -0.00766459 -0.0040544 -0.0202654
81 2 -0.811005 5.40009 3.78636 7.88883 -0.0028565 0.00425582 0.00598776
82 2 -0.69417 7.72116 3.98302 6.55376 0.0121763 0.014099 0.00158377
83 2 -0.755465 7.71384 2.45044 8.13811 -0.0230024 -0.0041353 0.0132186
84 2 -0.73646 6.09361 5.5987 2.00626 0.0159873 -0.00386505 0.00690769
85 2 -0.826135 4.06621 6.0715 14.7684 0.0102102 -0.00160991 -0.00375655
86 2 -0.841345 6.13539 4.09648 14.7282 0.00667182 0.00240614 -0.00275865
87 2 -0.827291 5.39577 7.26885 3.9959 -0.000137823 -0.00264671 0.00323791
88 2 -0.634908 7.69706 5.48747 3.7212 -0.0111238 -0.00394833 -0.0109872
89 2 -0.774735 7.51015 7.47089 2.57773 -0.00218951 -0.00552499 -0.00770664
90 2 -0.799466 2.10827 1.89785 9.90356 0.000739355 0.00416844 0.00588117
91 2 -0.713344 2.34003 15.1692 7.4349 0.0107759 0.000531502 -0.0140602
92 2 -0.789645 15.1176 2.39392 7.93098 0.00580703 0.0108958 0.00751006
93 2 -0.813069 14.6913 14.6283 9.04533 0.00567726 0.0187334 0.00436423
94 2 -0.758567 1.61847 3.97332 11.2556 0.000117662 -0.00441348 -0.0147669
95 2 -0.771839 4.13452 2.51218 11.3469 -0.00962512 -0.0100271 -0.00833538
96 2 -0.722682 3.69258 4.07848 9.57845 -0.00768806 -0.00712422 0.0133971
97 2 -0.696439 2.48116 5.7955 12.9358 0.00439273 -0.00734897 0.0293774
98 2 -0.718049 14.5561 4.34719 13.3732 -0.00617339 0.016159 0.0186986
99 2 -0.817369 14.5874 6.15401 11.7621 -0.000144504 0.00135874 -0.0118067
100 2 -0.740388 2.205 7.60745 14.8018 0.000184807 0.0117307 0.0122288
101 2 -0.643516 3.66364 7.90826 12.558 0.000271222 0.00689718 -0.00901466
102 2 -0.823938 6.2284 2.50898 12.644 -0.00372541 -0.0153551 -0.00848898
103 2 -0.805506 4.1386 15.021 13.1393 -0.00884938 -0.00140938 0.0040389
104 2 -0.659802 5.75826 14.7631 11.2045 0.0095272 -0.00640352 0.00481348
105 2 -0.859325 8.05438 2.60139 14.4881 -0.0106661 -0.000981598 -8.09695e-05
106 2 -0.701425 7.87288 4.53658 13.1853 0.00175327 0.000595841 0.0054375
107 2 -0.854346 6.0534 5.76037 9.38432 0.00646492 -0.00534293 -0.00305581
108 2 -0.899878 5.72337 7.39258 11.2969 0.000277433 -0.0128461 -0.00490927
109 2 -0.827352 7.75478 5.57861 10.9192 0.00355856 -0.00276131 0.00269172
110 2 -0.853512 7.709 7.55644 9.86071 -0.0113385 0.0117485 0.0107431
111 2 -0.765584 2.6549 9.27064 2.49757 -0.009517 -0.00868374 0.00271555
112 2 -0.759549 14.9723 7.49183 2.10538 -0.000825884 -0.0189405 0.00417517
113 2 -0.900617 15.1265 9.84544 15.3646 -0.000122984 -0.00467269 -0.00101599
114 2 -0.846121 1.96883 11.1105 3.93311 0.00307158 0.00244112 -0.0198097
115 2 -0.816295 4.24263 9.4897 4.22335 0.00581528 0.0064765 -0.00376355
116 2 -0.799721 3.91586 11.3934 2.17279 -0.000789854 0.00159823 -0.016254
117 2 -0.910902 2.54075 13.0457 5.5867 -0.00132774 0.0147526 0.00617181
118 2 -0.746762 15.143 11.3317 6.18829 0.0136561 0.0009118 0.00852479
119 2 -0.712204 14.8515 13.0799 4.29235 -0.0161904 0.0115885 -0.00278448
120 2 -0.830553 4.18626 13.4248 7.42136 -0.0100905 0.00345977 0.0041904
121 2 -0.706368 5.93962 9.23935 5.62842 0.0129897 -0.00613128 0.00724762
122 2 -0.802285 5.64253 11.0853 7.59282 -0.0137741 -0.00521671 0.014946
123 2 -0.600531 7.69249 10.7137 6.10527 -0.0167111 0.00501395 -0.00898675
124 2 -0.726311 7.82085 9.29378 7.98511 0.00242114 0.00723744 -0.00172248
125 2 -0.719258 5.99215 13.1622 1.84104 -0.00237652 0.0136621 -0.00766498
126 2 -0.713987 4.14522 12.8798 14.6633 0.0084917 0.00108787 -0.00771031
127 2 -0.742553 5.95457 10.9046 14.7761 0.00695178 -0.0047059 0.00177933
128 2 -0.809328 7.61751 15.1202 2.1002 -0.00651031 -0.00391888 -0.00143259
129 2 -0.661986 7.97541 13.045 3.85314 -0.0192996 -0.00218137 -0.00247351
130 2 -0.866624 2.49258 9.16132 9.56091 -0.0227305 0.00683979 0.00558111
131 2 -0.840771 14.8246 7.58562 9.93984 -0.0256749 -0.000227062 -0.0100888
132 2 -0.724177 14.6021 9.35586 8.14537 -0.00564219 0.00874491 -0.0133444
133 2 -0.787165 2.51994 10.9012 11.3354 -0.00258046 -0.00750109 0.00581064
134 2 -0.83059 4.49118 9.74503 11.0263 0.0190977 -5.97951e-06 -0.0092646
135 2 -0.822686 3.85749 11.3676 9.05267 -0.000669197 -8.33131e-05 0.000975975
136 2 -0.75411 2.40739 13.1156 12.6383 0.00521535 -0.0163532 -0.00308285
137 2 -0.884045 15.0945 11.5866 13.3727 -0.000109323 0.00230564 -0.00451555
138 2 -0.77776 15.0839 12.736 11.1448 0.00335351 0.0110657 0.031061
139 2 -0.819873 5.83786 9.14589 13.3001 -0.0107628 0.0216804 0.00421126
140 2 -0.700066 8.00987 8.99275 15.0798 -0.0115235 -0.000858416 -0.0149267
141 2 -0.715989 7.87616 10.9798 12.8793 -0.0100752 0.0187287 0.00337097
142 2 -0.696065 6.06296 12.8767 9.20524 -0.00184219 -0.00343395 0.00352616
143 2 -0.714093 7.71446 14.4708 9.67796 -0.0118655 0.00678097 0.0133818
144 2 -0.645498 7.78727 13.2693 11.7712 0.00408265 -0.0170969 0.0049428
145 2 -0.635408 9.41003 2.41205 2.30993 -0.00150302 -0.0132871 0.0106113
146 2 -0.748721 9.10546 14.9112 14.7384 -0.00355344 0.00893321 0.0162352
147 2 -0.657459 9.72173 4.06704 4.88559 -0.0023663 0.00058206 -0.010006
148 2 -0.747969 11.4494 2.30521 4.29274 -0.00353117 0.00857561 0.00170143
149 2 -0.768565 11.1675 4.51511 3.01394 -0.00534793 0.00373647 0.012097
150 2 -0.616365 9.62788 6.48386 5.51638 -0.00101012 0.0156327 -0.00400431
151 2 -0.702634 11.459 5.85523 7.40968 -0.0044126 0.0117858 0.00688348
152 2 -0.690335 11.8071 8.24539 6.18031 0.00231885 -0.00498599 0.00442143
153 2 -0.712211 9.88475 7.67979 8.02747 0.00996245 0.00824852 0.000624005
154 2 -0.739269 12.6821 2.49435 6.60817 -0.00720832 -0.00616531 0.0081075
155 2 -0.770885 11.3725 14.9228 5.91135 0.0137967 0.00141035 0.0067497
156 2 -0.834897 13.4903 15.2546 4.48339 -0.00912237 -0.0026136 -0.0121585
157 2 -0.767896 13.0273 4.19602 8.14899 -4.12362e-05 -0.0113987 0.0195181
158 2 -0.744607 12.7866 6.32546 2.1631 -0.00943995 -0.000802043 -0.00997882
159 2 -0.732001 11.2598 5.65371 14.7492 -0.0137525 0.00947664 -0.00356957
160 2 -0.651425 13.0339 4.11819 15.5115 0.00441071 0.0236709 -0.00859928
161 2 -0.838944 13.2293 7.91733 4.00902 0.00580392 0.00223233 0.0140413
162 2 -0.679906 9.33415 1.86981 9.67573 0.0060187 -0.00164577 -0.0053936
163 2 -0.777505 9.01349 15.0547 7.26793 -0.00181812 -0.00461067 0.00143745
164 2 -0.771232 9.75562 3.99081 11.2433 0.0114647 -0.00913054 -0.00205745
165 2 -0.830966 11.5708 2.066 11.1505 -0.000757674 0.00573817 0.00316822
166 2 -0.755847 10.9957 4.07889 9.33299 0.00983041 0.0127274 0.0180344
167 2 -0.742876 9.89203 6.06888 12.7791 0.00430704 -0.00556592 0.00816535
168 2 -0.732785 9.69812 7.30758 15.2319 0.00948971 -0.00422695 0.00141115
169 2 -0.754247 10.7873 8.0849 13.0181 -0.0155599 0.0062 0.00195866
170 2 -0.766438 12.8979 2.41326 13.245 0.00738625 -0.0154845 -0.0140825
171 2 -0.783511 11.3776 14.9943 12.9891 0.00215312 -0.00978349 -0.0105671
172 2 -0.820765 13.6201 14.7509 11.5467 0.00274141 0.00103814 0.00115988
173 2 -0.90949 13.1104 5.79301 9.6789 0.00897959 -0.00164693 -0.00771199
174 2 -0.848971 12.6086 7.74197 10.9512 -0.0131428 -0.00398531 0.00809563
175 2 -0.647989 9.71557 9.15869 2.6798 -0.00130982 0.0137279 0.00682985
176 2 -0.657449 9.59339 10.9098 4.20854 -0.00514866 0.00718844 0.0139771
177 2 -0.758897 11.6126 9.9889 4.41166 0.00243873 0.00990463 0.00571777
178 2 -0.732985 11.806 11.1329 2.39207 0.00268822 0.0160841 -0.00818007
179 2 -0.616276 9.4192 12.5987 6.00974 -0.000585169 -0.0152406 -0.000367365
180 2 -0.73717 11.3184 13.0893 7.37339 -0.00348245 -0.00751979 0.0108178
181 2 -0.618239 13.7794 9.48738 5.74972 -0.00418353 -0.00347701 -0.0026128
182 2 -0.644898 13.214 11.8258 7.66015 0.00206346 -0.00294933 0.016913
183 2 -0.743376 12.855 13.4123 2.44495 0.00739975 0.00499793 -0.00446181
184 2 -0.888012 11.0883 13.1625 14.9504 -0.0151689 0.0101319 -0.00235975
185 2 -0.88949 13.3516 11.6964 15.0385 0.0141763 0.00384733 -0.0119091
186 2 -0.832687 9.18398 9.61671 9.80874 0.00118532 0.0034596 0.0148908
187 2 -0.832826 9.69709 11.4644 11.1098 0.00466294 -0.0109364 0.0178956
188 2 -0.825672 11.4051 9.86267 11.0444 0.00138945 -0.0107952 0.00557096
189 2 -0.834502 10.9935 11.1911 9.01808 -0.007594 -0.00402917 -0.0087642
190 2 -0.75726 9.49138 12.7247 13.534 0.0010349 -0.0154745 -0.00646055
191 2 -0.64029 13.2568 9.66166 12.4334 -0.00539475 -0.000177174 -0.00497306
192 2 -0.717127 12.7378 13.1444 9.69568 0.00117624 0.00193554 0.0170905
193 2 -0.675251 12.5189 12.1325 12.0522 0.00564833 -0.00917176 -0.00448353
194 2 -0.611789 5.15645 12.1867 4.95949 0.00569314 -0.000725197 -0.0214771
195 2 -0.66258 7.12049 10.677 3.575 0.00084444 -0.0235536 -0.00587275
196 2 -0.573988 10.032 13.9208 10.497 0.0192778 -0.00250594 0.0104831
197 2 -0.598893 12.1886 15.6719 8.81042 0.00575293 0.00307707 0.00175458
198 2 -0.633818 8.96842 1.89329 4.48012 -0.0020952 0.0055145 0.00747429
199 2 -0.614793 7.29608 6.53408 6.53889 -0.00240667 0.00707786 0.00956468
200 2 -0.605933 14.1781 14.4164 6.56294 -0.000865206 -0.00648568 -0.00362587
201 2 -0.65261 5.64545 12.0996 11.8562 0.0200304 0.00530831 0.00285331
202 2 -0.648038 1.5096 12.2884 15.5183 -0.00428639 -0.0177736 0.00151291
203 2 -0.635502 5.43395 8.48191 8.13291 -0.0032086 -0.0100736 -0.0108613
204 2 -0.5724 10.7047 9.96813 14.6892 -0.00547815 -0.00347668 0.00630156
205 3 0.401954 11.8184 12.0807 12.4984 0.0108433 0.0339791 0.0506377
206 3 0.394546 13.1735 12.8283 12.4343 -0.0743239 0.0369422 0.0098203
207 3 0.432993 5.08432 13.1653 5.03745 -0.0152512 0.0534869 -0.0539656
208 3 0.391124 4.65603 11.7552 5.65431 0.0334345 -0.0248548 0.000709244
209 3 0.449497 6.77264 10.2022 4.36395 -0.00959717 -0.0372655 -0.0392622
210 3 0.426571 7.43413 9.99826 3.17666 0.0563506 0.0718042 0.0414383
211 3 0.376891 11.0199 14.0949 10.4601 -0.0698565 0.0782608 0.0302377
212 3 0.428141 9.87039 14.7785 10.8227 -0.0142351 -0.0133099 0.0651446
213 3 0.420428 12.5151 2.13828 8.56686 0.00498052 0.088991 -0.0349753
214 3 0.406195 12.5629 15.2166 7.92568 -0.0294635 -0.01456 -0.0168316
215 3 0.434768 8.75813 2.32732 5.31856 0.013365 -0.0107278 -0.0404291
216 3 0.389698 9.41454 15.4813 4.83198 0.0631097 -0.0194233 -0.0181841
217 3 0.33313 8.18939 7.04911 6.75695 -0.0395444 0.0386323 -0.0405093
218 3 0.347837 7.34242 6.00133 7.50881 -0.0411855 -0.0220167 -0.00518066
219 3 0.396748 14.3617 15.2453 6.25602 -0.0567115 -0.00170534 0.065143
220 3 0.442626 13.8979 13.9472 5.74921 0.00754052 -0.0383071 -0.0294898
221 3 0.423893 5.74455 11.3182 11.3727 0.0284106 0.00928387 -0.0418058
222 3 0.426344 6.09497 12.0399 12.7348 0.0204542 0.00677928 0.036397
223 3 0.355158 10.9349 10.0365 13.7247 -0.0401423 0.0118037 -0.0051245
224 3 0.4652 1.95411 11.9234 1.79831 0.0214572 -0.0577452 0.0135329
225 3 0.391457 4.54983 8.90606 8.40468 -0.0989351 0.012376 -0.017603
226 3 0.432742 5.29157 7.57843 7.64121 -0.0817637 -0.0184436 -0.0802801
227 3 0.488986 13.2264 10.5209 12.2025 -0.036659 0.0283215 -0.00570346
228 3 0.383329 11.5699 10.0339 15.1232 -0.0638013 -0.0704598 0.0101437
ITEM: TIMESTEP
38000
ITEM: NUMBER OF ATOMS
228
ITEM: BOX BOUNDS pp pp pp
1.3995197564812374e+00 1.5760480243518408e+01
1.3995197564812374e+00 1.5760480243518408e+01
1.3995197564812374e+00 1.5760480243518408e+01
ITEM: ATOMS id type q x y z vx vy vz
1 1 1.54164 1.73241 15.7576 1.87018 0.0087168 -0.00274232 -0.000632178
2 1 1.43199 3.3719 3.38894 3.7261 0.00369225 0.00684884 0.00427252
3 1 1.62559 15.5539 5.23097 5.20882 -0.0105595 0.00587596 0.00978769
4 1 1.58488 3.25533 6.93432 6.98266 -0.0053225 -0.0181505 0.00250493
5 1 1.40687 5.27651 15.5934 5.04676 0.0128522 0.00209104 -0.0083354
6 1 1.52027 6.93433 3.09485 6.98782 0.00425014 0.00642093 -0.00577331
7 1 1.57963 4.83564 4.89633 1.60414 -0.0043371 0.00114886 -0.00361328
8 1 1.75461 6.61309 6.85434 2.93155 -0.000499329 0.00891503 0.00270262
9 1 1.47176 1.40929 1.43344 8.23356 0.00603991 -0.0137717 0.00492368
10 1 1.41753 3.04511 3.10189 10.1358 0.00397151 -0.00111639 -0.00261287
11 1 1.52421 15.6979 4.82084 12.0713 -0.0119123 0.00318834 0.00587143
12 1 1.34708 3.16673 6.63343 13.9225 0.0072857 0.00858128 0.00060547
13 1 1.29811 4.85357 1.41821 12.0199 -0.00401109 0.00544586 -0.00556
14 1 1.49065 6.54543 3.11897 14.1713 -0.00463636 -0.000322832 -0.00526723
15 1 1.33676 5.05253 5.02952 8.57367 0.0171479 0.0029882 -0.00724473
16 1 1.46039 6.95051 6.77353 10.541 0.00773423 -0.000936458 -4.885e-05
17 1 1.69207 1.68037 8.34609 1.60396 0.0058474 0.000756424 -0.00363389
18 1 1.48093 3.19742 10.5053 3.12836 -0.0209394 -0.021839 0.0143631
19 1 1.5227 15.7595 12.2908 5.03606 0.000988815 0.00875009 -0.0141987
20 1 1.4062 3.32731 13.9254 6.70192 0.00827007 0.00585138 0.0124554
21 1 1.74026 4.75028 8.34081 4.73578 -0.00196186 0.00667028 -0.00266116
22 1 1.40808 6.58104 10.0714 6.78417 0.00297032 0.00619428 0.00542164
23 1 1.381 5.08897 12.2169 15.3568 0.00434855 0.00168734 0.00328394
24 1 1.26913 7.04798 13.9227 3.03523 0.000880208 -0.00488215 0.00717114
25 1 1.74496 15.7195 8.4504 8.79618 -0.00315582 0.00202322 -0.0093405
26 1 1.46707 3.21348 10.2631 10.6368 -0.00296745 -0.00678813 -0.0132516
27 1 1.53797 1.61214 12.234 12.2195 -0.00281114 0.00143251 0.00505911
28 1 1.48414 3.13522 14.1983 14.0464 -0.00139986 6.48519e-05 -0.00975302
29 1 1.56531 4.98635 8.273 12.1841 -0.00163967 -0.0100648 -0.000912683
30 1 1.60657 6.77503 10.2074 13.7109 0.0035831 0.00671854 -0.00137393
31 1 1.36818 5.00796 11.9265 8.68333 0.00985105 0.00333693 0.00636795
32 1 1.35279 6.67094 13.8334 10.388 -0.0142345 0.00794988 -0.00829567
33 1 1.5504 8.5785 1.76516 1.49389 0.0144444 -0.00290364 0.0061825
34 1 1.78895 10.2982 3.65947 3.13305 -0.0082853 -0.0064205 -0.0142042
35 1 1.54575 8.33462 5.2129 4.93155 -6.78701e-05 0.0109448 0.00570913
36 1 1.65248 10.1568 6.92332 6.69074 0.0120603 0.00128697 -0.000575614
37 1 1.66203 11.8832 1.67428 4.71022 0.00668956 0.00289965 -0.02205
38 1 1.42035 13.6919 3.28397 6.46267 0.00649544 0.0168876 -0.0134828
39 1 1.68417 12.5132 4.95033 1.60796 -0.00461163 0.000259232 -0.00624205
40 1 1.77103 14.0873 6.86921 3.29425 0.00954519 -0.00940461 -0.00290457
41 1 1.29413 8.74495 15.5844 8.60596 0.0069299 0.00895574 -0.010032
42 1 1.27869 10.6027 2.99567 10.4771 0.0077067 -0.00682275 0.000851341
43 1 1.35199 8.58914 4.97897 12.4158 -0.00331919 -0.00299926 0.0091702
44 1 1.45482 10.4489 6.63791 14.2294 0.00144557 -0.00502069 -0.0136045
45 1 1.32922 12.5538 1.47784 12.5381 -0.00493696 -0.00221472 -0.00278263
46 1 1.57657 14.3569 3.07068 14.414 0.00309979 0.00113513 -0.0160103
47 1 1.43588 11.7671 4.85286 8.34061 0.0041075 0.00734077 0.0139458
48 1 1.48723 13.941 6.41261 10.2663 -0.000818602 -0.00208825 0.00535385
49 1 1.32434 8.67486 8.75465 15.6437 -0.010395 0.0103083 0.00501983
50 1 1.60024 10.3003 10.2969 3.53337 0.00383495 -0.00145528 0.0121107
51 1 1.54091 8.49414 12.0408 5.20947 -0.000852712 -0.00597951 0.00129609
52 1 1.28854 10.7089 13.8767 6.64324 -0.0212651 -0.00397988 0.00585055
53 1 1.83923 12.2687 8.57806 5.18267 -0.0256411 -0.0021139 -0.00978216
54 1 1.53272 14.3479 10.2971 6.84065 -0.0116343 0.00698893 0.00345317
55 1 1.3389 12.0855 12.0839 1.77874 -0.00169556 0.00609382 0.00389257
56 1 1.47696 13.873 14.1627 3.29569 0.00857123 0.00436378 -0.0114911
57 1 1.66074 8.59911 8.64063 8.47229 0.0136409 0.0115541 -0.00762905
58 1 1.64621 10.4409 10.3914 10.1363 -0.00582254 -0.012045 -0.00782384
59 1 1.25538 8.78515 12.0227 12.1179 0.0068751 -0.00518981 -0.0147077
60 1 1.34892 10.6358 14.0956 14.3463 0.000120925 -0.00957385 -0.00436027
61 1 1.42537 11.9866 8.07414 11.8554 -0.00790779 -0.00656016 0.00880967
62 1 1.2312 14.6425 11.0408 14.4732 0.00135362 0.00521087 -0.00454541
63 1 1.37345 12.3855 12.1224 8.61704 0.00342134 0.0042989 -0.00635718
64 1 1.24685 14.1378 14.1117 10.4224 -0.00452049 0.00392252 -0.0112729
65 2 -0.716098 2.63516 2.46491 2.58372 0.00687752 0.0280441 0.00312862
66 2 -0.766287 2.85471 15.1151 15.281 0.00805242 -0.0066169 -0.000476669
67 2 -0.734969 15.6818 2.48036 15.2331 -0.00806928 0.0160951 0.0118496
68 2 -0.891515 14.9527 14.9516 2.5144 -0.00508324 -0.0195512 0.00298681
69 2 -0.733282 2.24374 4.14445 4.716 0.00636988 -0.00287238 0.00338071
70 2 -0.765323 4.49283 2.50583 4.36369 0.00898181 0.00218584 -0.00497739
71 2 -0.747958 3.95755 4.61137 2.91183 -0.0131116 0.000879211 0.00938007
72 2 -0.710937 2.01671 6.32788 6.0767 -0.0115263 0.0076359 0.00563595
73 2 -0.759089 14.311 4.69931 5.86462 -0.0135602 0.00341503 0.00239898
74 2 -0.873582 15.004 5.81954 3.9524 0.00446907 -0.00711928 0.0175839
75 2 -0.764409 4.11218 5.82731 7.5044 -0.00906813 0.0031013 0.00856723
76 2 -0.868057 3.81478 7.8464 5.82998 0.00894085 9.92948e-05 -0.0017963
77 2 -0.815828 2.37234 7.4676 8.2186 -0.00590638 -0.00402456 0.00256483
78 2 -0.718407 6.33844 1.97873 6.26062 -0.00594926 0.0109773 0.00136525
79 2 -0.696448 4.49651 14.8252 6.10871 -0.000248474 -0.0166154 -0.0194194
80 2 -0.711073 6.10597 14.7191 3.96581 -0.00290822 0.0141333 0.00816376
81 2 -0.666469 5.76451 3.78372 7.9082 0.00321368 -0.000707827 0.00344035
82 2 -0.750944 7.79198 4.06667 6.04307 0.00144627 -0.00876677 -0.00254679
83 2 -0.736996 7.91262 2.40643 8.06846 -0.00415028 -0.000987952 0.00943676
84 2 -0.841714 5.69259 6.06691 1.9569 -0.0145393 -0.00947571 0.0145999
85 2 -0.660118 3.65186 5.31972 14.8989 -0.00250951 0.00122998 -0.00426034
86 2 -0.815419 5.89533 4.03614 15.2901 -0.00764081 0.00536927 0.00854231
87 2 -0.905204 5.54081 7.61581 3.64037 -0.00689696 -0.00925624 -0.00122894
88 2 -0.86132 7.45254 5.91311 3.82646 0.00281979 -0.00734054 0.0153894
89 2 -0.727967 7.65225 7.79116 2.29493 0.00443134 -0.00835721 0.00792101
90 2 -0.779392 1.95338 2.44498 9.19148 -0.00118976 -0.000419962 -0.0114043
91 2 -0.742948 2.60163 15.1059 7.41625 0.00990673 5.21797e-06 -0.0101701
92 2 -0.688726 14.7549 2.58569 7.34411 0.00150768 3.58499e-05 -0.00554465
93 2 -0.676558 15.2286 14.6542 9.32929 -0.0270406 0.00900124 -0.00222152
94 2 -0.772078 2.4264 4.14186 11.2959 0.0153649 -0.00224838 -0.000449403
95 2 -0.68142 4.2359 2.33963 10.9035 0.00139516 -0.00310972 0.0184045
96 2 -0.607211 3.75535 4.24042 9.19091 0.00722599 0.000562066 -0.00507606
97 2 -0.653165 1.82453 6.059 12.9099 -0.00467344 -0.0102918 -0.0128817
98 2 -0.726344 14.7329 3.86344 13.1489 0.00107124 0.00557852 -0.0096731
99 2 -0.795988 14.5132 5.48805 11.3806 0.00630153 -0.000302646 0.0105686
100 2 -0.812085 2.62144 7.69858 15.0166 0.00178076 -0.00106656 0.0168297
101 2 -0.758255 4.2726 7.10438 12.9249 -0.00142474 0.000818598 -0.00445205
102 2 -0.672534 5.51991 2.42932 12.9603 -0.00307791 -0.0243103 0.00719428
103 2 -0.713774 3.41398 15.1684 12.943 0.00876284 -0.00650752 0.00770616
104 2 -0.656247 6.20633 15.1504 11.2181 0.0134265 0.0159174 0.0129595
105 2 -0.865831 7.50365 2.22774 14.8102 0.00938193 -0.0073563 0.00412492
106 2 -0.645459 7.5475 4.17347 13.1959 0.00387295 -0.00248667 0.00568235
107 2 -0.716887 6.48657 5.74894 9.5276 -0.00900307 0.00813161 0.00880881
108 2 -0.783017 5.68065 7.32122 11.0228 -0.000862023 0.00743111 0.00668029
109 2 -0.705515 7.70714 6.32697 11.9064 0.0146113 0.000890918 -0.000205429
110 2 -0.86102 7.68411 7.81695 9.40329 -0.00892897 0.0190102 -0.00333345
111 2 -0.767435 2.44392 9.54958 2.18293 -0.00349954 0.0128533 -0.000320828
112 2 -0.95242 15.1077 7.80293 2.61449 -0.010419 0.00231413 0.0102949
113 2 -0.633949 15.2024 9.27798 14.8209 -0.00371041 -0.00278432 -0.00129896
114 2 -0.776962 1.95966 11.2948 3.9214 0.00112926 -0.00444268 0.00309241
115 2 -0.776198 3.8987 9.21578 3.85977 0.00402191 -0.00634931 0.00986631
116 2 -0.737946 4.16979 11.3352 2.08665 -0.00944028 0.00856605 0.0182264
117 2 -0.811835 2.63315 13.007 5.51945 -0.00915813 -0.00336771 0.0102801
118 2 -0.812533 15.1904 11.4023 6.16349 -0.000120769 0.0135861 -0.00143162
119 2 -0.728136 14.575 13.341 4.65587 0.006259 0.000875864 0.00674551
120 2 -0.642957 4.31577 13.0835 7.77556 0.0059058 0.00602397 -0.00198921
121 2 -0.800672 5.88636 8.91438 5.56323 0.01162 -0.000738938 -0.0168975
122 2 -0.767529 5.97827 11.2103 7.54072 -0.0049537 -0.0156072 0.0158825
123 2 -0.705697 7.6972 10.7825 5.74023 0.00755672 0.00363372 -0.00396671
124 2 -0.841717 7.76914 9.25143 7.44814 0.000873388 -0.0167793 0.0187852
125 2 -0.703903 6.19618 13.0011 1.66792 0.00920831 0.00262154 0.00125149
126 2 -0.766575 4.54385 13.3644 14.4959 -0.010912 0.0133695 0.0005524
127 2 -0.719251 5.8838 11.4528 14.0523 -0.0103142 -0.00153662 -0.00064893
128 2 -0.719344 7.96192 15.2397 2.67452 0.0278842 0.00175583 -0.00359607
129 2 -0.698384 7.48511 12.9986 4.38692 -0.00671503 0.0030574 0.0053122
130 2 -0.775973 2.00185 9.56719 9.60227 0.00489332 0.00650375 0.013011
131 2 -0.837127 14.8455 7.52624 9.65488 -0.014527 0.00793211 -0.0011236
132 2 -0.856107 15.1308 9.20234 7.57207 -0.0104425 -0.00255871 -0.00326451
133 2 -0.886888 2.6412 11.3631 11.6186 -0.00473604 -0.00466593 0.00453374
134 2 -0.761704 3.78479 9.01832 11.4691 0.00816169 -0.00470596 -0.0131215
135 2 -0.821338 4.37452 10.703 9.72542 0.00281658 -0.00894872 -0.00174177
136 2 -0.828784 2.25869 13.1888 13.4025 -0.010323 -0.00881893 -0.00201989
137 2 -0.750492 14.9151 11.2678 12.9412 -0.018119 0.0143073 0.00716727
138 2 -0.68052 15.0627 13.2658 11.373 -0.0134749 -0.00663814 0.00343888
139 2 -0.914727 5.98942 9.25865 12.7711 -0.00319632 0.0057697 -0.00484235
140 2 -0.769122 7.45155 9.80618 14.9612 0.00589346 0.0153839 -0.00303347
141 2 -0.71311 7.90464 10.9521 12.9576 -0.00857318 -0.00583977 0.00762727
142 2 -0.734696 5.84605 12.8648 9.52595 0.0183196 -0.00451153 -0.0212832
143 2 -0.619053 7.55945 14.5152 9.32267 0.0172812 0.0206755 -0.0158011
144 2 -0.583398 7.85343 12.5192 11.0002 -0.00436742 0.0102641 -0.0160667
145 2 -0.822812 9.3305 3.01284 2.22152 -0.00428543 0.0125978 0.00151121
146 2 -0.689272 9.75106 15.289 15.3267 -0.0159799 0.000388165 -0.00411253
147 2 -0.780745 9.6043 4.71601 4.22301 0.0147795 0.011435 -0.00982336
148 2 -0.910815 10.9805 2.40349 3.72688 -0.00784471 -0.00922883 -0.00432644
149 2 -0.90346 11.2438 4.38845 2.3112 0.0175004 -0.00900935 0.000341807
150 2 -0.804702 8.9779 6.4105 5.69947 -0.0188247 -0.00251577 0.00451062
151 2 -0.752806 10.7314 5.63645 7.34018 0.0051542 -0.00131129 0.00500905
152 2 -0.843433 11.2485 7.75472 5.98684 -0.00175007 -0.00845968 -0.00226189
153 2 -0.873983 9.75736 7.85761 7.81338 0.00107389 0.0101172 0.0129193
154 2 -0.797649 12.8444 2.73137 5.23263 -0.00056218 -0.00548706 0.0121825
155 2 -0.858479 11.0215 15.116 5.54914 -0.00396435 -0.0156627 0.00482437
156 2 -0.834066 13.0607 15.1414 4.14827 -0.00155803 0.000584638 -0.00418447
157 2 -0.699243 12.3858 3.79259 7.31567 -0.0102259 0.0119309 -0.00612224
158 2 -0.869904 13.2763 6.12582 2.26316 -0.00667269 0.00359837 -0.00317236
159 2 -0.689055 11.5946 6.08467 15.1286 -0.0119022 0.000609539 -0.00936058
160 2 -0.865766 13.3808 3.89752 15.3037 0.00492699 0.0115775 0.000184593
161 2 -0.873845 12.972 7.57755 4.19787 0.00152752 0.021766 -0.0064011
162 2 -0.736736 9.71036 1.76954 9.81309 -0.00192724 0.00296695 0.00341288
163 2 -0.654568 9.71267 14.7749 7.44878 -0.0116702 -0.00445702 -0.00396364
164 2 -0.570225 9.58678 3.80627 11.506 -0.0128536 -0.00781504 0.0130703
165 2 -0.723431 11.4987 2.44289 11.7456 -0.000391763 0.00126005 0.013697
166 2 -0.770148 10.8766 4.1463 9.42168 0.00895736 -0.0111099 -0.000554257
167 2 -0.708906 9.48568 5.48288 13.5264 -0.0131888 0.00548208 0.0173527
168 2 -0.737203 9.85589 7.93873 14.8954 -5.85606e-05 -0.00121236 -0.000554174
169 2 -0.732836 11.1745 7.19412 12.8765 0.0108677 0.000110684 0.0221524
170 2 -0.739052 13.4331 2.07955 13.7373 0.00413705 0.00723415 0.00328443
171 2 -0.714341 11.5842 14.914 13.3942 -0.00235142 -0.0074497 -0.0049405
172 2 -0.647562 13.4029 14.5959 12.0387 -0.00356276 -0.0135801 -0.0155492
173 2 -0.640979 13.0326 5.69108 8.75311 0.00646265 -0.0134761 0.00382777
174 2 -0.715694 12.686 6.95964 10.8705 -0.00025515 -0.00722551 0.0107472
175 2 -0.734241 9.33492 9.6242 2.47508 0.000427388 0.00462465 -0.00947947
176 2 -0.81624 9.47599 11.4168 4.21033 0.00585601 -0.0105202 0.00589528
177 2 -0.864776 11.3318 9.47554 4.44769 0.015357 -0.010059 0.0143738
178 2 -0.812518 11.3625 11.2172 2.84796 -0.00391187 -0.00927207 -0.0109283
179 2 -0.68455 9.29699 12.9801 6.0952 0.00218857 0.00150332 0.00595029
180 2 -0.794437 11.7009 13.2504 7.76966 -0.0124005 -0.017013 -0.00872073
181 2 -0.853912 13.1532 9.42453 6.01763 0.0195044 0.0183227 -0.00388453
182 2 -0.70911 13.5903 11.4717 7.78037 -0.0121194 -0.00769254 0.00419984
183 2 -0.738237 13.0266 12.9475 2.5909 -0.00594018 5.98157e-05 0.00400124
184 2 -0.811641 11.2306 13.1838 15.4424 0.00418672 -0.0126855 0.0110877
185 2 -0.72832 13.3037 11.8357 14.7444 -0.00445829 -0.00699946 -0.013364
186 2 -0.718505 9.35978 9.91079 9.06993 0.00440482 0.00860759 -0.00131177
187 2 -0.712267 9.47138 10.8494 11.254 0.00762999 -0.0114327 0.0253852
188 2 -0.723777 11.2122 9.15533 10.6651 -0.0154851 -0.0188591 -0.00110272
189 2 -0.808071 11.1575 11.3055 9.24344 -0.00654975 -0.00342639 0.00666133
190 2 -0.701081 9.47733 13.318 13.4901 0.00986933 -0.00306774 -0.0162642
191 2 -0.721388 13.2305 8.78539 12.2925 0.000639395 -0.0031142 -0.00771651
192 2 -0.664696 13.2168 12.9254 9.98795 0.00491948 0.0200468 -0.00560164
193 2 -0.62838 11.9863 11.8373 12.3343 -0.00337243 -0.00408027 0.0125111
194 2 -0.654946 5.12863 11.2876 4.33296 0.00275612 -0.0166511 -0.0151825
195 2 -0.605625 8.55177 12.4957 2.05136 9.1688e-05 0.0131343 -0.00120645
196 2 -0.63463 9.74082 13.7946 11.0713 0.00158812 -0.00337104 -0.00321748
197 2 -0.671777 13.1117 1.62105 9.55682 0.00354239 -0.00920322 -0.00269512
198 2 -0.589011 8.59563 2.02006 5.27688 0.00720429 -0.0137421 0.0148681
199 2 -0.662401 6.36693 6.36828 7.16602 0.00942196 0.00818731 -0.00657073
200 2 -0.613814 14.1745 14.7322 6.94404 0.0020563 0.00199343 0.0103137
201 2 -0.676675 5.19081 12.7481 11.9568 0.00553688 0.00437882 0.00625351
202 2 -0.642958 15.7204 11.7157 15.2812 0.00901207 -0.0122199 -0.00964674
203 2 -0.678467 5.21851 8.77502 8.12056 0.00655253 -0.00309188 -0.0103155
204 2 -0.607592 11.5285 9.96124 14.2041 0.00772686 -0.0130282 -0.00934223
205 3 0.40931 12.6804 11.6618 12.968 0.00947003 -0.010232 -0.0433327
206 3 0.434636 12.305 12.7037 12.1726 -0.00703526 0.0234304 0.0116799
207 3 0.433875 5.65651 11.9745 4.29499 -0.0148021 0.0183504 -0.0171867
208 3 0.380808 5.8947 10.637 4.50486 -0.0516311 0.0233799 0.0300635
209 3 0.433534 8.09388 12.6492 15.6086 -0.00753555 0.0302003 0.0146513
210 3 0.399624 9.68291 12.492 2.11529 0.0309631 -0.0560073 0.0595389
211 3 0.418083 9.31778 14.6772 10.8707 0.0265521 0.0361598 0.0845407
212 3 0.386332 9.86823 13.8361 11.991 -0.0996819 -0.0362374 -0.0357848
213 3 0.270416 12.8952 1.7253 10.5448 0.00787157 0.0422957 0.0632754
214 3 0.353412 12.27 1.48659 9.12148 -0.0142596 0.0529215 0.00651649
215 3 0.457489 9.29874 1.58655 4.81112 0.00281473 0.0401903 0.0164453
216 3 0.424184 8.32895 1.51504 6.06368 0.0525972 -0.0516303 -0.0832031
217 3 0.389623 6.60046 7.14769 6.64677 0.016409 -0.0171853 0.0536979
218 3 0.368447 7.22314 6.41522 7.66055 -0.00725956 0.0146097 -0.0274767
219 3 0.383838 13.6161 14.541 6.11961 -0.00348078 0.0120746 -0.00289355
220 3 0.34555 13.4021 14.25 7.43691 -0.0425393 -0.0431 -0.0421037
221 3 0.399907 4.48203 13.04 12.6528 0.0512122 -0.050537 -0.0419182
222 3 0.460593 5.20875 11.9616 11.6457 -0.00124949 -0.0768868 -0.00975986
223 3 0.348207 12.3582 9.72589 13.9696 -0.017406 -0.0313544 -0.0322159
224 3 0.395935 1.92583 12.1506 1.65717 0.035017 -0.00301682 0.0502681
225 3 0.369241 5.62344 7.78604 8.32617 0.0149263 0.0276889 0.00719407
226 3 0.437606 5.37267 9.3644 8.77047 0.0418641 0.0815832 0.033892
227 3 0.418083 13.9129 9.10101 13.0036 0.0157306 -0.00661073 0.0285884
228 3 0.324393 11.6841 10.8398 14.5035 -0.0165891 0.0248431 -0.028326
ITEM: TIMESTEP
40000
ITEM: NUMBER OF ATOMS
228
ITEM: BOX BOUNDS pp pp pp
1.4183614089682477e+00 1.5741638591031410e+01
1.4183614089682477e+00 1.5741638591031410e+01
1.4183614089682477e+00 1.5741638591031410e+01
ITEM: ATOMS id type q x y z vx vy vz
1 1 1.56079 15.6941 1.46253 15.6504 -0.0106461 0.0104067 -0.00540146
2 1 1.59842 3.19712 3.26436 3.20336 -0.00729031 -0.00640629 0.00823186
3 1 1.65617 1.70687 4.88726 5.14132 0.0100153 0.000307766 0.000673045
4 1 1.55808 3.32752 6.69666 6.79824 -0.00818807 0.00127171 -0.0107028
5 1 1.82611 4.88745 15.6856 4.89913 0.0171518 -0.00451647 0.00387813
6 1 1.53331 6.38672 3.11588 6.92111 -0.00341489 0.0125018 -0.00451247
7 1 1.59158 4.80615 5.1171 1.47393 0.00366236 -0.016474 -0.0084335
8 1 1.36138 6.77804 6.75944 3.27847 -0.0118916 -0.0138522 0.00436024
9 1 1.24693 1.56611 1.55775 8.77448 0.00109324 0.00246304 0.00783938
10 1 1.56181 3.33559 3.28327 10.6142 0.000177078 0.0096756 -0.00822914
11 1 1.38915 15.7075 4.91805 12.1251 0.00201775 -0.00887406 0.00242891
12 1 1.68756 2.94242 6.77257 14.0133 -0.00980696 -0.00168253 0.000292239
13 1 1.53156 5.36899 1.88642 12.2311 -0.00710743 0.000607599 -0.00248908
14 1 1.85422 7.05307 3.59604 14.2616 0.00155957 0.00135527 -0.00400796
15 1 1.63318 4.91501 4.99302 8.66864 0.00738276 -0.00515513 -0.00322804
16 1 1.52677 6.82755 6.52868 10.4858 -0.000381502 0.00128494 0.00747848
17 1 1.65466 15.5485 8.45471 1.58192 -0.00680932 -0.00173923 -0.00759735
18 1 1.3857 3.36979 10.277 3.53585 -0.00618767 0.00626753 -0.000970522
19 1 1.68084 15.6429 12.0658 5.12242 -0.00533993 0.0108928 0.0126252
20 1 1.53942 3.18623 13.9725 6.64039 0.00506145 -0.000698182 0.00364448
21 1 1.7592 5.10944 8.45871 5.06337 -0.00627874 0.00627733 0.00124292
22 1 1.40235 6.82677 10.4893 6.79057 -0.00648444 0.00120757 0.00178422
23 1 1.46234 5.12617 12.236 1.44833 0.00463545 -0.0105096 0.00111914
24 1 1.80108 6.81898 13.9666 3.27927 0.00341237 0.0045344 -0.00725024
25 1 1.34795 15.4696 8.69139 8.39362 -0.000704304 -0.00603317 0.0140993
26 1 1.40714 3.09553 10.0969 10.4289 0.00320237 -0.00392892 -0.00515043
27 1 1.65392 1.85022 12.3594 12.2447 -0.00515474 -0.00445094 -0.00436157
28 1 1.55702 3.54997 14.237 13.8495 -0.00264468 0.00510916 -0.00182792
29 1 1.4778 5.0632 8.28256 12.3546 0.0145258 -0.00437644 -0.00330964
30 1 1.29738 6.83078 10.5723 13.9368 0.00675346 0.0152857 -0.00285909
31 1 1.64429 4.48417 12.087 8.60654 0.0110853 -0.00728513 -0.00321231
32 1 1.36094 6.47304 13.9279 10.1558 -0.00798714 0.00206002 0.00677197
33 1 1.7704 8.44094 15.6969 1.42936 0.0120076 -0.00218922 -0.00693254
34 1 1.50085 10.3889 3.27022 3.1808 0.00593464 -0.0127252 -0.000822034
35 1 1.38322 8.4027 4.74581 5.00209 0.00956054 0.000964276 0.00634997
36 1 1.48351 10.2348 6.80297 6.88384 -0.00283787 0.00504716 -0.0100932
37 1 1.57688 12.3767 1.81811 5.02079 0.00867239 -0.00188268 0.00278945
38 1 1.60501 14.0162 3.48673 7.04475 -0.0113445 -0.000228258 -0.00650678
39 1 1.4759 11.9448 5.22456 1.48658 0.00408696 0.00442859 0.0121805
40 1 1.82439 14.1295 6.46505 3.49686 0.00233956 0.000847678 0.00556777
41 1 1.33846 8.36096 1.44362 8.43051 0.0103082 -0.00852934 0.0122313
42 1 1.61193 10.2798 2.89288 10.4529 0.00283106 0.00158084 -0.00149753
43 1 1.77398 8.82584 4.91917 12.216 -0.00238848 -0.000784888 -0.00217905
44 1 1.75165 10.3804 6.84705 13.8095 -0.00239961 0.00426479 -0.00750644
45 1 1.45141 12.4129 15.6825 12.1625 0.00617017 0.00135225 0.00326136
46 1 1.40741 13.9503 3.37672 14.1647 0.0138577 0.00330093 -0.00284339
47 1 1.61426 11.9188 4.97176 8.60256 -0.00111475 0.00563583 0.0193057
48 1 1.69906 13.911 6.39164 10.3442 -0.0140156 0.0038128 0.00409795
49 1 1.42404 8.57831 8.41871 15.6376 -0.00136921 -0.000980033 0.00459078
50 1 1.25892 10.791 10.1325 3.05024 0.00419302 -0.00514513 0.00412602
51 1 1.33352 8.9132 11.9827 4.90303 0.00537741 0.00170381 -0.0113052
52 1 1.25823 10.282 14.0137 6.6333 -0.00786206 0.00138675 0.00611034
53 1 1.58092 12.228 8.20285 5.02998 -0.00201381 0.00572963 -0.005192
54 1 1.66219 13.6301 10.4489 6.69926 -0.0031749 0.0118745 -0.00952564
55 1 1.49214 12.6119 12.5546 15.6677 0.00512146 0.0129991 0.00240027
56 1 1.59053 14.0882 14.1852 3.47811 0.0079069 -0.0117212 0.00553576
57 1 1.35803 8.35425 8.52355 8.62758 -0.00200045 -0.00857277 -0.0128647
58 1 1.49611 10.4376 10.1299 10.3977 0.00419717 -0.00858303 -0.0134441
59 1 1.28781 8.60731 12.3321 11.9708 -0.00449646 0.00414399 -0.0122569
60 1 1.59788 10.35 14.1244 14.1028 -0.00490952 0.00736708 0.00024405
61 1 1.5486 12.2807 8.28209 11.9202 -0.00550313 -0.00305851 0.00556563
62 1 1.69055 14.9829 11.1519 14.6811 0.00072396 0.00483624 0.00767518
63 1 1.51509 12.0383 12.1516 8.60197 -0.0030025 -0.00445159 0.00147681
64 1 1.44451 13.8872 13.5653 10.7535 0.00531673 0.00358408 -0.00201306
65 2 -0.731028 2.20469 2.46582 2.10312 0.00270495 -0.00350225 -0.00217549
66 2 -0.753595 2.63917 14.8272 14.9877 0.0110878 0.0080942 0.00219725
67 2 -0.804602 14.5271 2.24292 15.1031 0.00569379 -0.00569842 -0.00375493
68 2 -0.727006 15.2865 15.0706 2.62333 -0.0118638 -0.00687471 -0.0136964
69 2 -0.852698 2.77753 3.96083 4.4838 0.0141848 -0.00232643 0.00362968
70 2 -0.858033 4.15126 2.17354 3.89985 -0.00366848 0.00204342 0.0199176
71 2 -0.82872 4.25125 4.1143 2.37091 -0.00684686 -0.0111649 -0.0023928
72 2 -0.834337 2.68842 6.03325 5.61806 0.00531623 0.00368515 -0.00598743
73 2 -0.8467 14.9227 4.33142 6.15505 -0.00884115 0.00331849 -0.00513383
74 2 -0.901785 15.1778 5.53433 4.06875 0.0050085 -0.00225347 -0.0119811
75 2 -0.89979 3.89795 5.99344 7.99806 -0.00199667 0.00132716 -0.00152368
76 2 -0.893823 4.58207 7.5383 6.16314 -0.0221324 -0.00712031 0.00526168
77 2 -0.681012 2.26215 7.84673 7.27438 -0.00339513 -0.0138403 -0.00945914
78 2 -0.865214 5.88108 2.05953 5.86213 -0.0156253 -0.00320606 0.00975147
79 2 -0.953097 4.10065 14.5398 5.55677 -0.00281634 0.0269268 0.016677
80 2 -0.911636 5.94369 14.8695 4.17676 0.00313317 0.00704964 0.0126748
81 2 -0.813175 5.28277 4.1509 7.33135 -0.00250327 0.0105058 -0.002972
82 2 -0.715819 7.45091 4.06024 6.15629 -0.00471048 -0.00183993 -0.0156591
83 2 -0.736652 7.34763 2.71406 8.02546 -0.00065683 0.0080976 -0.016315
84 2 -0.708278 5.38671 6.23703 2.5104 -0.0162628 -0.0113786 -0.00248563
85 2 -0.762987 3.66466 5.58162 14.7391 -0.00401348 -0.00634356 0.00420379
86 2 -0.824817 5.91502 4.39074 14.8591 -0.00429539 -0.00121702 0.0030194
87 2 -0.803866 6.29334 7.7335 4.42076 -0.000563386 -0.00238447 0.0154095
88 2 -0.775126 7.90602 5.96195 4.12148 -0.0015074 -0.00568183 -0.00530494
89 2 -0.673234 7.3407 7.77089 2.09467 -0.000126218 0.00796118 0.0177806
90 2 -0.825635 2.48248 2.46988 9.60839 0.00506678 0.00989075 -0.0126446
91 2 -0.688684 2.51913 15.0916 7.70639 -0.0142984 -0.0203909 -0.0165579
92 2 -0.809223 14.894 2.39187 7.7726 0.000412147 0.0070791 -0.00322546
93 2 -0.575901 15.0462 14.4587 9.86951 -0.00800235 -0.00511886 0.00831767
94 2 -0.696521 2.6511 4.61006 11.3591 0.00893052 0.00578207 -0.00760872
95 2 -0.847159 4.19883 2.7038 11.7461 0.00833769 0.00267798 0.00550328
96 2 -0.819758 4.10492 4.20068 9.66385 0.0169018 0.017872 -0.00958633
97 2 -0.740271 1.94925 6.2072 12.8351 -0.000280874 -0.00547469 -0.00335835
98 2 -0.65685 15.3883 3.87977 13.5311 -0.0107691 0.00974817 0.00876123
99 2 -0.832596 14.5142 5.19744 11.1297 0.0114381 -0.000587074 -0.00538486
100 2 -0.894688 2.17767 7.6378 15.0021 -0.0060209 -0.00931533 -0.00652194
101 2 -0.822998 4.03263 7.57825 13.4145 -0.00247069 -0.00373437 -0.00163358
102 2 -0.762868 6.21807 2.88087 13.1435 0.0111854 0.00947017 -0.00858588
103 2 -0.741641 4.54554 15.356 13.328 -6.61173e-05 0.0137769 0.00417879
104 2 -0.735213 6.14214 15.0368 11.3979 0.0147857 -0.00158801 0.00174982
105 2 -0.953786 7.62854 2.46168 15.0449 -0.00435416 -0.00408676 0.0118211
106 2 -0.903357 7.92294 4.4828 13.4293 -0.00146879 -0.00628296 0.00821986
107 2 -0.860131 6.05769 5.59992 9.5098 -0.00303561 0.00874978 0.00131357
108 2 -0.761697 5.96255 7.3136 11.6308 -0.002252 0.00249456 0.00287511
109 2 -0.804165 7.76566 5.59368 11.381 0.00874554 -0.00457909 0.00972937
110 2 -0.730554 7.95567 7.62156 9.85288 -0.0202544 -0.000507674 0.0162095
111 2 -0.613983 2.11156 9.13166 2.63189 0.00199937 -0.00416666 -0.00592675
112 2 -0.83655 14.7904 7.54059 2.73673 -0.00849924 0.00459232 -0.00916081
113 2 -0.937423 14.98 9.72273 15.3292 0.00599438 -0.00187128 -0.012416
114 2 -0.82746 2.42173 11.2134 4.26606 -0.0123385 -0.0130421 -0.0026391
115 2 -0.885817 4.25379 9.12662 4.10691 -0.00532266 0.00808114 0.00551136
116 2 -0.711304 4.09728 11.5243 2.28294 0.00751197 7.72412e-05 0.00126087
117 2 -0.762362 1.99362 12.9663 6.20999 0.00777164 -0.00241187 -0.00108816
118 2 -0.829502 14.592 11.2951 5.86619 -0.00831385 -0.00814077 -0.000636929
119 2 -0.860311 14.7634 13.14 4.48693 -0.00118933 0.00173857 -0.00235816
120 2 -0.842128 3.94355 12.9552 7.4812 0.00172631 0.0146163 -0.00352745
121 2 -0.774777 5.83976 9.57504 5.94955 -0.0219006 -0.0126872 0.0172967
122 2 -0.665229 5.51474 11.2564 7.73328 0.000205409 0.00966123 -0.00821272
123 2 -0.723749 8.00181 11.0254 5.85152 0.00237163 0.0026651 -0.00279077
124 2 -0.749268 7.34376 9.51397 7.81867 0.010711 0.01502 0.00548244
125 2 -0.907123 6.06367 13.032 2.45797 0.0022016 -0.00262835 -0.0149231
126 2 -0.77976 4.47048 13.1174 14.5375 0.0165364 0.00479221 0.0210436
127 2 -0.718825 6.01619 10.9927 15.2333 0.0145408 -0.0111605 -0.00134625
128 2 -0.938263 7.44978 15.0106 2.27748 -0.00538442 0.0142944 -0.000137549
129 2 -0.806749 7.97498 13.1763 3.69021 -0.00892839 -0.0143695 0.0262516
130 2 -0.68032 1.85828 9.41683 9.61788 -0.00678209 0.00516507 0.00518661
131 2 -0.691279 14.7487 7.50107 9.5948 0.000242187 0.000844455 0.00512731
132 2 -0.768002 14.7185 9.69967 7.60423 -0.00850246 -0.0224637 -0.00399068
133 2 -0.782605 2.72082 11.3853 11.4162 0.00669889 -0.00226748 -0.0109371
134 2 -0.692606 4.24212 9.09264 11.2803 -0.00178409 -0.00309081 -0.02142
135 2 -0.803888 3.6136 10.9959 9.29834 0.00239 -0.00469774 0.00128434
136 2 -0.927544 2.91327 13.3093 12.8358 0.000956216 -0.00864061 0.0044968
137 2 -0.892771 15.5926 11.2947 13.3591 0.00280722 0.000895722 0.00179951
138 2 -0.892535 14.865 12.8659 11.7166 0.00396791 -0.016219 0.00469891
139 2 -0.689455 6.03457 9.62775 12.9928 0.0017617 -0.00191376 0.0111705
140 2 -0.627895 7.82763 9.34338 14.6519 0.00800557 0.00305659 -0.0114486
141 2 -0.788644 7.65837 11.6474 12.9241 -0.00597198 0.0034294 -0.0197398
142 2 -0.758808 5.59085 12.9053 9.23611 -0.00424449 0.00433719 0.00483353
143 2 -0.653244 7.08878 15.0145 9.08851 -0.0100196 0.00959048 0.00211856
144 2 -0.634767 7.60139 12.946 10.7543 -0.00505292 0.00664941 -0.00159474
145 2 -0.797647 9.32117 2.45381 2.29162 -0.0173409 -0.0199075 -0.0169804
146 2 -1.01425 9.35174 14.7144 15.0257 -0.00580285 -0.0124833 0.00349534
147 2 -0.810058 9.44802 3.89776 4.33603 0.00454995 0.0062804 -0.00892795
148 2 -0.802181 11.6797 2.79411 3.96425 -0.0123892 -0.00310786 0.00189017
149 2 -0.775504 10.8674 4.3055 2.14911 -0.00201772 0.0165032 0.00602217
150 2 -0.675727 9.3505 5.7012 6.20044 -0.00458489 0.00709835 -0.00053654
151 2 -0.788469 10.907 6.04002 8.11829 -0.00022865 0.00225278 -0.00373099
152 2 -0.801299 11.3761 7.23855 5.89757 -0.012567 0.0121191 -0.00777593
153 2 -0.707323 9.41882 8.05217 7.42434 -0.0164471 -0.0156291 -0.011261
154 2 -0.814619 13.3882 2.62317 5.85935 -0.00561656 -0.00161199 0.00495471
155 2 -0.833307 11.5985 15.1818 5.88563 -0.00654233 0.00223255 0.00195851
156 2 -0.847259 13.0524 15.1147 4.08703 -0.00162538 -0.00324265 0.000459109
157 2 -0.895031 12.7249 4.10157 7.66836 0.00291938 -0.0174773 -0.014149
158 2 -0.768576 13.3631 5.80085 2.30837 -0.00243777 0.0154937 -0.00552798
159 2 -0.846375 11.1236 6.23214 14.9112 -0.00598206 -0.0044715 0.00125222
160 2 -0.699476 12.8357 4.22432 14.8733 0.0028304 0.0146348 -0.00230743
161 2 -0.873029 13.2833 7.13327 4.53709 -0.000794166 0.00175993 0.00890858
162 2 -0.838902 9.4718 1.8896 9.7468 -0.0193463 0.0114405 0.0169827
163 2 -0.695672 9.09142 14.8386 7.45676 -0.0076453 -0.00719457 -0.0079739
164 2 -0.844779 9.59877 3.72797 11.4962 -0.0121885 -0.000771414 -0.00051751
165 2 -0.700312 11.2929 2.30926 11.6512 -0.00149094 -0.0251261 -0.00324063
166 2 -0.799364 11.1993 3.85326 9.5914 -0.00477112 0.0207794 0.00921768
167 2 -0.911653 9.86328 5.8904 12.7317 0.00793042 0.00749045 0.00685458
168 2 -0.807295 9.16975 7.46179 14.4997 0.0132191 -0.00282602 -0.00270831
169 2 -0.774444 11.6165 7.6582 13.2304 0.000947441 -0.0082921 0.0147804
170 2 -0.671143 13.1306 2.59149 12.9355 -0.00102164 0.0217018 0.0032545
171 2 -0.765345 11.4784 14.8376 13.202 0.00929039 0.00392171 0.00571949
172 2 -0.933208 13.1924 14.8193 11.1542 0.0154601 -0.0158111 0.00800629
173 2 -0.859809 13.0163 5.92083 9.27555 0.011193 -0.00461984 -0.00321796
174 2 -0.853506 13.0942 7.12612 11.4012 -0.00152129 0.00258692 0.00726068
175 2 -0.714942 9.84141 9.2106 2.05008 0.0079788 0.00258056 -0.00259007
176 2 -0.687346 9.875 10.8646 4.12688 -0.014656 -0.00345573 0.00517814
177 2 -0.705511 11.4013 8.93395 3.82143 0.000622431 -0.0060268 0.00321997
178 2 -0.696032 11.9024 11.2812 2.06266 0.00419196 -0.00259374 -0.00614971
179 2 -0.754637 9.54383 13.0957 5.63649 -0.0169994 0.0024782 -0.00277881
180 2 -0.699926 10.935 12.8302 7.79117 0.00333374 0.0060417 0.00320679
181 2 -0.815007 12.9358 9.48485 5.58895 0.0222432 -0.00146992 -0.0048795
182 2 -0.817735 12.8322 11.1822 7.77931 0.00977759 0.00768859 0.0101019
183 2 -0.827501 13.2807 13.507 2.43004 0.0142491 0.00697542 0.0063049
184 2 -0.780159 11.4244 13.3088 15.0194 -0.00627278 0.00980545 -0.00434491
185 2 -0.887211 13.7126 11.8447 14.6295 0.0186405 0.015004 0.000546683
186 2 -0.613202 9.33854 9.81778 9.35608 0.00325683 -0.00509447 -0.00922931
187 2 -0.646088 9.35562 10.9463 11.252 -0.00212683 -0.0177444 -0.00130919
188 2 -0.844847 11.4972 9.06258 10.7505 0.000544031 -0.00708549 0.000537128
189 2 -0.746616 11.3216 11.1868 9.75796 0.00656684 -0.0186504 -0.0124492
190 2 -0.751971 9.91569 13.129 13.0147 0.00177655 0.011392 -0.0112464
191 2 -0.719345 13.117 9.2728 12.7933 -0.00594436 -0.0023536 -0.00322834
192 2 -0.63262 13.4389 12.7144 9.28729 -0.0113653 0.00535771 -0.0102854
193 2 -0.67514 12.4611 12.0756 11.7273 0.0149264 -0.0110374 -0.000597041
194 2 -0.599245 4.82952 11.7235 4.63469 0.0114377 -0.00276338 -0.0194006
195 2 -0.689668 8.78225 12.4434 15.3502 0.0249006 0.0128193 0.00720794
196 2 -0.591887 10.0171 13.6513 10.6522 -0.00333369 -0.0107333 0.0188319
197 2 -0.674685 12.2559 15.0783 8.55392 0.0250992 -0.0141675 -0.0158516
198 2 -0.566816 9.03343 15.4851 5.2135 0.0141658 -1.90251e-05 0.0142289
199 2 -0.658483 7.13828 7.05459 7.31123 -0.00574074 -0.00847256 -0.00335431
200 2 -0.563949 13.8451 13.7862 6.97481 -0.00786896 -0.0110809 -0.00239916
201 2 -0.578061 5.43159 12.0028 11.5053 -0.0150298 -0.00264375 0.0104099
202 2 -0.741102 1.51979 12.0699 15.6318 -0.00611829 -0.00653458 0.00729445
203 2 -0.596066 5.06298 8.61152 9.07369 0.0153132 0.01661 0.0150802
204 2 -0.574825 10.9062 11.1325 14.2391 -0.000119105 0.00580825 0.0124775
205 3 0.422319 12.1394 11.2014 11.5294 0.0248283 0.0246536 0.0324533
206 3 0.439678 12.8909 12.0568 12.6304 -0.0136666 -0.0135228 0.0211677
207 3 0.357863 5.6665 11.8801 5.15627 -0.0220388 0.0401269 -0.0335673
208 3 0.416337 4.46298 12.6075 4.68095 -0.00162973 -0.027582 0.0711624
209 3 0.432288 9.04686 12.6526 1.88258 0.0301438 -0.026037 0.0155996
210 3 0.400682 8.01818 12.9547 15.0469 -0.00146166 -0.0275136 -0.0326379
211 3 0.409926 10.2207 14.3941 10.0898 0.000457269 -0.0459875 -0.014577
212 3 0.37392 10.8775 13.7703 11.2052 -0.0276368 -0.0146839 -0.0877856
213 3 0.369458 13.0144 15.4503 9.09172 0.0424552 0.037547 0.0374287
214 3 0.38957 12.2478 15.304 7.59651 -0.0385986 -0.0696907 -0.0570478
215 3 0.351761 9.97512 1.45462 5.19441 -0.021152 0.0379536 -0.00982069
216 3 0.379782 8.59121 1.43275 4.3574 0.0318992 0.0151292 0.0269673
217 3 0.419685 7.64153 6.84934 6.444 0.000547271 -0.00240933 0.000433848
218 3 0.422863 6.23889 6.9414 7.14109 0.00183755 0.0496711 -0.0137344
219 3 0.39038 13.8399 14.2623 6.08188 0.0278916 0.0187632 -0.0381275
220 3 0.396961 13.8411 14.3566 7.68073 -0.0370662 0.00693855 -0.0157076
221 3 0.41504 4.58179 11.9742 12.1668 0.0445069 0.00462942 -0.0243888
222 3 0.433737 6.22127 11.3704 11.7101 -0.0595435 0.0250871 0.0500578
223 3 0.39137 10.8432 10.6237 15.1531 -0.0113966 0.0137959 0.000411753
224 3 0.464942 2.38314 11.9102 1.5869 -0.00872348 0.0565474 -0.0337473
225 3 0.384265 4.53199 8.0434 8.53266 0.036012 0.0303124 0.0178197
226 3 0.429562 5.58359 9.06413 8.36668 -0.0443742 -0.018168 -0.0190651
227 3 0.433616 13.8685 9.66146 13.2745 -0.0443189 -0.0038189 0.0530915
228 3 0.44941 10.1387 11.7245 14.2477 -0.00976245 -0.0227794 0.0502702
ITEM: TIMESTEP
42000
ITEM: NUMBER OF ATOMS
228
ITEM: BOX BOUNDS pp pp pp
1.3878425228108693e+00 1.5772157477188831e+01
1.3878425228108693e+00 1.5772157477188831e+01
1.3878425228108693e+00 1.5772157477188831e+01
ITEM: ATOMS id type q x y z vx vy vz
1 1 1.45883 15.5633 15.6521 15.4473 0.00174076 -0.00594423 -0.000694914
2 1 1.38702 3.06676 2.83222 3.16738 -0.00757244 0.00236257 -0.00143155
3 1 1.59429 1.47075 4.90802 4.61768 0.00392016 0.000799518 -0.00133636
4 1 1.36411 3.26613 6.92697 6.72283 -0.00328681 0.000735369 -0.00539738
5 1 1.5513 5.0765 15.6707 5.12304 -0.000700778 0.00539759 0.0118337
6 1 1.38037 6.57441 3.38665 6.80023 0.000146393 -0.00372456 0.00758056
7 1 1.46318 5.0326 4.6781 15.6754 0.0015925 0.00340901 0.00745972
8 1 1.49349 6.71441 6.67744 3.00167 0.00141091 -0.00286553 -0.00398316
9 1 1.4573 1.43326 1.70217 8.97092 -0.0131525 -0.0124253 -0.00325749
10 1 1.52485 3.29278 3.39924 10.6049 -0.008591 -0.0071498 -0.00950802
11 1 1.36457 1.49237 5.02888 12.1819 -0.000289749 0.00889111 0.00151118
12 1 1.59244 2.9149 6.57644 14.2957 0.00979175 -0.00223938 -0.00526918
13 1 1.53204 5.01196 1.67005 12.331 0.00619602 0.00139771 -0.000876879
14 1 1.68737 6.96853 3.17544 13.975 0.00437469 0.00746541 -0.00981195
15 1 1.39497 4.72637 5.03569 8.64529 -0.00341453 -0.00267924 0.0068457
16 1 1.37541 6.80401 6.36985 10.7319 -0.0124654 0.00215946 0.00310977
17 1 1.66722 1.40227 8.65973 1.69316 0.000921698 0.00483716 0.00412725
18 1 1.27772 3.1679 10.4364 3.46241 -0.000951863 -0.00406194 0.00135276
19 1 1.2555 15.6365 12.4571 5.24176 -0.000200513 -0.0142202 0.00869776
20 1 1.3697 3.21821 14.1999 6.98343 0.00604688 -0.00256122 0.00613865
21 1 1.38259 5.34597 8.66664 4.91684 0.000737108 -0.00656714 -0.00109444
22 1 1.40921 6.88136 10.5361 7.035 -0.001273 0.0124454 0.0123693
23 1 1.32369 5.45096 11.7228 1.5147 -0.00450383 0.00484605 -0.0107534
24 1 1.36036 6.9644 13.779 3.45152 0.00357186 -0.00471927 -0.00291781
25 1 1.53547 1.39858 8.77215 8.24026 0.0164436 0.0023479 0.00628146
26 1 1.4269 3.08946 10.4651 10.2571 -0.00781371 -0.000311958 0.00904216
27 1 1.38386 1.74037 12.4191 12.3811 0.012654 0.00778293 0.000989381
28 1 1.53609 3.67268 14.0459 14.2876 -0.0117765 0.00182817 -0.00292471
29 1 1.47501 4.3774 8.37476 12.2758 2.24702e-05 -0.00707086 -0.00104137
30 1 1.41137 6.86284 9.87094 13.9051 -0.00365216 -0.00323823 0.000241529
31 1 1.33186 4.96261 12.5575 8.79382 1.8367e-05 0.0125748 0.00910637
32 1 1.33485 6.75776 14.1288 10.6558 0.00116459 -0.00440057 -0.00430317
33 1 1.82441 8.54346 1.392 1.53829 -0.00749028 -0.00290469 0.00296576
34 1 1.63195 10.4813 3.16412 3.14157 0.00286113 0.00464829 -0.00831964
35 1 1.31277 8.71039 5.1959 4.60048 -0.000176545 -0.0067887 -0.00516674
36 1 1.53514 10.2305 6.94322 6.73927 0.0091765 -0.000985853 0.00895527
37 1 1.59321 12.3516 1.56466 4.92272 -0.00486901 0.000303587 0.00343308
38 1 1.48864 14.2195 3.25039 6.80974 0.00292365 -0.00992329 0.00699217
39 1 1.44329 12.2282 4.90117 15.7705 -0.00231134 -0.00310219 0.00483114
40 1 1.72141 13.8552 6.83403 3.04264 -0.0090665 0.0107097 0.00775072
41 1 1.36437 8.33644 15.7654 8.46206 0.00178609 -0.0069973 0.00119758
42 1 1.37077 10.3326 3.21808 9.97442 0.000248967 0.0010487 0.00603273
43 1 1.54071 8.88474 4.63561 12.2605 -0.00146983 -0.00704426 0.00400178
44 1 1.6262 10.4582 6.50864 13.9327 -0.000479073 -0.00474375 -0.00301558
45 1 1.43637 12.1839 15.645 12.1016 0.00451135 -0.0080272 -0.00256012
46 1 1.30117 13.9458 3.28125 13.8914 -0.00892119 0.00154356 0.0025484
47 1 1.34372 12.1311 5.08792 8.21799 0.00177957 0.00626675 -0.00494765
48 1 1.49224 14.2008 6.94382 10.1141 -0.009306 -0.00384302 -0.00634966
49 1 1.51858 8.77867 8.2471 15.7115 0.0102238 -0.00230838 -0.00426539
50 1 1.31171 10.4659 10.3512 3.0179 -0.00509326 -0.00675145 -0.00121436
51 1 1.39609 8.90495 12.0923 5.18615 -0.0123186 0.00433715 -0.00743118
52 1 1.38468 10.6345 14.112 6.704 0.00388361 -0.0116436 0.00915837
53 1 1.62039 12.0667 8.47365 4.882 -0.00748745 0.00516424 0.00139265
54 1 1.58851 13.6284 10.4843 6.61509 -0.00971177 -0.00949997 -0.0017576
55 1 1.51198 12.2153 12.3249 1.59414 -0.00254621 0.00595624 0.0032095
56 1 1.64879 14.0733 14.0431 3.15674 0.00379108 -0.00942866 -0.00241281
57 1 1.51241 8.27874 8.26319 8.79294 -0.00946145 -0.00961615 -0.00953511
58 1 1.27513 10.0818 10.1138 10.486 0.00858126 -0.00328421 -0.00967809
59 1 1.49661 8.70817 12.1483 12.4709 -0.00193137 -0.000498096 0.00340465
60 1 1.42582 10.4266 14.1686 14.1146 0.00351815 -0.00206436 0.00326614
61 1 1.38591 12.3161 8.22052 12.1519 4.93015e-05 0.00502337 -0.00185105
62 1 1.24235 14.5488 11.0867 14.5197 0.00552547 0.00723262 0.00184508
63 1 1.2846 12.0836 12.1624 8.78091 0.0109672 -0.016412 0.00269489
64 1 1.38838 14.2107 14.0055 10.4592 -0.000325207 0.00369041 0.00594678
65 2 -0.670139 1.92701 2.06789 2.1918 0.00634371 -0.010517 0.00744051
66 2 -0.702353 2.38146 14.565 15.1705 0.000425892 0.0140825 -1.14118e-05
67 2 -0.648359 15.3435 2.19309 14.2004 0.00358129 0.00432519 0.010903
68 2 -0.844714 14.6144 14.89 2.05497 -0.00547442 0.0164246 0.00971232
69 2 -0.885226 2.33032 3.99638 3.88976 0.00440849 0.00339193 0.00432831
70 2 -0.757127 4.21505 1.96646 4.07298 -0.00404699 -0.00569761 0.00670173
71 2 -0.651713 4.2096 3.36774 2.06834 -0.000571378 0.00574655 0.00237299
72 2 -0.654102 2.43913 5.77213 5.67262 0.00806754 0.00570864 0.00432614
73 2 -0.763342 14.8802 4.11721 5.62593 -0.00446121 0.00690724 -0.00297281
74 2 -0.810693 14.8372 5.80646 3.78921 0.0103272 0.0102331 0.00584194
75 2 -0.841395 3.71404 5.95909 7.77972 0.00349813 -0.00516857 -0.0037329
76 2 -0.771749 4.31934 7.86558 5.89832 -0.00661765 -0.00657858 -0.00257974
77 2 -0.702097 2.121 8.10727 7.01454 0.00295859 0.0103087 0.0210037
78 2 -0.787346 5.78118 2.1244 6.18769 -0.0055765 -0.0145775 -0.0119525
79 2 -0.824624 3.95976 14.7232 5.8245 -0.00244606 -0.0152369 -0.00428674
80 2 -0.768802 6.12309 14.6665 4.37372 -0.00371076 0.00321707 0.00353617
81 2 -0.765426 5.78089 4.15732 7.92778 -0.00273605 0.00268617 -0.00979497
82 2 -0.703958 7.45097 4.0389 5.59954 0.00828455 -0.0127573 0.0036557
83 2 -0.671555 7.63957 2.51947 7.6682 0.00489628 0.00444119 -0.000454898
84 2 -0.774535 5.73474 5.74917 2.21932 -9.73165e-05 0.00646467 -0.00810684
85 2 -0.772425 3.97455 5.53269 14.7322 -0.0150885 -0.0061356 0.00104936
86 2 -0.786992 6.32313 4.22878 15.0235 0.017202 0.00554219 0.0111029
87 2 -0.758791 6.16732 7.95676 3.74862 0.00920655 0.0110028 0.00357832
88 2 -0.848805 7.96318 6.1983 3.70619 -0.0107401 -0.00595773 0.000625567
89 2 -0.651993 7.40295 7.58009 1.76686 0.00696602 0.0028742 -0.0039842
90 2 -0.752786 2.03805 2.87194 9.8981 -0.00406584 -0.0140304 -0.0128743
91 2 -0.740117 2.07146 15.4882 7.70774 0.00195908 0.00320553 -0.00464362
92 2 -0.709534 14.8272 2.63098 8.16793 0.00892596 0.0168895 -0.00724095
93 2 -0.80341 14.6171 15.1474 9.58818 0.00437593 0.0008685 0.0130898
94 2 -0.75673 2.89772 4.04488 11.8734 -0.00462038 0.00037375 -0.000177705
95 2 -0.70567 3.87183 2.12407 11.3282 -5.80418e-05 -0.0146585 0.00212434
96 2 -0.744532 3.97251 3.79928 9.24478 0.00450612 -0.00183001 -0.0104426
97 2 -0.727006 1.95311 6.26956 13.1261 -0.0065871 -0.00376164 0.0153713
98 2 -0.676843 14.8704 4.44944 13.103 0.00973577 0.00430346 -7.37184e-05
99 2 -0.682207 14.9794 6.05839 11.3265 -0.007549 -0.00287913 -0.0189759
100 2 -0.800109 2.22402 7.51558 15.2672 0.00779818 0.0027572 0.00202752
101 2 -0.746384 3.71472 7.72528 13.4672 0.0159963 -0.0133774 0.00622615
102 2 -0.882581 5.80768 2.7308 13.1594 2.96322e-05 -0.0185818 -0.00214004
103 2 -0.758586 4.17512 15.2375 13.5315 0.00484706 0.0228951 -0.00250872
104 2 -0.786774 5.63556 14.9887 11.3897 -0.00531995 0.00732615 0.00214335
105 2 -0.897384 7.77738 2.05664 14.8931 -0.0154006 -0.0077342 -0.00768457
106 2 -0.843223 8.04414 3.55097 13.0195 0.00786966 0.0153914 -0.0141794
107 2 -0.716947 5.64215 5.61364 9.91701 0.00186544 -0.00759939 0.00901755
108 2 -0.615875 5.31825 7.34845 11.6626 0.00609318 -0.00566831 -0.00924594
109 2 -0.775575 7.64898 5.46679 11.7078 0.00603398 0.00198408 0.00128874
110 2 -0.809382 7.29652 7.44734 9.79685 -0.00308946 -0.00120981 0.00340512
111 2 -0.768236 2.09031 9.29754 2.8643 0.00300592 0.000652339 -0.00202298
112 2 -0.897004 14.6857 7.75634 2.2295 0.0139621 0.0087488 -0.000326857
113 2 -0.802677 15.2454 9.52328 14.891 -0.0134968 0.00581339 0.0116135
114 2 -0.610389 2.39603 11.4222 4.43128 -0.00530657 -8.63887e-05 -0.00370222
115 2 -0.641294 4.31036 9.63514 4.28699 -0.00470246 -0.0124828 -0.00622001
116 2 -0.693279 4.4515 10.8535 2.31937 0.0126206 0.00392439 0.020686
117 2 -0.669818 2.3986 12.9089 6.50848 -0.0027764 0.0128321 0.00333755
118 2 -0.720019 14.7709 11.251 5.83548 0.00272068 0.00244163 0.00912066
119 2 -0.76004 15.3288 13.3761 3.85899 0.00837216 0.00620712 -0.0066943
120 2 -0.691802 4.08144 13.9219 8.2246 -0.00533563 0.0116644 -0.00974684
121 2 -0.703211 6.40399 9.62396 5.75242 0.0119742 0.00502644 -0.000476686
122 2 -0.674691 5.68805 11.4771 7.64448 0.0109902 0.00423395 -0.00369465
123 2 -0.655881 8.05159 11.4311 6.50723 0.0118494 0.0160847 -0.00790318
124 2 -0.704777 7.5663 9.68971 8.17869 0.000890327 0.000235728 -0.00446722
125 2 -0.715068 6.64911 12.4218 2.04638 0.00286254 -0.0123729 0.0031534
126 2 -0.61547 4.56951 13.5001 15.5258 0.0245922 -0.0106675 0.00492587
127 2 -0.694475 6.19084 10.6375 15.1607 -0.000735188 0.0228321 0.0116022
128 2 -0.797765 7.68359 14.7523 2.39476 -0.012987 -0.0228994 0.00297475
129 2 -0.71246 8.05561 13.2382 4.4267 -0.0138297 0.0136388 0.00568119
130 2 -0.749834 1.99496 9.77409 9.3713 0.00341395 -0.00168874 -0.0013227
131 2 -0.857024 14.8865 7.89902 9.0737 -0.00288404 0.0113859 -0.00462985
132 2 -0.670854 14.7774 9.87258 7.57217 0.00124277 -0.0149195 0.0103472
133 2 -0.697773 2.43032 11.585 11.191 -0.0123742 -0.00960868 0.012421
134 2 -0.808139 3.97142 9.39495 11.174 -0.00230066 -0.0225986 0.00885492
135 2 -0.670061 3.91523 11.686 9.56849 0.00321945 -0.00280123 0.00706757
136 2 -0.801565 2.97021 13.0772 13.3643 0.00416767 0.00288309 -0.0155417
137 2 -0.75092 14.9559 11.6412 13.0116 -0.0221893 -8.05885e-05 0.00872426
138 2 -0.732698 15.2037 13.3904 11.4045 -0.0069035 0.00643285 0.0021353
139 2 -0.631047 5.6028 9.00031 13.2622 -0.018903 0.00708138 -0.000625289
140 2 -0.702872 8.03236 9.10506 14.5134 -0.0115214 0.0091338 -0.00102559
141 2 -0.722432 7.64666 11.159 13.1779 -0.00621156 0.00404434 0.000144679
142 2 -0.700889 5.79326 13.019 10.021 -0.00475792 -0.0125985 0.00262465
143 2 -0.764867 7.70696 14.6859 9.55437 -0.0119922 0.0144303 0.00143003
144 2 -0.746525 7.78628 13.2751 11.9661 0.0214375 0.0151395 -0.00834643
145 2 -0.883262 9.34453 2.24284 2.45818 0.00629427 0.00619032 0.00593161
146 2 -0.824244 9.6008 15.1185 15.0136 0.00312376 0.0125376 -0.017463
147 2 -0.796824 9.80451 4.26529 4.05604 -0.00980451 0.00265574 0.0112679
148 2 -0.826682 11.5142 2.61116 4.18952 -0.0105041 -0.00275755 0.00470855
149 2 -0.781005 11.0896 3.98136 2.02172 -0.00236473 -0.0181596 -0.000139154
150 2 -0.705314 9.11609 6.09565 5.9492 -0.00905374 0.00171026 -0.00831252
151 2 -0.780325 11.3609 5.95156 7.28211 0.00120412 0.0045348 -0.0117629
152 2 -0.855875 11.0111 7.65721 5.56324 0.00593857 -0.00787563 0.00589587
153 2 -0.793684 9.31917 7.71648 7.79882 0.0010316 0.0089311 -0.00706172
154 2 -0.793539 13.3712 2.33642 5.97226 0.0203327 -0.0160859 0.0147972
155 2 -0.817799 11.1608 15.2239 5.64213 0.0199964 -0.00946068 -0.0129718
156 2 -0.823753 13.2794 15.1024 4.00208 -0.023976 -0.00324433 -0.00419051
157 2 -0.708205 12.9253 3.75088 7.57668 0.0075448 -0.000664427 0.00561959
158 2 -0.743375 12.62 6.00821 2.51898 -0.0033984 0.0194134 -5.21768e-05
159 2 -0.757001 11.5001 6.01788 14.9571 0.000161406 0.00928725 0.0123848
160 2 -0.745572 13.4756 3.9201 15.1823 0.00652712 0.00561205 0.00846583
161 2 -0.828901 13.157 7.80022 3.9458 -0.0066985 0.000920117 -0.0088015
162 2 -0.733116 9.19089 2.45532 9.28907 0.00870688 0.00249201 -0.00567754
163 2 -0.656227 9.22247 14.9111 7.2706 -0.0107629 -0.00410288 -0.0180431
164 2 -0.696952 9.64969 4.30728 10.8099 0.00262452 0.0057642 0.00413628
165 2 -0.71206 11.1835 2.10617 11.0122 -0.0106737 -0.00736394 0.0114028
166 2 -0.664517 10.9223 4.35532 8.95069 0.0171094 0.0136793 -0.00569193
167 2 -0.820577 9.92816 5.16148 13.2138 -0.00920056 0.00870909 0.00361734
168 2 -0.84364 9.47428 7.28576 14.7755 -0.00523397 0.0104192 0.0228046
169 2 -0.803301 11.4214 7.28603 12.9544 -0.0117654 0.0088802 0.00115738
170 2 -0.631171 12.8366 2.56876 12.8904 0.0118487 -0.0179751 -0.0156066
171 2 -0.701791 11.4373 15.1997 13.4162 -0.0095275 -0.00308101 -0.00400646
172 2 -0.732195 13.3712 14.8559 11.658 -0.00157051 0.0181875 -0.0100056
173 2 -0.642924 13.4933 5.87807 9.28245 0.00143145 0.00624143 0.00669439
174 2 -0.713114 12.9524 7.36662 10.8237 -0.0075075 0.00024034 -0.00416811
175 2 -0.699968 9.98415 8.8504 2.08075 0.0100417 -0.00812448 0.00232504
176 2 -0.727191 9.0285 10.9602 4.21024 0.019623 0.00617883 -0.0160448
177 2 -0.708119 11.479 9.74729 3.93461 -0.00617996 -0.00353506 -0.00109976
178 2 -0.814888 11.1691 11.2346 1.98918 0.0113393 -0.00194298 -0.00973377
179 2 -0.691897 10.1737 12.9448 5.75626 0.00232537 -0.0071048 -0.0140697
180 2 -0.701629 11.362 13.1226 7.77179 -0.0149643 -0.00541025 0.00428601
181 2 -0.816664 12.8112 9.53221 5.77839 -0.00377106 0.00126871 0.00620635
182 2 -0.735194 12.7225 11.1709 7.64183 0.0158114 -0.0028891 0.0019636
183 2 -0.863157 13.0463 12.98 2.71819 -0.00496828 -0.00105765 0.000800567
184 2 -0.69197 11.3851 13.4598 15.2287 -0.000542647 -0.00686554 -0.010128
185 2 -0.725203 13.0552 11.6903 14.7656 -0.00870244 -0.00385873 0.0152796
186 2 -0.697583 9.35125 8.93889 9.70513 0.00591183 -0.00307547 -0.026634
187 2 -0.726636 9.18703 11.1998 11.2251 -0.00948116 -0.00750104 -0.00593763
188 2 -0.671189 11.4374 9.38209 11.3751 0.00458053 0.00540912 -0.0102323
189 2 -0.583394 10.6798 11.1967 9.32323 0.0150358 0.00989048 0.0132587
190 2 -0.802021 9.62244 12.808 13.4313 0.00865755 -0.00522365 0.00713235
191 2 -0.631929 13.6547 8.43528 13.142 0.00113507 0.0121026 -0.0125149
192 2 -0.785213 13.2524 12.7711 9.60201 -0.0130217 0.00570609 -0.0073384
193 2 -0.516566 12.3907 11.9202 12.1091 -0.00403114 -0.00875391 -0.00854243
194 2 -0.581886 5.70144 12.1817 4.66699 0.00511798 -0.00391377 -0.00297612
195 2 -0.592661 8.82706 11.4493 1.95513 -0.00390107 0.0045914 0.00329497
196 2 -0.70499 10.8308 13.9248 11.2425 -0.0176656 -0.000375396 -0.00771625
197 2 -0.724724 11.8272 15.584 8.09603 0.000615122 0.013241 -0.00606257
198 2 -0.536737 8.75175 1.78928 4.64331 0.00637814 -0.00121228 -0.0129056
199 2 -0.677261 6.94309 6.89069 7.48202 0.00421328 -0.000299381 -0.00362478
200 2 -0.643762 14.427 13.8399 6.5424 -0.00264479 0.000632462 -0.01968
201 2 -0.691885 5.44612 12.9281 13.4379 0.0112251 0.00369467 -0.00145486
202 2 -0.67895 15.2509 11.9817 15.6243 -0.0058938 0.00824156 0.000373568
203 2 -0.620327 4.17608 8.24868 8.45067 -0.0115173 0.00147987 0.0106621
204 2 -0.605637 11.5703 9.64117 13.839 0.013134 0.00090077 -0.00710722
205 3 0.356509 12.1724 11.2124 11.4554 0.0646157 -0.0358605 -0.0275379
206 3 0.398613 13.289 12.0679 11.7122 0.0606848 -0.0152388 -0.0260446
207 3 0.395436 5.14566 12.8444 5.14792 -0.00672001 -0.00131611 -0.00254843
208 3 0.324081 5.05759 12.0872 3.86581 0.0615108 -0.045727 -0.0394304
209 3 0.433612 8.28236 11.1791 2.79463 -0.0478424 0.00937918 -0.0248759
210 3 0.431779 8.49321 12.3895 1.7104 -0.0400768 0.00450274 0.0580567
211 3 0.388729 10.0013 14.2142 11.2562 -0.0226346 0.0358328 -0.0419048
212 3 0.360291 10.9215 13.7003 10.3349 0.0994812 0.00347512 0.00656225
213 3 0.451758 12.1758 1.83958 7.51453 0.0444376 0.0719798 0.0123405
214 3 0.415724 12.0598 1.44318 8.88237 -0.0114682 -0.00693814 0.0214708
215 3 0.469393 9.41739 1.50592 5.30965 0.0638879 0.0603495 -0.0505111
216 3 0.399309 8.4208 2.79961 4.63615 -0.00401641 -0.0974677 0.00121835
217 3 0.400469 7.25411 6.00208 7.29523 0.0357954 -0.00214446 0.00771054
218 3 0.325357 6.72651 7.37132 6.59434 -0.0124454 -0.00181527 -0.0205658
219 3 0.379542 15.1191 14.4535 6.96606 0.0479047 -0.0304766 0.022566
220 3 0.36124 14.4352 13.2029 7.33443 0.000474031 0.0339965 0.0324861
221 3 0.434192 4.95831 12.9423 12.5772 0.0508066 -0.0414894 -0.0063216
222 3 0.433732 6.4297 12.998 13.46 -0.0835948 -0.0128816 -0.00762615
223 3 0.405042 11.555 8.83491 14.3922 -0.0904457 -0.050508 0.0378683
224 3 0.446723 15.6538 12.7689 1.6955 0.0138375 -0.0268936 -0.0324031
225 3 0.388519 4.76005 7.89906 9.12695 -0.0401058 -0.0316115 0.029295
226 3 0.334242 4.87057 7.9664 7.68883 0.00917523 -0.0129409 0.00826197
227 3 0.453068 14.611 8.77631 13.4449 -0.00758463 0.0171658 -0.0392582
228 3 0.443319 11.4935 10.4568 14.4824 -0.0194827 0.114609 -0.00549707
ITEM: TIMESTEP
44000
ITEM: NUMBER OF ATOMS
228
ITEM: BOX BOUNDS pp pp pp
1.3921628546945657e+00 1.5767837145305091e+01
1.3921628546945657e+00 1.5767837145305091e+01
1.3921628546945657e+00 1.5767837145305091e+01
ITEM: ATOMS id type q x y z vx vy vz
1 1 1.42929 15.8234 15.722 1.54317 0.0116719 0.00203745 -0.00255913
2 1 1.58778 3.14927 3.30669 3.27968 0.00533266 0.00750146 0.00327566
3 1 1.69622 15.6259 4.98738 4.98725 -0.003498 -0.0102586 -0.00461659
4 1 1.60194 3.11955 6.62391 6.84896 0.00312161 -0.00333135 -0.00578129
5 1 1.5523 5.02102 1.52454 4.99841 -0.00384135 -0.00337048 0.00204635
6 1 1.51598 6.99358 3.05113 6.86592 0.00454175 -0.0145843 0.00519489
7 1 1.40792 4.98318 4.79297 1.4283 0.00875589 -0.00552062 -0.00424328
8 1 1.46626 6.85733 6.85414 3.25488 0.000153157 0.000498973 -0.0031636
9 1 1.42767 1.42027 1.59839 8.77243 -0.00162304 -0.00377147 0.010967
10 1 1.40721 3.13566 3.27456 10.648 -0.00914 0.00157056 -0.000904878
11 1 1.67996 1.40074 5.42537 12.2674 -0.00712502 -0.00491352 -0.00428592
12 1 1.70739 3.05681 6.98691 14.2166 -0.00959278 0.00126317 0.00447345
13 1 1.44091 4.83524 15.8391 12.4234 0.00385189 0.00833074 0.00252074
14 1 1.6522 6.90911 3.25134 13.7886 0.00930008 0.00265497 0.00114374
15 1 1.35738 5.18185 4.77749 8.5257 -0.016659 0.00288648 -0.0070696
16 1 1.54103 6.7659 6.71101 10.5008 9.92072e-05 0.0113209 0.00482841
17 1 1.52808 15.6947 8.54769 1.87832 -0.00117289 0.00169923 0.0113792
18 1 1.57742 3.29604 10.3257 3.48208 -0.00808792 -0.000208658 -0.00261589
19 1 1.25377 1.63262 12.1541 5.14426 -0.0104069 0.00187773 -0.00582963
20 1 1.44369 3.21743 14.4334 7.01043 -0.00491186 -0.00281314 0.00592079
21 1 1.67411 4.96357 8.39596 5.14161 0.000995631 0.00138054 0.00440753
22 1 1.57811 6.62294 10.3907 6.98427 -0.000219317 -0.00244846 0.00205169
23 1 1.56042 4.93172 11.7223 15.7047 0.00654047 0.00258015 0.00994483
24 1 1.13606 6.57703 13.6897 2.99158 -0.00448736 -0.00710399 0.0103388
25 1 1.43914 15.776 8.59251 8.3414 0.0167296 -7.11896e-06 -0.000858854
26 1 1.38011 3.0781 10.3663 10.2847 -0.00424231 0.00656417 -0.00797333
27 1 1.5539 15.7472 12.0485 12.5142 0.00139583 0.00975077 0.00684012
28 1 1.39428 3.24449 13.7311 14.1455 -0.00351031 0.00928717 0.000951049
29 1 1.64981 4.75186 8.3277 12.1325 0.0056961 0.00920615 -0.00710824
30 1 1.60594 6.61761 10.1796 13.7484 -0.00512898 -0.00751421 0.00979789
31 1 1.27227 4.91382 12.3268 8.76222 0.00630953 -0.0073983 0.0124113
32 1 1.46536 6.70282 14.0472 10.6478 -0.000484553 -0.0151833 -0.00898851
33 1 1.37192 8.57616 1.47958 15.6716 -0.00715267 0.00232221 0.0138011
34 1 1.59825 10.5407 3.3359 2.97891 0.00081104 -0.00589092 0.00565621
35 1 1.32331 8.84285 5.09427 4.89992 -0.00562052 -0.0204283 -0.00519675
36 1 1.45016 10.4532 7.20123 6.99239 -0.00605793 0.00576556 0.00634497
37 1 1.58551 12.1491 1.51556 5.00066 -0.00204964 -0.000176289 -0.00533166
38 1 1.64728 14.009 3.13878 6.7976 0.00258297 -0.00132787 -0.0103702
39 1 1.47879 12.229 5.1517 15.5299 0.0137521 -0.00411974 0.00290728
40 1 1.60318 13.6913 6.75463 3.45262 -0.00631328 -0.00136081 -0.00519208
41 1 1.33266 8.82811 15.8134 8.88826 0.00251049 0.0072254 -0.00442717
42 1 1.56301 10.5411 3.44942 10.3195 -0.00202645 0.00316718 -3.75389e-05
43 1 1.7112 8.52461 4.75895 11.9523 -0.0134063 -0.00177933 0.00999373
44 1 1.46271 10.171 6.38837 13.7037 -0.00647923 -0.00347219 0.00244213
45 1 1.44848 12.2581 1.84101 12.1077 0.00417282 -0.00582771 0.00843859
46 1 1.46938 14.2377 3.46904 13.9714 -0.00648206 0.00444272 0.00374001
47 1 1.45157 12.4457 4.99531 8.57605 -0.00505267 -0.0112164 -0.00425503
48 1 1.19057 13.8117 6.8935 10.28 0.00976927 0.00839263 0.0113863
49 1 1.5635 8.50939 8.38768 15.3254 0.00364078 0.0102873 -0.00678349
50 1 1.35334 10.2497 10.2373 2.98855 -0.00562538 0.000614102 0.00500017
51 1 1.2757 8.54399 11.8377 5.0154 0.0132937 -0.00667051 -0.0103806
52 1 1.3165 10.4707 13.7908 6.93148 0.000243556 -0.00341076 -0.00264653
53 1 1.71036 12.1823 8.80244 4.87888 -0.0018456 0.00898274 0.00370604
54 1 1.48284 14.0611 10.3696 6.64115 0.00856626 -0.00809126 0.00482644
55 1 1.62761 12.2774 12.1482 1.77483 -0.00338071 -0.0041923 -0.0040675
56 1 1.60626 13.9239 13.9464 3.43458 0.000678563 -0.00148382 -0.00271129
57 1 1.58278 8.43638 8.71151 8.95753 0.00560334 0.00503009 -0.00358578
58 1 1.46771 10.323 10.5097 10.5034 0.00263453 -0.0029338 -0.00461039
59 1 1.52847 8.75144 12.325 12.5703 0.00549244 0.0056252 -0.00188373
60 1 1.38004 10.739 14.0539 14.1932 -0.00356849 -0.00223121 -0.00421063
61 1 1.35399 11.9467 8.35492 12.1696 0.00363031 0.010039 -0.00243834
62 1 1.44435 14.5514 10.7924 14.8425 0.0048659 0.00624968 -0.00370147
63 1 1.60934 12.3861 12.007 8.5759 0.00327588 0.0102301 0.0121483
64 1 1.29444 14.1203 14.0552 10.5461 0.0121095 0.000881685 0.00421856
65 2 -0.753294 2.45207 2.10872 2.58931 0.00791837 0.00421238 -0.000220853
66 2 -0.68771 2.09214 14.639 14.9952 -0.0163085 0.0155462 -0.0160535
67 2 -0.710772 15.1636 2.32366 14.7406 0.00999073 0.00790811 0.00339402
68 2 -0.711977 14.7362 15.0111 2.49178 0.0101931 0.0080986 -0.0100349
69 2 -0.770594 2.46316 4.56533 4.00886 -0.0043112 0.00827645 0.00274739
70 2 -0.777418 3.89053 2.32139 4.26229 0.000432799 -0.00394313 0.0132343
71 2 -0.838943 4.22385 3.9227 2.33988 -0.00329634 0.00538966 -0.00166431
72 2 -0.805685 2.01889 6.04553 5.97978 0.0240805 -0.00361578 -0.00770476
73 2 -0.805265 15.1025 3.82476 5.75211 0.00814084 -0.00430034 0.00149417
74 2 -0.82849 14.5821 5.51054 4.12542 0.00350387 0.0161825 0.00133831
75 2 -0.709281 3.9463 5.36157 7.64173 0.0124529 -0.0055645 -0.000766075
76 2 -0.814013 4.14337 7.33859 5.91436 0.00449667 0.00116929 0.00146863
77 2 -0.739572 2.59204 7.66978 7.82239 0.00740513 -0.0200726 0.000212541
78 2 -0.818493 5.98148 2.38566 5.7516 0.00202325 -0.00318959 0.00528236
79 2 -0.746457 4.37477 14.7487 5.97116 0.00764846 0.00339976 0.000560475
80 2 -0.631842 5.98021 15.069 4.06693 0.0112242 0.00448292 -0.000603403
81 2 -0.779283 6.02926 3.64017 7.943 0.000788968 0.00736749 -0.0188484
82 2 -0.73642 7.91922 4.02146 6.12215 0.00918079 -0.0182591 -0.00382899
83 2 -0.724684 7.81422 2.2578 7.98315 0.00193305 -0.00627331 0.0118455
84 2 -0.628634 5.91661 5.90633 2.41274 -0.0160757 -0.00274507 -0.00122092
85 2 -0.707446 3.85966 5.93964 15.0338 -0.00835455 0.00044933 -0.0018045
86 2 -0.710772 6.01474 4.27254 14.5742 0.00604922 0.00328082 -0.00174287
87 2 -0.828904 5.92655 7.58618 4.19483 0.0104239 -0.00301576 -0.00492818
88 2 -0.820697 7.85319 6.05916 4.12132 -0.00208012 -0.0153777 -0.0130641
89 2 -0.688917 7.59324 7.36002 1.7125 -0.0061927 -0.000569684 -0.00371008
90 2 -0.738799 2.04286 2.86278 9.73663 -0.00776029 -0.0136922 -0.0105481
91 2 -0.749382 2.62997 15.623 7.83495 0.0198663 -0.0102468 -0.00469631
92 2 -0.836355 14.8027 2.14321 7.68922 0.0168659 -0.00637547 0.00789762
93 2 -0.721464 15.2625 14.6815 9.64187 -0.00837945 0.0023268 0.0298256
94 2 -0.754152 2.45724 4.60366 11.4733 0.00265543 0.00925897 0.0156603
95 2 -0.774284 3.62393 2.07252 11.4676 0.00666593 0.000600969 -0.0214493
96 2 -0.589115 4.57779 4.11558 9.89859 -0.0092577 -0.00804976 -0.0130844
97 2 -0.884899 2.01333 6.34986 13.2929 -0.0194118 0.00650551 0.0113098
98 2 -0.790932 14.7559 4.57647 12.8633 -0.00283877 0.00391176 -0.0026049
99 2 -0.667154 14.5884 6.26592 11.5299 0.00786238 -0.0120261 0.00239134
100 2 -0.832222 2.36192 7.89735 15.3335 -0.00700391 0.00796437 -0.0075082
101 2 -0.890078 3.88404 7.48361 13.0594 -0.00932901 -0.012529 0.0108356
102 2 -0.821536 5.74807 2.44243 13.1137 -0.00690349 -0.00572597 0.00671005
103 2 -0.724668 4.23579 14.8066 13.6778 -0.016259 0.0127005 -0.0248222
104 2 -0.761982 5.95261 14.9886 11.5864 -0.000996891 0.0103246 0.00100091
105 2 -0.732077 7.52255 2.55219 14.9671 3.07014e-05 0.00315694 0.00916047
106 2 -0.903318 8.14148 3.73208 12.9542 -0.0138012 0.0106065 -0.0106036
107 2 -0.737653 5.97153 6.13391 9.19087 0.00153427 -0.00982151 0.0068543
108 2 -0.831986 5.50076 7.38614 11.2013 0.0120726 3.44435e-05 -0.00357349
109 2 -0.776944 7.17696 5.49445 11.3314 0.00571678 -0.00368505 0.0131796
110 2 -0.853466 7.83873 7.68077 9.88247 0.00842921 0.00423407 -0.00657649
111 2 -0.755444 2.00265 9.57933 2.89713 0.00482844 -0.00318875 4.83309e-05
112 2 -0.727688 14.8939 7.48387 2.73389 0.00996393 -0.0142914 -0.0117869
113 2 -0.837177 14.6698 9.34491 15.2078 0.00574521 -0.00318555 0.00938452
114 2 -0.689885 2.88287 11.408 4.67533 -0.0187107 -0.000367479 0.0157218
115 2 -0.803884 3.98687 9.17252 4.23433 0.000712903 0.00431109 0.00487269
116 2 -0.826989 4.26621 10.9046 2.41865 0.00224404 -0.00506013 -0.00565237
117 2 -0.599037 2.56133 13.4209 5.85428 0.00339825 0.00738902 0.0113178
118 2 -0.689948 15.4288 10.8527 5.83191 0.00829049 -0.00114515 -0.00426839
119 2 -0.779453 15.1033 13.2968 4.12921 0.000451354 0.00722489 -0.00676724
120 2 -0.676165 3.725 13.4944 8.11629 0.0189366 0.0206233 -0.0129258
121 2 -0.825751 5.67104 9.511 6.11382 -0.00205317 0.00218908 -0.00145116
122 2 -0.717147 5.71394 11.5544 7.49657 -0.0145481 0.016792 -0.0104433
123 2 -0.810584 7.69396 11.0279 6.15157 -0.000362758 -0.00757601 0.0013689
124 2 -0.840992 7.38358 9.61425 8.22649 0.00133755 -0.00886951 0.00884974
125 2 -0.658246 5.65801 13.1705 1.79128 -0.00769666 -0.000957318 0.010757
126 2 -0.693273 3.70045 12.5703 15.1942 0.00416414 0.00194203 -0.00626582
127 2 -0.961556 5.86089 10.8995 14.8504 -0.00256252 -0.0120414 -0.00356425
128 2 -0.577123 7.682 15.2336 2.37514 -0.000469792 -0.00472445 -0.00293471
129 2 -0.629031 7.78319 12.8988 4.0977 -0.0259046 -0.00689388 0.00637072
130 2 -0.733717 2.36323 9.75196 9.03694 -0.00706775 0.00114233 -0.00518651
131 2 -0.692437 15.1817 7.79888 9.51798 -0.000323886 -0.00864933 0.00662067
132 2 -0.747218 14.7512 9.06371 7.19434 -0.0132324 0.0148922 -0.0189283
133 2 -0.705106 2.14476 11.1318 11.496 0.00342596 0.0169505 0.00285974
134 2 -0.749143 3.69816 9.24581 11.1243 0.000324316 -0.0123301 -0.00428702
135 2 -0.781491 4.42129 11.2258 9.79042 0.0131356 0.00277472 -0.0151619
136 2 -0.830324 2.49576 12.6691 13.149 -0.00952381 -0.00891659 -0.0117027
137 2 -0.774803 15.2467 10.8398 13.3229 -0.0214763 0.013321 -0.0017908
138 2 -0.720622 14.8313 13.1839 11.6383 -0.0133134 0.0265827 0.0146576
139 2 -0.880719 5.72808 9.33775 12.6641 0.00632239 -0.00505721 0.0051185
140 2 -0.815367 7.50541 9.0751 14.3841 -0.0137297 0.00176095 0.00382882
141 2 -0.757502 7.67158 11.2468 13.205 0.00160307 -0.00370451 -0.00870954
142 2 -0.734826 6.10653 13.2733 9.45609 -0.00941473 0.0119992 -0.00123189
143 2 -0.647063 7.9672 14.9978 10.0842 0.00508385 0.0134673 -0.0133566
144 2 -0.660863 7.90894 13.2971 11.5894 0.0107734 -0.00403965 0.00336671
145 2 -0.729997 9.2772 2.65612 2.26855 0.0152667 -0.00839687 0.00362469
146 2 -0.720619 9.73033 15.0483 14.8613 0.0166813 0.00384726 0.0210036
147 2 -0.75737 9.83858 4.10523 4.1532 0.00681125 -0.00621108 0.0145863
148 2 -0.820847 11.3265 2.46147 3.93766 0.00399756 -0.000635411 -0.00755489
149 2 -0.804064 11.209 4.3906 2.15344 0.00707233 -0.00249412 0.00387785
150 2 -0.653921 9.68028 6.1422 5.79178 -0.005016 0.010373 0.00255789
151 2 -0.660537 11.3391 6.35262 8.02387 0.0144601 0.00900585 0.00868382
152 2 -0.811505 11.1407 8.0783 5.92807 -0.0116394 -0.0121903 -0.00630196
153 2 -0.766885 9.31895 7.7931 7.83554 0.0087211 0.0104023 -0.000886403
154 2 -0.833681 13.2102 2.48867 5.7479 -0.012947 -0.000981358 -0.00509578
155 2 -0.691852 11.1017 15.2019 5.86405 -0.00746061 -0.00915169 -0.00109064
156 2 -0.888356 12.9879 14.9083 4.19807 0.00948444 -0.00798693 -0.00968466
157 2 -0.818473 13.1554 4.29044 7.41931 -0.00289974 -0.00818352 -0.000960586
158 2 -0.784278 13.0089 6.15358 2.14866 0.00147869 -3.32528e-05 -0.000245188
159 2 -0.775181 11.0877 5.3681 14.3945 -0.0050132 -0.0052872 0.0143092
160 2 -0.756028 13.4723 4.31336 15.0588 0.0100747 -0.0114247 0.0125695
161 2 -0.957316 13.2245 7.89642 4.26189 -0.00659978 -0.0204851 -0.016936
162 2 -0.84639 10.0124 2.13375 9.52692 -0.00969873 0.00483757 -0.00761083
163 2 -0.642531 9.37053 14.4564 7.84193 -0.000618899 -0.00844696 0.00259149
164 2 -0.915657 9.50119 4.42623 10.8694 -0.00351795 -0.0139411 0.00279189
165 2 -0.795502 11.3447 2.98588 11.5618 0.00997487 -0.00446233 0.0214827
166 2 -0.841146 11.6461 3.84657 9.24041 0.00267118 -0.00719045 -0.00284451
167 2 -0.78389 8.98609 5.94476 12.8035 0.00214142 0.020751 0.0117035
168 2 -0.842131 9.55695 7.54281 14.4888 0.00822248 0.00461565 -0.00338659
169 2 -0.625193 11.3208 7.00612 12.3514 -0.000151926 0.00767644 -0.00497354
170 2 -0.702605 13.238 2.81182 13.0358 -0.0178841 0.0191322 -0.000699932
171 2 -0.716819 11.4918 15.2093 13.055 -0.0156098 -0.0120563 -0.0189738
172 2 -0.787659 13.171 15.3097 11.2022 -0.0102003 0.00145816 -0.00158297
173 2 -0.70352 13.6527 5.72815 9.15171 0.00421909 0.00971157 -0.0115178
174 2 -0.532432 12.2831 7.69815 10.6379 0.00572822 -0.0109736 -0.00679309
175 2 -0.824129 9.22104 9.44251 1.81455 -0.0156285 0.00577429 -0.013953
176 2 -0.729439 9.03922 10.8653 3.85822 -0.0114134 0.00416312 0.00421971
177 2 -0.859669 11.3227 9.6167 3.9537 0.00642066 -0.016574 -0.00394252
178 2 -0.875466 11.0846 11.2579 2.03449 -0.000218386 -0.00271697 0.00204046
179 2 -0.604132 9.82862 12.9447 5.74659 0.00803454 -0.00969676 -0.00754306
180 2 -0.812577 11.7226 13.0399 7.68882 0.0005171 0.00498482 0.00155562
181 2 -0.776924 12.8948 9.93768 5.53692 -0.00105353 0.0106768 0.00775197
182 2 -0.867208 13.3052 11.2331 7.58223 0.0267204 0.00388801 -0.0102347
183 2 -0.938428 13.2558 12.7473 2.72501 -0.00428866 0.0104455 0.00314352
184 2 -0.742441 11.5914 13.4398 15.4023 0.00571091 -0.0227629 0.00150112
185 2 -0.907266 13.3349 11.5719 15.1052 -0.00755556 0.0171499 0.000583517
186 2 -0.777529 9.5129 9.37624 9.84245 -0.00856364 -0.00392608 -0.0039326
187 2 -0.736172 9.45146 11.2517 11.6165 0.000915525 0.00320029 -0.00396892
188 2 -0.670913 11.2472 9.72749 11.565 0.0199143 -0.01314 -0.0013348
189 2 -0.757746 11.199 11.2442 9.21533 -0.0172059 -0.00152301 -0.0113494
190 2 -0.852918 9.64819 13.1315 13.443 0.012373 -0.000342384 -0.0139054
191 2 -0.718673 13.3945 8.51047 12.7155 0.0015068 0.0180645 -0.000728216
192 2 -0.705848 13.3582 12.7363 9.62203 -0.00642416 0.00109048 -0.00590494
193 2 -0.602689 14.1514 9.85832 10.4658 -0.00130258 -0.000891229 0.00480482
194 2 -0.64545 5.41208 12.3088 4.32749 0.0100949 0.00574602 -0.000683145
195 2 -0.65909 7.89328 12.4645 1.60424 -0.0218041 -0.000620358 0.0242262
196 2 -0.631693 10.3989 13.6474 10.7444 -0.00842918 -0.0116743 0.00229935
197 2 -0.629244 12.1761 15.3626 8.52381 -0.0123128 -0.00663032 -0.006193
198 2 -0.536225 8.73971 1.49745 4.86923 0.0152661 0.0104576 0.0145804
199 2 -0.651904 6.46122 6.93691 6.49767 0.0199404 0.00420966 -0.0200083
200 2 -0.589501 14.4027 13.9588 6.71943 -0.00796037 0.00242538 -0.0223345
201 2 -0.615423 5.74834 12.1895 11.8212 -0.0121915 0.006728 -0.00389886
202 2 -0.62647 15.7156 11.5147 15.6636 -0.00461702 0.00330687 -0.00128682
203 2 -0.534783 4.60833 8.32606 8.44134 -0.00186036 -0.00611803 0.00803587
204 2 -0.633951 11.3948 9.55618 14.1273 -0.0168582 -0.00363108 0.00579527
205 3 0.380953 15.0719 9.45905 10.261 0.01345 0.0127981 0.0369444
206 3 0.427537 13.8544 9.68806 11.3117 -0.0235345 -0.0637121 0.0188828
207 3 0.462992 4.77064 12.7071 4.87266 -0.047117 0.00120699 0.0169162
208 3 0.382922 6.17869 12.3498 4.99569 -0.0768442 0.0474484 0.000237057
209 3 0.419496 7.58083 11.6879 15.6371 -0.00349321 0.0474434 0.00584806
210 3 0.420787 8.66633 12.1458 2.00704 -0.0319626 0.00870264 -0.0278444
211 3 0.38982 10.3813 13.9739 11.5987 -0.0516514 -0.048394 0.0113445
212 3 0.386865 10.1152 14.4546 10.3147 -0.0137075 0.0432635 0.0338683
213 3 0.415834 12.2874 1.89925 8.8808 -0.0221537 -0.00820026 -0.0203151
214 3 0.365247 12.0845 14.7091 9.2521 0.0338484 -0.110082 0.0676512
215 3 0.421242 9.42283 1.93104 4.40488 0.0576549 0.0493101 0.05463
216 3 0.432906 7.99531 16.1484 4.25179 -0.0538552 0.0457988 -0.039551
217 3 0.397135 6.88804 6.21531 5.97804 0.00575346 -0.0221543 0.0631128
218 3 0.373771 7.00271 6.90769 7.26721 -0.0192641 0.00159484 0.0488161
219 3 0.408753 13.5613 14.3709 7.07988 -0.0304169 -0.00714889 -0.0088514
220 3 0.360756 14.2658 13.6462 5.79229 0.0501804 -0.0315405 -0.0550642
221 3 0.413821 5.49549 11.4355 11.0677 -0.0184067 0.0454736 0.0541172
222 3 0.375526 5.05939 12.1131 12.4934 -0.0186139 0.00360475 0.0276856
223 3 0.396234 10.4644 9.65963 14.6046 0.0300866 -0.0905587 -0.0299036
224 3 0.404427 15.1817 12.0049 1.95633 0.0027545 0.0323805 0.0308827
225 3 0.398139 5.29053 7.96641 7.76247 -0.00821487 0.0201487 0.0108169
226 3 0.428971 4.86238 8.15161 9.35373 0.0500103 0.00566219 0.0163354
227 3 0.438293 14.4112 8.68381 13.1643 -0.0342419 0.0188694 -0.0274597
228 3 0.387324 12.0637 9.4496 14.7767 0.057994 0.0283557 -0.0109668
ITEM: TIMESTEP
46000
ITEM: NUMBER OF ATOMS
228
ITEM: BOX BOUNDS pp pp pp
1.4029119060959125e+00 1.5757088093903725e+01
1.4029119060959125e+00 1.5757088093903725e+01
1.4029119060959125e+00 1.5757088093903725e+01
ITEM: ATOMS id type q x y z vx vy vz
1 1 1.55194 1.53914 15.8266 1.77064 -0.00452084 0.00271068 -0.00535543
2 1 1.83398 3.15735 3.26145 3.41397 0.0047709 -0.00278971 -0.00609373
3 1 1.57967 1.52024 5.13995 4.92675 -0.00447149 -0.0168731 -0.00102719
4 1 1.37257 3.25875 6.65851 6.88197 -0.00362916 -0.00578143 8.31292e-05
5 1 1.28334 5.20293 1.40526 4.9977 0.00396515 0.0018433 -0.00189356
6 1 1.62306 7.15642 3.15874 6.90355 -0.00863074 -0.00498804 0.000284338
7 1 1.5631 4.78553 4.93636 1.70639 -0.003186 -0.00146655 -0.00294016
8 1 1.50715 6.51348 6.73596 3.39169 0.0042097 -0.00242763 -0.00187985
9 1 1.35079 1.50683 15.8161 8.72213 0.00153817 0.00925383 0.0022036
10 1 1.32336 3.13708 3.29933 10.5568 -0.00476919 0.00498854 0.00417632
11 1 1.47939 15.6434 4.97775 12.54 -0.00234449 0.00171148 0.0169616
12 1 1.4793 3.12972 6.68262 14.3018 -0.00780364 -0.00154072 -0.0020546
13 1 1.3376 4.90764 1.44344 12.4028 -0.00115615 -0.0082156 -0.00255261
14 1 1.44125 6.61711 3.49166 13.9209 -0.00806956 0.0029143 0.00391372
15 1 1.49887 5.2426 4.80017 8.45272 0.0062446 -0.00371834 0.0076164
16 1 1.47309 6.65982 6.77132 10.4189 -0.00132988 0.00571235 -0.00654954
17 1 1.30782 1.43702 8.34033 1.54974 0.00897089 0.00693019 -0.00830934
18 1 1.6824 3.12227 10.0001 3.34655 -0.0146659 0.0130527 -0.00750234
19 1 1.44385 1.50859 12.0101 5.05947 -0.00601926 0.00588752 0.00160437
20 1 1.61174 3.1669 14.2098 6.72002 0.00394046 0.00473499 0.0089325
21 1 1.62393 5.03153 8.53351 5.23173 -0.000819536 0.0016894 -0.000863962
22 1 1.45108 6.85423 10.6704 6.75259 0.00887201 0.00399491 -0.00988945
23 1 1.57291 4.92892 11.9468 1.689 0.00980979 -0.0033835 -0.00367988
24 1 1.32741 7.16327 13.8931 2.72713 -0.000337119 -4.29384e-05 0.00376879
25 1 1.31116 15.7947 8.48862 8.68327 0.0263316 -0.00250649 -0.0101176
26 1 1.57929 3.37842 10.3408 10.1239 -0.0071349 -0.000545151 -0.00777746
27 1 1.32001 1.64648 12.1804 12.2241 0.00361673 0.00406139 0.000381266
28 1 1.36628 3.3094 13.9254 14.141 -0.00638307 -0.00961042 0.012661
29 1 1.43362 4.92982 8.45719 12.1157 -0.00507684 -0.00584613 -0.00463283
30 1 1.4996 6.62218 10.4044 13.9104 0.0111395 -0.00632523 0.00342861
31 1 1.65613 5.05696 12.4239 8.66411 -0.00298623 0.0079993 0.00478852
32 1 1.41114 6.99633 14.21 10.475 0.003479 -0.00806787 -0.00342336
33 1 1.44006 8.41556 1.54246 15.2791 -0.0122691 -0.00112057 0.00379518
34 1 1.5558 10.2089 3.16608 2.95493 -0.0133265 -0.00861685 0.000661204
35 1 1.44995 8.70644 5.07879 4.94588 0.00109646 -0.00415423 -0.00929356
36 1 1.46842 10.6458 7.05839 6.54973 -0.0135371 0.00347137 -0.000955171
37 1 1.53835 12.1063 15.7122 4.86666 0.00817164 0.00865216 0.013232
38 1 1.23552 13.7474 3.39275 6.80718 -0.00550217 0.0111941 0.00170573
39 1 1.6973 12.0759 5.20928 1.61038 -0.0021135 -0.00293738 0.00893357
40 1 1.6175 13.9642 6.83221 3.39824 0.0019199 -0.00519242 -0.00462091
41 1 1.38711 8.99802 15.6861 8.68714 0.00921298 -0.00629183 -0.00553823
42 1 1.23164 10.8499 3.31551 10.3862 0.00552013 0.00752404 -0.00225075
43 1 1.33866 8.4553 4.91995 12.0348 0.00440338 -0.00737715 0.00631746
44 1 1.58975 9.93987 6.48812 14.1786 0.00485889 0.0068499 0.000601362
45 1 1.42096 12.5581 15.7997 12.3492 -0.0109203 0.00664385 0.0078245
46 1 1.73367 14.073 3.11834 14.3625 0.00346119 0.00331608 -0.00642115
47 1 1.50599 12.4513 5.34409 8.53871 -0.0124913 -0.00269846 -0.00671031
48 1 1.46118 14.035 6.89581 10.5649 0.00429438 -0.00198098 0.00344437
49 1 1.42122 8.01504 8.41773 1.38272 0.00915482 0.00295025 -0.00679127
50 1 1.70313 10.2516 10.1997 2.92592 0.0139996 -0.00559332 -0.00774648
51 1 1.53312 8.73235 12.0147 4.79956 0.00296291 0.00311341 0.00960074
52 1 1.40427 10.5386 13.7474 6.59351 0.00816501 -0.00200139 -0.00728755
53 1 1.83151 12.3289 8.89443 4.77419 0.00404307 -0.00549157 -0.00385022
54 1 1.56115 13.8953 10.3904 6.91741 0.00403029 0.00638974 0.00161279
55 1 1.39071 12.1464 12.2013 1.42247 -0.00209851 -0.00169395 -0.00761347
56 1 1.64461 13.9414 13.834 3.32138 -0.00155248 0.00773903 0.00348414
57 1 1.42406 8.71212 8.77979 8.52201 0.00194112 -0.00689271 0.00721912
58 1 1.76001 10.3972 10.7223 10.1477 0.00345826 -0.0106161 -0.00585948
59 1 1.63497 8.49635 12.0902 12.1731 0.00229903 0.00142565 -0.00452844
60 1 1.32509 10.3971 13.8227 13.7747 -0.00181045 -0.0065004 0.00774359
61 1 1.37046 11.566 8.28353 12.1078 -0.00468117 0.00431705 0.00572156
62 1 1.38202 14.7312 10.8616 14.6333 -0.00192378 -0.00590822 0.000331513
63 1 1.7736 12.2523 12.2451 8.45276 0.00477911 -0.0124156 -0.00745171
64 1 1.35489 14.0468 13.9101 10.4083 -0.00979827 -0.0025302 0.00449002
65 2 -0.908897 2.38198 2.10573 2.86142 -0.00741218 -0.000105524 -0.00706632
66 2 -0.692227 2.47946 14.965 14.9806 0.00602574 -0.00714728 0.00278568
67 2 -0.896099 14.9905 2.35912 15.2053 0.00140893 -0.0108448 0.00994523
68 2 -0.800611 14.9597 14.7136 2.65162 0.0196258 0.0046858 -0.00290473
69 2 -0.981433 2.21647 4.24218 3.95796 0.00191445 -0.0103834 0.000624814
70 2 -0.722512 3.94871 2.77361 4.60886 0.0123751 -0.0218629 0.0142912
71 2 -0.931838 4.13465 3.70657 2.3114 0.0072132 -0.0039932 -0.0172864
72 2 -0.798639 2.09016 6.22414 5.87695 0.00166501 -0.0077365 0.000396949
73 2 -0.602137 15.027 4.02375 5.81773 0.00766645 -0.0104218 -0.00526525
74 2 -0.79214 14.5257 5.87139 4.38292 0.00286704 0.0131373 0.0035583
75 2 -0.770927 4.06551 5.55765 7.98393 0.00659005 0.0013934 0.00896288
76 2 -0.841916 4.30177 7.55398 6.15369 -0.00216202 0.00409562 0.00581154
77 2 -0.762836 2.52017 7.65498 7.97924 0.00744932 0.0102936 0.00222377
78 2 -0.709467 6.16116 2.0599 6.0798 0.01177 0.0040604 -0.00419987
79 2 -0.779622 4.19532 14.7908 5.81587 -0.00797305 -0.0166499 0.00783586
80 2 -0.593942 6.11841 14.7072 4.23596 0.00292329 0.00619344 -0.00794021
81 2 -0.914377 6.40557 4.26002 7.70931 0.00222044 0.00288535 -0.0158708
82 2 -0.764176 7.95962 3.68577 5.79363 0.00107959 0.0139863 -0.00910259
83 2 -0.824838 8.01083 2.24471 7.68075 -0.015809 -0.00970996 0.00436154
84 2 -0.688851 5.90862 5.39654 2.87579 0.00340278 0.00323562 0.0134471
85 2 -0.792277 4.243 6.18189 15.4281 -0.00132079 0.00979797 -0.00636587
86 2 -0.699176 5.79282 4.58566 14.9087 -0.00816767 -0.00249132 -0.00113298
87 2 -0.82289 5.43918 7.31664 4.31878 -0.00728848 0.0314195 0.0011944
88 2 -0.734924 7.79018 6.11734 4.11817 -0.00225057 -0.0103253 -0.00106519
89 2 -0.75088 6.89338 7.50491 2.04791 -0.00466596 -0.00437528 0.0141019
90 2 -0.682698 2.68259 2.05352 9.61972 0.00102825 0.0104189 -0.00594375
91 2 -0.857478 2.15627 15.1291 7.45387 -0.0141328 0.0107648 -0.000103797
92 2 -0.692566 14.6376 2.45247 8.266 -0.00482421 -0.00361307 -0.00583016
93 2 -0.762261 15.2433 14.5691 9.61384 0.00199416 -0.0102028 0.000393627
94 2 -0.726378 1.98242 4.16333 11.4173 -0.000781504 0.000837422 -0.00788275
95 2 -0.632136 3.70659 2.27991 11.8015 -0.00107221 0.00537438 -0.0106972
96 2 -0.65854 4.03474 4.16467 9.63352 -0.0135865 -0.00888909 -0.000130077
97 2 -0.800946 2.35666 5.59554 13.7217 0.00194487 -0.00793109 -0.00752368
98 2 -0.842435 14.6617 4.07852 13.3431 -0.00339216 -0.00347854 0.00226772
99 2 -0.693108 14.7 6.1508 11.7743 0.00839769 -0.00407859 0.00103703
100 2 -0.700545 2.22062 7.85146 14.5592 0.00666769 0.00148846 -0.00108634
101 2 -0.632441 4.00418 7.57729 12.9472 0.00244464 0.0121221 -0.00535402
102 2 -0.659164 5.49701 2.52658 13.6228 -0.00844819 -0.0126788 0.0116717
103 2 -0.751579 4.18755 14.86 13.3995 -0.0121628 0.0152897 0.00441203
104 2 -0.664379 6.18091 15.2393 11.3494 0.000920896 -0.00789579 -0.00447086
105 2 -0.806849 7.71828 2.47808 14.3461 -0.00679454 0.00709353 0.00354035
106 2 -0.663386 7.11427 3.96927 12.4484 0.000616746 0.00271239 0.00194556
107 2 -0.830411 6.0915 5.73518 9.49423 0.00483253 0.0115209 -0.00725207
108 2 -0.834071 6.11486 7.81859 11.2912 -0.00365682 -0.0159162 0.00364804
109 2 -0.676956 7.93857 6.23518 11.3113 0.0168074 0.00362806 -0.00356006
110 2 -0.68401 8.02104 7.5495 9.30063 0.0119543 0.00248748 0.0151154
111 2 -0.830816 2.67654 9.02264 2.33011 -0.00287978 0.0127212 0.0162324
112 2 -0.713987 15.4007 7.08669 2.51176 0.00551219 0.00952223 -0.00663509
113 2 -0.69971 14.6539 9.44554 15.3011 -0.0243858 0.0216533 -0.015343
114 2 -0.827288 2.10729 10.924 4.03364 -0.000749975 0.0110198 0.000854598
115 2 -0.807437 4.15701 9.553 4.44653 -0.0145439 0.00538531 0.00947265
116 2 -0.781573 4.22462 10.9289 2.77493 -0.00967878 0.00191701 -0.00988804
117 2 -0.764524 2.41031 13.1522 5.83642 0.00237089 -0.0111555 -0.00932752
118 2 -0.633163 15.3456 11.2531 6.40183 0.00369182 0.00128897 0.00906256
119 2 -0.732708 14.7206 12.8094 4.25937 0.0243203 -0.000383785 0.00719345
120 2 -0.788066 4.22318 13.3377 7.5365 0.000333484 -0.00236196 -0.0014655
121 2 -0.834585 6.01915 9.52792 5.85388 0.0157449 -0.00132212 0.0156714
122 2 -0.756364 5.99506 11.4078 7.98342 -0.00656877 -0.00656963 -0.00225398
123 2 -0.865526 7.68994 11.5849 5.91013 0.000571704 -0.00135938 -0.000922448
124 2 -0.721999 7.85657 9.73619 7.71977 -0.00246343 0.0097777 0.00495575
125 2 -0.804127 5.85669 13.1173 2.26117 0.0191991 0.0110348 -0.00213133
126 2 -0.818576 3.90106 12.4332 15.1092 -0.00717379 -0.00447199 -0.00119027
127 2 -0.831229 5.95157 11.386 15.087 -0.00351023 0.00439379 -0.00332572
128 2 -0.794716 7.91596 15.1161 2.27482 -0.00764769 -0.00814893 0.00128185
129 2 -0.768181 8.03699 13.0627 3.90759 0.00157102 0.0126151 0.00881777
130 2 -0.676056 2.06479 9.9877 9.38945 0.0119998 0.00257351 0.0110544
131 2 -0.693476 15.0079 8.00376 10.0429 0.0053397 0.0197348 -0.00606736
132 2 -0.714396 14.5886 9.27802 7.76109 -0.00968702 0.0120242 -0.00705074
133 2 -0.656257 2.61713 11.3644 11.2436 0.0029387 -0.0122402 -0.00930221
134 2 -0.804166 3.88121 9.51407 11.1782 0.00654627 0.00786853 0.0150147
135 2 -0.919678 4.2069 11.4303 9.43391 0.0236709 -0.00169693 0.00854409
136 2 -0.742638 2.33868 13.3147 12.9639 -0.0308073 -0.0110857 -0.0159919
137 2 -0.657584 15.3304 10.9429 13.2093 -0.00232793 0.0042386 -0.0119531
138 2 -0.631635 14.5039 12.6502 11.4378 0.00280859 0.000347082 0.00715589
139 2 -0.696867 5.39837 9.40217 13.3505 0.0203947 0.0130149 0.00638476
140 2 -0.774841 7.48671 9.5739 14.8743 -0.0254723 -0.0098675 0.00367774
141 2 -0.870901 7.50315 11.1921 12.987 -0.00179895 -0.00121854 0.0180914
142 2 -0.779213 6.00746 13.3835 9.23096 -0.0104858 0.0145367 0.00634079
143 2 -0.731276 8.00491 15.2079 9.84192 0.0054581 -0.0162477 0.000373425
144 2 -0.815764 7.54737 13.2171 11.5781 0.00321713 0.00645255 -0.0173266
145 2 -0.658053 9.41696 2.60515 1.62844 -0.0204105 0.00755226 -0.016413
146 2 -0.699742 9.52165 15.0066 14.5466 0.0051867 -0.00103798 0.00746712
147 2 -0.744559 9.35774 3.94551 3.92578 0.0190495 -0.00812617 0.00480239
148 2 -0.746335 11.0658 2.08071 3.84746 -0.00227891 0.00752918 -0.00223513
149 2 -0.801875 11.145 4.27681 2.36331 0.00384159 0.0124302 -0.00298219
150 2 -0.749166 9.72313 6.02686 5.67586 0.0109529 -0.0108554 0.0106032
151 2 -0.701438 11.3201 6.34791 7.85408 -0.000127358 -0.00364661 -0.0174385
152 2 -0.877994 11.6256 7.83854 5.66395 0.00429335 -0.00165051 0.00672459
153 2 -0.734975 9.57954 8.07295 7.35257 0.00513307 0.0026622 -0.00476154
154 2 -0.606611 12.9918 2.61755 5.40826 -0.00740615 1.86042e-05 -0.000501522
155 2 -0.75595 11.6289 14.8779 6.07812 0.0144321 0.0115386 0.00637763
156 2 -0.821868 13.1683 14.8098 4.31793 0.0124198 -0.00171612 0.00855176
157 2 -0.801126 12.9389 4.50572 7.41754 -0.01305 -0.00265802 0.00613775
158 2 -0.877397 13.0238 6.13922 2.40687 0.00667294 0.005394 0.0168927
159 2 -0.869185 11.0267 5.93958 15.1968 -0.00825837 -0.00473875 0.00136124
160 2 -0.754347 12.9646 4.02019 15.1661 -0.00398392 0.017211 0.0146802
161 2 -0.919087 13.2031 8.09657 3.93071 0.00346222 0.00469715 0.0124236
162 2 -0.682855 10.0505 2.35463 9.18199 0.0281863 0.0139324 0.0030228
163 2 -0.68284 9.57734 14.2767 7.7121 0.00451382 -0.0187685 -0.0159823
164 2 -0.608179 9.53785 3.7533 11.3293 -0.00433344 0.0156963 -0.00297151
165 2 -0.742817 12.016 2.46514 11.2727 -0.00058634 0.00235466 -0.00102132
166 2 -0.72491 11.5965 4.5373 9.57311 0.00350096 -0.0156128 0.00732303
167 2 -0.741971 9.21684 5.41882 13.2663 -0.00933131 0.0015697 -0.00233964
168 2 -0.742211 8.79398 7.28886 14.6603 0.00237588 -0.00356782 -0.0161123
169 2 -0.748956 10.7719 7.18291 12.952 -0.00428037 -0.0146701 0.0152483
170 2 -0.766484 13.3399 1.98206 13.5873 -0.00356771 -0.00384824 -0.0213497
171 2 -0.694952 11.4746 14.7943 13.2147 -0.0139356 0.00528075 -0.00708254
172 2 -0.762174 13.4974 14.8779 11.4463 -0.0103157 0.00567369 -0.0191018
173 2 -0.770847 13.6935 6.21045 9.16114 0.00925589 -0.00556845 0.016248
174 2 -0.688633 12.8632 7.52701 11.4436 -0.00791188 -0.0176003 0.0100808
175 2 -0.769112 9.16768 9.22791 2.412 -0.00828823 -0.00516139 0.00164878
176 2 -0.830778 9.44714 10.8704 4.01563 0.00162132 0.00484934 -0.00473527
177 2 -0.845307 11.3452 9.55366 3.77219 -0.00615584 0.00851059 -0.00288451
178 2 -0.790855 11.2325 10.9153 1.9415 0.00609301 0.00333545 -0.00459213
179 2 -0.634027 10.1064 12.6484 5.30005 -0.0140172 0.000221414 -0.000277698
180 2 -0.835843 11.2655 12.6247 7.40677 0.0135667 -0.0365791 -0.00378507
181 2 -0.85958 13.1415 9.94625 5.58052 0.00313858 0.00660981 -0.00942335
182 2 -0.93377 13.3133 11.3941 7.81098 0.00792784 -0.0146041 0.000649324
183 2 -0.780185 13.0619 12.8281 2.5359 -0.00778346 -0.0123269 0.0072814
184 2 -0.672351 11.2384 13.3592 15.1653 -0.00193476 -0.0190547 -0.00170303
185 2 -0.72337 13.2408 11.4743 14.718 0.00759837 0.0189084 0.0107019
186 2 -0.791839 9.60731 9.9863 9.09646 -0.0126843 0.00442588 -0.00049744
187 2 -0.884621 9.35752 11.1913 11.1524 -0.00281811 0.00217469 0.0094107
188 2 -0.744457 10.9645 9.60011 11.0283 -0.0291599 0.0115669 0.00410138
189 2 -0.999265 11.5842 11.3992 9.54935 -0.000145424 -0.00616375 0.0183846
190 2 -0.951454 9.5561 12.729 12.9725 0.00713937 -0.00838332 -0.00270132
191 2 -0.746807 12.1331 9.20782 13.1275 -0.0201213 -0.00618811 0.00214523
192 2 -0.839691 12.9746 13.4436 9.20289 0.00225152 -0.0020417 0.0195776
193 2 -0.485287 13.8181 10.2825 11.2782 -0.00489978 0.00939339 -0.00937185
194 2 -0.591372 4.66503 12.181 4.72208 0.0170522 0.00854045 0.000623103
195 2 -0.680636 8.37342 12.6727 1.38453 -0.00487834 -0.0242182 -0.00812253
196 2 -0.648406 10.1386 14.6431 10.3846 0.00528053 0.00557212 0.00332275
197 2 -0.598439 12.5714 1.77796 7.95273 -0.0117408 0.00966693 -0.00329873
198 2 -0.610881 8.78894 14.9357 5.69581 -0.00224665 0.000914625 0.00316503
199 2 -0.562873 7.59894 6.34769 6.57646 -0.00607532 0.00272233 -0.00537421
200 2 -0.55384 14.3347 14.018 7.01692 -0.00320447 0.00231818 -0.0175425
201 2 -0.565822 5.07846 12.1722 12.1855 -0.0048904 0.00597355 -0.0194104
202 2 -0.649136 15.512 11.8041 15.7125 -0.0028414 -0.0117427 0.00753533
203 2 -0.639193 5.51372 8.09033 8.93361 0.000327239 0.00200087 -0.0101209
204 2 -0.605029 9.58383 9.71286 14.1164 0.0090791 0.00142721 0.00517432
205 3 0.401085 13.7486 10.0793 10.2132 -0.045557 0.0398597 -0.0104762
206 3 0.414751 13.1277 10.9144 11.4244 -0.0543301 0.0505056 -0.00720044
207 3 0.430293 4.71756 12.7637 5.47694 0.0225783 -0.0107129 -0.00225701
208 3 0.423613 5.47428 11.8881 4.52687 0.0700662 -0.0362748 0.0380942
209 3 0.429316 7.79248 11.972 15.524 0.0270904 0.0763335 -0.059613
210 3 0.345394 8.52983 13.4703 15.1141 0.0111843 0.00341282 -0.00838498
211 3 0.382131 9.63351 14.1968 10.9898 -0.0320819 -0.0260048 0.00452317
212 3 0.338774 10.6641 15.2773 10.9797 -0.0261199 -0.0576185 -0.0190972
213 3 0.42653 13.441 1.56678 8.22691 0.0351004 -0.0629094 0.0336072
214 3 0.39106 12.0073 15.3802 8.46609 -0.0563003 0.0541188 0.0444718
215 3 0.436543 8.64573 1.54283 6.03555 0.016412 0.0221642 0.0706817
216 3 0.429701 7.94795 14.3657 5.357 -0.00937556 -0.00573019 -0.00693032
217 3 0.364518 7.56415 6.1925 7.67404 0.0485755 -0.0323858 0.0330639
218 3 0.353392 8.00082 7.34056 6.70078 0.00207768 0.0267494 -0.006611
219 3 0.40081 14.8758 13.7665 7.92465 0.0528015 -0.0192572 0.026698
220 3 0.418268 14.6184 14.7386 6.43041 -0.0596162 -0.0187151 -0.0410772
221 3 0.411237 4.6386 11.6232 11.5408 -0.0440828 -0.0357643 -0.0301669
222 3 0.368497 4.55744 11.9141 13.0707 -0.0322412 -0.0173816 -0.0123292
223 3 0.377812 10.4043 9.18667 13.8031 0.0608418 0.0739055 -0.000439569
224 3 0.431598 1.9337 12.318 1.68893 -0.068231 0.00326504 -0.0338752
225 3 0.318371 6.34188 7.75394 8.3026 -0.017927 0.0310686 0.000638194
226 3 0.411712 4.77615 7.83332 8.52516 0.0115197 -0.00912939 -0.089132
227 3 0.460294 12.6007 9.75201 13.8472 0.0758193 0.00697589 0.00885523
228 3 0.421834 9.68157 10.5715 13.9885 0.00495168 0.00269679 -0.0139304
ITEM: TIMESTEP
48000
ITEM: NUMBER OF ATOMS
228
ITEM: BOX BOUNDS pp pp pp
1.3304324024635994e+00 1.5829567597535943e+01
1.3304324024635994e+00 1.5829567597535943e+01
1.3304324024635994e+00 1.5829567597535943e+01
ITEM: ATOMS id type q x y z vx vy vz
1 1 1.70891 15.5898 1.3897 1.49228 -0.0182732 0.000906405 0.00667028
2 1 1.41385 2.94256 3.01719 3.22266 0.00340064 0.0097382 -0.0022842
3 1 1.40279 1.4294 5.26769 4.79604 0.00334421 0.00679297 0.000976525
4 1 1.21829 3.05128 6.74295 6.83002 -0.0188285 0.00444271 -0.00295758
5 1 1.50806 5.2086 1.49153 5.04147 0.0118851 -0.00513991 0.00266141
6 1 1.46992 6.95094 3.42545 6.75136 -0.00229963 -0.00240637 0.00622097
7 1 1.42732 4.93742 4.62603 1.55836 -0.00484026 0.00355361 -0.0182211
8 1 1.44596 6.88951 6.62163 3.24881 -0.00622446 -0.0010361 -0.00590188
9 1 1.3967 1.52886 1.55957 8.51916 -0.00483353 0.00344304 0.00777152
10 1 1.44243 2.87939 3.36154 10.5412 -0.00455142 0.00101613 0.00956515
11 1 1.58055 15.5761 4.99586 12.3062 0.0136735 -0.00169561 0.0109585
12 1 1.28238 3.3375 6.33434 13.9143 -0.00148303 0.00657897 -0.0116655
13 1 1.48272 4.87256 1.40551 12.4403 -0.0122931 0.00292172 -0.00692803
14 1 1.65433 6.80258 3.32309 13.989 -0.00100213 -0.000212718 0.00560044
15 1 1.22571 5.1321 4.71718 8.75298 0.00568621 -0.00173366 -0.0157914
16 1 1.42668 7.06123 6.90116 10.2683 -0.00724766 0.0125658 0.0111716
17 1 1.37523 1.62703 8.35149 15.7148 -0.00140366 0.0114741 -0.00181286
18 1 1.64774 3.39399 10.1503 2.83715 0.00128541 0.00188948 -0.0112367
19 1 1.22799 1.73914 12.2669 4.98632 -0.00187224 -0.00461167 0.0032574
20 1 1.32304 3.28057 14.1033 6.95854 0.00756314 0.0164104 -0.00227347
21 1 1.40054 4.90246 8.4351 4.87779 -0.00251788 -0.00331323 -0.00148087
22 1 1.31487 6.82736 10.5927 6.72014 -0.000292866 0.00363961 -0.0046461
23 1 1.41861 5.02097 12.3475 15.6256 -0.000932734 0.0123895 0.00169042
24 1 1.52074 6.79229 14.0692 3.2446 0.00719411 -0.00313301 -0.0103795
25 1 1.51546 15.8239 8.58194 8.76 0.00739878 -0.00459241 0.0133442
26 1 1.2345 2.9526 10.523 10.4225 -0.00699744 -0.00820161 0.00134156
27 1 1.29975 15.7346 12.3357 12.4018 0.0139696 -0.00200427 -0.0074799
28 1 1.43088 3.02567 14.1804 14.2815 -0.0186047 -0.00903749 -0.00517484
29 1 1.3077 5.04776 8.6179 12.1451 0.00570806 -0.00164397 0.0168274
30 1 1.50023 6.88432 10.5888 13.9088 -0.00160218 -0.00440831 -0.00188137
31 1 1.45237 4.95411 12.009 8.66774 0.00870236 -0.00624107 -0.0124585
32 1 1.11468 6.83497 14.1032 10.4993 -0.00741754 0.00878278 -0.00377117
33 1 1.46796 8.3991 1.41392 15.7391 0.012147 0.00428344 0.00413955
34 1 1.29746 10.2924 2.90521 3.18402 -0.0078479 -0.00822449 -0.00213907
35 1 1.53373 8.88484 5.18407 5.1323 0.000292856 -0.0126677 0.0056701
36 1 1.48126 10.6339 6.63276 6.9041 -0.0082274 0.00654309 0.0153818
37 1 1.35313 12.4948 15.6076 4.59583 -0.00993585 -0.0231179 0.00629504
38 1 1.53031 14.0709 3.37402 6.57548 -0.00791653 0.00612703 -0.0115417
39 1 1.54507 12.3258 5.25618 1.5963 -0.00882783 -0.0122265 0.00152675
40 1 1.56856 14.0425 7.05161 3.35668 0.00384569 -0.00245978 -0.0157148
41 1 1.24485 8.64896 1.37832 8.53616 0.00082114 0.0074675 0.00304579
42 1 1.47444 10.3196 3.19652 10.534 -0.0070589 0.00485404 -0.00532646
43 1 1.82193 8.42947 4.94531 12.022 -0.000355793 -0.00438985 0.00339559
44 1 1.44071 10.336 6.55909 14.1269 -0.00940168 -0.00450452 0.012983
45 1 1.436 12.2802 1.61149 12.4635 -0.00111024 -0.00222365 -0.00854917
46 1 1.71001 14.0309 3.4294 14.4204 0.0115497 -0.0104896 0.00435259
47 1 1.44777 12.318 4.75759 8.65708 -0.00288842 0.0189382 -0.00245802
48 1 1.45568 13.9156 6.82146 10.5656 0.00736011 -0.00263291 -0.00508749
49 1 1.40265 8.40393 8.60923 15.6092 0.011453 0.00202685 0.00950021
50 1 1.4104 10.1416 9.94258 3.38876 -0.00644833 -0.000876979 -0.0100305
51 1 1.62961 8.4896 12.0708 4.75169 0.00467017 -0.000112707 0.000581527
52 1 1.18775 10.0297 14.0569 6.50587 -0.0156527 -0.00882338 0.000812438
53 1 1.48082 12.3282 8.78744 5.25427 0.0148594 0.00250203 -0.00288092
54 1 1.22995 14.1073 10.589 7.00115 -0.000412301 0.00949501 -0.00206355
55 1 1.40506 11.9844 11.6141 1.61706 -0.00995065 0.00315209 0.00605041
56 1 1.39418 14.09 13.56 3.024 0.00935172 -0.00033066 -0.0169135
57 1 1.6627 8.87272 8.53449 8.43233 -0.0012649 -0.00779139 -0.00186482
58 1 1.4373 10.2586 10.3311 10.38 -0.00750849 -0.00419378 -0.00780686
59 1 1.5145 8.85679 12.3332 12.2362 0.0141702 0.00136603 0.00112301
60 1 1.33881 10.4828 14.1044 14.2016 -0.00663917 0.00178303 -0.00241395
61 1 1.57889 11.647 8.23024 11.9413 0.0049493 0.000113577 -0.00936733
62 1 1.55645 14.478 10.6457 14.7465 -0.0029591 0.00861224 -0.0106564
63 1 1.1949 11.9752 12.1778 8.75936 0.00756849 -0.0026175 0.00540111
64 1 1.32637 14.0929 14.4648 10.4158 0.00708974 0.00029012 -0.00631894
65 2 -0.798239 1.79151 2.06373 2.74099 0.00687062 -0.00605188 0.0022465
66 2 -0.851086 2.13263 15.095 15.2812 -0.0150488 0.00385825 -0.00430046
67 2 -0.87245 14.7693 2.53671 15.4028 -0.0236569 0.00710915 0.0155009
68 2 -0.693112 14.6656 14.7277 1.86826 -0.0036413 -0.0143463 -0.000164448
69 2 -0.654964 2.27802 4.36645 3.61701 -0.0176619 -0.013497 0.000574384
70 2 -0.692708 4.22708 2.49942 4.38716 -0.00725548 -0.0125974 -0.0110256
71 2 -0.71848 3.78413 3.66804 2.12372 -0.00634398 -0.00284811 -0.0199703
72 2 -0.726933 2.26101 5.70894 6.02767 0.00787381 -0.00380896 0.000857921
73 2 -0.673507 14.5846 4.45812 5.66592 0.00965658 0.00234277 -0.00667897
74 2 -0.803082 15.0854 6.08586 3.80196 -0.00561891 -0.0188158 -0.0136666
75 2 -0.497791 4.06616 5.59973 7.65901 -0.0103355 0.0110817 0.00426337
76 2 -0.702206 3.91194 8.04685 5.97044 -0.0169839 -0.00507577 0.00436558
77 2 -0.680062 1.84411 7.42394 7.9342 -0.00539383 0.00525132 0.0198863
78 2 -0.749114 6.20366 2.64019 5.69628 0.00473837 -0.00198511 0.0157178
79 2 -0.733332 4.59103 14.9159 5.91812 0.0318766 -0.000793763 -0.00397456
80 2 -0.862007 5.98608 15.0666 4.02701 0.00789105 0.00529631 0.0194385
81 2 -0.704505 5.92439 4.42041 7.28701 -0.0103608 -0.00210806 0.00098319
82 2 -0.778563 8.15918 4.09992 5.74412 0.000692653 0.00119911 0.00771598
83 2 -0.785039 7.78537 2.33832 7.54732 -0.0034555 -0.00942439 -0.000706746
84 2 -0.66623 6.03624 5.42619 2.51422 0.00629646 -0.00541473 -0.0120917
85 2 -0.675626 3.93803 5.582 15.1113 -0.00842898 -0.00762734 -0.00228886
86 2 -0.786873 5.83256 3.77074 15.1129 0.00278667 0.00347633 0.00985482
87 2 -0.84072 5.83633 7.31606 4.12947 0.00422661 0.00859998 0.00677209
88 2 -0.801031 8.02947 5.7174 4.00493 -0.00309897 0.0126428 0.00705239
89 2 -0.713451 7.62337 7.36759 2.05367 -0.000295142 -0.00615141 -0.00631671
90 2 -0.74692 2.47025 2.14517 9.71563 -0.00916877 0.0110483 -0.0108096
91 2 -0.708023 2.46604 15.3032 7.69631 -0.0110851 0.00687768 -0.0064506
92 2 -0.665837 15.2675 2.72594 7.37443 0.0116668 -0.0153004 -0.0133967
93 2 -0.686841 15.0785 14.9361 9.12649 -0.00196011 0.011336 -0.00735531
94 2 -0.835626 2.02579 4.50766 11.0846 0.00747048 -0.00913404 0.00692698
95 2 -0.654804 3.94861 2.56684 11.5459 0.0180475 0.00457426 0.0191336
96 2 -0.64046 4.14639 3.81379 9.60369 0.0124998 -0.0081149 -0.00130682
97 2 -0.742871 2.14685 5.48125 13.3445 -0.00826154 0.0121864 -0.00394212
98 2 -0.903226 14.8244 4.13337 13.3627 -0.010854 0.0122202 0.00363047
99 2 -0.826657 14.5937 6.00855 11.6545 -0.000967659 -0.0250692 0.00306916
100 2 -0.628395 2.74034 7.5276 15.01 -0.00262313 -0.00105414 0.0028597
101 2 -0.61192 4.31287 7.48487 12.7254 0.00468473 0.0150331 -0.00138851
102 2 -0.714498 5.81761 2.09397 13.4791 0.0149705 0.00249448 -0.00968055
103 2 -0.790767 4.21872 14.7704 13.2257 0.00390902 -0.00569122 0.00146788
104 2 -0.66018 5.85038 15.2586 11.56 0.00859156 -0.0134578 0.0199014
105 2 -0.796342 7.79552 2.63575 14.9123 -0.00412807 0.00630529 -0.000474401
106 2 -0.898327 7.42121 4.13572 12.8722 0.00088727 0.00601173 0.00462516
107 2 -0.591023 5.67338 5.76849 9.80337 0.00820296 0.00756417 -0.00732853
108 2 -0.645011 6.19288 7.66087 11.5069 0.0171373 -0.0205201 -0.00308467
109 2 -0.919193 7.80599 5.83655 11.0283 -0.0107642 0.00709167 0.00885528
110 2 -0.782036 8.14206 7.8779 9.6126 0.00685813 0.00687472 0.00284446
111 2 -0.822817 2.58445 9.40699 1.78218 -0.0160934 -0.0100962 -0.00161749
112 2 -0.67286 14.8044 8.09696 2.34463 -0.00983172 -0.00151461 0.00582912
113 2 -0.71844 15.0653 9.26466 14.7583 -0.00104476 -0.00695767 0.010952
114 2 -0.611472 2.40161 10.6128 3.93165 -0.000967825 0.0051247 -0.00450328
115 2 -0.799869 4.00705 9.10641 3.73263 0.00315656 0.00633721 -0.00271482
116 2 -0.749209 4.0856 11.3434 2.27555 -0.000429287 -0.000431438 0.0236044
117 2 -0.65013 2.11127 13.5755 5.90698 0.00300165 0.0105036 0.00403318
118 2 -0.639105 15.3164 11.5924 5.88969 0.00380162 -0.0191646 0.0124429
119 2 -0.719655 14.8737 12.8756 4.14279 -0.0105932 0.00710469 0.00669943
120 2 -0.716303 3.98033 13.2514 7.99251 -0.00863475 0.00125215 -0.0209805
121 2 -0.642297 5.86385 9.46202 5.76813 0.0016349 -0.00187692 0.00135
122 2 -0.840326 5.70444 11.3668 7.53332 -0.0119471 0.000550953 0.00453883
123 2 -0.819648 7.49063 11.1332 5.50256 -0.00180256 0.0160365 -0.00539731
124 2 -0.764174 7.83271 9.21684 7.53077 0.00908093 -0.000941812 0.00150347
125 2 -0.685436 5.54433 13.2093 2.29161 -0.0118945 -0.00361906 0.0117528
126 2 -0.754759 3.76492 13.0039 14.9839 -0.0014198 0.0139067 -0.0157411
127 2 -0.801166 6.19014 11.7975 14.6671 0.000386657 -0.0076943 0.000196008
128 2 -0.682987 7.28962 14.9106 1.89411 0.0124022 0.00348194 -0.00772951
129 2 -0.921753 7.64523 13.1104 4.00821 -0.00666371 0.00599392 0.0019203
130 2 -0.774783 2.47592 9.38928 9.32205 -0.00194644 0.00980044 -0.00545161
131 2 -0.722271 14.8513 7.90737 9.95678 -0.00235887 -0.00247081 0.0148868
132 2 -0.686768 14.7201 9.4639 8.11801 -0.0114701 -0.000418454 -0.0166292
133 2 -0.666535 2.42258 11.6665 11.6004 0.00559184 0.00119067 0.00714633
134 2 -0.60537 3.71594 9.27102 11.5186 -0.0100455 -0.00399858 0.00617938
135 2 -0.798927 4.16855 11.1658 9.68197 -0.00316446 0.0143121 -0.000443336
136 2 -0.638822 1.89566 13.5555 13.2995 -0.00950181 0.00225503 0.0114312
137 2 -0.728664 15.1847 11.2939 13.5301 -0.000854966 -0.000143211 -0.000506054
138 2 -0.635504 14.7934 13.6621 11.5358 0.021439 0.0170024 -0.0180269
139 2 -0.82141 5.94728 9.84531 13.0504 0.00149641 -0.00312785 -0.000972707
140 2 -0.860128 7.53103 9.70702 15.0118 -0.00679964 -0.00162813 -0.013676
141 2 -0.788016 8.14395 11.5047 13.2977 0.0151836 0.00457947 -0.00831294
142 2 -0.62651 6.03397 13.0684 9.37166 0.00530562 -0.00190467 -0.00508375
143 2 -0.625278 7.64691 15.3346 9.71416 0.000665927 0.0111115 -0.000406315
144 2 -0.664139 8.08965 13.5885 11.6942 -0.012684 -0.00959357 -0.00177387
145 2 -0.69069 9.32733 1.74226 2.55663 0.0127992 -0.000646938 0.000804134
146 2 -0.737554 9.37597 15.0974 14.8455 0.00642969 -0.003888 0.000474491
147 2 -0.593537 10.0594 4.12159 4.23318 0.015219 -0.00644886 0.00860205
148 2 -0.641072 11.4934 2.11287 3.81064 -0.0109457 -0.00786512 0.00309284
149 2 -0.562655 11.305 3.77264 2.21073 0.0101969 0.00922795 0.00394846
150 2 -0.826855 10.1453 5.51738 6.00956 0.00651949 -0.00448243 -0.00420093
151 2 -0.739767 11.3496 5.8388 7.9557 -0.00973915 0.00599826 -0.00255685
152 2 -0.670617 11.9848 7.7705 6.32144 -0.00570337 -0.0131035 0.00847198
153 2 -0.922927 9.58253 7.38088 7.76807 0.0112103 0.00426694 -0.00915902
154 2 -0.672148 13.5183 2.14609 5.56578 -0.00552382 0.0106084 -0.0123272
155 2 -0.652995 11.6867 14.6666 5.64368 0.00784291 -0.00981617 -0.0116612
156 2 -0.6827 13.1114 14.7937 3.48701 0.00772672 -0.00578541 0.000781629
157 2 -0.818844 13.4552 3.93428 7.76657 -0.0018812 0.00645335 0.00626965
158 2 -0.812745 13.0499 6.30676 2.44041 0.00465264 -0.0121336 -0.022534
159 2 -0.792488 11.3952 6.17043 15.2422 -0.00784431 0.00105976 0.0182249
160 2 -0.822619 13.3525 4.44011 15.4556 0.00404325 0.00501965 0.00642751
161 2 -0.703196 13.5344 7.90026 4.63361 0.00329948 0.0073337 -0.0152173
162 2 -0.673773 9.97972 2.07707 9.53497 0.00232599 0.00719303 0.00658251
163 2 -0.770222 9.48826 14.8695 7.66909 -0.0068292 -0.00781217 -0.00609395
164 2 -0.882131 9.2409 3.75304 11.4571 0.000561176 -3.28452e-06 0.00105332
165 2 -0.727356 11.2426 2.31228 11.5924 0.00923833 -0.00657485 0.00392163
166 2 -0.772755 11.5935 3.78224 9.73775 0.00179848 0.0122241 -0.01232
167 2 -0.811127 9.27393 5.68243 13.0272 0.0119054 -0.0106303 0.00138047
168 2 -0.753493 9.47946 7.85331 14.6782 0.00938747 0.0102038 0.000172041
169 2 -0.797981 11.2048 7.32615 13.145 -0.0169355 -0.00598669 -0.00444834
170 2 -0.734038 12.9043 2.56189 13.697 -0.0019872 0.0134508 -0.00496408
171 2 -0.648716 11.7159 15.0798 13.4844 -0.000438262 -0.00452233 0.00409936
172 2 -0.754766 13.3465 15.4931 11.3832 0.0068976 -0.00552954 0.00382902
173 2 -0.682299 13.199 5.82074 9.22481 -0.000376772 -0.00159295 0.00508838
174 2 -0.838393 12.9639 7.82726 11.3889 -0.00708797 0.000570546 -0.00856093
175 2 -0.775107 9.07474 9.48879 2.28651 0.0012828 -0.0173975 -0.0113507
176 2 -0.810996 9.65823 11.091 4.33332 -0.00644104 -0.00879803 0.00994545
177 2 -0.741225 11.0459 8.79117 4.23 0.00738639 0.00346005 0.00320486
178 2 -0.778369 11.3247 10.5732 2.53505 0.0119335 0.00125216 -0.00120596
179 2 -0.727744 9.05241 12.7963 5.96314 -0.00878321 -0.00208705 -0.00208989
180 2 -0.57535 11.239 12.8367 7.47377 0.00558275 0.000900435 0.00161621
181 2 -0.728939 13.196 9.87089 5.77664 0.000469401 -0.00561178 0.0021704
182 2 -0.619417 13.3248 11.3652 8.05069 0.00960983 0.00147872 -0.00762141
183 2 -0.658923 12.8874 12.681 2.50206 0.000820332 0.00834993 -0.020291
184 2 -0.612533 11.3309 13.0146 14.9907 -0.00735864 0.00622244 0.00750379
185 2 -0.839297 13.0395 10.9563 15.26 -0.0109722 -0.00750144 0.0133596
186 2 -0.805873 9.42058 9.73719 9.20235 0.0108055 0.00235655 -0.0109915
187 2 -0.863608 9.64762 11.1684 11.4782 -0.00127216 -0.0121442 0.0244979
188 2 -0.793678 10.6534 8.82712 11.0553 0.000506055 0.0032185 -0.00194673
189 2 -0.748464 11.5627 10.9302 9.53082 -0.0043355 0.00128256 0.0103046
190 2 -0.736598 9.96117 13.0723 13.0473 0.000190992 -0.000228264 0.00510137
191 2 -0.700962 12.0601 9.79436 12.475 0.01573 0.00556134 -0.0072841
192 2 -0.66138 13.0487 13.7351 9.46769 0.00424223 -0.000746514 0.00978491
193 2 -0.629861 14.1588 10.5988 11.2542 -0.00491539 0.00712434 0.00146144
194 2 -0.644637 3.97535 12.4348 4.63637 0.00703411 0.00324617 -0.00358386
195 2 -0.567503 8.55096 12.0738 1.49205 0.00217477 -0.0170671 0.00675075
196 2 -0.638168 10.6477 13.6386 9.81461 0.000195256 0.00957777 0.0125373
197 2 -0.601776 11.8963 1.4676 7.86746 0.0074918 -0.000126151 -0.00587426
198 2 -0.635607 8.99581 15.5379 5.23867 -0.00880416 0.00364735 0.0150726
199 2 -0.654372 7.41491 6.52828 6.1958 0.0047916 -0.012874 0.0194433
200 2 -0.51725 13.953 13.5998 6.87915 0.00342533 -0.00953296 0.00805399
201 2 -0.60902 5.59534 12.6037 11.6995 0.0134218 0.000946365 0.0222107
202 2 -0.645931 15.1947 11.1796 1.57481 0.00720942 -0.00357552 0.00813436
203 2 -0.648072 5.53931 8.18331 9.0949 -0.00135874 0.0204285 0.00638643
204 2 -0.657718 10.4577 10.4257 14.6759 -0.000584727 -0.00228982 0.000265044
205 3 0.437279 14.1561 9.57146 11.1655 0.0410014 0.0191483 0.0202018
206 3 0.426086 13.3004 10.6435 11.0206 0.0386783 0.00162214 -0.00320178
207 3 0.374869 4.11926 13.4279 4.378 0.0658851 0.0326189 -0.0418858
208 3 0.39547 4.92914 12.2827 4.86815 -0.0241078 -0.00385796 -0.0106913
209 3 0.401462 9.20254 12.1723 15.1948 0.0287984 -0.0226328 0.0189446
210 3 0.446346 8.01929 11.3107 15.6473 -0.0319187 0.0189201 -0.0225685
211 3 0.382911 9.73083 14.2699 9.56712 -0.0145501 -0.0397215 0.0364042
212 3 0.403163 11.4089 14.0739 10.2448 -0.0295651 0.0962646 -0.0639241
213 3 0.41221 12.5858 1.90116 8.04593 -0.0298498 0.0552674 -0.0138431
214 3 0.392701 12.0577 14.9962 8.20218 0.0273021 -0.00490414 0.0221062
215 3 0.381784 8.02409 15.5571 5.53924 0.00515779 -0.0191787 -0.0473545
216 3 0.398059 9.24386 1.95001 5.51254 -0.00983819 0.0125191 0.0175757
217 3 0.368576 7.92329 7.29156 6.60349 0.0147811 -0.00961329 -0.032407
218 3 0.396271 6.62788 6.94406 5.68692 -0.060367 -0.0487413 -0.0415563
219 3 0.441796 14.0356 13.0073 6.20315 -0.0460255 -0.0518192 0.0161728
220 3 0.37458 12.8603 13.9181 6.68396 0.0365059 -0.0595378 0.015108
221 3 0.385846 5.58114 11.6377 12.204 0.0620074 -0.024419 2.33313e-06
222 3 0.437847 5.11981 13.4428 11.9877 -0.00902094 -0.0161513 0.0532511
223 3 0.416721 10.5232 9.55608 15.1316 -0.0144874 -0.00877581 0.0146732
224 3 0.432552 15.4271 10.5105 2.30442 -0.0167515 -0.0192031 0.0420089
225 3 0.348687 5.03406 8.74724 9.8278 0.00575672 -0.00456727 -0.0654788
226 3 0.408153 5.37964 8.71372 8.375 0.0217293 -0.0188912 0.0198672
227 3 0.370375 11.5458 10.6518 12.3448 0.0263745 -0.0103419 0.00177899
228 3 0.420558 11.1902 10.4643 14.056 0.0235791 -0.0686318 0.0651542
ITEM: TIMESTEP
50000
ITEM: NUMBER OF ATOMS
228
ITEM: BOX BOUNDS pp pp pp
1.3960188377244886e+00 1.5763981162275005e+01
1.3960188377244886e+00 1.5763981162275005e+01
1.3960188377244886e+00 1.5763981162275005e+01
ITEM: ATOMS id type q x y z vx vy vz
1 1 1.41953 15.6934 1.5197 1.53644 -0.0055377 -0.00259332 0.00710572
2 1 1.28199 3.14233 3.62773 3.08174 0.00466505 0.0039668 0.00428649
3 1 1.47691 15.5588 4.7577 5.19642 -0.00126713 -0.0119767 0.00230264
4 1 1.55513 2.99751 6.87334 6.89819 -0.00534552 0.000597102 -0.0013206
5 1 1.39296 5.3841 1.7168 4.64574 0.00112872 0.0042876 0.00335982
6 1 1.58271 6.92293 3.52082 6.68865 0.00579246 0.00467325 0.0122436
7 1 1.38815 5.10866 5.04859 15.6787 -0.0127502 0.0204717 0.00791336
8 1 1.57403 6.97731 6.8989 3.30998 -0.0105811 -0.00820859 -0.00602132
9 1 1.33889 1.75056 15.5781 8.92378 -0.0116308 0.0011451 0.00390491
10 1 1.33712 3.6445 3.06379 10.5409 0.00472988 0.0127798 0.00677859
11 1 1.75871 1.59543 4.93188 12.1739 0.0124997 -0.00562617 -0.00978058
12 1 1.56053 3.16174 6.83079 13.906 -0.00267955 -0.00514362 0.00222136
13 1 1.37989 5.35089 15.5516 12.2163 0.000833792 0.00646748 0.00805479
14 1 1.66122 6.97191 2.99085 14.2385 0.0116886 0.00196243 0.0130755
15 1 1.59648 5.06894 5.06791 8.56642 0.00106704 0.00345345 -0.0112779
16 1 1.586 6.57541 6.66531 10.6614 -0.00527118 -0.00940757 -0.00698938
17 1 1.41877 15.7377 8.15376 1.67177 -0.00255025 -0.0060633 0.0109184
18 1 1.34609 3.2891 10.3023 3.07454 0.0131695 -0.000547424 0.00152112
19 1 1.05273 1.40193 12.2054 5.17378 -0.00712746 0.00397025 0.00131095
20 1 1.325 3.19579 14.3037 6.53219 0.00578919 0.00327545 0.00214635
21 1 1.43631 4.94255 8.51928 4.93588 0.0023248 0.00522158 -0.00552604
22 1 1.58156 6.95396 10.3851 6.97806 0.00462141 0.00299454 -0.00166058
23 1 1.59875 4.89636 12.325 15.6098 -0.00313271 0.00291855 -0.000259587
24 1 1.5851 6.70085 13.8274 3.11364 -0.00312328 -0.00349119 -0.00360942
25 1 1.36252 1.58974 8.72181 8.79944 0.0053235 -0.00627224 -0.0039081
26 1 1.24368 3.30245 10.9423 10.1723 0.0136268 -0.00600966 0.0205365
27 1 1.55014 15.6095 12.138 12.4742 -0.0012978 0.00726408 -0.00164026
28 1 1.41521 3.10978 14.113 13.8383 0.0108207 0.00525694 0.00505112
29 1 1.51296 4.98861 8.66716 12.2248 0.00668551 -0.0085978 -0.00782631
30 1 1.38957 6.85663 10.6657 13.9664 -0.00982582 0.00470051 -0.00256545
31 1 1.55904 5.2194 12.4635 8.26585 -0.00979779 0.00517562 -0.0117505
32 1 1.60268 6.96063 14.163 10.0138 0.000544666 0.00130167 0.00393469
33 1 1.6127 8.70338 15.6243 1.49929 0.00515172 -5.07433e-06 0.00552877
34 1 1.58929 10.4155 3.11652 3.28948 0.010185 0.0195444 0.0156817
35 1 1.6566 8.74803 5.00989 4.83104 -0.00151145 0.0122173 -0.00450708
36 1 1.58365 10.0725 6.7015 6.98625 0.00853929 0.000945434 -0.008871
37 1 1.68023 12.2111 15.6864 5.00738 -0.00502186 0.0018133 0.000480619
38 1 1.16494 14.0052 2.81482 7.18376 0.000656273 0.00257192 -0.00289675
39 1 1.42351 11.951 4.89961 15.6807 0.0124438 0.00129407 -0.00100909
40 1 1.32914 13.6163 6.47085 3.39498 -0.00293562 0.00457084 -0.0019659
41 1 1.47043 8.81884 1.74601 8.45389 -0.00103736 -0.00488424 0.00285987
42 1 1.67309 10.5865 3.37558 10.3356 0.00430449 -0.00809895 -0.00978829
43 1 1.41256 8.34971 4.76544 12.1521 0.0106161 0.00995127 -0.0110386
44 1 1.40309 10.2558 6.42265 13.6185 -0.000868813 0.00608351 -0.00309853
45 1 1.5282 12.3847 1.60205 12.1368 0.00304404 0.00804582 -0.008945
46 1 1.74661 14.1439 3.36214 13.9537 -0.00629593 0.00684194 0.00938862
47 1 1.48622 12.2551 5.18064 8.59376 -0.00456013 -0.0113011 0.000121941
48 1 1.83233 14.1985 6.60872 10.4466 -0.00922609 -0.00523743 -0.00490685
49 1 1.5366 8.61171 8.4416 15.4497 0.000568709 0.00658357 0.00504154
50 1 1.31793 10.265 10.1876 3.07987 0.00450239 -0.000388287 -0.00235276
51 1 1.5365 8.54234 12.1273 5.10526 -0.00145398 -0.00510433 -0.00087964
52 1 1.34682 10.4196 13.8389 6.77748 0.000343445 0.00529107 -0.00538483
53 1 1.5235 11.8331 8.47159 5.20455 -0.00658813 0.00452094 -0.000926151
54 1 1.19019 13.7433 10.3431 7.07371 -0.0135408 -0.00270854 -0.00326582
55 1 1.43332 11.9954 12.3092 15.7121 -0.00388481 -0.0010317 0.00566381
56 1 1.48654 13.8684 13.9861 3.18274 -0.00580678 0.00359671 0.00953394
57 1 1.32012 8.42681 8.5469 8.85228 0.00237328 0.00308793 -0.00296609
58 1 1.37979 10.6518 10.1627 10.5534 0.0138525 -0.0129221 -0.00764631
59 1 1.54419 8.62731 12.3006 11.8835 -0.00505606 -0.00494679 -0.00944625
60 1 1.54756 10.4732 14.1096 13.8037 0.0025464 -0.00836674 0.00854361
61 1 1.64021 12.36 8.20385 12.2302 -2.30407e-05 -0.00431887 -0.00189158
62 1 1.44 14.5784 10.9104 15.0567 -0.0107587 -0.00768107 -0.000367465
63 1 1.31291 12.3257 12.1802 9.02991 -0.0174317 -0.00651219 -0.00437082
64 1 1.50822 14.0849 14.0062 10.6761 0.00764882 -0.00182789 -0.00794801
65 2 -0.70809 2.24317 2.32325 2.59427 0.017405 -0.00797352 -0.000643747
66 2 -0.631009 2.25234 15.2807 14.5295 0.00739637 -0.0160709 -0.000228863
67 2 -0.773656 14.8915 2.4459 14.848 0.000362133 -0.00964862 -0.00593442
68 2 -0.741714 14.7266 14.8362 1.99758 -0.0225084 0.0116888 -0.013554
69 2 -0.713206 2.44209 4.55759 4.18958 0.000686736 0.00472108 0.0159815
70 2 -0.664339 4.31867 2.74281 3.87424 0.00345579 0.00328995 0.0119761
71 2 -0.690038 3.75967 4.53071 1.73328 0.0104832 -0.0112968 0.0181544
72 2 -0.68375 1.88334 5.95973 6.19833 -0.00988833 -0.00624015 -0.00734071
73 2 -0.67138 14.9171 3.90153 6.24236 -0.00693558 0.00349478 -0.00119736
74 2 -0.712515 14.5094 5.23361 4.17034 -0.00566816 -0.00749436 0.00758147
75 2 -0.72459 3.84849 5.88615 7.85325 0.0191282 -0.0140568 0.00353641
76 2 -0.770988 3.99988 7.50429 5.94792 -0.000286225 0.0142188 -0.00714097
77 2 -0.822735 2.67567 7.88944 7.95974 -0.0107314 0.00581853 0.00340615
78 2 -0.735165 6.15368 2.28982 5.81122 0.0133568 0.0267146 0.0150989
79 2 -0.540569 4.16683 15.3757 5.78631 -0.0162826 0.0106629 -0.00992077
80 2 -0.820376 6.00505 14.7929 4.1226 0.0091496 0.00488456 -0.0161613
81 2 -0.921554 6.01178 4.26864 7.69459 0.00797185 -0.0195009 -0.00562809
82 2 -0.899762 7.58752 4.25623 5.57365 -0.00484599 0.00659666 0.0147101
83 2 -0.770418 8.12285 2.67361 7.47 -0.0165646 -0.00415004 -0.0131178
84 2 -0.72613 5.96887 5.93684 2.49896 -0.0176977 -0.000980886 -0.0221519
85 2 -0.66253 4.3909 5.92602 14.4722 0.00560136 -0.00358079 -0.0127448
86 2 -0.730102 5.74518 3.69177 15.0978 -0.00525539 0.010066 -0.000680922
87 2 -0.781009 6.18891 7.9422 4.03764 0.012324 -0.0241822 -0.00400385
88 2 -0.815222 8.18576 6.25251 4.09442 -0.0154533 0.00594415 0.008632
89 2 -0.725178 7.61106 7.63402 2.04178 0.00917279 0.00401981 -0.000807854
90 2 -0.712115 2.85769 1.87088 10.0472 0.006037 0.00280383 0.0047226
91 2 -0.780517 2.57245 15.0241 7.6883 -0.0135892 -0.00727468 0.0144299
92 2 -0.627114 15.0607 2.49687 8.48671 0.00341972 -0.0111438 0.011913
93 2 -0.818265 15.1821 14.519 9.70172 0.00216902 0.00945321 -0.00333482
94 2 -0.694566 2.43624 4.03111 11.1708 -0.0101132 -0.0136016 0.0107522
95 2 -0.685272 4.75829 2.58739 11.9379 0.0130572 0.00297849 -0.0160796
96 2 -0.703382 4.10142 4.06499 9.41498 0.000217649 0.00595324 -0.000315645
97 2 -0.788952 2.65436 5.988 12.7447 0.0134445 0.00252522 -0.0138869
98 2 -0.921518 15.2537 4.19147 13.2985 -0.00270546 -0.0166526 -0.0258407
99 2 -0.969611 15.0656 5.79131 11.4051 0.0107552 0.00462994 -0.00012222
100 2 -0.788092 2.03177 7.60504 14.7646 -0.00602712 0.00367271 -0.00406571
101 2 -0.709298 3.95695 7.97211 13.2392 -0.00493243 -0.00855902 -0.0139209
102 2 -0.720216 6.59527 1.76059 13.5414 0.00361123 -0.00255098 -0.0130957
103 2 -0.777023 4.32291 14.6149 12.9245 0.0036238 0.0215398 0.00967827
104 2 -0.854065 6.02828 14.6359 11.1147 -0.00973223 0.00526663 0.00158532
105 2 -0.816721 7.90995 2.44202 15.2802 0.0104494 0.00622688 -0.00339268
106 2 -0.808357 7.82074 3.96471 13.4331 -0.00493678 -0.00257023 0.0130907
107 2 -0.912426 5.62016 6.06033 9.59708 0.0133272 0.00413653 -0.00508273
108 2 -0.860851 5.71294 7.70293 11.4235 0.0098668 -0.0105442 0.00641665
109 2 -0.739071 7.12315 5.74156 11.7686 -0.0138002 0.0186289 -0.00544007
110 2 -0.749906 7.67844 7.66436 10.1219 -0.0132617 0.00390687 0.00896131
111 2 -0.611742 2.55166 8.89715 2.46618 -0.00869626 -0.0181388 0.000408683
112 2 -0.652523 14.9354 7.43371 2.96148 -0.0104308 0.00376116 -0.00394696
113 2 -0.768732 15.0095 9.47345 15.5524 0.00668564 8.86347e-05 -0.001952
114 2 -0.598474 2.70138 10.9916 4.38856 -0.00975833 0.00956935 -0.00494823
115 2 -0.70099 4.07 9.18872 3.93691 -0.0177281 -0.00408084 0.024834
116 2 -0.747693 4.14247 11.1202 2.01932 -0.00472498 -0.00670171 0.0134167
117 2 -0.629995 2.18948 13.566 5.31424 0.0128211 0.00646182 -0.008736
118 2 -0.58954 14.2689 11.1301 5.87691 0.00938622 0.00298147 -0.00308614
119 2 -0.593433 14.4495 12.8857 4.32769 0.00686736 -0.0062718 0.0108239
120 2 -0.728469 4.48056 13.3297 7.20046 0.00959874 -0.00454386 0.000249331
121 2 -0.646792 5.58657 9.66547 5.97168 -0.0203484 0.0212898 -0.0071178
122 2 -0.764399 6.04322 11.2522 7.89483 0.00697579 0.0068113 0.0175041
123 2 -0.884118 7.60896 11.3984 6.11592 0.000109889 -0.00331516 -0.00700718
124 2 -0.892007 7.65943 9.37945 7.84447 0.0196306 0.0104493 -0.000191739
125 2 -0.888932 5.63099 12.993 2.38768 0.0203456 -0.00283552 -0.000707037
126 2 -0.792168 3.79082 13.2417 15.0613 -0.00017596 -0.000627965 -0.00118634
127 2 -0.802863 5.56502 11.5725 14.4193 -0.00147568 0.00517055 -0.0174607
128 2 -0.881565 7.80164 14.6105 2.24459 0.00560614 -0.0133176 0.00428726
129 2 -0.764176 7.64981 13.0849 4.15465 -0.00337651 -0.00993658 -0.0213643
130 2 -0.701121 2.64274 9.76142 9.41613 0.00748821 0.00638451 0.00939648
131 2 -0.734316 15.1205 7.56484 9.72876 0.0138657 -0.00217053 -0.0142684
132 2 -0.688839 15.0744 9.22446 7.52461 0.010218 0.0106587 0.0031242
133 2 -0.779356 2.17159 11.5299 11.4075 0.020316 0.000901878 0.0117602
134 2 -0.528999 3.87105 9.40284 11.2114 0.00315833 0.0206335 0.0195742
135 2 -0.772142 4.13697 11.5866 8.9378 0.00637283 -0.00745494 0.00292697
136 2 -0.782038 2.08477 12.9566 13.42 0.011887 0.00924337 0.0017349
137 2 -0.784365 15.2204 11.1295 13.6227 0.00556675 0.0205441 -0.0148051
138 2 -0.845353 14.478 12.9999 11.7522 0.00962154 -0.00142358 0.00514676
139 2 -0.661785 5.98592 9.50118 13.1998 -0.00434592 -0.0112119 -0.0172349
140 2 -0.744674 7.65061 9.3069 14.7292 -0.00242462 -0.000279195 0.0126001
141 2 -0.79864 7.76431 11.3843 12.8979 -0.00994119 -0.000721398 0.00314913
142 2 -0.867925 6.41107 13.1531 9.03525 0.00218109 0.00155254 -0.0036601
143 2 -0.755431 7.75072 15.4645 9.50444 0.0039019 -0.00815818 0.0129311
144 2 -0.781303 7.84489 13.2142 10.9405 -0.00631445 0.00308 0.0143374
145 2 -0.780208 9.50531 2.01899 2.57722 -0.00487672 -0.00726085 0.00352294
146 2 -0.78656 9.43623 14.9763 14.5354 0.00718736 -0.00955282 0.00552241
147 2 -0.867146 9.6768 4.32072 3.725 -0.0135615 0.0210941 0.0109339
148 2 -0.864035 11.0961 2.02607 4.29244 -0.016915 -0.00538262 -0.0072062
149 2 -0.713009 11.3572 3.59241 2.07655 0.0125647 -0.00325652 -0.000693674
150 2 -0.814043 9.64955 5.58046 5.9136 0.000640947 0.00250709 0.0147216
151 2 -0.753484 11.0529 6.03437 8.10522 0.0178455 -0.00144662 -0.0117072
152 2 -0.782408 10.8119 7.61911 6.03474 -0.00123667 0.0122012 -0.0118551
153 2 -0.827068 8.90134 7.32389 7.74863 0.00591998 0.00218495 -0.0142355
154 2 -0.711212 13.3044 2.10094 5.69818 -0.00461508 0.000341304 -0.0119869
155 2 -0.81259 11.6344 14.6554 6.10118 -0.00381552 0.00473491 -0.000656025
156 2 -0.830807 12.8517 14.931 3.89275 -0.00357914 0.00467367 0.00664894
157 2 -0.593173 12.6691 4.08462 7.49151 0.0138064 -0.000712041 0.00623915
158 2 -0.737035 12.5799 6.09618 2.3337 -0.012564 -0.00310922 -0.0147059
159 2 -0.71033 10.8281 5.23163 14.6408 -0.00883083 0.000784147 -0.00609732
160 2 -0.791983 13.193 4.28547 14.9286 -0.00735411 0.0117796 0.00581636
161 2 -0.718112 12.8011 7.57113 4.38434 -0.0100272 0.00626827 0.0060686
162 2 -0.772162 9.9893 2.48864 9.2533 0.0111925 -0.00624917 0.0073484
163 2 -0.725153 9.28611 14.6951 7.74822 -0.0108158 0.000561408 0.0182489
164 2 -0.765342 9.24318 3.77592 11.0189 -0.0194534 0.0179321 -0.00559451
165 2 -0.80494 11.4495 2.2778 10.9745 -0.00606529 -0.0105428 0.00108527
166 2 -0.85933 11.3887 4.48624 9.70064 -0.00174308 -0.00183958 0.0112499
167 2 -0.747082 9.22051 5.96267 12.4645 -0.00955283 -0.00876417 0.00226907
168 2 -0.745524 9.60215 7.4914 14.6616 -0.00591685 0.00249015 -0.0174397
169 2 -0.788394 11.5494 7.0282 12.9278 0.00657374 -0.018655 -0.0211239
170 2 -0.843275 13.5069 2.49672 12.9441 0.0114606 -0.00886288 -0.0231586
171 2 -0.777204 11.4904 14.9741 12.9751 0.00148518 -0.00683529 0.00255032
172 2 -0.786338 13.4398 15.4289 11.2013 -0.00109037 0.00323226 0.00495122
173 2 -0.840517 13.5052 6.04519 9.21628 -0.0037111 -2.88108e-06 0.00864271
174 2 -0.903435 13.3146 7.54211 11.2399 0.00512211 -0.00206415 0.00164482
175 2 -0.809956 9.66586 9.35113 1.93011 0.00801197 -0.0166716 -0.0107046
176 2 -0.708468 9.07799 11.2753 3.84986 -0.00879519 -0.0136414 -0.00590575
177 2 -0.678684 10.6981 9.14715 4.34715 -0.00775557 -0.0075183 0.00336326
178 2 -0.739399 11.275 11.1929 2.40988 0.00255479 -0.0015142 -0.00260203
179 2 -0.830967 9.63862 13.0766 5.67721 -0.0147824 0.000950958 0.00155287
180 2 -0.717511 11.2298 12.9893 7.96494 0.0120607 -0.0153507 0.00272183
181 2 -0.667107 12.4056 9.49734 6.28051 -0.00475341 0.00243516 0.00178415
182 2 -0.809875 13.44 11.207 8.37039 -0.00843622 -0.00474471 0.0167052
183 2 -0.693439 12.9449 13.1106 2.44584 0.00440149 -0.00775783 0.022781
184 2 -0.777243 11.4916 13.4925 14.8392 -0.00301592 -0.0202514 -0.00936557
185 2 -0.694677 13.1056 11.5167 14.9141 0.0156106 0.00501918 0.00855625
186 2 -0.708558 9.83575 9.40405 9.50537 -0.00618171 -0.00399243 0.0155109
187 2 -0.686619 9.64124 11.6129 10.8936 -0.0064748 0.00610014 -0.00415786
188 2 -0.831633 11.219 9.28276 11.669 0.00680808 0.00652942 -0.00302238
189 2 -0.669577 11.8039 11.2202 10.2559 0.00566249 0.0049036 -0.00283945
190 2 -0.744111 9.40969 13.2232 12.8692 -0.0146455 -0.00607276 0.00459184
191 2 -0.799646 13.2706 8.86657 13.1659 0.0142048 -0.013025 0.00800347
192 2 -0.877654 12.945 13.306 9.81966 -0.00710222 0.00611655 0.00472782
193 2 -0.624765 14.2343 9.99412 10.9006 -0.00716687 -0.00119854 -0.00728772
194 2 -0.611554 2.34858 11.3346 6.87139 -0.00391006 0.00190559 -0.00209359
195 2 -0.704225 7.92943 11.8946 15.5814 0.0102258 0.00393516 -0.00916508
196 2 -0.561979 10.4877 14.3659 10.2926 -0.000904037 0.00451135 0.00133574
197 2 -0.596957 12.8163 1.67348 8.40247 0.00484009 -0.00567409 0.00355139
198 2 -0.564654 8.5072 1.41047 5.39178 -0.0152946 -0.00168218 0.0151104
199 2 -0.613206 6.49579 7.19217 6.57405 0.00687734 -0.00882232 0.000920099
200 2 -0.671916 14.2697 14.0027 7.34236 0.0120234 0.0120083 -0.0208325
201 2 -0.690922 5.04506 11.842 11.4413 -0.00877372 0.00608169 -0.0100228
202 2 -0.656643 15.2982 12.0593 1.49419 0.00375484 -0.00750506 -0.00262022
203 2 -0.638179 5.06488 8.37422 8.53546 0.00892635 -0.0192697 0.00716375
204 2 -0.636959 11.1683 10.9495 14.011 -0.0260382 -0.000243537 0.00266284
205 3 0.386031 14.9064 10.275 11.4258 0.0747251 0.0730218 0.0155158
206 3 0.408633 14.2594 10.5267 10.1153 -0.0302956 0.0109317 -0.0515635
207 3 0.381463 1.79775 10.3535 6.73856 -0.016414 -0.0264576 0.0682916
208 3 0.410492 3.44589 11.0361 6.87494 0.0199394 -0.0378403 -0.0036857
209 3 0.378299 8.09749 11.105 1.79401 0.00963906 -0.0382385 0.0295076
210 3 0.409117 8.31365 12.6576 15.9517 0.0314652 0.0166417 0.0841535
211 3 0.42679 10.1484 14.1723 9.40031 -0.0238348 0.0394933 0.042999
212 3 0.447977 11.3793 14.1917 10.2213 0.0603732 -0.050373 -0.0494792
213 3 0.369826 13.2705 14.9133 8.09367 0.00394476 0.00878593 -0.0527666
214 3 0.424215 13.2224 1.86889 9.30835 -0.0121691 0.0124923 0.0919719
215 3 0.405575 9.34345 15.3432 4.99908 -0.00179485 -0.0254625 0.00304368
216 3 0.437674 7.8101 15.1173 5.52129 -0.0136368 0.00728034 -0.0186663
217 3 0.406883 7.4945 7.05011 6.98288 -0.0712619 -0.0819454 -0.0207106
218 3 0.42722 6.22411 7.79678 7.17983 0.00366377 -0.00526313 -0.0431922
219 3 0.393 13.5457 13.6846 6.78363 -0.0753823 0.0587138 0.0454662
220 3 0.355374 14.4102 13.1959 8.00176 -0.0359822 -0.00982606 0.00742193
221 3 0.462437 5.2641 11.8423 12.2858 0.0163233 0.0201019 -0.0218188
222 3 0.382146 5.40478 12.6224 10.871 -0.065769 -0.0321504 0.0435071
223 3 0.435014 10.997 10.6089 13.156 -0.000348224 -0.0647001 -0.0137156
224 3 0.447586 1.8834 12.4069 15.7114 0.002805 -0.0902604 -0.00855954
225 3 0.505307 4.24228 7.97426 8.3627 -0.062953 0.0431202 -0.0537955
226 3 0.410876 5.50088 8.15415 9.40117 -0.0271976 -0.0116389 -0.0511521
227 3 0.487174 13.9717 9.43216 13.2008 0.0229876 0.0301561 -0.0424071
228 3 0.380783 10.6344 10.558 14.7512 -0.0539514 -0.0915804 0.0260715
ITEM: TIMESTEP
52000
ITEM: NUMBER OF ATOMS
228
ITEM: BOX BOUNDS pp pp pp
1.3948445772723694e+00 1.5765155422727206e+01
1.3948445772723694e+00 1.5765155422727206e+01
1.3948445772723694e+00 1.5765155422727206e+01
ITEM: ATOMS id type q x y z vx vy vz
1 1 1.41773 1.68115 15.6759 1.80511 -0.00486075 -0.00753521 -0.00295307
2 1 1.5217 3.4259 3.1498 3.34095 0.00226705 0.0068282 -0.000164587
3 1 1.49615 15.7275 4.45276 5.06499 -0.00671482 -0.00223879 0.00838477
4 1 1.40532 3.29595 6.60151 6.72179 -0.00113256 -0.00201641 -0.00543808
5 1 1.36983 5.41978 1.85718 5.10877 0.00286275 0.0101176 -0.00419977
6 1 1.25704 7.13409 3.75366 6.96781 -0.00399701 -0.00498968 0.00281094
7 1 1.61384 4.69483 4.91063 15.714 0.000170297 -0.0057801 -0.00886987
8 1 1.51629 6.53561 6.79046 3.1356 0.0142215 0.000857314 -0.00351306
9 1 1.53312 1.60463 15.5866 8.85348 -0.00168887 0.0157529 0.0066098
10 1 1.50257 3.30631 3.29499 10.1795 -0.00156177 -0.0026548 -0.0127692
11 1 1.35419 1.54766 5.26405 11.9968 -0.000362065 0.00620242 -0.0107659
12 1 1.66405 3.15985 7.02539 14.1147 -0.00831727 0.000268372 0.00172159
13 1 1.27867 4.60255 1.60355 12.3938 -0.00554382 0.00424277 0.00438574
14 1 1.94517 6.70114 3.23711 14.2103 -0.00235308 0.00531905 0.00636355
15 1 1.49858 5.16478 5.23623 8.72132 0.00308604 0.00830985 0.0080179
16 1 1.57211 6.72479 6.92514 10.7404 -0.00233975 -0.00980576 0.000662268
17 1 1.7121 1.47009 8.20163 1.85713 -0.0138748 -0.00089922 0.00037691
18 1 1.73949 3.10488 10.4255 3.20352 -0.00664225 -0.00107171 0.000731503
19 1 1.5453 1.51793 12.2985 4.87905 -0.019069 0.0107209 -0.00155137
20 1 1.46112 3.30864 14.1545 6.59174 -0.00527065 -0.00281041 0.00372874
21 1 1.34146 4.65878 8.59188 4.98381 0.00116373 -0.00584798 0.00567547
22 1 1.42401 6.65119 10.4832 6.86276 -0.0090214 -0.00783197 0.00455133
23 1 1.27235 4.93502 12.212 1.41322 0.00503022 -0.00047101 0.0065726
24 1 1.4879 6.81719 13.926 3.3882 0.0135901 -0.0094131 0.0123689
25 1 1.23918 1.58442 8.43722 8.60653 0.000786285 -0.0152132 -0.00188994
26 1 1.36576 3.63712 10.4146 10.4892 -0.00471687 0.00237992 -0.00807913
27 1 1.38423 1.5679 11.9093 12.3168 0.00129123 0.0157884 0.00422767
28 1 1.46029 3.08429 13.8439 14.0145 -0.00713391 9.71623e-05 0.002648
29 1 1.41768 5.08895 8.77625 12.5682 0.00126929 0.00422714 -0.00263382
30 1 1.22463 7.2128 10.6979 13.76 -0.000115792 -0.00454167 -0.00271666
31 1 1.24084 5.24903 12.6925 8.56861 0.00135505 0.000979841 -0.00352057
32 1 1.3547 6.5299 14.9941 10.0486 0.00272209 -0.00752072 0.000637357
33 1 1.47818 8.45367 1.4121 1.46482 -0.00771551 0.00532083 0.00203991
34 1 1.37824 10.3062 3.10634 3.29239 0.00637192 -0.0154935 -0.0020113
35 1 1.65705 8.59453 5.43182 4.83843 0.00546533 -0.00871565 -0.00139521
36 1 1.76293 10.3203 6.9526 6.82577 0.00153771 0.000435977 -2.23885e-05
37 1 1.55123 12.099 15.6787 5.12894 0.00527273 0.00203021 -0.00874896
38 1 1.58837 13.9198 2.84077 6.98347 0.0017061 0.00158694 -0.00139491
39 1 1.45084 12.3696 4.60488 1.52944 -0.00257601 0.0177463 0.00144151
40 1 1.39169 13.9705 6.40656 3.60822 -0.00476591 -0.00266778 0.00435586
41 1 1.17475 9.04528 1.61064 7.98189 -0.0065113 -0.00240544 -0.00662416
42 1 1.45826 10.4213 3.19582 10.3379 -0.0142305 -0.00136287 -0.0110234
43 1 1.56982 8.25702 4.70552 12.1316 0.00124648 0.00127426 0.0168037
44 1 1.58152 10.3558 6.09811 14.0617 0.00467646 -0.00171696 0.00012433
45 1 1.2292 12.4142 1.75351 12.4814 0.000366916 -0.00687528 0.00861143
46 1 1.33251 14.4825 3.47089 14.0717 -0.00995265 0.000856385 0.00278305
47 1 1.57483 11.9985 4.99545 8.36231 -0.00930177 0.00382112 0.00693882
48 1 1.40018 13.7388 6.68036 10.0586 -0.00610944 0.00500236 -0.00668471
49 1 1.2695 8.74985 8.23384 15.4126 0.00541151 -0.0126353 0.00465802
50 1 1.48365 10.2005 9.96236 3.13064 -0.00318885 0.00159256 -0.00897595
51 1 1.51812 8.47285 11.7814 4.80179 0.0101954 0.00317874 0.0105749
52 1 1.41741 10.4733 13.5185 6.66326 -0.00556931 0.000171391 0.0103278
53 1 1.28092 12.2887 8.56162 4.9057 9.7762e-06 -0.00125197 0.00479318
54 1 1.46459 14.3834 10.2916 6.72553 0.00862269 -0.00286036 -0.0237455
55 1 1.42414 12.3055 12.1481 1.5647 0.0128007 0.0145114 -0.019288
56 1 1.27899 13.9301 13.9228 3.32195 0.000662949 0.0125544 -0.00177256
57 1 1.50688 8.58715 8.66031 8.48597 -0.00305175 -0.00179363 0.00458371
58 1 1.40825 10.2575 10.4765 10.2484 0.00148631 -0.00430789 0.00952655
59 1 1.05008 8.48729 12.6421 11.73 0.00125238 0.0128372 -0.0112442
60 1 1.15478 10.573 14.0523 14.1035 -0.00316192 -0.00609472 0.000120719
61 1 1.25976 11.6806 8.11488 12.0467 -5.28751e-05 -0.014309 0.00138476
62 1 1.60241 14.6649 10.637 14.8851 -1.22656e-05 0.00235665 0.0010364
63 1 1.23147 12.4317 11.8042 8.65469 -0.00570266 -0.00576063 -0.00293608
64 1 1.18823 13.9908 13.8659 10.7256 0.0152239 -0.00403752 0.00206098
65 2 -0.799102 2.88453 2.13948 2.42705 0.00887537 0.000740692 0.0109416
66 2 -0.675473 2.37708 14.3839 15.3829 0.0160693 -0.0141141 0.0183615
67 2 -0.645433 15.2176 2.50525 15.3566 -0.00618766 0.00336772 0.00225291
68 2 -0.722514 15.1526 14.9394 2.80477 0.0181369 -0.00710805 -0.0055249
69 2 -0.795478 2.40218 3.55365 4.55271 0.0133096 -0.00894149 0.0172972
70 2 -0.793183 4.7779 2.84269 4.10743 -0.00533759 0.0109299 -0.0144885
71 2 -0.820635 3.61639 4.2672 2.07576 0.00627091 -0.0156511 -0.0121218
72 2 -0.633895 2.57068 5.40543 6.15869 -0.00429819 0.0015737 -0.000573879
73 2 -0.771412 14.6168 3.71321 6.01322 0.00354726 -0.0144569 0.000316076
74 2 -0.751239 15.1479 5.56578 4.17692 0.0060109 0.00159244 0.00417885
75 2 -0.809151 4.65123 6.22043 7.49692 -0.00305638 0.00662511 -0.0134235
76 2 -0.766044 3.56925 7.55967 5.49361 0.0050329 0.00539171 0.0036941
77 2 -0.662888 2.52749 7.17163 8.09535 -0.0139203 0.0210224 -0.00610693
78 2 -0.636365 6.26165 2.24193 6.44023 0.0034207 0.0130696 0.0122169
79 2 -0.643763 4.24552 15.3277 5.74017 -0.000878993 -0.0116479 0.00180556
80 2 -0.762911 6.29898 15.2746 4.09023 0.00297732 -0.000847166 -0.00101931
81 2 -0.757186 6.20208 4.27506 8.09753 0.00186428 -0.00351281 -0.0149768
82 2 -0.824411 7.59253 4.61064 5.68035 -0.0125693 0.00460716 0.0110125
83 2 -0.659558 8.55334 2.87874 7.4824 0.00956067 0.00920577 0.0134254
84 2 -0.736369 5.38948 6.03176 2.21581 -0.0255668 0.00698335 -0.00192216
85 2 -0.762635 4.1763 5.92897 14.5144 -0.000738237 0.00148973 0.00203417
86 2 -0.945621 5.89277 4.24656 14.9239 0.0104665 -0.0157597 0.00335877
87 2 -0.723033 5.64297 7.83666 3.78028 0.0149427 0.00256788 -0.0163509
88 2 -0.894581 7.80471 6.33871 3.83728 -0.00193242 8.57422e-05 -0.0151346
89 2 -0.578579 7.17549 7.66005 2.0146 0.00270478 0.00535632 -0.0119538
90 2 -0.821233 2.41168 2.21443 9.58005 0.0107975 0.011146 -0.0137316
91 2 -0.741351 2.36769 15.1113 7.49671 0.00970623 -0.00196119 -0.000843134
92 2 -0.681779 15.1795 2.27263 8.1074 -0.00495412 -0.00416963 -0.00145575
93 2 -0.766507 15.0237 14.5788 9.71017 -0.00785678 0.00126826 0.0050948
94 2 -0.63892 2.43008 4.59845 10.8312 0.0101206 -0.00702291 -0.00295619
95 2 -0.611944 3.82827 2.86337 11.7905 -0.000215428 -0.00853833 0.00825813
96 2 -0.760584 4.25574 4.0364 9.27395 -0.00516923 -0.0112522 0.00699827
97 2 -0.731334 2.11933 6.46804 13.0987 -0.00362029 -5.09871e-05 0.013232
98 2 -0.66834 15.2685 4.06193 12.7783 0.000543175 -0.0168474 0.0214196
99 2 -0.665795 14.6773 5.81722 11.0315 0.00493859 0.0194452 0.0153456
100 2 -0.837269 2.34217 7.21318 15.4497 0.0073239 0.00228619 -0.00187991
101 2 -0.814052 3.71485 8.21297 13.4891 0.0110867 0.00711904 -0.00754432
102 2 -0.775876 5.98709 2.17944 13.4522 -0.01225 0.00948979 0.011609
103 2 -0.698073 3.37905 15.2132 13.2914 0.00804022 0.00470845 -0.00686628
104 2 -0.638843 5.23923 15.7538 11.0051 0.00270052 -0.00088805 0.0124561
105 2 -0.913802 7.69744 2.60644 15.0739 0.00666514 0.015804 0.000254756
106 2 -0.888547 7.45835 3.83249 13.0443 -0.0107256 -0.000545554 -0.0037356
107 2 -0.80111 5.65059 6.16432 9.86956 -0.0119692 0.0132541 0.00998736
108 2 -0.776072 5.67511 7.8262 11.546 0.00689083 -0.0254311 -0.0194522
109 2 -0.828244 7.36736 5.64753 11.3156 0.0143276 -0.0119112 0.0100468
110 2 -0.707503 7.82771 7.62018 9.94507 -0.00148588 -0.0124029 -0.0067875
111 2 -0.889458 2.28594 9.21893 2.62634 0.00750245 0.0180006 -0.00485245
112 2 -0.76669 14.7983 7.316 2.47686 -0.0204782 -0.0190004 0.00290781
113 2 -0.842359 14.9765 9.27895 15.304 -0.0144737 -0.000210097 -0.000388692
114 2 -0.858752 2.05015 11.3743 3.73341 -0.00577817 -0.0258207 -0.00753696
115 2 -0.793199 3.88924 9.8417 4.44916 0.00982446 0.00359692 -0.00897616
116 2 -0.849544 4.01971 11.0243 2.22274 -0.0012103 -0.00731511 0.0170289
117 2 -0.800052 2.40026 13.4598 5.486 -0.00269109 -0.0157146 0.0103028
118 2 -0.824071 15.4925 11.2333 5.93996 0.012039 0.0164053 0.0160764
119 2 -0.715882 14.6321 13.1896 4.6135 -0.00600649 -0.00425412 0.00986845
120 2 -0.707409 4.02713 13.1895 7.4345 0.00301515 -0.0106792 -0.00574769
121 2 -0.801471 5.47772 9.40173 6.21755 0.0135018 -0.00446312 0.00465941
122 2 -0.666771 6.09078 11.8093 7.42285 -0.00895194 -0.00184207 -0.00563534
123 2 -0.685625 7.26793 11.2832 5.67856 -0.00434985 0.00415087 0.000163153
124 2 -0.774994 7.69767 9.78893 7.76846 -0.00148599 0.0106242 0.00047191
125 2 -0.693274 5.80961 12.8888 2.58712 0.0144721 0.00738719 -0.00851597
126 2 -0.674312 4.49199 13.3967 14.7571 -0.00878563 -0.00294949 -0.00465793
127 2 -0.592691 6.00524 11.5097 14.6744 0.0313841 -0.0103614 0.0120122
128 2 -0.77838 7.7179 14.5763 2.32002 -0.00317709 -0.00743436 0.0139726
129 2 -0.794379 7.61667 13.0004 4.37077 -0.00941702 0.01329 -0.00403339
130 2 -0.656356 2.38935 9.61154 10.0489 -0.0107824 -0.00245498 -0.0119525
131 2 -0.632485 14.6506 7.95422 9.24686 -0.00336432 0.0178229 -0.0101972
132 2 -0.715265 15.108 9.09977 7.41764 -0.000954261 0.00523015 -0.0110362
133 2 -0.724053 2.90698 11.3657 11.6303 -0.00396909 -0.0176706 0.0116302
134 2 -0.733496 4.59028 9.71041 11.3218 -0.0153073 0.00531053 -0.00160403
135 2 -0.58756 4.14665 11.5295 9.12571 -0.0116438 -0.000658969 -0.00215394
136 2 -0.807901 2.28808 12.7406 13.4587 0.0058202 0.00464833 -0.0114511
137 2 -0.682028 15.1768 10.8544 13.4322 0.00244031 0.0054486 0.00660529
138 2 -0.662625 15.1398 13.2455 11.5345 0.00747396 0.00309868 0.00238021
139 2 -0.673418 6.3379 9.70929 12.9087 -0.00294359 -0.00289458 0.00286265
140 2 -0.627866 8.54888 9.26259 14.2015 -0.00537138 -0.00994513 -0.0171556
141 2 -0.648354 7.47811 11.6331 12.5722 -0.000963227 0.000701402 0.0161774
142 2 -0.732446 5.60419 14.0426 9.28261 -0.00546382 -0.00504165 0.0257502
143 2 -0.585067 7.44068 15.7106 8.97674 0.00966196 0.00729255 0.00172458
144 2 -0.695395 6.9959 14.0519 11.1518 -0.0185969 0.00412296 0.0110983
145 2 -0.68928 9.20982 1.96933 2.76215 -0.0108238 0.0129949 0.0133822
146 2 -0.720732 9.38759 15.0045 14.861 0.0133278 0.0139887 0.00894625
147 2 -0.728065 9.46801 4.20483 4.26243 0.00776548 -0.00958269 -0.00366449
148 2 -0.705072 11.2807 2.44814 4.32497 -0.000360816 0.00400586 -0.00788854
149 2 -0.690381 11.425 3.48638 2.2128 -0.00226231 -0.014159 -0.00468242
150 2 -0.903235 9.41223 6.13962 5.8675 0.0031262 0.00233702 0.00550903
151 2 -0.875244 11.1287 6.09863 7.73972 0.0050771 -0.00810774 -0.0133273
152 2 -0.683479 11.4644 7.43218 5.85818 0.00834763 0.00022367 0.0117493
153 2 -0.862822 9.51564 8.08739 7.43449 0.00170094 -0.00475306 -0.012908
154 2 -0.85529 13.0605 1.97411 6.07447 0.0133351 0.0154212 0.0120408
155 2 -0.801305 11.1941 14.8298 6.09896 -0.00984343 -0.00427916 -0.00199133
156 2 -0.736769 12.7565 14.6054 4.00996 -0.00238537 0.00382569 0.00305284
157 2 -0.714641 12.7797 3.93691 7.42679 0.00880422 -0.0152349 -0.0208522
158 2 -0.710766 13.2026 5.15707 2.86738 0.00214502 -0.00436171 -0.00471081
159 2 -0.763111 11.0905 5.14141 15.1959 -0.00577049 0.00751336 -0.00760443
160 2 -0.774159 13.2843 4.37539 14.726 -0.0298234 0.0162009 0.00808343
161 2 -0.642406 13.6753 7.5884 4.63571 -0.0167777 0.00861545 -0.00652775
162 2 -0.744396 9.71766 2.06799 9.33348 0.0123586 -0.0157492 -0.0150167
163 2 -0.658301 9.15057 14.3195 7.21387 0.0125942 -0.00290822 -0.0099585
164 2 -0.692129 9.15525 3.83895 10.9723 -0.00449852 -0.00375343 0.00230601
165 2 -0.666464 11.2923 2.77405 11.5704 -0.00215108 -0.00191433 0.003595
166 2 -0.79061 11.112 4.37401 9.52857 0.0110743 -0.00758859 0.00309114
167 2 -0.755882 9.43473 5.33804 13.2357 0.0159022 0.017018 0.00239178
168 2 -0.727575 9.16012 6.86976 14.7891 -0.0127108 0.0010885 0.00481314
169 2 -0.818973 10.9915 7.0894 13.1078 0.00345452 0.00707323 0.00369892
170 2 -0.652364 13.7307 2.46232 13.1591 -0.00970582 0.0246411 -0.0122575
171 2 -0.662522 11.6075 14.9475 13.2004 0.0110937 -0.0145729 -0.00265514
172 2 -0.542499 13.1986 15.4211 11.1349 0.00186323 -0.0045482 -0.0170346
173 2 -0.774248 13.1198 5.96539 8.89709 0.0102248 0.0297429 0.0142264
174 2 -0.662246 12.9633 7.71833 11.0666 -0.00504966 0.0255311 0.00158271
175 2 -0.788906 9.68104 9.16561 1.94473 0.00428785 -0.00235847 -0.0155749
176 2 -0.793397 9.03392 10.5246 4.01233 0.0103044 0.00180059 0.0062848
177 2 -0.769667 11.1149 8.99295 3.89287 0.00363421 -0.000962954 -0.00409708
178 2 -0.66115 11.1561 11.3507 2.48807 0.00917253 0.00731274 0.0132742
179 2 -0.693037 9.67007 12.3877 5.6967 0.00383911 -0.00609671 -0.0127215
180 2 -0.743841 11.3634 12.8002 7.5837 -0.00442252 0.00673839 -0.0128437
181 2 -0.632865 13.112 9.60656 5.87582 -0.00164782 0.00521949 0.00920759
182 2 -0.741775 13.6354 11.1976 7.64411 0.010313 0.00114765 -0.00434767
183 2 -0.698128 13.4127 12.3297 2.43779 0.000302515 -0.00422966 -0.006999
184 2 -0.738345 11.5088 13.3452 15.2299 0.000342613 0.0180981 0.00212436
185 2 -0.790874 13.1944 11.1061 15.0393 -0.000583423 0.00199923 -0.0116628
186 2 -0.732888 9.39278 9.54601 9.46041 -0.00894699 0.00201032 0.0155154
187 2 -0.689637 9.13212 11.5139 10.6867 -0.0151259 -0.00590241 -0.0131951
188 2 -0.6763 10.8071 9.45624 11.3892 0.000937564 0.00151181 0.00975179
189 2 -0.669784 11.5007 10.5794 9.225 -0.0205556 -0.000833389 0.00359223
190 2 -0.646992 9.58208 12.8799 12.8743 0.0136553 -0.0180069 0.00236593
191 2 -0.56681 12.5158 9.04566 13.0603 0.00631452 -0.0103719 -0.0102389
192 2 -0.677187 12.9038 12.6396 9.94721 -0.00435179 0.000369752 -0.0320219
193 2 -0.621716 14.7486 10.7321 10.7814 -0.0115607 -0.00122858 -0.000310706
194 2 -0.732243 3.07565 9.59112 7.29053 -0.000908602 0.00474857 0.00585657
195 2 -0.680643 8.53497 12.1475 15.014 -0.00854938 -0.00402183 0.00440296
196 2 -0.628051 9.80747 14.5102 10.7903 -0.0051392 0.00457665 -0.012318
197 2 -0.62243 12.6794 1.65714 8.47912 -0.00451013 -0.0042057 0.00146917
198 2 -0.551428 8.65066 15.4111 5.06815 0.00816691 -0.0124705 0.0100477
199 2 -0.681373 7.23327 7.39542 7.17535 0.00419903 0.0176563 -0.00106377
200 2 -0.624571 14.2916 13.7227 7.28134 0.00515693 -0.00240891 -0.0186918
201 2 -0.622851 5.11911 13.023 12.586 0.00120107 0.00434873 0.0169421
202 2 -0.597845 15.7706 11.6001 15.523 0.00911587 -0.0125798 0.00705058
203 2 -0.626112 5.05197 9.37245 8.90029 0.0165355 -0.00959994 0.00218132
204 2 -0.724802 10.6315 10.7791 13.4557 -0.00232798 -0.00751235 -0.00636651
205 3 0.403482 15.1965 10.8046 10.0715 0.026295 0.0177136 0.047329
206 3 0.404295 14.2389 9.82937 10.35 -0.0848411 0.0305389 -0.00288405
207 3 0.45225 2.60766 9.92751 6.53614 0.0696355 0.0398957 0.0671799
208 3 0.460685 3.88329 9.68517 7.17061 0.000257725 0.00977754 0.0302197
209 3 0.428342 8.45444 12.9296 15.5663 -0.0735254 -0.0324227 -0.0482008
210 3 0.415299 9.32056 12.0991 14.4759 0.0427853 0.0274336 -0.0405278
211 3 0.359668 9.90449 14.3745 9.90004 -0.0855895 -0.0096061 0.0453998
212 3 0.356015 8.89407 14.7672 10.7641 -0.000587547 0.110414 -0.0259194
213 3 0.359309 11.7766 1.4126 8.6219 0.00439427 -0.0113989 -0.0892625
214 3 0.36953 12.885 15.1383 7.96251 -0.0624384 -0.0134172 0.110859
215 3 0.393375 8.00402 1.76794 4.96256 0.0862195 -0.0410933 -0.0348367
216 3 0.429239 8.04792 14.8336 5.48513 0.0837097 -0.0331257 -0.0137466
217 3 0.348993 6.38404 7.94818 7.18252 0.0495823 0.0210003 0.035173
218 3 0.410605 6.9985 6.56114 7.05377 0.0110414 -0.106032 -0.0120652
219 3 0.455074 14.8227 13.5738 6.58127 0.014838 -0.0117978 -0.0209549
220 3 0.344779 14.7913 13.8874 8.24494 0.0135018 -0.0220183 0.0341765
221 3 0.472065 6.03877 13.2273 12.5772 -0.0309941 -0.0169722 0.0195882
222 3 0.42635 4.78933 12.2734 12.053 -0.0160251 -0.00689446 -0.00674742
223 3 0.439536 10.0378 10.0133 13.6775 0.00308397 -0.00475 0.000731549
224 3 0.385885 2.51965 11.5516 15.3519 -0.0182383 -0.01607 0.0351038
225 3 0.325008 5.31242 9.20841 7.96271 -0.0291383 -0.0495514 0.00568433
226 3 0.381388 4.80692 8.43246 9.20799 0.122259 -0.0443928 0.0382258
227 3 0.438162 11.9752 9.75612 13.6386 0.0722214 0.0524893 0.0275889
228 3 0.44739 10.5893 11.2515 12.7258 -0.00463342 -0.0196174 -0.00411629
ITEM: TIMESTEP
54000
ITEM: NUMBER OF ATOMS
228
ITEM: BOX BOUNDS pp pp pp
1.3564823752893638e+00 1.5803517624710206e+01
1.3564823752893638e+00 1.5803517624710206e+01
1.3564823752893638e+00 1.5803517624710206e+01
ITEM: ATOMS id type q x y z vx vy vz
1 1 1.49644 15.8015 15.7348 15.6911 -0.002262 -0.0091348 0.00214125
2 1 1.41145 3.36693 3.09225 3.17201 0.00224501 0.00282858 0.0165645
3 1 1.52677 1.39316 4.79197 4.89631 0.0118725 -0.0114721 0.00282657
4 1 1.3749 3.1612 6.85417 6.55817 0.00361531 -0.0100835 -0.00812496
5 1 1.32818 5.34756 15.6479 4.74999 -0.00543205 -0.00399008 0.00521298
6 1 1.47721 6.70472 3.29951 6.53605 -0.0106166 0.00579338 0.00193957
7 1 1.75862 5.02946 5.05184 15.7798 -0.00867252 -0.00815909 -0.00132645
8 1 1.50914 6.93975 6.61803 3.16234 -0.0105844 0.00958044 0.00539586
9 1 1.75706 1.52238 15.5959 8.73231 -0.00121223 0.0131231 -0.0106855
10 1 1.76541 2.8598 3.34081 10.2257 -0.0092749 0.00193759 0.00711462
11 1 1.58819 15.6884 5.0923 12.215 -0.0062615 0.00787396 -0.00487347
12 1 1.42791 3.03798 6.8279 13.852 -0.00851084 -0.00396885 -0.00287992
13 1 1.39362 4.80021 2.07122 12.3759 0.00104142 -0.0111723 -0.000399092
14 1 1.44304 7.03542 3.44504 14.1414 -0.00405984 0.0076405 0.0124047
15 1 1.43382 4.85895 5.03627 8.48995 0.000513646 -0.00244759 -0.00996473
16 1 1.31847 6.79585 6.9899 10.6198 0.00436892 0.0119282 0.0108461
17 1 1.52668 15.6676 8.3502 1.60218 0.00180792 -0.00905742 -0.00101539
18 1 1.52305 3.14599 10.193 3.51225 -0.00421755 -0.00297009 -0.00822722
19 1 1.35086 15.5991 12.3703 5.07004 0.00496741 -0.00445326 -0.0102746
20 1 1.43867 3.21779 14.1272 6.67166 -0.00645805 -0.00329268 -0.00127932
21 1 1.48646 5.30771 8.60828 4.97532 -0.0205904 -0.00170184 0.000750934
22 1 1.42676 6.88984 10.6971 6.77629 0.00855625 -0.00667406 -0.00895449
23 1 1.48193 4.91176 11.8808 1.76722 0.000102779 0.0109148 0.0132315
24 1 1.21138 7.08802 13.7124 3.15367 0.00222852 -0.0097647 0.0017241
25 1 1.46675 15.6665 8.68573 8.51856 0.00350903 0.00269306 0.00785104
26 1 1.32234 3.14056 10.3256 10.4467 0.00108397 0.00300599 -0.0111144
27 1 1.60835 1.55005 12.4197 12.216 0.0015633 0.000421431 0.0087444
28 1 1.26183 3.41639 14.0654 14.0066 -0.00105262 -0.00550646 -0.0113742
29 1 1.28407 4.96345 8.78184 12.2791 0.0109062 -0.0072246 0.00107815
30 1 1.32057 6.85043 10.2009 14.5643 -0.00119249 -0.000103664 0.00363356
31 1 1.50764 4.98761 12.6421 8.8327 -0.0125045 -0.0100452 -0.000658734
32 1 1.40044 6.69501 14.433 10.5062 -8.5576e-05 0.0040432 0.00689428
33 1 1.36096 8.94654 1.67591 1.4492 0.00304148 0.00270446 0.00469138
34 1 1.66904 10.7051 3.35217 3.13855 -0.00334226 0.004107 0.00957547
35 1 1.67934 8.92565 5.04892 5.05875 -0.00727129 -0.00142694 -0.00242903
36 1 1.49468 10.4769 6.6831 7.10566 0.00165064 -0.00792454 -0.00472107
37 1 1.57997 12.1213 1.39177 4.85902 -0.000164161 0.00415905 -0.000880048
38 1 1.60747 14.2526 2.85003 6.76566 -0.012237 0.00644741 0.00914276
39 1 1.73933 12.3034 5.11641 15.7343 0.0131332 0.000596165 0.00823035
40 1 1.77003 14.0737 6.51643 3.27484 0.00891055 -0.0117969 -0.0035374
41 1 1.63224 8.62957 1.54922 8.66944 -0.00653198 0.0223308 0.00158484
42 1 1.74619 10.6087 2.94117 10.3572 0.00457159 -0.00152321 -0.0020044
43 1 1.51051 8.93837 4.90946 11.9759 -0.00146056 0.00488501 0.00694253
44 1 1.63873 10.6535 6.68006 13.7979 -0.00110467 0.00437533 -0.00356877
45 1 1.51594 12.211 15.7349 12.2316 0.00675023 -0.00171642 -0.00894808
46 1 1.74852 13.9272 3.30476 13.9683 0.00924604 0.00979881 0.00141311
47 1 1.48139 12.5775 4.69637 8.43531 0.00176587 0.00127858 -4.69576e-05
48 1 1.5407 14.1663 6.5683 10.167 0.00642548 0.00725177 -0.00416844
49 1 1.82309 8.90411 8.24089 1.41556 0.00197387 0.00206032 0.00815258
50 1 1.6266 10.4896 10.1777 3.02863 -0.0127856 0.00650683 0.00844717
51 1 1.48135 9.07283 11.9806 5.04412 -0.000835338 -0.00251017 0.0114172
52 1 1.35973 10.6594 14.237 6.91216 0.00275051 0.00427652 0.0125486
53 1 1.28191 12.0225 8.49662 5.12485 0.00411527 0.00372611 -0.00405504
54 1 1.18264 13.8606 10.341 6.62322 -0.00393125 0.00881775 0.00302139
55 1 1.58465 12.0326 12.2224 1.49767 0.00663375 0.00155716 0.0019902
56 1 1.62631 13.946 14.0447 2.94485 0.000704431 0.0144346 -0.000835692
57 1 1.35842 8.39895 8.83025 8.68061 0.00129668 -0.00430901 -0.00116723
58 1 1.4262 10.2095 10.3627 10.6438 -0.00992922 -0.0104393 -0.0058336
59 1 1.35615 8.48464 12.3321 12.2747 -0.000216093 -0.00531599 0.00226559
60 1 1.56578 10.3029 14.0101 14.1361 0.00283707 0.0210076 0.00398671
61 1 1.3251 12.1365 8.11956 11.6546 0.000607023 -0.000820635 -0.00180925
62 1 1.28838 14.7451 11.0157 14.6387 -0.00308378 0.0022428 0.0139192
63 1 1.41039 11.9586 12.2492 8.98807 -0.00243834 -0.000491916 0.00828876
64 1 1.70676 14.0641 14.0193 10.31 -0.00845402 0.00294177 -0.00238266
65 2 -0.708066 2.19403 2.11376 2.31434 -0.0105586 0.00847727 -0.00985095
66 2 -0.696266 2.17827 14.826 14.8433 0.00383147 -0.0332166 -0.00730877
67 2 -0.782856 14.7464 2.21511 14.7116 0.0160152 0.00892209 -0.00267326
68 2 -0.783485 14.8225 14.656 1.9227 -0.00340918 -0.00422363 -0.00568968
69 2 -0.799162 2.54707 4.13015 4.03614 -0.00648102 0.0016811 -0.00934683
70 2 -0.718652 4.06643 1.92515 4.0345 0.00159087 -0.0234491 -0.0167752
71 2 -0.805361 4.10407 3.96878 2.04474 0.00235361 -0.00236699 -0.00145231
72 2 -0.645593 2.09421 5.97307 5.82151 0.0143208 0.00145608 0.00645522
73 2 -0.729139 15.3058 3.88714 6.21329 0.00356584 0.00428672 0.000642793
74 2 -0.921346 14.7479 5.50023 4.2051 0.011878 -0.00641527 -0.00999509
75 2 -0.703338 3.74429 5.74125 7.57113 0.00578557 0.00220883 -0.0141406
76 2 -0.74022 4.09913 7.70446 5.56473 0.00819138 -0.00118687 0.00192018
77 2 -0.610021 1.94767 7.81552 7.31227 0.00529199 -0.00282544 -0.00155722
78 2 -0.807755 6.22469 2.4187 5.43072 0.0086138 0.00485048 0.00159226
79 2 -0.621 4.50235 14.8115 5.98372 -0.00113876 -0.0146755 0.000181281
80 2 -0.680511 5.99279 14.3642 4.25232 -0.0136204 0.0132114 0.00203511
81 2 -0.744994 5.6842 4.10723 7.62152 0.00441608 -0.00496073 0.000159388
82 2 -0.786247 7.76183 4.1853 5.84869 -0.00570444 0.0118094 0.00584025
83 2 -0.651905 7.73836 2.67245 7.79805 -0.00479311 -0.00244267 -0.01328
84 2 -0.789221 5.78078 5.67056 2.50709 0.0058751 -0.00515436 -0.018562
85 2 -0.746738 4.33929 6.02268 14.9465 -0.0229179 -0.00963968 0.0100601
86 2 -0.82534 6.13459 4.48119 14.9577 -0.0138858 -0.000829406 -0.00339277
87 2 -0.742395 6.10986 7.80981 3.88322 -0.00579699 -0.00433306 0.00774321
88 2 -0.803276 7.87003 5.8697 4.28116 0.00719192 -0.0131062 -0.0100593
89 2 -0.738281 7.96818 7.16883 2.09497 0.0139324 0.00114276 0.00213931
90 2 -0.947442 2.25926 2.14084 9.5766 -0.00860927 0.0224457 0.00758385
91 2 -0.802052 2.67492 14.854 7.8852 0.0111938 -0.00318249 0.000382641
92 2 -0.904148 14.9317 1.89082 7.76253 0.00291089 0.000450583 0.00976593
93 2 -0.938088 15.1729 14.5402 9.45412 0.0154266 -0.00420886 0.015599
94 2 -0.826408 2.03622 4.4769 10.9966 0.0101623 -0.0034133 0.0113998
95 2 -0.754681 3.55282 2.81301 11.4887 -0.00121054 -0.011032 -0.00172818
96 2 -0.78255 3.87035 4.01573 9.32917 0.0194414 -0.00626915 -0.00122583
97 2 -0.832547 2.1901 5.69656 13.3145 -0.00439555 -0.0121805 -0.00834572
98 2 -0.855576 14.806 4.03159 12.9074 0.00412668 -0.00521415 -0.00367507
99 2 -0.807448 14.6475 6.17738 11.6028 -0.0177019 0.00716909 -0.0104077
100 2 -0.743962 2.1039 7.69445 14.7623 0.00352839 0.0170055 0.00697542
101 2 -0.685778 3.9434 7.67265 12.7916 0.000741348 -0.00523013 -0.00827389
102 2 -0.763745 6.01746 2.65207 13.0145 -0.0190098 -0.0156756 -0.00780536
103 2 -0.642403 4.21846 15.3875 13.4776 0.0064314 -0.0112517 -0.0142563
104 2 -0.61822 5.33473 15.3564 11.4091 0.00507926 -0.00633307 -0.00573533
105 2 -0.677065 7.69244 2.50926 15.1335 -0.00692616 0.00301184 0.00247982
106 2 -0.65811 8.36822 3.97535 13.2462 0.00411187 -0.00206163 0.00167399
107 2 -0.607622 5.38603 6.28328 9.566 0.0207136 -0.00354257 0.00445234
108 2 -0.721716 6.14757 7.77597 11.7197 0.0164416 -0.00613151 -0.00134966
109 2 -0.682876 7.60273 5.72322 11.3057 -0.011519 -0.00799327 -0.00455773
110 2 -0.819403 7.55179 7.9704 9.63148 0.00810747 0.0175265 -0.00255639
111 2 -0.702099 2.31462 9.11824 2.50849 0.016279 -0.0104532 -0.00454786
112 2 -0.975359 14.8248 7.41435 2.41624 0.00150439 0.00641466 0.0118254
113 2 -0.725464 14.8954 9.67553 15.4989 0.00533231 0.0127094 -0.000618677
114 2 -0.687823 2.24533 11.2199 4.18548 0.00546096 -0.00752824 -0.0107151
115 2 -0.721215 4.39777 9.45815 3.92344 0.0140465 0.00815072 -0.00451017
116 2 -0.775418 4.01403 11.285 2.71606 -0.0086058 0.000608397 0.014725
117 2 -0.744871 2.24487 13.0922 6.00082 -0.0167375 -0.00178814 0.00960178
118 2 -0.759394 15.0414 11.2762 6.07088 0.00721724 0.00309341 0.0040294
119 2 -0.705083 15.1264 13.3736 3.81689 0.00526194 0.00537067 -0.0126035
120 2 -0.668242 4.22768 13.0315 7.58047 0.00202891 -0.0193822 0.00462738
121 2 -0.787825 5.97632 9.52055 6.03014 -0.00238023 -0.00774898 -0.00730416
122 2 -0.602607 6.27055 11.7962 8.16186 -0.0125775 0.00348015 0.00522
123 2 -0.796682 7.93846 11.288 5.80551 -0.00818629 0.00426862 -0.00982615
124 2 -0.792665 7.54268 9.76185 7.72095 0.0114874 0.0108373 -0.0026851
125 2 -0.702686 6.15241 12.877 2.29682 -0.00234536 -0.00648695 -0.00119268
126 2 -0.643347 4.0536 13.0326 15.4875 -0.00214337 -0.00405572 0.0114605
127 2 -0.692339 5.80376 10.6626 15.6379 0.0117219 -0.00319968 -0.0190086
128 2 -0.642922 8.00253 15.1445 2.43172 0.00572881 0.00819546 0.00357493
129 2 -0.670986 8.02374 12.889 4.1903 0.00111025 -0.00224966 0.00440272
130 2 -0.76161 2.14202 9.39242 9.53085 -0.00675012 -0.00320693 0.0038392
131 2 -0.784035 14.9308 7.62441 9.42871 -0.0134985 0.00992958 -0.00607017
132 2 -0.619518 14.2993 9.22777 8.05174 0.00307664 0.00294271 -0.00583435
133 2 -0.662789 2.25109 11.2653 11.4624 -0.000885455 0.00985029 0.00475338
134 2 -0.70436 3.98643 9.96094 11.7338 0.00129557 -0.000125082 0.000108208
135 2 -0.70176 4.04617 11.5107 9.27958 0.00642809 -0.00935865 0.00410505
136 2 -0.755636 2.62838 13.323 12.7679 -0.00491346 -0.00601739 -0.00263036
137 2 -0.715826 15.2805 11.2877 12.984 -0.00874616 0.0030372 -0.0168334
138 2 -0.801156 15.1135 13.1503 11.2393 -0.00262841 0.00186128 0.000484966
139 2 -0.624282 5.86121 9.46095 13.5441 0.0145291 0.0146638 0.00541753
140 2 -0.770264 7.80061 9.06397 15.3737 0.0037866 0.018979 -0.00482474
141 2 -0.637357 7.36062 11.4659 13.1378 -0.0012715 -0.00614753 -0.0021773
142 2 -0.809702 5.64928 13.7719 9.58548 0.0232779 -0.00856675 -0.008771
143 2 -0.784331 7.56806 15.4916 9.69429 -0.00323644 0.00372701 0.00980798
144 2 -0.777791 7.51003 13.5277 11.446 -0.0019133 0.0141838 -0.00296996
145 2 -0.796655 9.48804 2.81676 2.35137 -0.00453891 0.00577286 -8.98071e-05
146 2 -0.839022 9.44012 15.0553 14.7565 0.00739119 0.0224359 0.00509449
147 2 -0.780997 9.74688 4.51277 3.98098 0.00411241 -0.00310933 0.0111252
148 2 -0.898249 11.2798 2.48449 4.21572 0.0167607 0.00700715 -0.00237019
149 2 -0.869933 11.6634 4.03666 2.19797 6.02648e-05 0.00924651 -0.00010804
150 2 -0.9018 9.59999 5.85336 6.17047 0.000689077 0.00814769 -0.0186355
151 2 -0.711247 11.6182 5.5617 7.47545 0.0152549 -0.00369666 -0.0113522
152 2 -0.731478 11.2681 7.96606 6.44761 0.00576685 0.000529878 0.00551919
153 2 -0.705642 9.39871 7.27903 8.01356 -0.00139689 -0.00890081 0.0166571
154 2 -0.817937 13.278 2.15304 5.70809 -0.00546963 0.00786452 -0.00753122
155 2 -0.880376 11.1671 14.8812 5.66662 -0.00276615 -0.0196015 0.0107674
156 2 -0.842427 12.8945 14.9622 3.78755 -0.0134016 0.00231686 0.00324863
157 2 -0.771032 13.1808 3.67238 7.46291 0.00216983 -0.00168784 -0.00429219
158 2 -0.892942 12.9151 5.93386 2.52289 0.00181998 -0.017804 -0.0226417
159 2 -0.880648 11.2701 5.7794 14.812 -0.000526444 0.00384274 -0.0129145
160 2 -0.959537 13.1362 4.2947 14.732 0.00523334 0.00499008 0.0177427
161 2 -0.589103 13.2419 7.53983 4.29544 -0.00407087 -0.0124101 0.00359627
162 2 -0.94605 9.76106 2.14539 9.35532 0.0141654 -0.0129612 0.00493206
163 2 -0.698026 9.20597 14.9197 7.73703 -0.000596497 -0.00577733 0.00752023
164 2 -0.899862 9.85359 4.09101 11.1069 0.00851531 0.0168982 0.00589638
165 2 -0.931538 11.4865 1.98869 11.11 0.00383972 0.0149143 -0.0184621
166 2 -0.708289 11.769 3.65728 9.59198 0.0137186 -0.0133023 -0.0245516
167 2 -0.808413 9.76398 5.95421 12.7706 -0.00464396 -0.00135485 -0.00115916
168 2 -0.80544 9.58577 7.32374 14.8511 -0.00503761 -0.00491287 0.00987042
169 2 -0.781054 11.6765 7.70829 13.0493 -0.00296026 -0.00177179 0.00594752
170 2 -0.797897 12.9858 2.34275 13.1931 -0.0062682 -0.00830449 0.00470995
171 2 -0.837739 11.2243 14.7576 13.0511 -0.00477595 0.0243113 0.012629
172 2 -0.879589 13.265 14.6718 11.3476 0.00501097 0.0112523 -0.0098343
173 2 -0.727892 13.7953 5.49822 9.01417 -0.000349261 -0.000538708 0.0163598
174 2 -0.710113 12.6787 6.83393 10.4961 -0.0109338 -0.000824578 -0.0149825
175 2 -0.922367 9.63236 8.90007 2.50236 0.00275113 0.000533683 -0.00235779
176 2 -0.860599 9.67543 11.2527 3.80306 -0.00797894 0.0032657 9.74224e-05
177 2 -0.733992 11.6146 9.61299 3.95803 -0.000671042 -0.00180354 -0.000519015
178 2 -0.895845 11.152 11.0543 2.0013 0.0118951 -0.00813283 -0.0151236
179 2 -0.662493 9.77644 13.1519 5.92391 0.00650444 -0.0161978 -0.0171951
180 2 -0.804973 11.2315 13.1935 8.04242 -0.0178499 0.00678038 0.0115365
181 2 -0.646086 13.2273 9.42358 5.59003 -0.00553074 -0.0064908 0.00351516
182 2 -0.595351 12.748 11.1873 7.71693 -0.00238584 0.00552762 0.00648658
183 2 -0.873492 13.027 12.9905 2.35914 -0.0157472 0.0228117 -0.00507732
184 2 -0.90838 11.0524 13.0783 15.1185 -0.0117206 -0.00115113 0.00740599
185 2 -0.662589 13.2802 11.7349 14.8524 -0.00977209 -0.0104164 0.0110669
186 2 -0.712863 9.46228 9.78617 9.27417 0.00995468 0.0100923 -0.00308195
187 2 -0.790815 9.11657 10.9568 11.5215 0.0116197 0.00483989 0.0151165
188 2 -0.722739 10.95 9.06149 11.3294 0.0195429 -0.0229857 0.00305954
189 2 -0.8133 11.2381 11.4492 10.1034 -0.00516724 -0.0364286 -0.00752536
190 2 -0.859403 9.40978 12.9284 13.2684 -0.00316432 -0.00133456 0.00868567
191 2 -0.647317 13.0532 9.40435 11.6606 -0.00751465 -0.00514249 0.00362756
192 2 -0.881768 13.285 12.9251 9.59578 -0.0170878 -0.00899585 -0.00333829
193 2 -0.65139 12.2797 12.2002 12.2346 0.00485154 -0.00347673 -0.0108453
194 2 -0.618878 3.03656 9.93535 6.66865 0.0190639 -0.00887461 0.00594032
195 2 -0.596028 8.41466 11.4671 15.5806 0.00059344 0.00577156 -0.000849003
196 2 -0.595038 10.0163 13.5358 10.9942 -0.0153846 0.00997576 -0.0175512
197 2 -0.620129 12.0697 15.4948 8.22228 0.00343074 0.00638629 -0.0122096
198 2 -0.54605 8.55537 1.67404 4.96288 0.00825445 -0.0129068 0.013151
199 2 -0.581151 6.77707 6.35103 7.30002 -0.00997019 0.00681725 -0.00557875
200 2 -0.686401 13.8902 13.4066 6.18394 -0.0128192 0.00230215 -0.00578403
201 2 -0.632634 5.13004 12.9062 12.7698 0.0034272 -0.00719223 0.00677569
202 2 -0.619056 15.6519 12.1246 15.1768 -0.000869157 -0.000812705 -0.0109752
203 2 -0.628187 4.76085 9.17037 9.50991 -0.0199174 0.0103773 -0.0137806
204 2 -0.606204 10.3317 10.3639 13.8676 -0.0148293 0.0061175 0.0155109
205 3 0.383082 13.2147 12.6369 12.4815 0.0795136 -0.0476457 -0.0151709
206 3 0.439025 12.6446 11.6799 11.6098 0.0152503 -0.044714 -0.0148103
207 3 0.406973 3.64745 10.3637 7.36874 0.0206456 0.0180649 -0.033804
208 3 0.442691 2.59334 10.6305 6.28118 0.0552116 0.0441369 -0.00103225
209 3 0.393196 9.25346 11.9456 15.2265 -0.0118111 0.0334928 -0.0178503
210 3 0.355735 8.53925 12.1412 1.91298 0.0372359 -0.0581055 0.00656337
211 3 0.399791 10.8087 13.1456 11.6918 -0.0610822 -0.0471018 -0.0409241
212 3 0.399991 10.1236 14.4278 11.2506 0.0139964 0.00624771 0.0387286
213 3 0.36178 12.1106 14.9237 9.06411 -0.0477149 0.060412 0.0399847
214 3 0.355912 12.8273 15.3928 7.61732 0.0158214 0.0600971 0.000497192
215 3 0.382565 7.70964 1.40846 4.44734 -0.0357447 0.0513459 -0.0122509
216 3 0.424512 8.87548 15.271 5.17274 -0.0563641 0.00819795 -0.0133876
217 3 0.371753 7.70931 6.80306 7.29245 -0.0567549 -0.0378649 -0.0540352
218 3 0.363774 7.22999 5.85365 6.47968 -0.0289666 -0.0223442 0.0481104
219 3 0.362171 13.1955 13.9451 5.95255 -0.0384529 0.0280914 0.0176213
220 3 0.383563 13.6322 12.6324 6.8013 0.0393235 0.0161505 0.0180997
221 3 0.401307 5.56035 13.6887 12.3563 -0.0298179 -0.0603363 0.0265937
222 3 0.429806 5.72691 12.1888 12.6023 -0.00539291 0.114781 -0.0187221
223 3 0.443964 9.82725 10.5496 13.1736 0.0305887 -0.061936 -0.0288557
224 3 0.417785 2.21652 12.1035 15.1863 0.0277503 0.00183006 -0.0322021
225 3 0.387563 5.41634 8.49421 9.09891 0.0576144 -0.0061069 0.0414795
226 3 0.306539 5.48892 9.43933 10.1901 0.0224232 0.00141661 -0.0167383
227 3 0.375296 13.4839 9.48954 10.722 0.0410992 -0.0455151 0.0113577
228 3 0.401583 11.331 10.7175 13.7271 -0.0111273 0.0695818 -0.021301
ITEM: TIMESTEP
56000
ITEM: NUMBER OF ATOMS
228
ITEM: BOX BOUNDS pp pp pp
1.3306083844563759e+00 1.5829391615543077e+01
1.3306083844563759e+00 1.5829391615543077e+01
1.3306083844563759e+00 1.5829391615543077e+01
ITEM: ATOMS id type q x y z vx vy vz
1 1 1.53057 1.43171 1.45093 1.41442 0.00759896 -0.00301594 0.00838809
2 1 1.61018 3.05838 3.11052 3.31552 0.00885931 0.00833842 -0.00308039
3 1 1.30436 15.6834 4.97881 4.95118 0.00882605 0.00298137 0.0112661
4 1 1.44119 3.06959 6.67771 6.96139 -0.0125277 -0.00391731 -0.00770172
5 1 1.57229 5.03669 1.41896 4.76051 -0.000263992 0.00217545 0.00241406
6 1 1.52956 6.86874 3.05727 6.89194 -0.00146223 -0.00557484 0.00476956
7 1 1.42381 4.92816 4.90243 1.76051 0.0119744 0.00766912 -0.00831328
8 1 1.24262 6.88386 6.77282 3.32317 0.0118561 -0.00590098 -0.00281593
9 1 1.46659 1.57302 15.5433 8.574 -0.00947863 -0.00766253 -0.0062884
10 1 1.45731 3.1114 2.97037 10.5245 0.00444162 0.00375173 0.00396589
11 1 1.38147 1.57708 4.88264 12.2667 -0.00347692 0.00762628 0.0019986
12 1 1.40585 3.1674 6.66129 14.1703 0.0040125 -0.0131774 -0.00973678
13 1 1.5642 4.72178 1.41946 12.6022 0.00314249 0.00655004 0.00944845
14 1 1.62175 6.53241 3.32667 14.1094 0.00404041 -0.00190063 -0.00214396
15 1 1.52119 5.01293 4.70888 8.69705 0.00167479 -0.00543267 -0.000895534
16 1 1.48257 6.61072 6.78754 10.352 0.00243105 0.000942281 -0.000206458
17 1 1.55423 1.43733 8.64174 15.8708 -0.00593029 -0.00989222 0.00819269
18 1 1.46625 3.20534 10.4353 2.892 0.00249029 0.00512076 0.00285615
19 1 1.21179 15.6231 12.3682 4.88515 0.00421726 0.00301504 -0.000888952
20 1 1.39704 3.31902 13.8979 6.66226 -0.00848859 -0.00131871 -0.00831728
21 1 1.42571 4.88864 8.74783 4.91615 -0.0105172 0.00974821 -0.00757538
22 1 1.4849 6.70998 10.5449 6.37898 -0.00218283 0.00531735 -0.0111872
23 1 1.46671 5.39428 12.1136 1.39909 0.00733094 0.00417758 -0.0157041
24 1 1.34669 6.89628 14.2506 3.11085 0.00798888 0.00861009 -0.00830293
25 1 1.39177 1.37135 8.75326 8.8011 0.00605539 0.0101129 0.00905588
26 1 1.34702 3.08361 10.5352 10.5425 0.0109762 -0.00215359 0.012829
27 1 1.61564 1.25631 12.3929 12.4521 -0.00347618 -0.00520071 0.0089143
28 1 1.41984 3.24008 13.9304 14.4702 0.00362385 0.00287616 0.00492065
29 1 1.38766 4.87179 8.74929 12.3086 -0.0101161 0.000533783 -0.00455379
30 1 1.57763 6.83307 10.0206 14.2784 -0.00651992 -0.00147533 -0.00728004
31 1 1.28556 4.96762 12.1773 8.38764 0.00189994 0.0016682 -0.0072962
32 1 1.09391 6.78462 14.1529 10.3843 0.00229477 -0.00346997 0.00741241
33 1 1.56883 8.4601 1.6847 15.6946 -0.00632729 -0.00279652 -0.00431155
34 1 1.51543 10.4221 3.32089 3.13393 -0.00876525 0.00492341 -0.0113587
35 1 1.40049 8.6906 4.80783 5.13502 -5.97447e-05 0.00218917 0.00285332
36 1 1.42257 10.6895 6.638 6.77376 -0.00039939 0.0143722 -0.00693865
37 1 1.47387 12.4397 1.52243 4.88917 0.0109005 -0.00962931 0.0115866
38 1 1.42352 14.1733 3.09504 7.00887 -0.00708051 0.00828167 0.011363
39 1 1.44626 12.3469 4.88512 15.688 0.00909132 0.0132037 -0.000371963
40 1 1.41241 14.0084 6.81252 2.86074 0.0026873 -0.00174335 -0.0102763
41 1 1.23587 8.86442 1.3962 8.92004 0.00594591 -0.0189753 -0.00295734
42 1 1.52181 10.5222 3.39404 10.5895 -0.00755689 -0.00748435 -0.00435727
43 1 1.52883 8.39726 5.08949 12.2374 0.00147952 -0.00120448 0.00788654
44 1 1.22994 10.5309 6.57744 13.9545 0.013507 0.00651565 -0.000398485
45 1 1.20595 12.213 15.8157 12.2234 -0.00434487 -0.000242517 0.0065183
46 1 1.51774 14.1817 3.04404 14.1366 -0.00658198 0.00371052 0.00657076
47 1 1.58501 12.3874 5.07046 8.77969 0.0102775 0.00470375 0.0145292
48 1 1.65722 14.3819 6.81741 10.4391 0.00288511 -0.0148324 -0.00793618
49 1 1.36283 8.80435 8.24309 1.33685 -0.000565232 0.0180767 -0.00351775
50 1 1.38509 10.3589 10.4865 3.09598 -0.00645656 0.0012062 0.00188872
51 1 1.59472 8.64864 12.3632 4.95773 -0.0152136 0.00122906 0.0115864
52 1 1.38886 10.7341 14.2809 6.80033 -0.00709608 0.00926798 0.00712646
53 1 1.41582 12.104 8.41801 4.87149 -0.00243783 -0.0101781 0.0109509
54 1 1.50305 13.837 10.2197 6.65394 0.00518213 0.00178408 -0.0108168
55 1 1.56993 12.1467 12.3428 1.50193 -0.00023272 0.00901701 0.0116835
56 1 1.58848 14.0716 14.2287 3.10168 -0.00354571 0.00738288 0.00736902
57 1 1.25626 8.5599 8.34472 8.27027 -0.00913559 0.000772544 -0.00133959
58 1 1.36449 9.96739 10.33 9.92547 0.00201058 -0.00737998 -0.00396757
59 1 1.20502 8.51015 11.8609 12.4243 -0.000735002 -0.00364363 0.00223477
60 1 1.22282 10.2042 14.0409 14.1864 0.00211584 0.00643003 0.00160726
61 1 1.19494 11.8518 8.333 11.7154 -0.0154558 0.0048664 0.00173754
62 1 1.54863 14.5538 11.0257 14.8486 -0.00541652 -0.00489814 0.00270357
63 1 1.41976 12.1736 12.2023 8.36666 -0.0131865 0.00532608 -0.0110169
64 1 1.46802 14.0434 13.8586 10.4619 0.0200474 -0.00786051 -0.00702106
65 2 -0.781954 1.73152 2.56927 2.48581 0.000102274 -0.00619407 -0.0220498
66 2 -0.724203 2.24777 14.5671 15.537 -0.00336841 -0.00525141 -9.59245e-05
67 2 -0.830722 15.2019 2.08501 14.7793 0.0074115 -0.00570471 -0.0135922
68 2 -0.727974 14.7338 15.0716 1.94018 0.0131345 -0.00501894 0.00260647
69 2 -0.788601 2.36905 4.20833 4.21348 0.00267339 -0.0266913 -0.0108337
70 2 -0.878382 4.01693 2.0793 3.73528 -0.00659716 -0.0093896 -0.00674184
71 2 -0.811523 4.0998 3.88861 2.47734 -0.00368115 -0.0124599 -0.00519345
72 2 -0.637085 1.76123 6.03127 6.36777 0.00817676 0.00655859 -0.00391486
73 2 -0.670139 14.7305 4.20583 6.01657 0.0214345 0.0125655 -0.0228343
74 2 -0.653678 14.747 5.74419 3.86891 0.00662109 -0.00846736 0.00875603
75 2 -0.686878 4.20113 5.54021 7.585 0.0270785 0.0146729 0.00914324
76 2 -0.712886 3.7627 7.41796 5.83402 -0.00351776 0.000662576 0.0139287
77 2 -0.700262 2.74542 7.55685 8.0755 0.0125988 -0.0243173 -0.0153634
78 2 -0.703637 5.8273 2.07941 5.84957 -0.00253244 -0.0143583 0.0208934
79 2 -0.708193 4.06364 15.2605 5.71115 0.00615544 0.00364197 0.0021226
80 2 -0.73727 6.30938 14.9857 4.36132 0.00745549 -0.00175674 0.0232475
81 2 -0.795636 5.91792 3.96482 7.60871 0.0186009 -0.00649721 -0.00303217
82 2 -0.778078 7.65998 3.77152 5.81974 0.0199827 0.00786833 0.0122813
83 2 -0.633477 7.96616 2.57656 7.97804 -0.00134153 -0.00869693 -0.00752889
84 2 -0.641085 6.28847 5.41068 2.7635 0.00675049 -0.0209921 -0.000634839
85 2 -0.726201 4.11877 5.91067 15.1458 -0.00688264 -0.0161462 0.00922632
86 2 -0.735374 5.77749 4.01208 15.3245 -0.00263947 -0.00192457 -0.0113463
87 2 -0.67628 6.03139 7.95202 4.02387 -0.016498 -0.00863899 -0.00268589
88 2 -0.662321 8.03882 6.23383 4.54041 -0.00962804 0.0183338 -0.00220192
89 2 -0.640993 7.46067 7.20494 1.93142 0.000985475 0.00483743 -0.0189036
90 2 -0.769908 2.45258 1.95999 9.42442 0.0011181 -0.00705907 -0.00305338
91 2 -0.848098 2.27244 14.3575 7.70398 -0.0104692 -0.0193167 -0.000930413
92 2 -0.842342 15.142 2.0123 7.77719 0.00479294 -0.00430538 0.0137697
93 2 -0.748173 15.2537 14.8487 9.73355 0.00802953 -0.00869846 0.00456311
94 2 -0.785056 2.11796 4.22782 11.062 -0.0194468 0.00737489 0.00568186
95 2 -0.814308 3.8752 2.28307 11.623 -0.0113682 -0.0144406 -0.00546726
96 2 -0.713234 4.37737 3.62447 9.63646 -0.00285963 0.0100733 0.00659203
97 2 -0.672465 2.9004 5.42594 13.2687 0.0276052 0.0124355 -0.0136345
98 2 -0.66852 14.9889 4.25856 13.4303 0.00575397 -0.0107712 -0.00662059
99 2 -0.717213 15.1394 6.05491 11.71 -0.00948347 0.00225661 -0.00681435
100 2 -0.72946 1.92594 7.60092 14.7704 0.00131156 0.0108212 -0.00518054
101 2 -0.639465 3.87131 7.90074 13.4011 0.00977931 -0.00403222 0.000588048
102 2 -0.784267 5.54688 2.21389 13.6792 -0.00108697 0.0118776 -0.00302308
103 2 -0.747578 3.77281 15.1562 13.5192 0.0117894 -0.0150439 -0.0224432
104 2 -0.637882 5.39234 14.9079 11.5317 0.0118375 0.00228935 -0.0175997
105 2 -0.787379 7.60481 2.43738 14.7083 0.00183135 -0.00618266 0.00123086
106 2 -0.73392 7.23725 4.13543 12.9324 0.00355626 -0.00144686 -0.0148949
107 2 -0.76787 5.49111 5.87975 9.57345 -0.00125432 -0.00737126 -0.0128824
108 2 -0.64265 5.61401 7.8407 11.1473 -0.0152852 -0.00548281 0.0032016
109 2 -0.797118 7.54149 6.10565 11.4243 0.00952039 0.00176757 0.0342965
110 2 -0.683309 7.58766 7.71085 9.55273 -0.0105237 -0.00821099 -0.00124657
111 2 -0.925851 2.32583 9.66156 1.95627 0.000634809 0.0106359 -0.000910894
112 2 -0.78328 15.0833 7.89483 2.55158 -0.014157 -0.0213407 0.0152579
113 2 -0.775278 14.9862 9.5503 14.926 -0.000250776 -0.0129513 -0.00286594
114 2 -0.643903 2.56457 11.4036 4.00081 -0.00752829 0.0306314 0.00640415
115 2 -0.711099 4.12491 9.23519 3.78236 -0.00235519 0.00687443 -0.014532
116 2 -0.767664 4.33774 11.2767 2.22634 0.00265646 -0.00375826 0.00451875
117 2 -0.693804 2.32924 13.2645 5.60532 -0.00921155 -0.0104234 0.00514859
118 2 -0.726483 14.5223 11.1356 5.61605 0.00146331 0.00435064 -0.0204325
119 2 -0.794779 14.699 13.0219 3.8296 -0.000161936 0.00697405 -0.00876284
120 2 -0.826997 3.95179 12.6591 7.30993 -0.0115793 -0.00147291 -0.0132925
121 2 -0.824234 5.94592 9.73824 5.34781 -0.0233662 -0.00892354 0.00439526
122 2 -0.798913 5.80074 11.1355 7.5171 -0.00755304 -0.00211779 -0.00437955
123 2 -0.780641 7.58287 11.7898 5.88386 -0.00579587 0.00434231 0.0199414
124 2 -0.655386 7.57967 9.31167 7.13887 0.0014164 -0.00418315 -0.0199991
125 2 -0.684681 6.09201 13.0211 2.57195 -0.00698484 0.00847975 0.00818518
126 2 -0.757641 4.60961 13.2681 15.1979 0.0191848 -0.0123449 0.0155319
127 2 -0.846086 6.49052 11.036 15.2919 -0.00465367 -0.0125066 -0.00134069
128 2 -0.734581 7.2797 15.3652 1.97497 -0.0110939 -0.0136689 -0.00526542
129 2 -0.780355 8.19799 13.4332 3.90984 0.00722791 -0.00970936 -0.00360567
130 2 -0.731542 1.97043 10.0187 9.55023 -0.0072815 0.00445282 0.00330596
131 2 -0.860303 15.3222 7.63657 9.73258 0.0191053 -0.00719644 -0.00560588
132 2 -0.737324 15.016 9.47455 7.71925 -0.00409737 0.0103713 0.00523171
133 2 -0.725215 2.07639 11.3624 11.5559 0.000230052 0.0122633 -0.021299
134 2 -0.704096 3.61372 9.4121 11.4106 0.00892253 -0.0093455 -0.005607
135 2 -0.70416 4.37572 11.3044 9.74229 0.00992273 0.0107253 6.76775e-05
136 2 -0.762003 2.34193 13.2527 13.3923 0.00279263 -0.00206077 -0.0159706
137 2 -0.819114 15.1858 11.4367 13.3911 -0.00158989 -0.001324 0.00966062
138 2 -0.903259 14.7615 13.1769 11.5969 0.0216795 -0.00453914 -0.00340943
139 2 -0.823996 5.75826 9.50622 13.2908 -0.0116052 0.00438743 -0.00885844
140 2 -0.740784 8.06139 9.00744 14.7714 -0.00484991 0.00664396 -0.00156942
141 2 -0.688891 7.74153 10.6885 13.1906 -0.00260958 0.0147762 -0.0113929
142 2 -0.622049 5.99007 13.3771 9.21059 -0.0270335 -0.0204255 -0.00327696
143 2 -0.613707 7.65758 15.5003 9.98488 0.00579175 9.82137e-06 -0.0156548
144 2 -0.545011 7.64744 12.9228 11.2975 0.00141134 -0.00264773 0.0158053
145 2 -0.833914 9.22477 2.60259 2.24284 -0.00720502 -0.0057809 0.000349738
146 2 -0.729702 9.30397 15.5161 14.6694 0.00651364 0.00308246 0.00855438
147 2 -0.81899 9.75834 4.15374 4.20757 -0.00495893 0.00800893 -0.00982588
148 2 -0.740275 11.4755 2.41097 3.6673 0.00743631 -0.00984099 -0.0175089
149 2 -0.676679 11.5003 4.3144 2.58396 0.00859754 -0.00676552 0.0137455
150 2 -0.676433 9.63232 5.55408 6.33987 -0.0223189 -0.0121688 -0.00189496
151 2 -0.688093 11.9202 6.20266 7.89575 0.00484089 -0.00903794 0.00659901
152 2 -0.744184 11.2753 7.26751 5.51085 0.00126522 0.00942089 0.00435919
153 2 -0.634326 9.9867 7.55784 7.90564 -0.00771354 -0.0100044 -0.00806126
154 2 -0.704842 13.2204 2.32954 6.07839 0.00441455 0.0118681 0.00775954
155 2 -0.800507 11.4594 15.3607 5.90769 -0.00753249 0.00428546 0.00218957
156 2 -0.837718 13.4441 15.3011 4.00236 0.00222679 0.0136341 -0.0121957
157 2 -0.669687 13.016 4.1565 7.74632 -0.00872817 0.00987729 -0.0017312
158 2 -0.738668 13.4626 5.73066 1.84452 -0.0111527 -0.00507761 0.000134152
159 2 -0.729129 11.7087 5.80032 14.5802 0.0023281 0.0208634 0.00623355
160 2 -0.781135 13.0187 3.76828 14.7536 -0.0169217 -0.000678415 -0.0110815
161 2 -0.673096 12.745 7.70507 3.60102 0.0151402 -0.00371926 0.00265021
162 2 -0.656599 10.0843 2.43146 9.52134 -0.003858 -0.00758578 -0.00729365
163 2 -0.640499 9.66601 14.8231 8.00373 0.00443524 0.0312811 0.0048172
164 2 -0.743496 9.12788 4.2248 11.1862 -0.0227422 -0.00369747 -0.00572648
165 2 -0.730732 11.1624 2.47762 11.6572 -0.0208071 0.0204279 -0.00413816
166 2 -0.812834 11.4419 4.16216 9.62224 0.00109489 -0.00396631 0.0215657
167 2 -0.703037 9.18784 5.39411 13.5063 0.0104092 0.00775666 0.00800686
168 2 -0.745932 9.94657 7.77701 14.8327 0.00125934 -0.000620869 -0.00295496
169 2 -0.688904 11.3225 7.16898 12.5376 -0.0042858 0.00391225 0.0182084
170 2 -0.623106 13.521 2.19323 12.839 0.00241081 0.000922838 0.010427
171 2 -0.6173 11.3589 14.6649 13.2154 -0.000696419 0.00633559 0.00588443
172 2 -0.733407 13.0455 14.8792 11.0705 0.000938724 0.0112569 0.0102761
173 2 -0.810281 13.5797 5.862 9.66104 0.00911483 0.0164669 -0.00178499
174 2 -0.667115 13.0859 7.78 10.8168 0.00334269 0.0197348 0.00325422
175 2 -0.670127 9.5435 9.09755 2.4584 0.00379344 -0.0031476 0.0138125
176 2 -0.765007 9.30779 11.2006 4.08217 -0.000178035 0.00391304 -0.000796165
177 2 -0.621474 11.0842 9.62828 4.23316 -0.0091615 -0.00711737 -0.00905293
178 2 -0.870792 11.4621 11.3692 2.38509 0.0109609 -0.0159639 0.000981059
179 2 -0.661971 9.41138 13.2429 5.88183 -0.00879486 0.00331308 0.00175358
180 2 -0.822956 11.4154 13.0898 7.30906 -0.00520204 0.00341974 -9.139e-05
181 2 -0.744971 12.9861 9.1095 6.09479 0.000722114 -0.0064646 0.00469258
182 2 -0.753887 12.8546 11.0604 7.47936 0.0157809 0.0125112 0.00427645
183 2 -0.767995 12.8945 13.4802 2.30656 -0.0123048 0.0117049 -0.0036957
184 2 -0.752027 11.4447 13.2157 14.8494 -0.013522 -0.0218468 -0.015291
185 2 -0.887017 13.1309 11.3973 15.2455 0.0169614 -0.00785996 -0.0177768
186 2 -0.683029 9.232 9.66927 8.75022 -0.00680952 -0.0053145 0.0117306
187 2 -0.640841 9.23324 10.7878 11.3223 -0.000144193 -0.00023987 -0.0110608
188 2 -0.586052 10.7529 9.10261 10.4158 0.011142 0.00177998 -0.00737638
189 2 -0.679874 11.231 11.3567 9.33928 -0.000752145 0.0317201 0.00120549
190 2 -0.690733 9.52985 13.0224 13.1297 -0.0159382 0.0118637 0.00810466
191 2 -0.681024 12.772 9.26256 12.7868 -0.0041993 0.000319197 0.0151213
192 2 -0.811663 13.2326 12.9438 9.44308 -3.9188e-05 0.0104266 0.0143352
193 2 -0.623748 12.383 11.8108 12.3799 -0.00219203 -0.0165195 0.0133325
194 2 -0.692872 3.56836 9.95581 6.24309 0.00133344 0.00976174 0.00211618
195 2 -0.63135 8.68991 12.7636 15.4662 0.013108 0.00026432 -0.000562505
196 2 -0.596826 10.4584 13.6216 10.6293 -0.00706465 0.00342628 0.00517472
197 2 -0.579865 13.0844 2.17872 8.93429 -0.00574928 -0.00323214 0.0109621
198 2 -0.568217 8.97458 1.39612 5.03854 0.00657651 -0.000764291 -0.0025448
199 2 -0.644717 7.00618 6.90464 6.94668 -0.0162658 -0.0227244 0.00259282
200 2 -0.651315 14.6123 13.7268 6.30417 0.0185139 -0.00554479 0.0037445
201 2 -0.531577 5.40796 12.0059 12.1939 0.0151324 -0.00569734 0.0102636
202 2 -0.689108 15.4638 12.0128 15.5805 -0.000654726 -0.00872198 0.00677054
203 2 -0.566197 5.41718 8.78916 8.93625 -0.00448065 0.0203833 0.00536557
204 2 -0.615731 10.9739 9.98061 14.6328 -0.00132401 0.00396634 0.00313952
205 3 0.414792 12.7585 12.6726 12.3448 -0.0361978 -0.0816832 -0.00390463
206 3 0.417055 12.7903 11.2631 13.0425 0.00333812 -0.0185573 0.00114891
207 3 0.435408 3.7455 10.9458 6.35364 -0.0197455 -0.0403619 0.0140443
208 3 0.379991 2.61286 9.8207 6.37349 0.0132815 -0.0579886 0.0082138
209 3 0.370139 8.94336 11.8619 15.2762 -0.0412352 0.00434684 0.0507891
210 3 0.29696 9.33803 13.0295 1.70152 0.0555065 0.00449385 -0.0592372
211 3 0.411132 11.1731 12.9298 10.4878 0.0038502 0.0646479 -0.0168489
212 3 0.437246 10.4029 13.9419 11.5132 0.0223531 0.0142569 0.0759777
213 3 0.384948 13.8989 2.40433 9.43908 0.0540784 -0.144727 0.0365966
214 3 0.381873 13.1451 1.27385 8.63463 -0.00709782 0.0696552 -0.0344777
215 3 0.424656 8.71925 15.1334 4.47751 -0.0072696 -0.0161069 0.0134471
216 3 0.374172 9.43184 2.16647 4.62162 -0.0247049 -0.0402991 -0.0357442
217 3 0.414444 7.27259 7.22776 6.07427 -0.065403 -0.0505784 0.0357197
218 3 0.396867 6.18863 7.25458 7.04893 0.0466785 0.0511564 -0.0461337
219 3 0.370463 14.2384 13.084 6.87954 -0.0271463 -0.0429324 -0.0118633
220 3 0.413872 15.3579 14.1722 6.78656 -0.016427 -0.00566511 -0.0567382
221 3 0.337316 4.44142 11.7216 12.3749 0.0158523 -0.0245683 -0.0262126
222 3 0.371587 5.17349 12.8668 11.6569 -0.0374963 -0.0313909 0.000956636
223 3 0.436436 10.8744 9.14701 14.0984 0.0712999 0.0188795 0.0540305
224 3 0.418333 1.57728 12.1753 16.3984 -0.0620597 -0.0124851 0.0325109
225 3 0.404876 6.0074 9.51703 8.60085 -0.0602732 -0.0055846 0.052736
226 3 0.385851 4.5709 9.09795 8.58882 -0.0451254 -0.0137956 0.0686862
227 3 0.441956 13.6234 8.85757 12.8869 -0.0898309 0.0240175 0.0178986
228 3 0.41702 11.4303 10.6551 14.2346 0.0253204 0.0195686 -0.0131355
ITEM: TIMESTEP
58000
ITEM: NUMBER OF ATOMS
228
ITEM: BOX BOUNDS pp pp pp
1.3523490099513955e+00 1.5807650990048057e+01
1.3523490099513955e+00 1.5807650990048057e+01
1.3523490099513955e+00 1.5807650990048057e+01
ITEM: ATOMS id type q x y z vx vy vz
1 1 1.29305 1.38347 15.6842 1.6773 0.0043153 -0.00113682 -0.00304652
2 1 1.5366 3.10514 3.18585 3.33894 -0.0151262 -0.00316366 0.00118899
3 1 1.52084 15.6697 5.01807 5.14768 -0.000254187 0.0060625 0.00267334
4 1 1.32462 3.13445 6.7096 6.92763 0.00429782 -0.00495029 0.0154503
5 1 1.60515 4.94803 1.61988 5.11975 0.00862149 0.00723165 0.0112051
6 1 1.1031 6.95953 3.36171 6.76699 0.00506693 0.00205293 -0.00656535
7 1 1.36279 5.10765 4.88683 1.41738 -0.00107446 0.0015934 -0.00263895
8 1 1.70897 6.90233 6.55872 3.13387 -0.00303907 0.0123231 0.0186615
9 1 1.45605 1.53117 15.7609 8.62025 -0.0107717 -0.00141919 -0.00205149
10 1 1.72665 3.54604 2.79095 10.3825 -0.00684508 -0.000229958 -0.00593597
11 1 1.37643 1.5255 4.55629 11.9928 -0.0104502 -0.00689331 -2.1217e-05
12 1 1.39916 3.29353 6.58952 14.1354 -0.00947249 0.00574011 0.000141864
13 1 1.70657 5.11717 15.6562 12.312 0.00838659 -0.000582803 -0.00364822
14 1 1.51523 6.76117 3.15181 13.8976 0.0120411 -0.00316719 -0.00176983
15 1 1.34218 4.84789 4.98264 8.80329 -0.0216549 -0.00349779 -0.0056908
16 1 1.59326 6.69831 6.93482 10.3709 -0.00915547 0.0103492 -0.000338653
17 1 1.48275 1.71714 8.17395 1.74296 0.000384457 0.00115574 -0.00660307
18 1 1.33851 3.4272 10.1541 3.25271 0.0044461 -0.000184887 -0.00823549
19 1 1.46871 15.8489 11.898 5.134 0.0135553 -0.00589579 -0.00563524
20 1 1.33121 3.07597 14.038 6.74959 -0.00710445 -0.016213 0.0163816
21 1 1.16357 5.22689 8.32152 5.09479 0.0141583 -0.0102905 -0.00332097
22 1 1.44266 6.77684 10.6377 6.60774 -0.002141 -0.00268137 0.000660784
23 1 1.49449 5.29582 12.0383 1.33002 0.00406299 -0.00530599 -0.00857829
24 1 1.42142 6.58349 14.4916 3.06365 -0.00604135 0.0110221 -0.00657459
25 1 1.54483 1.45398 8.52179 8.87677 -0.0138434 -0.00584389 -0.00589608
26 1 1.53098 2.91415 10.7517 10.502 0.00329106 -0.00397079 -0.000234195
27 1 1.42842 1.39801 12.2539 12.6265 0.00459146 -0.00989283 -0.0038413
28 1 1.39821 3.27285 14.0238 14.0779 -0.0103847 -0.00998405 -0.00138733
29 1 1.3891 4.94736 8.69304 12.2473 -0.0014482 0.000878047 -0.00974881
30 1 1.61972 6.92652 10.1219 14.1602 -0.00843973 0.0074071 0.012048
31 1 1.28464 5.10844 12.2704 8.54266 -0.0163187 0.0031482 -0.0046173
32 1 1.3521 6.78935 13.96 10.513 0.00108218 0.00727395 -0.00322396
33 1 1.66973 8.62454 1.73489 1.61343 0.0027942 0.00062944 0.00591603
34 1 1.70413 10.9478 3.1615 2.90146 0.0159812 0.0105536 -0.0111753
35 1 1.51307 9.16259 5.18965 4.44635 -0.0019723 0.00825832 0.00473552
36 1 1.56936 10.4742 6.80071 6.63675 -0.00209522 -0.000617314 -0.000563243
37 1 1.29556 12.5298 1.89599 5.20071 0.00359986 -0.00204492 -0.0127031
38 1 1.51297 14.1036 3.55942 7.31296 -0.000155655 0.00610911 0.00525555
39 1 1.70405 12.3848 4.69607 15.2883 0.00155448 -0.00409187 0.00106794
40 1 1.40931 13.7841 6.59967 3.11065 0.0152397 -0.00255697 -0.00439532
41 1 1.2333 8.71945 1.39666 8.63199 -0.00879067 -0.000440125 -0.0119888
42 1 1.39876 10.2459 3.3333 10.4397 0.00862698 -0.00604017 -0.00356377
43 1 1.51192 8.51496 5.23079 12.0616 0.00469912 -0.0107153 -0.00391493
44 1 1.37174 10.5613 6.73382 14.1711 -0.00800237 0.0115236 0.00379247
45 1 1.08775 11.9496 15.6645 12.0824 0.00186609 -0.000127442 6.4858e-05
46 1 1.35397 14.2826 2.9479 13.9742 0.00788456 0.00401769 0.00982676
47 1 1.47985 12.0761 5.29231 8.86456 -0.00428598 0.00697033 0.0140622
48 1 1.64549 14.0584 6.85536 10.5 0.00521466 -0.00327225 -0.00629414
49 1 1.37346 8.69754 8.38355 1.58019 0.00656229 -0.00503058 -0.00717485
50 1 1.40029 10.3596 10.5496 3.34553 0.00409618 -0.000466922 -0.001279
51 1 1.36046 8.48659 12.5658 4.73602 0.00516567 -0.0137404 0.00524353
52 1 1.25628 10.5986 13.9272 6.77142 -0.0149644 -0.000432727 0.00395391
53 1 1.54764 12.2881 8.64332 5.07061 -0.00338965 -0.0091043 0.0105079
54 1 1.60256 14.207 10.121 6.94626 0.00652202 -0.00096851 0.00794663
55 1 1.34042 12.0097 12.4582 1.70538 -0.0147923 -0.00715683 0.00895701
56 1 1.24231 14.013 14.1034 3.46432 -0.000429672 0.0118682 -0.00340229
57 1 1.35981 8.33054 8.56096 8.11466 0.000836145 0.000601157 0.00323362
58 1 1.28253 10.1386 9.93216 10.261 0.000668013 -0.00339658 0.00149142
59 1 1.3363 8.51741 12.0819 12.0685 -0.0175098 -0.00698351 0.00630035
60 1 1.34232 10.175 14.0679 14.3316 -0.0047012 0.0114283 0.00169696
61 1 1.44101 12.2058 8.50068 12.0807 0.00896776 0.00918166 0.00221345
62 1 1.1568 14.6659 10.738 15.0659 0.00614711 -0.00313158 0.0107878
63 1 1.36489 12.1404 11.9033 8.47445 0.00844312 -0.0040277 0.00713534
64 1 1.12921 14.1133 13.8792 10.396 -0.000617514 0.0028655 -0.00686499
65 2 -0.731045 2.0176 2.06407 2.9061 0.00822778 -0.00465466 -0.0055898
66 2 -0.618703 2.69146 15.0647 15.1519 0.0165176 -0.00143322 -0.000514878
67 2 -0.733292 14.9153 2.18343 15.1037 0.00260027 0.00641859 -0.00543474
68 2 -0.674594 15.0414 14.3986 2.2183 -0.00716546 0.00360539 0.003753
69 2 -0.736817 2.1325 4.17423 4.14892 -0.00761742 -0.00740574 -0.00809405
70 2 -0.848269 4.18827 2.61374 4.24406 0.00655858 -0.00234451 0.00137921
71 2 -0.705556 3.90385 4.19727 2.45047 -8.38358e-05 0.00988743 0.00548677
72 2 -0.654601 2.00621 6.16291 5.74885 0.00607027 -0.0102348 -0.00431203
73 2 -0.72422 15.3454 4.17669 6.39183 -0.008777 -0.00303149 0.0112356
74 2 -0.684408 14.5203 5.8169 4.32086 0.00444712 0.00746037 -0.000922946
75 2 -0.742886 3.81328 5.36387 7.75292 -0.00507134 0.00932858 0.0168972
76 2 -0.643702 4.10227 7.15311 5.76882 0.0199114 0.00207044 -0.00424753
77 2 -0.72849 2.21838 7.44487 8.07786 -0.00744229 -0.0117345 -0.00228693
78 2 -0.74948 5.72947 2.46299 6.10077 -0.00928892 -0.0120622 -0.0119206
79 2 -0.722308 4.27784 14.9083 6.0986 0.0010201 -0.0159 0.00195852
80 2 -0.813376 5.61088 15.2343 4.01486 -0.00420776 -0.00513367 -0.00398704
81 2 -0.567581 6.1188 4.27214 7.88384 -0.00650844 0.0274099 0.018798
82 2 -0.584759 8.24144 4.52758 5.72298 0.000659107 0.000401741 0.00242177
83 2 -0.612749 7.85445 2.16025 7.59689 -0.0178818 -0.00212418 0.006268
84 2 -0.831733 6.27759 5.43968 2.36258 -0.0161286 -0.00752704 -0.0193535
85 2 -0.691433 4.47393 6.12238 15.2862 0.00606819 0.00383773 -0.0164368
86 2 -0.757438 5.74537 4.1026 14.4257 0.0120865 -0.0112112 -0.00237572
87 2 -0.76062 6.2587 7.21326 4.35771 -0.00763725 0.00463904 0.0127343
88 2 -0.848673 8.27238 6.20459 3.64837 -0.00873323 0.00533363 0.00873404
89 2 -0.700856 7.25612 7.67958 2.16184 -0.00281389 -0.0050653 0.00210509
90 2 -0.876543 2.59405 2.22945 9.36427 -0.00112498 0.0159163 0.0164896
91 2 -0.756775 1.89516 14.4874 7.71643 -0.000488789 -0.00142147 0.000434567
92 2 -0.671915 15.0446 2.40059 7.83371 -0.00441133 0.0105563 -0.00164345
93 2 -0.662291 14.7732 14.9424 9.04582 -0.0125004 0.00990827 -0.00999461
94 2 -0.763384 2.51089 3.81615 11.1183 0.00460578 0.0179368 -0.0056263
95 2 -0.944861 4.55864 2.08486 11.2323 0.00203768 0.0121649 0.0185412
96 2 -0.748672 4.56827 3.77591 9.81175 0.00410239 0.00647381 0.00691943
97 2 -0.647981 2.39742 5.74217 13.1828 0.00505527 -0.0147924 -0.00412261
98 2 -0.678649 15.4576 3.32671 12.8362 -0.0053803 -0.00121871 -0.00994593
99 2 -0.65348 15.1802 5.53487 10.9973 -0.00136361 0.00262978 0.0198864
100 2 -0.768787 2.3535 7.40298 15.0469 0.0195451 -0.00635018 0.00827237
101 2 -0.65203 3.90686 7.72145 13.0575 0.011222 -0.000378805 0.00899078
102 2 -0.754891 6.10257 1.85482 13.4051 0.0269085 0.0029376 -0.0164811
103 2 -0.820575 4.0724 15.1151 13.3268 0.00660213 -0.0163744 0.00847034
104 2 -0.859987 6.02197 14.6084 11.7483 0.00112744 0.0196223 -0.0116392
105 2 -0.796981 7.82114 2.40349 14.8921 0.00301283 0.00496638 0.01933
106 2 -0.66332 7.38193 4.01432 12.6519 -0.00505797 0.00142731 -0.00279049
107 2 -0.772459 6.07383 5.96201 9.35072 0.00287674 -0.000634156 -0.00953866
108 2 -0.795048 5.70007 7.6815 11.327 -0.0149359 0.0180614 -0.0167216
109 2 -0.837689 7.68381 6.30745 11.3402 0.0155901 0.00407454 -0.00524625
110 2 -0.762814 7.24554 8.00884 9.30367 0.00881247 -0.00696402 0.00534533
111 2 -0.675542 2.86435 9.27868 2.15393 -0.00864256 -0.00680542 0.00636196
112 2 -0.709698 15.1036 7.42902 2.59539 -0.00623885 -0.00861033 0.00717007
113 2 -0.633938 15.0638 9.31178 15.6652 0.00943612 -0.0189588 -0.0119984
114 2 -0.696137 2.14575 10.8722 4.20306 0.00187035 0.00339793 0.00391203
115 2 -0.665241 4.20211 8.89223 4.00734 -0.00713535 0.00295159 0.00557098
116 2 -0.675921 4.26543 11.2705 2.40352 0.0133096 0.0102763 -0.012561
117 2 -0.712816 2.46344 12.8834 5.62046 0.0012567 0.0126513 0.0042713
118 2 -0.762907 15.0949 11.2528 6.41793 -0.000167698 0.0153319 0.00565291
119 2 -0.639481 15.0224 12.9978 4.27256 -0.0119263 0.00424844 0.00214903
120 2 -0.674232 3.93386 13.3906 7.84171 -0.00982182 -0.00373012 -0.00160765
121 2 -0.806398 5.84423 9.5499 6.16583 -0.0228328 0.00612883 -0.00754749
122 2 -0.835113 6.09879 11.2725 7.75891 0.00216119 0.00373476 -0.0136659
123 2 -0.713627 7.42042 11.5116 5.32615 0.00407779 0.00269195 0.00803931
124 2 -0.643681 8.17012 9.75574 7.09911 0.00251517 0.0154162 -0.0111807
125 2 -0.776083 5.84126 13.3172 1.65423 0.00660002 -0.00730736 -0.00248818
126 2 -0.65951 4.05435 12.8406 14.8022 0.00676893 -0.00755498 0.0133434
127 2 -0.842633 5.81328 10.9017 15.0141 -0.00671711 -0.00145417 -0.00756143
128 2 -0.836006 7.57315 15.4202 2.31423 -0.0108125 -0.0175689 0.00168998
129 2 -0.701795 7.63642 13.8572 4.01238 -0.011354 0.00948581 0.00368077
130 2 -0.787093 1.87875 9.74181 9.82808 -0.0120542 -0.00091728 0.00579155
131 2 -0.815348 14.7816 7.47398 9.36063 -0.0232949 -0.00611364 0.0102965
132 2 -0.806734 15.1829 9.40211 7.86412 -0.00696379 -0.000851329 -0.00773231
133 2 -0.875975 2.12281 11.6537 11.4272 -0.010353 -0.00832798 0.0175063
134 2 -0.728662 3.85449 9.83543 11.3129 0.00386863 0.00933782 -0.00379345
135 2 -0.708949 3.81554 11.4599 9.37287 0.0205087 0.00374552 -0.0147095
136 2 -0.825502 1.87356 13.2737 13.6672 0.00151626 -0.00307185 -0.0130886
137 2 -0.700415 15.0304 11.0536 13.4171 0.0142993 0.0159136 0.00596993
138 2 -0.640328 14.8715 13.1475 11.683 -0.00525043 9.85883e-05 0.0145239
139 2 -0.76977 6.0746 9.44936 13.0578 -0.00915184 0.00556018 -0.00688001
140 2 -0.79575 7.81544 9.47406 15.1791 0.006949 0.0106777 0.00430351
141 2 -0.703644 7.54882 11.1855 13.1694 -0.00270315 -0.0246066 -0.00243397
142 2 -0.71965 5.81851 13.2784 9.52348 -0.0126561 -0.00213968 -0.00818629
143 2 -0.613838 7.40645 15.0685 9.50665 0.0101155 -0.0099618 -0.00977806
144 2 -0.688305 7.84772 12.5964 10.7676 0.000384144 0.00536912 0.0081664
145 2 -0.886851 9.8347 2.15395 2.4651 0.00591801 0.0119663 0.0187992
146 2 -0.718515 9.45981 15.0903 15.2811 0.00592082 -0.0194581 0.00386004
147 2 -0.88353 10.0458 4.22602 3.60234 0.0159957 -0.0128489 -0.0151714
148 2 -0.852656 11.9327 2.6376 3.954 -0.00622768 -0.000550085 -0.00669212
149 2 -0.956997 11.6216 3.76283 1.6541 0.0165941 -0.0107419 0.0024801
150 2 -0.826103 9.88929 6.11465 5.44921 0.00724157 0.000972544 -0.00102598
151 2 -0.716687 10.8703 5.7516 7.87925 0.0156181 -0.00433487 -0.00370121
152 2 -0.80582 11.7639 7.54982 6.08928 0.0021234 0.00582277 0.0147892
153 2 -0.740258 9.34084 7.62035 7.31996 0.00724468 0.00497113 0.0118981
154 2 -0.801034 13.1974 2.85199 6.28423 0.00744766 0.00324194 -0.000716849
155 2 -0.669084 11.4419 15.2969 5.80509 0.0150899 0.0106453 -0.0121092
156 2 -0.691111 13.8159 15.3096 4.31892 0.0151729 0.00461434 0.00390874
157 2 -0.747742 13.2943 4.79402 7.95974 -0.00137593 0.0086278 0.0126138
158 2 -0.765186 12.9755 5.61748 1.98887 -0.0133828 -0.0060917 0.00672272
159 2 -0.791128 11.7567 5.6654 14.3206 -0.0040624 0.0123724 0.00696591
160 2 -0.783486 13.6772 4.23122 14.4936 0.00830655 0.00325856 -0.0146045
161 2 -0.701946 13.2028 7.68065 4.05416 -0.0226219 0.00658354 0.00271083
162 2 -0.6865 9.46186 2.71848 9.09919 0.0119427 0.00174469 0.00058298
163 2 -0.611365 9.58802 14.538 7.95687 -0.00973138 0.00762859 -0.0126742
164 2 -0.816137 9.3193 4.35413 11.178 0.0116885 0.0227766 0.00628127
165 2 -0.678638 11.3413 2.36292 11.1336 0.00803106 0.0210683 0.0033525
166 2 -0.713424 11.4204 4.07958 9.60597 0.00838256 -0.000953127 0.0118794
167 2 -0.66318 9.55205 5.8465 13.1939 0.0158269 0.0174133 0.0110262
168 2 -0.771133 9.42319 7.2871 15.2254 0.0173754 -0.00308924 -0.0059657
169 2 -0.728441 11.2803 7.71596 13.1239 0.00657705 -0.00716318 -0.00584675
170 2 -0.499112 12.7695 2.34222 12.9795 -0.0118598 0.0133181 0.0126476
171 2 -0.565147 11.1683 15.1559 13.7401 -0.0111853 -0.0188653 -0.00527715
172 2 -0.650366 13.3297 14.84 11.2584 0.00535598 -0.00766507 -0.00513458
173 2 -0.791382 12.9134 6.0825 9.98314 -0.00189646 0.00555154 0.000494467
174 2 -0.868261 13.4015 7.65679 11.582 0.00475585 -0.0053202 0.000777663
175 2 -0.681553 9.47912 9.2152 2.80509 -0.002528 -0.000519966 0.00100286
176 2 -0.745252 9.26762 11.6397 3.72927 0.0149573 0.00248024 -0.00848375
177 2 -0.728266 11.4457 9.72845 4.31611 -0.0035384 0.00996138 -0.00622587
178 2 -0.7748 10.9868 11.2368 2.13762 0.0039946 0.00669778 -0.00256776
179 2 -0.665156 9.73052 12.9994 5.69669 -0.00780638 0.00266176 -0.00115424
180 2 -0.722788 11.4075 13.2064 7.87096 -0.00672458 -0.000429302 -0.00763279
181 2 -0.772582 13.1962 9.63934 5.70607 -0.00148187 -0.0105249 0.000589175
182 2 -0.738132 13.1415 10.8099 7.83652 -0.0166166 0.00414574 0.00382153
183 2 -0.654887 12.5078 13.1226 3.04326 -0.00697467 -0.00151073 -0.0169321
184 2 -0.815196 11.2164 13.143 15.0022 0.00387687 -0.0187935 0.00178584
185 2 -0.624335 13.0401 11.3078 15.5233 0.011398 -0.0132402 -0.0113313
186 2 -0.632304 9.47832 9.26031 9.01734 0.00546212 0.0127424 0.00323634
187 2 -0.672712 9.13973 10.8663 11.338 0.004319 0.00492123 0.000564906
188 2 -0.689387 11.3307 9.01455 10.7313 0.0102652 -0.00166948 0.00513038
189 2 -0.575486 10.8133 11.1679 9.21386 0.0102311 0.000343592 -0.00933673
190 2 -0.703664 9.32294 13.2555 12.7501 -0.0101225 -0.00126086 -0.00167721
191 2 -0.716239 12.8286 9.87222 12.448 0.000425487 -0.00587812 -0.00158956
192 2 -0.657337 13.0861 12.5794 9.49197 -0.00457537 -0.00413979 -0.0204341
193 2 -0.606849 12.0191 12.1911 12.2194 -0.00223225 -0.00695137 -0.000973926
194 2 -0.577449 3.5685 10.16 6.95568 -0.00932812 -0.00413919 0.00181826
195 2 -0.700696 8.65861 12.5971 15.0165 -0.00222952 -0.0204942 0.00383945
196 2 -0.628681 10.6787 14.2392 10.5967 -0.0232303 7.25576e-05 0.00163781
197 2 -0.599987 13.0437 2.4112 8.90658 0.00172049 -0.01013 0.0148866
198 2 -0.590074 9.22965 1.58022 5.1761 -0.00229209 -0.0119918 0.017991
199 2 -0.649648 5.64286 4.62542 5.4204 0.00229366 -0.00924395 -0.0173551
200 2 -0.628811 13.6936 13.8474 6.64102 0.000651329 -0.0123171 -0.00300619
201 2 -0.633502 2.85482 14.4626 10.4411 0.00321036 -0.0186127 0.00248835
202 2 -0.579241 15.669 11.7324 1.45609 0.0054394 -0.000499 -0.00588627
203 2 -0.684029 4.45885 7.99739 8.22206 -0.00535376 -0.00995532 0.0120643
204 2 -0.615166 10.2046 10.2868 14.0797 -0.0138754 0.0131781 -0.0225662
205 3 0.416678 12.7988 12.2207 12.693 -0.0167328 0.0201121 -0.0593795
206 3 0.327438 11.3362 12.1046 12.9557 -0.0369604 0.0570655 -0.00427386
207 3 0.37453 3.89768 9.41084 6.41418 -0.00727073 0.0175725 0.036804
208 3 0.373522 4.15574 10.8678 6.73148 0.034906 -0.0113509 0.0502508
209 3 0.404249 7.73859 12.763 14.9461 -0.000823876 0.0521627 -0.03152
210 3 0.42464 8.8533 12.1266 1.33578 0.0675518 -0.0196752 0.0133335
211 3 0.423274 11.3416 13.6521 10.2972 0.0402485 -0.013457 -0.0581915
212 3 0.37241 9.72433 13.6254 10.6738 0.023623 -0.0088363 -0.0387853
213 3 0.424189 12.7135 1.75834 9.62411 0.0449546 0.0174809 -0.0165809
214 3 0.385631 12.2521 2.68119 8.41138 -0.0573753 -0.00359099 -0.047624
215 3 0.417399 10.081 1.5624 4.61636 0.0345641 -0.0276967 0.0195074
216 3 0.407279 8.91853 2.24986 5.7061 -0.0203171 0.0203424 -0.0486155
217 3 0.451245 5.88737 5.37996 5.66016 -0.00898647 -0.0258261 -0.0505539
218 3 0.440954 5.04942 4.2239 6.06409 -0.00989291 -0.0203248 -0.0902095
219 3 0.467118 13.9881 13.8318 7.51165 -0.0122698 0.0226572 -0.015145
220 3 0.430239 14.1102 14.4506 6.04814 -0.0797639 -0.0560028 -0.0182889
221 3 0.382142 3.43734 14.5401 9.51795 -0.0704877 0.0535564 -0.0215795
222 3 0.403108 3.03725 13.6745 10.8666 0.0869159 0.0679288 -0.0214384
223 3 0.40729 10.6192 10.2624 14.9813 0.0135253 0.0428893 -0.0236495
224 3 0.460031 1.62426 12.4764 15.4755 -0.0171189 -0.014432 0.0513925
225 3 0.407836 5.30314 7.66758 8.37518 -0.074128 -0.0294987 -0.00596029
226 3 0.368322 4.18723 8.79841 8.87927 -0.0146397 -0.0202355 -0.0539442
227 3 0.443481 13.7331 10.0138 12.0771 0.0114465 0.00631244 0.0120115
228 3 0.370644 10.6444 10.9286 13.6222 0.0395904 -0.0389699 -0.0462409
ITEM: TIMESTEP
60000
ITEM: NUMBER OF ATOMS
228
ITEM: BOX BOUNDS pp pp pp
1.3477174725294585e+00 1.5812282527470057e+01
1.3477174725294585e+00 1.5812282527470057e+01
1.3477174725294585e+00 1.5812282527470057e+01
ITEM: ATOMS id type q x y z vx vy vz
1 1 1.49765 15.7983 1.50379 15.7056 -0.00371562 -0.00816743 -0.0103246
2 1 1.42403 3.51172 3.27595 2.90396 0.00778369 -0.0125048 0.00102895
3 1 1.36318 15.6988 4.67537 4.79445 0.0100068 -0.00589326 0.00871669
4 1 1.23306 3.002 6.49198 6.81394 0.00809195 0.00339561 0.00308079
5 1 1.41482 5.07397 1.48262 5.10719 -0.00342127 -0.0116192 0.0103321
6 1 1.5598 7.07681 3.52035 6.59727 0.00173794 0.000762075 -0.00603851
7 1 1.42086 5.42926 5.21199 15.542 0.00229452 0.00923014 -0.00853252
8 1 1.23918 6.9799 6.85553 3.28582 -0.00734313 -0.00443306 -0.00339428
9 1 1.301 1.72671 1.40433 8.80002 -0.00226283 0.00642521 -0.00344431
10 1 1.24994 3.60534 3.24363 10.6038 -0.00305593 0.0093009 0.00257191
11 1 1.28877 1.54474 4.7447 12.4074 -0.00145026 -0.0020791 -0.00389781
12 1 1.40213 3.05416 6.61967 14.1275 -0.00713167 -0.00743215 0.00531497
13 1 1.67041 4.97868 1.52764 12.6744 0.000714561 0.0104995 0.00435151
14 1 1.68947 7.17836 3.25702 13.9801 -0.00311804 -0.00432289 0.00163538
15 1 1.27881 5.16469 4.88755 8.67012 -0.00211122 0.00878246 -0.00540599
16 1 1.24022 6.98553 6.72113 10.183 -0.011556 0.00820223 -0.00425594
17 1 1.41352 1.57843 8.43838 1.72365 0.000355501 0.000901682 -0.00623368
18 1 1.6587 2.97179 10.6726 3.24812 -0.0113705 -0.00214856 0.000554763
19 1 1.54782 1.44582 12.1006 5.39158 0.020695 0.00195778 -0.00320433
20 1 1.40623 3.18198 14.1761 6.79688 -0.000948342 -0.00135257 -0.00583853
21 1 1.30577 4.72223 8.80146 5.1006 0.00955483 0.00696171 -0.00150342
22 1 1.43568 6.62948 10.6633 6.62827 -0.00753535 -0.00425275 -0.010661
23 1 1.63653 4.86361 12.3214 1.54577 0.00194562 -0.0019487 0.00603347
24 1 1.53013 6.69751 14.1927 3.30156 -0.00634303 -0.0139416 0.000180574
25 1 1.39095 15.6401 8.25034 8.67622 -0.00556929 -0.0147188 0.0200529
26 1 1.37082 3.18979 9.91097 10.3303 0.00967508 -0.00123258 -0.0103571
27 1 1.35061 1.46449 12.2192 12.3915 0.000525772 -0.000498575 -0.00715532
28 1 1.55846 3.3276 14.0576 14.2168 0.000990857 0.00374921 -0.00591228
29 1 1.31618 5.11685 8.37673 12.3586 -0.00180332 -0.00446232 0.00262153
30 1 1.55773 6.56371 10.2802 14.3369 -0.0059325 -0.00242012 -0.00330109
31 1 1.39904 4.98361 12.2281 8.86074 -0.00184534 0.00133191 -0.00637655
32 1 1.46878 6.52271 14.2379 10.8384 -0.0049418 -0.0151352 -0.000865101
33 1 1.44715 8.69072 1.41549 1.45765 -0.0107785 -0.0125911 -0.00740136
34 1 1.33249 11.0139 3.04753 3.15187 0.00635874 0.00827449 0.000521454
35 1 1.32489 9.06793 5.04815 4.72803 -0.0052901 0.010517 -0.000303787
36 1 1.63957 10.6506 7.01635 6.58199 0.0129109 -0.0131864 0.0210186
37 1 1.61731 12.1814 15.6047 5.31337 -0.00643801 -0.00596862 -0.00315677
38 1 1.47792 14.1248 2.87835 6.85151 -0.0110065 -0.00967218 -0.00939416
39 1 1.49789 12.628 4.9861 15.5868 0.00418703 -0.00196853 0.00132532
40 1 1.29878 14.0353 6.72209 3.2385 0.00203949 -0.00211404 0.00739864
41 1 1.40595 8.49061 1.76928 8.7355 -0.00853454 -0.00294445 0.00300461
42 1 1.35991 10.6661 3.12918 10.3351 0.00318418 0.0111223 -0.0016065
43 1 1.38194 8.82451 4.87615 12.0697 -0.00668976 0.00641094 0.00719769
44 1 1.53436 10.2761 6.68475 14.0726 -0.000453542 -0.00838191 0.000219958
45 1 1.37894 12.1475 15.7245 12.3261 0.00201924 -0.00187147 -0.0111772
46 1 1.42617 14.0628 3.01011 13.8498 -0.00299536 -0.00133865 -0.00512942
47 1 1.46787 12.3192 4.97452 8.42333 -0.00729375 0.00565483 0.00517541
48 1 1.48483 14.0733 6.34567 10.6146 -0.000930609 0.0153808 -0.0137588
49 1 1.52485 8.64717 8.63505 15.7269 0.00105987 0.00188977 0.00880649
50 1 1.6277 10.4865 10.5016 2.96252 0.00328646 -0.00184501 -0.00343442
51 1 1.33191 8.53616 12.1579 4.75745 -0.00762579 0.00212071 0.00348837
52 1 1.47128 9.92486 14.1537 6.83446 -0.00968248 0.0118585 0.00561855
53 1 1.56733 12.3115 8.80753 4.86305 -0.0170784 0.00593584 -0.0072594
54 1 1.38508 13.8644 10.4443 7.01602 -0.0137692 0.0122321 0.00958783
55 1 1.72134 12.3377 12.3881 1.62566 -0.00141864 -0.0102029 -0.00209056
56 1 1.40169 14.1006 13.9888 3.49281 0.00492872 0.0162614 0.0062778
57 1 1.46761 8.57095 8.63787 8.06432 -0.00892372 0.0111024 0.0121674
58 1 1.46597 10.2175 10.309 10.4262 0.00547763 0.0100106 -0.0027795
59 1 1.67169 8.29987 11.9575 12.3273 0.00772948 0.00574947 0.000253595
60 1 1.47096 10.2723 13.7309 14.2496 -0.00322462 0.00680851 -0.00150468
61 1 1.2519 11.895 8.12147 11.917 0.00836851 0.00454451 0.0121658
62 1 1.4411 14.7056 11.0286 14.9489 0.0138736 0.000485095 0.00285142
63 1 1.40802 11.8668 12.5531 8.72467 -0.0103457 -0.00497876 0.00707001
64 1 1.21128 13.9221 13.9961 10.5044 -0.00574746 -0.00592221 0.0187423
65 2 -0.634361 2.62817 2.59341 1.77558 -0.00521111 -0.00739845 -0.0191473
66 2 -0.841205 2.22706 15.0515 14.9358 0.0154332 -0.0181576 0.0027531
67 2 -0.777631 14.8627 2.5289 15.1927 0.0166833 0.0114637 -0.0114547
68 2 -0.679302 15.028 15.1641 2.38034 -0.00786044 -0.0166513 0.018387
69 2 -0.734755 2.53408 4.05021 3.87072 -0.00290776 0.000269866 0.0106412
70 2 -0.714391 4.30232 2.13692 3.86042 -0.00483996 0.000691096 0.00558663
71 2 -0.766555 4.52282 4.06263 2.12543 0.0123376 -0.00441865 -0.0148044
72 2 -0.646372 1.97458 5.14611 5.94597 0.00746589 0.0145271 0.00111505
73 2 -0.657759 14.8695 3.34472 5.42728 -0.000908512 -0.0214641 -0.0129959
74 2 -0.688014 14.7562 5.96438 4.47122 -0.00356978 0.0169087 -0.00261122
75 2 -0.631632 4.01687 5.41149 7.38911 0.0184386 -0.00155326 0.00390369
76 2 -0.654633 3.97233 7.43981 5.78064 0.022065 -0.00300459 -0.0139084
77 2 -0.679617 2.2168 7.08206 8.06245 0.0178599 0.0225957 0.0147049
78 2 -0.818272 6.04898 2.67869 5.82892 -0.0156844 0.00603284 0.00742645
79 2 -0.727527 3.89429 15.4571 6.06079 0.00701022 0.0170779 0.00452373
80 2 -0.798464 6.09183 14.8552 4.54488 0.0017573 0.00600587 -0.00036533
81 2 -0.700867 6.47418 4.29808 7.74864 -0.000238055 -0.0128695 -0.00566043
82 2 -0.847796 7.99781 4.46101 5.7864 -0.00532623 0.0142306 -0.0161603
83 2 -0.729357 7.82895 2.43754 7.47804 0.00724419 0.0102071 0.00553523
84 2 -0.704049 6.30218 6.20481 2.06896 0.00724272 0.00632153 0.00168079
85 2 -0.759212 4.40259 5.96926 14.7053 -0.00592756 -0.00657368 -0.00709139
86 2 -0.8365 6.46619 4.46693 14.6079 -0.00204846 -3.71815e-05 0.00945273
87 2 -0.509738 5.83721 8.35166 4.08749 0.00114043 -0.0061831 0.00809777
88 2 -0.647586 8.32425 6.08641 3.54216 0.0209356 0.0118852 0.00325969
89 2 -0.576266 7.68386 8.16808 2.65645 -0.000676067 -0.0152355 0.00903788
90 2 -0.73486 2.72657 2.36815 9.5285 -0.0153877 -0.0107429 -0.0111176
91 2 -0.75965 2.11676 14.6898 7.75556 0.0100922 -0.0228833 -0.00779323
92 2 -0.782891 14.8577 2.07109 7.92275 -0.00328274 0.0146101 0.0101255
93 2 -0.625025 15.1939 14.9741 9.96304 -0.00220653 -0.00492322 -0.010022
94 2 -0.581866 2.76152 4.65281 11.2658 -0.000426791 -0.0159823 -0.0142773
95 2 -0.829294 4.2905 2.61625 11.916 0.00144393 0.0127441 0.012601
96 2 -0.614138 4.98174 3.79335 9.76325 -0.0167136 0.0120135 0.0156183
97 2 -0.662127 1.80897 5.58479 13.8538 -0.017554 -0.0178678 0.00493303
98 2 -0.731807 15.2543 3.40798 12.7731 0.0233271 -0.00149618 -0.0184994
99 2 -0.781463 15.1953 5.60546 11.3352 -0.00961347 -0.000187859 -0.0029743
100 2 -0.707256 2.34622 7.77312 14.9547 0.00221784 0.0174843 -0.00939836
101 2 -0.622519 3.89002 7.29292 12.9942 0.00825976 -0.00358055 -0.0132682
102 2 -0.780971 6.40481 2.11687 13.3234 0.00872049 0.0141718 0.00308508
103 2 -0.829916 4.44239 15.1278 13.7319 0.0114134 -0.00651574 -0.00342678
104 2 -0.847984 5.57547 14.909 11.7324 0.00667383 -0.0198894 0.00308618
105 2 -0.794662 8.13401 2.57033 14.909 0.0147801 0.0206158 0.0037148
106 2 -0.804024 7.84722 3.88432 12.7177 -0.0131284 -0.0208891 -0.00234001
107 2 -0.775515 5.76246 6.02167 9.51237 -0.00262146 -0.0079368 0.00851848
108 2 -0.667177 6.19999 7.69592 11.2447 0.00304865 -0.0222955 -0.0123473
109 2 -0.624196 8.25142 5.62732 10.7699 -0.000730204 -0.000829322 -0.00190691
110 2 -0.66981 7.65508 7.68806 8.77501 0.00505556 -0.00635562 0.00212685
111 2 -0.83273 2.20174 9.55876 2.48174 0.00976149 0.0055668 -0.00935782
112 2 -0.678014 15.418 7.18447 2.55631 -0.00774568 -0.00326597 -0.00949606
113 2 -0.711108 14.9658 9.5034 15.2182 0.0155748 -0.00486025 0.0179726
114 2 -0.865523 1.99118 11.2269 4.22584 -0.00685405 -0.00439759 -0.00579841
115 2 -0.633957 4.20499 9.83858 3.90854 -0.00336136 -0.00604967 -0.00246142
116 2 -0.839493 3.97916 11.3365 2.26897 0.000695889 0.0185894 -0.0214355
117 2 -0.815007 2.58813 13.0529 5.88338 -0.00553909 -0.0066517 -0.00643563
118 2 -0.855073 15.0688 11.312 6.45065 -0.0142146 -0.0131635 0.0138453
119 2 -0.740978 14.9089 12.8886 4.35665 -0.00261346 -0.00910971 -0.000216291
120 2 -0.638254 4.06661 13.1704 7.98563 -0.00218674 0.00826621 0.00653732
121 2 -0.71332 5.3641 9.81931 6.15809 -0.0151921 0.0073014 -0.000964313
122 2 -0.720264 5.98329 11.5585 7.78118 -0.00345079 -0.0237897 -0.00557087
123 2 -0.684505 7.21955 11.2795 5.29503 -0.0136067 0.00332175 0.00440009
124 2 -0.781416 7.73929 9.81686 7.459 0.00445325 0.00778806 0.00723372
125 2 -0.806988 5.58278 13.4386 2.54305 0.0316072 0.0069446 -0.00551384
126 2 -0.873106 4.21409 13.149 14.9394 0.00678683 -0.00969459 0.00382756
127 2 -0.815679 5.71652 11.3572 14.9969 0.00155836 -0.0156461 -0.0146112
128 2 -0.750461 7.43977 15.3764 2.20509 -0.00613855 -0.00383102 -0.0145237
129 2 -0.759692 7.77284 13.3151 3.84738 -0.00390036 -0.00594802 0.0115998
130 2 -0.798263 2.25644 9.2774 9.26337 0.000993868 0.0078502 0.00253612
131 2 -0.712581 14.6408 7.62505 9.72987 0.00870829 0.00577825 0.00449026
132 2 -0.69965 14.7953 8.96786 7.60607 -0.00284605 -0.00940299 -0.0170391
133 2 -0.601754 2.3814 10.9188 11.4351 -0.0172441 -0.0103129 0.00542254
134 2 -0.681283 4.0322 8.98574 11.3414 -0.0132442 0.0152154 -0.00205572
135 2 -0.72832 4.0633 11.0756 9.56678 -0.00108557 -0.00339819 -0.0151986
136 2 -0.809493 2.26219 13.2025 13.1961 0.00193938 0.00645729 0.00649819
137 2 -0.747203 15.0414 11.5295 13.3712 -0.00599401 -0.00215576 -0.00964909
138 2 -0.67733 14.8549 12.9879 11.3675 -0.000880503 -0.00469217 -0.0116978
139 2 -0.731683 5.4873 9.43927 13.4782 0.00535495 0.00229226 0.00541647
140 2 -0.851615 7.77982 9.53388 14.8829 -0.0140753 -0.00431967 -0.010752
141 2 -0.822413 7.62821 11.0764 13.2892 -0.00971884 -0.00702799 0.00754525
142 2 -0.688072 5.86279 13.2522 9.83134 -0.0185405 0.0071411 -0.00424919
143 2 -0.625087 7.07303 15.2616 9.73175 0.00154554 0.00695635 0.0113267
144 2 -0.845101 7.53063 12.937 11.5769 0.00683045 -0.0183962 0.0065944
145 2 -0.66473 9.98892 2.21128 2.18536 -0.00705879 -0.00298386 -0.013329
146 2 -0.736171 9.35394 14.837 14.9152 0.0176857 -0.00945277 -0.0088645
147 2 -0.689465 10.161 4.2081 4.18461 -0.00157941 -0.01444 -0.00540452
148 2 -0.741276 11.6039 2.20039 4.36677 0.0168492 0.00245223 0.00634828
149 2 -0.711098 12.1443 3.92049 2.16378 0.00520691 0.000728237 0.0245548
150 2 -0.667158 9.86284 6.42534 5.36921 0.0113184 -0.00366686 0.0115639
151 2 -0.767875 11.5777 6.17935 7.56711 0.00499647 0.0179087 -0.0146211
152 2 -0.826645 11.2595 8.08118 5.72789 0.0168729 -0.00407856 0.00541819
153 2 -0.830082 9.50922 7.65175 7.35063 0.0149777 0.00135448 0.00457282
154 2 -0.837673 12.9879 2.04085 6.35392 0.0121432 -0.00135557 -0.00440938
155 2 -0.861926 11.008 15.0457 6.1461 -0.013897 -0.000104353 -0.00359465
156 2 -0.805833 13.152 14.6861 4.48835 -0.0251678 -0.00180628 -0.0211347
157 2 -0.753188 13.1621 4.06505 7.43154 0.00233643 -0.0268814 0.00735782
158 2 -0.720348 13.6331 5.84654 1.74433 0.0127094 0.00334468 -0.00183897
159 2 -0.738953 11.4125 5.79821 14.6619 -0.0013089 -0.00501791 0.00935976
160 2 -0.69112 13.4038 4.33046 14.3718 -0.0103923 0.00946259 0.00292471
161 2 -0.78846 13.2859 7.96706 3.85966 0.0121078 0.00499895 0.010884
162 2 -0.791546 9.28306 2.70569 9.5799 -0.00561821 0.0111432 0.0202145
163 2 -0.773149 9.18815 15.2661 7.69064 -0.00384552 -0.00185535 0.0120954
164 2 -0.533256 10.2235 4.00038 11.8378 -0.0119831 0.0135042 0.00736318
165 2 -0.717689 11.7318 2.25544 11.1823 0.00964396 0.0112879 -0.0142467
166 2 -0.716671 11.3676 4.3094 9.51727 -0.00887266 0.00168165 0.0145026
167 2 -0.688993 9.73446 5.9826 12.7818 -0.00752552 -0.00673727 -0.0017018
168 2 -0.823719 9.16993 7.42715 14.8464 -0.0169583 0.00803465 -0.0072215
169 2 -0.73356 10.9683 7.66818 13.0327 0.0174676 0.00287508 0.00826805
170 2 -0.749932 12.797 2.22717 13.3712 -0.0158106 -0.0037655 0.0113865
171 2 -0.624863 10.8658 14.6271 13.1861 0.00316318 -0.00604439 0.0047645
172 2 -0.724253 13.1147 14.6458 11.7838 -0.00128901 0.00376496 0.0181363
173 2 -0.68064 13.395 5.65737 9.35345 0.00427469 -0.00908667 -0.00385713
174 2 -0.68712 12.7138 6.76505 10.9769 0.00302627 -0.0104694 0.00306284
175 2 -0.769244 9.78193 9.32762 2.05347 -0.011366 0.00842237 0.0169039
176 2 -0.826408 9.37755 11.3437 3.5664 -0.00340633 -0.00117432 7.20408e-05
177 2 -0.775619 11.3413 9.78399 4.14569 -0.0160241 -0.0139476 0.0174149
178 2 -0.941694 11.3691 11.372 2.12244 -0.0187648 0.016029 0.00543779
179 2 -0.743153 8.95738 13.2037 5.92689 0.0122112 0.00240831 -0.00188062
180 2 -0.80295 10.9702 13.2948 7.59764 -0.00202932 -0.00780101 -0.000872269
181 2 -0.775272 13.016 9.74642 5.95017 0.0129283 -0.000681971 -0.0083502
182 2 -0.610345 13.0312 11.286 8.05949 -0.00944585 0.0043072 0.00515942
183 2 -0.825068 12.989 13.5148 2.50734 0.00904727 -0.00223884 -0.0262946
184 2 -0.833209 11.5112 13.1929 15.0225 0.0138051 0.0240241 -0.000695137
185 2 -0.919774 13.3044 11.4451 15.4184 0.00633424 0.00181866 0.00686684
186 2 -0.707713 9.27297 9.48108 9.59101 0.0081403 -0.00227369 -0.00557651
187 2 -0.738567 9.38731 11.2168 11.4563 -0.0238756 0.0122372 -0.0132491
188 2 -0.730959 11.147 9.49457 11.3543 0.00531404 -0.00295823 -0.00345301
189 2 -0.720164 11.0914 11.6053 9.64808 -0.00819913 0.00818337 -0.0170153
190 2 -0.663044 9.54551 12.6219 13.0425 0.00652467 0.000520838 0.028735
191 2 -0.687063 13.2586 8.63598 12.6568 0.000285327 0.0176071 -0.00312845
192 2 -0.699801 13.1651 13.0059 9.29202 0.0158194 0.00547353 -0.0109251
193 2 -0.52228 12.5427 11.6634 12.0263 0.00372924 0.00573401 -0.00823287
194 2 -0.655397 3.11488 9.55158 6.70099 -0.0152922 -0.00277811 0.0042866
195 2 -0.654636 8.50717 12.6061 15.5163 0.0236874 0.0139829 0.00412332
196 2 -0.661272 9.62075 14.4906 10.6182 -0.0033766 -0.00498981 0.00759708
197 2 -0.595405 11.6299 1.72723 8.80785 -0.00566103 -0.00250169 -0.00338615
198 2 -0.532056 8.91028 1.97571 4.46239 0.0175455 0.00238123 0.00602381
199 2 -0.654602 5.26799 5.52937 4.19858 0.0158511 -0.00564347 0.000947524
200 2 -0.566969 13.697 13.5436 7.03503 0.00661153 -0.00375506 0.00640695
201 2 -0.573545 2.72425 13.8253 10.6998 0.00119393 7.81555e-05 -0.0121905
202 2 -0.656455 15.6509 12.0599 15.5211 0.0095554 0.00368173 0.00466686
203 2 -0.61263 4.40921 7.72338 8.09886 -0.00109686 0.00320673 -0.00384384
204 2 -0.60305 12.0939 8.39767 15.557 -0.00349654 0.00830356 -0.00725518
205 3 0.425552 12.7093 10.6404 12.0832 -0.0752329 0.00766996 -0.0476969
206 3 0.422878 12.6674 12.0208 12.9052 0.0200027 0.0749571 -0.0131858
207 3 0.46845 3.51736 9.76995 7.49494 -0.0100103 0.0931993 0.00123269
208 3 0.410084 2.24891 9.29576 6.8775 -0.0252907 -0.0156319 -0.0677756
209 3 0.445007 8.80302 12.3383 1.89613 -0.0346895 -0.0269446 0.0146269
210 3 0.38863 7.57814 12.3759 15.105 -0.0702968 0.0270289 0.0201207
211 3 0.392263 9.033 15.0651 11.0244 0.0708735 0.0574397 -0.0270774
212 3 0.42399 9.51277 13.5797 10.4171 -0.00910283 -0.0599276 -0.0076441
213 3 0.400533 11.5539 15.5597 7.85189 0.00502952 -0.0640433 0.0359759
214 3 0.375396 12.5662 2.1198 8.74626 0.0425338 -0.0241038 -0.023238
215 3 0.37426 8.85846 1.54398 5.4625 0.00597653 -0.0642579 0.0490865
216 3 0.320666 7.84755 2.22076 4.44347 0.0224864 -0.0512217 -0.000724225
217 3 0.393451 4.41717 5.09998 3.82389 0.0316368 -0.0737603 0.0123762
218 3 0.369721 5.7744 4.9013 4.66238 0.129801 -0.0269745 -0.0482196
219 3 0.412975 14.3935 12.8379 7.2672 0.034931 0.0253329 -0.00918438
220 3 0.376507 14.145 14.4795 6.95801 0.0608956 -0.00865373 -0.0462154
221 3 0.378833 2.23308 13.0067 10.5567 0.028414 -0.0173028 -0.0361398
222 3 0.392468 2.19575 14.2381 11.3837 -0.0384199 0.0204402 0.00701827
223 3 0.372346 13.1441 8.96245 15.7527 -0.0118665 -0.0324669 -0.0704111
224 3 0.352691 15.2802 13.0807 15.1628 0.0304974 0.0361718 -0.0445099
225 3 0.372444 5.21556 7.45397 7.52304 -0.0186745 0.093987 -0.0193818
226 3 0.430113 4.67688 7.33479 8.94693 0.0610364 0.0537034 0.00193045
227 3 0.387318 13.8959 8.00147 12.491 0.0283208 0.0266382 -0.00554849
228 3 0.457646 11.9498 8.41817 14.8193 0.0235099 -0.0254369 0.0236693
ITEM: TIMESTEP
62000
ITEM: NUMBER OF ATOMS
228
ITEM: BOX BOUNDS pp pp pp
1.3735995038159485e+00 1.5786400496183592e+01
1.3735995038159485e+00 1.5786400496183592e+01
1.3735995038159485e+00 1.5786400496183592e+01
ITEM: ATOMS id type q x y z vx vy vz
1 1 1.59496 15.6338 1.48583 1.77369 0.000342023 -0.0127976 9.42768e-05
2 1 1.60565 3.12233 3.41999 3.1767 0.00537705 0.0197556 -0.00132847
3 1 1.39643 15.6151 5.2115 4.89176 0.0051317 0.00215236 -0.00183876
4 1 1.43708 3.06924 6.58297 6.85674 -0.0044413 0.00152805 0.00816339
5 1 1.44473 4.94307 1.5909 4.94079 0.00530553 0.00309539 -0.00884366
6 1 1.44751 6.89408 3.11367 6.8157 -0.00272808 0.000914721 0.00248553
7 1 1.46162 5.03182 5.33221 1.67998 -0.00522348 -0.00456951 -0.0137912
8 1 1.63002 7.02097 6.9486 3.35233 0.0153752 -0.00543486 -0.00443607
9 1 1.42543 15.497 15.721 8.44388 -0.00533277 0.000838345 -0.00171998
10 1 1.34376 3.40077 2.95677 10.1558 -0.0078693 -0.00706312 0.0135903
11 1 1.44886 1.60255 4.8806 12.1673 0.0157235 0.00496283 0.0155692
12 1 1.32646 3.24989 6.67135 14.0108 -0.00624012 0.000968445 -0.00606053
13 1 1.58039 4.74327 1.67265 12.6039 -0.00842949 -0.0131699 -0.0023131
14 1 1.52608 6.89113 3.39786 14.1648 0.00212424 0.0108863 -0.00992564
15 1 1.38283 5.22345 4.91244 8.6742 0.00261829 -0.00376279 0.0116959
16 1 1.40683 7.12479 6.60742 10.3972 -0.00465497 -0.009109 0.00080642
17 1 1.43012 1.49276 8.50319 1.43196 -0.00066605 0.00311875 0.00430861
18 1 1.50035 3.60173 10.3131 3.48706 0.00236938 -0.00837346 0.00859695
19 1 1.73079 1.55114 11.8966 5.02592 -0.00780912 0.00573378 -0.00148524
20 1 1.3873 3.30969 13.9492 6.61625 -0.00333773 0.00207506 -0.0159736
21 1 1.41635 5.07072 8.52456 5.44662 -0.000258303 -0.00140255 -0.00207951
22 1 1.48439 6.66426 10.8813 6.66686 -0.00743203 0.00451092 0.0123565
23 1 1.28756 4.87331 12.062 15.6126 -0.00834956 -0.00247638 0.000948401
24 1 1.37791 6.65727 14.2508 3.13936 0.00580982 -0.00204101 0.0035165
25 1 1.52281 1.37638 8.54344 9.05074 -0.00417416 0.000522034 -0.0029124
26 1 1.39514 3.50079 10.4 10.2153 -0.00512107 -0.00710084 -0.00118814
27 1 1.2002 1.48545 12.643 12.16 0.0128126 0.000659404 -0.00382739
28 1 1.53069 2.97695 14.2902 14.4968 -0.00296471 -0.0123946 0.00844664
29 1 1.35833 4.98139 8.49461 11.8987 -0.00541956 -0.00768942 0.000861813
30 1 1.46181 6.60255 10.1836 13.7108 2.1372e-05 -0.00329124 -0.00210041
31 1 1.45645 5.11197 12.4592 8.67222 0.00499559 -0.00465388 -0.00414802
32 1 1.45284 6.35135 14.1664 10.8689 -0.00100541 -0.00281388 -0.00166081
33 1 1.61336 8.56219 1.53763 1.41289 -0.00476288 -0.00176372 -0.00828787
34 1 1.47656 10.4231 3.16616 3.12941 0.00907171 -0.00577891 -0.0015163
35 1 1.67501 8.78723 5.0473 4.89151 -0.0143 0.00311732 0.010005
36 1 1.46689 10.4056 6.70671 6.84331 -0.00146144 -0.0112527 0.00223012
37 1 1.39502 11.8437 1.42373 5.30106 0.0103044 0.0123795 0.000849479
38 1 1.48275 14.005 3.23016 6.6094 0.0164934 0.0114668 -0.0160158
39 1 1.46067 12.5005 4.59895 15.399 -0.00105266 -0.00033262 -0.0067106
40 1 1.35695 13.7259 6.91124 2.83222 -0.00605302 -0.00261315 0.0036187
41 1 1.29332 8.26326 1.59627 9.1347 -0.00060632 0.00428312 0.0118263
42 1 1.39608 10.5574 3.34169 10.4991 -0.00480468 0.0155662 0.0103698
43 1 1.62474 8.7362 4.92531 12.3377 0.00993327 -0.00834212 -0.00287927
44 1 1.40466 10.6424 6.7366 13.9643 0.00371912 0.0071302 -0.0080227
45 1 1.46405 12.2632 15.803 12.5983 -0.00327901 0.00985089 0.00082498
46 1 1.60417 14.4714 2.95296 13.9301 -0.00799857 -0.00485488 0.0054163
47 1 1.3466 12.3455 4.91655 8.55398 -0.000546376 -0.0044102 0.0053938
48 1 1.58493 14.1048 6.43685 10.4634 0.00172742 0.0104178 0.0115146
49 1 1.47821 8.70115 8.62163 15.5901 -0.00889455 -0.00210286 0.00583895
50 1 1.47538 10.3033 10.4316 3.10807 0.0144312 -0.000323903 -0.01091
51 1 1.64949 8.65825 12.3398 4.87104 -0.00388542 0.00575565 -0.00218742
52 1 1.34093 9.98598 14.036 7.11068 0.00649511 0.0065075 -0.0154096
53 1 1.34394 12.0293 8.61265 5.06375 0.00255252 -0.0125487 0.00399476
54 1 1.3365 14.277 10.255 7.16965 -0.000526499 -0.00559416 0.000655494
55 1 1.54259 12.5943 12.2137 1.75389 0.00811944 -0.00639514 -0.00058084
56 1 1.27589 13.9222 14.0077 3.59146 0.000766125 0.0117099 0.00528832
57 1 1.21933 8.57401 8.92528 8.23689 0.00314789 -0.00640568 -0.0123096
58 1 1.27901 10.3525 10.2192 10.3714 0.00202029 -0.01052 7.95187e-05
59 1 1.40816 8.5203 12.0051 12.0056 -0.000512581 -0.000389104 -0.0138882
60 1 1.32499 10.3274 13.54 14.2508 -0.0165721 0.00723488 -0.00275518
61 1 1.30726 12.1789 8.58335 12.0252 -0.0140391 0.00338933 0.00286447
62 1 1.20833 15.1668 11.2244 14.8486 0.0166628 -0.0108689 0.00741255
63 1 1.18208 12.4224 12.1822 8.71311 0.0106275 -0.00474834 -0.00904495
64 1 1.5504 13.91 14.1698 10.3618 -0.0079802 -0.00410477 0.00928834
65 2 -0.796497 2.35088 2.23904 2.69113 -0.00124791 -0.00226495 -0.005492
66 2 -0.831208 2.23031 14.7715 15.7004 0.0240966 0.00510085 0.00677574
67 2 -0.898332 15.35 2.50139 15.0482 -0.000761939 -0.00495887 0.0229179
68 2 -0.724989 14.8456 15.2497 2.89173 0.000256084 0.00865704 0.0107968
69 2 -0.720128 2.15583 4.44763 3.90126 0.0122722 -0.00248357 0.00147962
70 2 -0.719129 4.3486 2.90538 4.18658 0.00451581 0.0155908 0.00473996
71 2 -0.796664 3.81817 4.40361 2.2972 -0.00718363 -0.00381714 -0.00401061
72 2 -0.76947 2.05369 6.13006 5.80788 -0.00494514 0.00537756 -0.00294702
73 2 -0.737382 15.1387 4.09376 6.13082 -0.0102751 0.000540139 -0.0085527
74 2 -0.586848 14.5196 5.75009 3.74449 -0.0168785 0.00857467 -0.00120166
75 2 -0.717321 3.93665 5.64174 7.86971 -0.00821754 -0.00420571 -0.0133496
76 2 -0.798702 3.92516 7.6093 5.96361 -0.0193001 0.00882375 0.0295498
77 2 -0.670276 2.10818 7.48782 7.8849 0.00815917 0.00291332 0.01581
78 2 -0.678522 5.85528 2.22872 6.19638 0.0151565 -0.00524638 0.0062053
79 2 -0.695615 3.99428 15.1493 6.04936 0.0107408 -0.0171519 0.00767073
80 2 -0.810308 5.869 15.0903 4.18086 -0.00847763 0.0209057 -0.0165171
81 2 -0.784434 6.14666 4.20153 7.62981 0.00585576 0.000113159 0.0184913
82 2 -0.759399 7.78941 4.03502 5.56456 -0.00467002 -0.0159171 -0.00391654
83 2 -0.74477 7.75455 2.1113 7.63042 0.0105538 -0.0070851 -0.0102501
84 2 -0.837274 5.8349 6.30127 2.82095 0.0170659 0.0096667 -0.00198196
85 2 -0.739382 4.24685 6.1758 15.0781 0.0120888 0.00810259 0.00310974
86 2 -0.732086 5.94665 4.53525 15.0806 0.0141874 0.0114911 0.00152943
87 2 -0.705942 6.24138 7.75129 4.4705 -0.00780852 -0.00359546 0.0121007
88 2 -0.893584 7.7372 5.84888 3.99435 0.012337 0.0167455 0.0085918
89 2 -0.703868 8.24064 7.70324 2.43403 -0.0125462 0.0181862 0.00868481
90 2 -0.623925 2.40786 2.17281 8.94127 0.0167295 0.0027188 -0.00617535
91 2 -0.657265 2.0361 14.413 7.61421 -0.0121477 0.00459487 0.00597188
92 2 -0.80254 14.7911 1.945 7.34527 0.00207496 0.016115 0.000833312
93 2 -0.861368 14.8844 15.1741 9.72816 0.0061231 0.0096406 0.000362938
94 2 -0.649489 2.41526 4.08985 10.6543 -0.00931749 0.00815291 0.00421642
95 2 -0.796269 3.82519 2.07805 11.4018 0.00999532 -0.00346029 -0.0151598
96 2 -0.642047 4.64202 3.34413 9.3053 -0.00798424 0.000584913 0.00720694
97 2 -0.688442 2.84406 5.73429 12.7632 -0.00251393 -0.00715803 0.00772373
98 2 -0.852225 15.1198 4.0485 13.0394 0.00212076 -0.00441278 -0.0157628
99 2 -0.80078 14.9586 5.81612 11.6704 0.0113106 5.54822e-05 -0.0160786
100 2 -0.724106 2.19899 7.4546 15.0436 0.00874095 0.0232301 -0.0146547
101 2 -0.629708 3.9142 7.64695 12.5969 -0.0116569 -0.0169544 -0.0035925
102 2 -0.770237 5.87671 2.55886 13.3899 0.0022979 -0.00338662 0.00752169
103 2 -0.716859 3.57822 15.5638 13.5812 0.00524948 -0.00625612 0.008675
104 2 -0.773386 5.57216 15.0075 12.1242 0.00754729 0.00193251 -0.00456081
105 2 -0.88892 7.91632 2.5017 14.8841 -0.012163 0.00573467 0.000842766
106 2 -0.806601 7.56748 4.18291 12.8937 0.0109806 0.00326999 0.000616676
107 2 -0.796672 6.25259 5.84363 9.24284 -0.0170243 0.00223894 -0.00704564
108 2 -0.639378 5.91223 6.98966 11.1645 0.00883986 -0.00236197 0.0079741
109 2 -0.772679 8.28895 5.8982 11.2058 -0.00344582 -0.00396958 -0.0016738
110 2 -0.651431 7.65776 7.92855 9.50557 0.0024597 0.0080798 -0.00342172
111 2 -0.65186 2.60571 9.3786 2.56575 -0.00448022 0.00813212 0.00198494
112 2 -0.724894 15.1368 7.59036 2.34968 -0.00648253 -0.00230013 -0.00407627
113 2 -0.665808 15.2048 9.544 14.8419 -0.000114444 -0.01497 -0.0181987
114 2 -0.884019 2.76158 11.3115 4.3468 -0.00316406 -0.00409286 -0.0107326
115 2 -0.707364 4.66063 9.27983 4.02049 0.00441361 -0.00164096 -0.00843743
116 2 -0.780461 3.91561 11.0969 2.30572 -0.00352292 0.00806856 -0.0114983
117 2 -0.750081 2.42593 13.009 5.54645 -0.0099163 -0.00147351 -0.0136279
118 2 -0.739692 15.7158 11.1248 6.25144 0.00517672 0.00535783 -0.0103762
119 2 -0.730598 14.7909 12.4202 4.26326 0.00614308 -0.00747442 0.00141587
120 2 -0.704826 4.57717 13.2246 7.4464 -0.00454939 0.0114963 -0.00600367
121 2 -0.798226 5.64935 9.86211 6.16165 0.0121679 0.0116194 -0.00741296
122 2 -0.740371 6.38776 11.7134 7.9678 -0.0117608 -0.0104287 0.0130903
123 2 -0.801868 7.48031 11.6211 5.6297 0.000660577 -0.0181588 0.00756656
124 2 -0.595107 8.15301 10.1902 7.28243 -0.0117292 0.0105495 -0.00858619
125 2 -0.644639 5.74536 13.31 2.03832 0.00496933 0.0117673 -0.0143519
126 2 -0.754675 3.88821 13.0465 14.9516 -0.00308486 -0.00150548 -0.0132236
127 2 -0.738069 5.51733 11.1229 14.3953 0.00290306 0.00152685 0.000415113
128 2 -0.840011 7.53493 15.0247 2.10582 -0.00208759 0.00649795 0.00164776
129 2 -0.714955 7.83139 13.0391 3.88594 0.0115855 -0.00739982 -0.0193705
130 2 -0.825943 2.3891 9.39959 9.70958 -0.00863719 -0.00400871 -0.0106291
131 2 -0.730781 15.2314 7.2455 9.82281 -0.0142761 -0.0101466 -0.00663841
132 2 -0.836908 14.7495 9.16895 8.08797 0.00957598 0.00875185 -0.0155573
133 2 -0.51674 2.20774 11.0218 11.2181 0.0130537 -0.0120847 0.00195746
134 2 -0.815136 4.61758 9.44458 10.7035 -0.00267694 0.00665855 0.0029502
135 2 -0.829333 4.02565 11.3331 9.10714 0.00371637 0.0260189 0.00683721
136 2 -0.713821 2.31891 13.7776 13.2753 0.0146349 -0.0192473 0.00321878
137 2 -0.626368 14.9873 11.7143 13.1207 0.0029296 0.00717105 -0.00135903
138 2 -0.739134 14.7173 13.3356 11.392 -0.0110563 0.0152071 0.0155892
139 2 -0.791737 6.17435 9.11265 12.6842 -0.00419365 -0.010227 -0.00509359
140 2 -0.729189 7.3654 9.30362 14.8126 -0.00178161 -0.0101374 0.0247486
141 2 -0.717692 7.78291 11.1234 13.1426 0.00615153 0.0125773 -0.00315479
142 2 -0.79942 5.54671 13.6007 9.57223 0.00394407 0.00601123 0.0121072
143 2 -0.669862 7.23475 15.3871 10.2556 -0.00899107 0.01177 -0.00294101
144 2 -0.720156 7.37175 13.2574 11.4622 -0.00250017 0.0112125 0.0177385
145 2 -0.922357 9.50043 2.25611 2.35628 -0.0032095 0.00183618 -0.00986694
146 2 -0.645328 9.66963 14.7812 14.9578 -0.00623539 -0.000905138 -0.000254133
147 2 -0.815563 9.88774 4.33538 4.06816 -0.0116144 0.00462374 0.00167741
148 2 -0.713414 11.4219 2.46312 4.13734 0.00963434 0.00585327 -0.00980247
149 2 -0.615211 11.6938 3.87596 2.1445 0.0106991 -0.00368541 0.00467591
150 2 -0.882985 9.54645 5.69975 5.96048 -0.00801314 0.00508726 0.0063535
151 2 -0.725037 11.5415 6.042 7.61621 0.00463002 -0.010905 0.00473429
152 2 -0.670294 10.9822 7.69521 5.7054 -0.0152242 -0.0192655 0.0108392
153 2 -0.637141 9.80714 8.05273 7.59381 0.000893608 -0.0088298 0.0197886
154 2 -0.757557 13.0273 2.26293 5.80991 -0.0048313 0.011275 -0.00414405
155 2 -0.783805 10.838 15.2838 6.34401 -0.0115395 -0.0143866 0.00261662
156 2 -0.583161 12.3743 14.5772 4.34951 0.00136475 0.011929 0.00365575
157 2 -0.809774 12.8936 3.64779 7.69016 0.0110314 -0.0219566 -0.00272941
158 2 -0.721977 13.214 5.82523 1.80906 -0.0203861 0.00174833 -0.00262134
159 2 -0.749901 11.3919 5.38482 14.5831 -0.00292357 0.0172567 0.00367271
160 2 -0.778637 13.2693 3.36736 14.8691 0.0118714 0.013503 -0.0102282
161 2 -0.668515 12.9565 7.49561 4.19257 0.0117711 0.00434941 -0.000531607
162 2 -0.736433 9.45085 2.35828 9.55826 -0.0103759 0.0122328 -0.0218621
163 2 -0.678959 9.54488 14.7041 8.41679 -0.0140878 0.000222991 -0.0213894
164 2 -0.780436 9.75882 3.91042 11.6703 -0.00134357 -0.000689845 0.00770581
165 2 -0.649371 11.3965 2.2193 11.3781 0.00222413 0.0187476 0.017362
166 2 -0.765466 11.3494 4.47768 9.78297 -0.00896989 0.0083957 -0.000277763
167 2 -0.73396 9.43818 6.06323 13.1126 0.00308893 -0.00969668 -0.00684254
168 2 -0.760822 9.69125 7.57402 14.8801 0.000463269 0.00127885 0.00224266
169 2 -0.787972 11.6724 7.59365 13.0676 -0.00151354 -0.0106645 0.00772149
170 2 -0.816626 13.4545 2.17857 12.9068 0.00299555 -0.00735034 -0.00476578
171 2 -0.573426 11.6436 14.8285 13.6756 -0.00452663 0.0153128 -0.010651
172 2 -0.647794 12.8304 14.7621 11.5185 -0.0125601 -0.0072797 -0.011008
173 2 -0.761328 13.4317 5.91139 9.24461 -0.00293337 -0.00522386 0.00333119
174 2 -0.694846 13.0991 7.54247 10.9778 0.00193731 0.00491658 -0.0100173
175 2 -0.843916 9.56311 9.53856 1.95918 0.00613848 -0.00418935 -0.000338435
176 2 -0.841535 9.35905 11.3691 3.86337 -0.016296 -0.0101003 0.0160186
177 2 -0.714452 11.0925 9.32576 4.07261 -0.0122513 -0.0107669 -0.000421572
178 2 -0.780239 11.5892 11.2174 2.5947 0.00762457 0.00302766 -0.0158337
179 2 -0.770687 9.39624 13.4871 5.64528 -0.0137837 -0.010067 0.00342973
180 2 -0.653383 10.9657 12.971 7.62152 0.00582366 -0.0185618 -0.0136722
181 2 -0.536816 12.8885 9.74622 6.1454 -0.00224619 0.0018465 0.00675743
182 2 -0.677385 13.2834 11.2472 7.77073 0.016953 0.0001763 0.00125395
183 2 -0.810907 13.3676 13.3251 2.32571 -0.0205973 0.0147334 -0.0186818
184 2 -0.71066 11.3044 12.7611 15.0645 -0.00520479 -0.0082569 -0.0168084
185 2 -0.742871 13.5498 11.3744 15.4688 -0.000258304 -0.00537178 -0.00236488
186 2 -0.653934 9.52674 9.69799 9.14319 0.00192174 -0.00477851 -0.00589114
187 2 -0.824702 9.32991 11.2313 10.9221 0.00815296 -0.00612404 0.0212117
188 2 -0.745712 10.8758 9.45066 11.6313 -0.00604308 0.00737285 0.00736244
189 2 -0.569874 12.0809 10.9861 9.70571 -0.0217186 -0.0136672 0.00395938
190 2 -0.658562 9.3287 12.9882 12.8209 -0.0111525 -0.0167003 -0.00740781
191 2 -0.618446 13.4796 9.52615 12.3886 -0.00542471 0.0161988 0.00171104
192 2 -0.766522 13.4754 13.4793 9.08038 0.00426091 -0.00636591 0.00660216
193 2 -0.57833 12.1437 12.123 13.1062 0.0154285 0.00741355 0.00835958
194 2 -0.614937 15.3621 9.21245 5.44232 0.0105959 -0.0136571 0.00283337
195 2 -0.586421 8.79304 12.1888 15.0499 0.00191996 -0.0035563 0.00210531
196 2 -0.62071 11.2865 13.2299 10.4317 0.0185822 -0.00116218 -0.00535737
197 2 -0.654789 12.2924 1.42536 8.73915 0.00960508 -0.0151061 0.0122115
198 2 -0.577184 8.44075 1.53738 4.82559 0.00441782 -0.000953306 0.00898928
199 2 -0.562743 4.67456 4.76012 5.2498 -0.0086315 -0.0125218 0.0188015
200 2 -0.625356 14.0143 14.1012 5.85614 -0.00540679 0.00575822 0.0173723
201 2 -0.606262 2.8423 13.5421 10.679 0.0135679 0.0132057 0.00169846
202 2 -0.733079 1.65812 11.672 1.54507 -0.00582102 -0.0134715 -0.00849472
203 2 -0.610571 5.35861 8.07174 7.71055 0.00495622 -0.00130452 0.00319873
204 2 -0.678578 12.9192 8.35706 15.7741 0.00743807 0.00405727 0.0046124
205 3 0.397414 11.5863 11.4577 12.672 -0.00122572 -0.0161187 0.0841329
206 3 0.476987 13.1088 11.9441 13.2622 -0.0253718 -0.00969652 -0.024666
207 3 0.380434 15.6816 8.70809 6.40736 -0.0240512 0.0273308 0.0196246
208 3 0.395964 1.52166 9.01898 4.70347 0.028676 -0.0173384 0.0263361
209 3 0.384982 9.34202 11.4755 15.4892 -0.0117388 0.00224178 0.0258853
210 3 0.375419 8.06124 12.8226 15.6907 0.0292469 0.0110615 0.00968652
211 3 0.350768 10.7732 12.3437 10.4583 0.00548668 -0.0304257 0.0186912
212 3 0.402025 10.5967 13.8337 10.0548 -0.0325392 -0.00404104 0.0696074
213 3 0.446466 12.059 2.15771 8.17997 0.0241997 -0.0370811 -0.020222
214 3 0.426946 11.6756 15.236 8.7937 0.0761373 -0.0825744 -0.0473537
215 3 0.387558 8.90047 1.88481 5.61994 -0.0261362 -0.0112103 0.115007
216 3 0.389184 9.16245 15.6239 4.30549 0.0502583 0.0193246 -0.0398963
217 3 0.416017 5.42287 4.72817 5.84139 0.0430748 0.0550483 0.00915781
218 3 0.423413 4.8184 5.38099 4.50153 -0.0206384 -0.0584102 -0.00118071
219 3 0.364535 13.3288 13.8458 6.64808 0.0853874 0.0253877 0.0439309
220 3 0.43066 14.5058 14.6583 6.45431 0.0207644 -0.0294382 -0.00206624
221 3 0.372299 2.46802 14.6053 10.4396 -0.030306 -0.00253676 -0.0142779
222 3 0.363656 2.98512 13.3281 9.72686 -0.00796952 0.0281953 -0.0282886
223 3 0.391646 12.3571 8.76573 1.96551 -0.00280282 0.0345388 0.000612557
224 3 0.52537 2.36335 11.8634 2.07571 -0.00149358 -0.0316583 0.0177666
225 3 0.375214 5.95737 7.72945 8.58786 -0.0214728 0.0149265 0.0194293
226 3 0.367614 4.50874 8.21392 8.24511 0.0286091 0.0662147 -0.0477562
227 3 0.425322 14.1775 8.8712 12.5051 -0.0185508 0.0417909 0.0317361
228 3 0.374061 12.3335 7.84341 15.2457 -0.0796617 -0.00316285 -0.0110785
ITEM: TIMESTEP
64000
ITEM: NUMBER OF ATOMS
228
ITEM: BOX BOUNDS pp pp pp
1.4135720153961921e+00 1.5746427984603361e+01
1.4135720153961921e+00 1.5746427984603361e+01
1.4135720153961921e+00 1.5746427984603361e+01
ITEM: ATOMS id type q x y z vx vy vz
1 1 1.76123 15.6477 1.3948 15.6007 -0.00984767 -0.0116009 -0.00577022
2 1 1.57101 2.98565 2.93904 3.31857 -0.00578916 0.00390386 -0.0033357
3 1 1.5711 1.45553 4.90571 5.0643 0.007029 0.00532486 -0.00246165
4 1 1.36195 3.79194 6.55207 6.74224 0.00658423 0.00300334 0.0100031
5 1 1.56166 5.01731 1.68152 5.24109 0.00129146 0.0154239 -0.0116659
6 1 1.27668 7.22349 3.22116 6.89359 -0.00151659 0.00461026 -0.0125237
7 1 1.3164 5.10977 4.93703 1.66518 -0.00980844 0.0062317 -0.0145856
8 1 1.2863 7.2545 6.80827 3.03476 -0.0182707 0.000801721 -0.00136001
9 1 1.76409 15.6187 15.6643 8.40775 -0.00252864 0.00348567 0.0110144
10 1 1.72117 3.1823 3.0774 10.1269 0.0080441 0.00848331 -0.00111947
11 1 1.40904 1.43071 5.10871 11.9359 -0.00994853 -0.0120415 0.000908116
12 1 1.23767 3.26212 6.59957 14.0527 -0.000779209 0.00635623 0.000498774
13 1 1.60981 5.17044 2.06512 12.2112 0.0101732 0.00250664 0.00451947
14 1 1.60712 7.03845 3.45898 14.1428 -0.0123476 0.00848265 -0.00346285
15 1 1.69464 5.30688 4.76842 8.72313 -0.00855524 -0.00309804 0.00324088
16 1 1.60687 6.83893 6.76545 10.3884 -0.00517265 0.0023441 0.00546352
17 1 1.31374 1.72065 8.34869 1.94016 -0.00666335 0.0051939 -0.0102945
18 1 1.5805 3.69356 10.536 3.12233 0.00542141 0.00645369 0.0131766
19 1 1.46966 1.50148 12.2151 5.0318 -0.00422786 -0.00327184 0.00401474
20 1 1.33083 3.36768 13.9249 6.76256 0.00246392 -0.00663082 0.00144939
21 1 1.39424 5.22749 8.62805 4.8913 0.00622796 -0.000172371 -0.015773
22 1 1.41072 6.89707 10.2963 6.76593 -0.0023839 0.00518895 -0.00234242
23 1 1.5408 5.11237 12.431 15.7407 -0.00570939 0.00868002 0.00459345
24 1 1.61723 6.71877 14.2298 3.3735 -0.00392503 -0.00105388 -0.00607723
25 1 1.31579 1.64342 8.52461 8.44476 -0.00564454 0.000525255 -7.8268e-05
26 1 1.35952 3.41957 10.0601 10.5362 0.0123423 0.012549 0.00134371
27 1 1.2678 1.68373 12.2674 12.2245 0.0058304 -0.00773952 -0.00466747
28 1 1.38773 3.50614 14.3816 13.8371 0.00523959 -0.0119616 -0.00642325
29 1 1.64987 5.08715 8.46942 12.4333 -0.00277861 0.0114907 0.00729514
30 1 1.66484 6.70324 10.5802 13.8525 0.00910724 0.00406591 0.00171902
31 1 1.29494 4.84046 12.3185 8.86053 0.00255909 -0.0101993 -0.00411255
32 1 1.67294 6.67929 14.1096 10.5515 -0.00490248 -0.0117676 -0.00567204
33 1 1.71567 8.44819 1.75908 1.83687 0.000169453 -0.00855616 -0.0178352
34 1 1.48981 10.6373 3.26997 3.19595 0.00291863 -0.00185546 -0.00350842
35 1 1.62649 9.0055 5.30842 5.02879 -5.84244e-05 0.013892 -0.00781531
36 1 1.61122 10.3562 6.99932 7.09525 0.0167415 -0.0167419 0.0116713
37 1 1.29089 12.6534 15.6121 4.79833 -0.000274814 0.00372059 -0.00882656
38 1 1.66468 13.9804 3.16737 6.64472 0.00326345 -0.00141578 -0.00220359
39 1 1.8023 12.0724 5.2566 15.6398 0.0041146 -0.000270943 0.00619443
40 1 1.7124 13.6241 6.66364 3.48164 -0.0094921 0.00584877 0.00340724
41 1 1.42123 8.6531 15.3899 8.77784 0.0103094 0.00822642 0.00185836
42 1 1.30998 10.4806 3.11039 10.5848 0.000329175 -0.0140201 0.00354327
43 1 1.5161 8.69705 5.11749 12.1612 -0.00805902 0.00763948 0.000688791
44 1 1.68032 10.4518 7.11673 13.8495 -0.00597404 0.00166838 0.000164389
45 1 1.43273 12.2441 15.5091 12.5173 -0.00563297 0.00703919 -0.000103347
46 1 1.46882 14.0008 3.40496 13.8897 0.011405 -0.00575348 0.00139097
47 1 1.7972 12.0058 4.68245 8.42332 0.0124146 0.00148896 0.0140647
48 1 1.49018 13.9415 6.4044 9.95955 -0.00166637 0.0081194 -0.0054129
49 1 1.49748 8.5882 8.79795 15.4967 -0.00503159 0.0126606 0.000972105
50 1 1.36713 10.0952 10.5711 3.49724 0.00134266 -0.0088511 0.0132973
51 1 1.76904 8.36721 12.3439 5.08876 -0.000780672 -0.00455226 -0.00326193
52 1 1.27938 10.338 13.6857 6.7884 0.0144338 0.00424068 0.00201725
53 1 1.36957 12.069 8.68587 5.22505 0.00429793 0.00944423 -0.00421576
54 1 1.59312 14.2047 10.3731 6.81861 -0.00739968 -0.00761744 0.00175419
55 1 1.60114 12.073 12.15 1.61719 0.0020018 0.0160005 0.00748892
56 1 1.69511 14.3081 13.694 2.99211 0.0089797 0.00435354 -0.00132338
57 1 1.83919 8.48557 8.63992 8.62308 -0.0118868 0.00751421 -0.00642598
58 1 1.58917 10.2603 10.1067 10.3429 -0.000256386 -0.00825315 0.00775392
59 1 1.33454 8.63757 12.3481 11.9351 0.00784965 0.0053783 -0.00744605
60 1 1.35039 10.1603 14.1706 14.3507 0.00385659 -0.00473733 -0.00948241
61 1 1.74281 12.122 8.18316 11.6322 -0.0115885 -0.00424454 0.00444232
62 1 1.06628 14.7757 10.8521 14.7494 0.00555308 -0.00536533 -0.000809327
63 1 1.3377 12.4258 12.0202 8.68667 0.00603191 -0.00270024 0.00527538
64 1 1.46446 14.0433 14.0119 10.3855 -0.00857305 -0.00842958 0.00315382
65 2 -0.865928 2.03797 2.21719 2.37348 0.00953374 0.0154174 0.00577634
66 2 -0.819525 2.40966 15.205 14.6806 0.000522041 0.00161243 -0.00193178
67 2 -0.801565 14.867 2.41933 14.7155 -0.00477849 0.0100403 0.0190159
68 2 -0.963556 14.913 14.7526 2.19975 0.0110246 -0.000415963 0.00744486
69 2 -0.778838 2.43449 4.26815 3.97398 -0.00440356 -0.00484705 0.00566367
70 2 -0.820401 3.66144 2.00843 4.35432 0.000606368 -0.011526 0.00841692
71 2 -0.713784 4.14125 3.75291 2.6062 -0.00265525 0.00382521 0.0168068
72 2 -0.722903 2.36033 5.96743 5.58823 0.00592813 -0.00144779 -0.0219203
73 2 -0.926922 14.9906 4.00997 6.00634 0.0139684 -0.0102609 0.00979681
74 2 -0.767547 14.5132 5.625 4.17412 -0.0210489 0.00407052 -0.00627465
75 2 -0.803268 4.52182 5.91257 7.97191 -0.0118042 0.0260035 0.0152328
76 2 -0.850501 4.57217 7.56048 5.84055 -0.0121286 0.0214645 0.0031866
77 2 -0.67997 2.80396 7.24026 7.70208 0.00533003 -0.00728753 0.00586101
78 2 -0.80534 5.861 2.69692 5.88684 -0.000571185 0.000645065 0.00845936
79 2 -0.743619 4.54044 14.7827 6.09699 -0.00683372 -0.00776426 0.00539622
80 2 -0.800763 5.88693 15.3367 4.16765 0.019936 -0.000610765 0.0208032
81 2 -0.775535 6.36614 4.16246 7.8839 -0.0122589 0.00802886 0.0103565
82 2 -0.673045 8.09619 4.59564 6.03097 -0.00243171 -0.00449538 0.00456842
83 2 -0.655552 7.73876 2.20622 8.11748 0.000130094 -0.0184015 0.0107957
84 2 -0.656338 6.28024 5.3658 2.50294 0.0168562 -0.00127708 0.0292548
85 2 -0.616738 4.15119 6.21238 15.5245 0.0063316 -0.0120078 -0.012652
86 2 -0.80983 6.0539 4.40182 14.8892 0.016429 0.000884273 -0.00861923
87 2 -0.651948 5.88492 7.79453 3.67421 0.00189962 0.0105206 0.00271711
88 2 -0.82299 8.09102 6.00514 4.07122 -0.00822214 0.0198077 -4.36346e-05
89 2 -0.784089 8.07688 7.56201 1.89518 -0.000184162 -0.00259668 -0.00724398
90 2 -0.904193 2.04685 2.34843 9.24052 -0.00248605 -0.00723759 0.0100906
91 2 -0.84865 2.2314 14.6297 7.85893 0.00916436 -0.00935144 0.00837413
92 2 -0.90717 14.7322 2.29108 7.71207 -0.00983924 -0.00519906 0.0252765
93 2 -0.86785 14.8134 14.5852 9.20553 -0.00519703 -0.0157385 -0.00391987
94 2 -0.697218 2.5027 4.31054 10.7632 -0.0126542 0.00863521 -0.0104066
95 2 -0.865283 3.86927 2.55285 11.328 0.00763906 0.000320547 0.00290981
96 2 -0.886169 4.2649 3.70216 9.34383 0.0185978 0.00926341 -0.00415121
97 2 -0.704754 2.0991 6.02588 13.0487 0.00774829 -0.00363433 0.0240906
98 2 -0.727781 14.9194 3.96036 12.7011 -0.0174273 -0.0152895 0.0196819
99 2 -0.792652 14.9042 6.0517 11.0284 0.00506285 -0.00650182 -0.00722737
100 2 -0.584369 2.1832 7.60315 15.0398 0.0049637 -0.00288967 -0.0223011
101 2 -0.720015 4.10458 7.74983 13.5164 0.0111659 -0.0142539 -0.0251581
102 2 -0.840634 6.06169 2.54713 13.3167 -0.000965351 -0.00547418 0.0036703
103 2 -0.766313 4.30621 15.2834 12.8067 -0.00605211 -0.00680051 -0.015003
104 2 -0.754694 6.06861 15.3981 11.3735 0.0214179 0.00560336 -0.00120213
105 2 -0.858757 7.96412 2.3849 14.8718 0.00878687 -0.000334585 0.0115311
106 2 -0.789379 7.68759 4.30501 12.9843 0.00508494 0.00682077 0.00451732
107 2 -0.843767 5.95478 5.61262 9.82018 0.0189839 -0.0142819 0.00501778
108 2 -0.818177 6.04169 7.65848 11.7218 -0.00511005 0.010307 -0.0105389
109 2 -0.783934 8.009 6.01066 10.9951 0.0285005 0.00562407 -0.010249
110 2 -0.838753 7.44009 7.79394 9.41378 -0.00812455 -0.00599221 -0.0140034
111 2 -0.604245 3.24291 9.3602 2.22683 0.0101464 -0.00854325 0.00205246
112 2 -0.718668 14.6877 7.39626 2.77773 0.00908124 -0.00342751 -0.000802043
113 2 -0.620081 15.347 9.60097 1.57947 -0.00832662 0.00784901 -0.000984764
114 2 -0.625626 2.60096 11.2674 4.2454 0.0111869 -0.00245603 0.0143823
115 2 -0.782854 4.19374 9.68737 4.26165 -0.000789497 -0.0101656 -0.0139127
116 2 -0.892245 4.0833 11.5291 2.11257 -0.00321122 -0.00198237 -0.00421296
117 2 -0.806004 2.29384 13.3781 5.72829 -0.00579178 0.00942334 0.0100079
118 2 -0.827282 15.0011 11.2696 5.89939 -0.00414006 -0.0237688 0.012263
119 2 -0.743699 14.9492 12.3913 3.74668 -0.0177702 -0.00978216 -0.00051439
120 2 -0.700932 4.29343 12.6787 7.43197 0.00129563 0.00331136 -0.00383219
121 2 -0.69484 6.4014 9.67235 5.3258 -0.00431333 0.0147451 0.00308539
122 2 -0.451554 6.10589 11.5633 8.08506 0.0198325 -0.00319371 -0.00859324
123 2 -0.783353 7.80735 11.382 6.13505 -0.00191921 0.0250947 0.0047218
124 2 -0.884984 7.70087 9.26515 7.55944 -0.00707418 -0.00401125 -0.00828411
125 2 -0.769158 6.08171 12.9988 2.55645 0.00209785 -0.00962861 0.00295993
126 2 -0.784333 4.22211 13.3917 14.8951 -0.0144435 -0.0143433 -0.00257742
127 2 -0.769429 6.07567 11.8103 14.5407 -0.0161226 0.00422165 0.00113549
128 2 -0.942846 7.6753 15.1685 2.71296 -0.00961984 -0.0108574 -0.00409792
129 2 -0.785052 7.20708 13.1955 4.49968 0.0199085 -0.0148018 0.00998182
130 2 -0.712827 2.47007 9.40012 9.35922 -0.0128415 0.0046702 -0.000815342
131 2 -0.665375 14.6989 7.5946 9.14112 -0.00640334 -0.0139158 0.0149919
132 2 -0.838065 15.3061 9.62834 7.57769 -0.00964607 -0.00439915 -0.000658634
133 2 -0.632437 2.26534 10.8991 11.1824 -0.000284261 -0.000221533 0.000649951
134 2 -0.76503 4.10432 8.83231 11.3992 -0.0103262 0.0131348 0.00907146
135 2 -0.658065 4.57347 11.0958 10.0239 0.00488501 -0.0070397 -4.53591e-05
136 2 -0.688034 2.29773 13.1735 13.3423 0.00685822 -0.00326542 0.0149846
137 2 -0.596629 15.2704 11.1974 13.1448 0.00808495 0.0133203 0.0113653
138 2 -0.655239 14.6914 12.9739 11.4665 -0.00597469 -0.00614046 -0.00835839
139 2 -0.825845 5.6392 9.8976 13.028 -0.00547821 0.00729306 0.001604
140 2 -0.853389 7.38068 9.70751 14.9076 0.00024864 0.00364911 0.0153035
141 2 -0.670574 7.87223 11.0348 13.0026 0.00571182 -0.0167962 0.00098944
142 2 -0.762189 5.66607 13.3363 9.5926 -0.0113765 -0.00806437 -0.00883218
143 2 -0.843647 7.64625 14.7222 9.65534 -0.00256184 -0.00480042 -0.010191
144 2 -0.809542 7.44913 12.957 11.2665 -0.0193318 0.00850867 -0.000802664
145 2 -0.852713 9.21961 2.68681 2.8873 0.00932928 0.0165743 0.00961428
146 2 -0.729831 9.40595 15.1392 15.4371 -0.0163361 -0.0048961 0.0142035
147 2 -0.749083 10.2538 4.42975 4.24845 -0.00501843 -0.0172981 0.00214686
148 2 -0.687711 11.538 2.07614 3.54414 -0.00787926 0.0208057 -0.00362984
149 2 -0.788572 11.2044 4.32171 2.17626 -0.0178307 0.0206488 -0.0208428
150 2 -0.881796 9.49934 6.31088 5.98631 -0.00444146 -0.0038432 -0.0101293
151 2 -0.815949 11.3193 5.99553 7.94294 -0.0109133 0.0132043 0.00453818
152 2 -0.732645 11.4607 8.11139 6.55724 -0.0101636 0.00732257 -0.0282608
153 2 -0.90229 9.49216 7.5727 8.15982 -0.00661287 -0.00831475 0.018022
154 2 -0.867252 13.5202 2.31436 5.35038 -0.00470448 -0.00229298 0.00670642
155 2 -0.623281 11.36 14.938 5.66107 -0.0157722 -0.000955275 0.00197687
156 2 -0.764673 13.3651 14.3064 4.07827 -0.00786869 0.004628 0.0151265
157 2 -0.949419 12.7116 3.76586 7.49308 -0.00396136 0.011961 0.00738705
158 2 -0.900048 12.7102 6.0172 2.45263 -0.00358346 0.00920426 0.01088
159 2 -0.938075 11.3206 6.31615 14.8613 -0.00746423 -0.00348124 -0.0129276
160 2 -0.831676 12.8286 4.2079 14.8357 0.00380029 -0.0135059 0.0240728
161 2 -0.797812 12.5844 7.45486 4.45444 0.00265812 0.00847135 -0.00546443
162 2 -0.627681 9.448 1.81559 10.2128 -0.011747 -0.0160508 -0.00411201
163 2 -0.752413 9.25166 14.3526 7.84219 0.0156579 0.00954365 -0.00389104
164 2 -0.687766 9.43149 3.81123 11.5191 -0.000213888 0.00388262 0.00291533
165 2 -0.656638 11.6578 2.33703 11.5482 -0.00232729 -0.0024237 0.00334399
166 2 -0.854974 11.0194 4.05126 9.37931 -0.00133468 -0.0173063 -0.01162
167 2 -0.821747 9.47885 6.08765 13.1927 -0.0095748 -0.00421351 -0.0037597
168 2 -0.85033 9.75428 8.36268 14.4735 0.00229262 -0.00641935 -0.0144367
169 2 -0.923118 11.4723 7.55199 12.7847 0.00588294 -0.0173556 0.00983936
170 2 -0.625532 13.3759 2.1679 13.1141 -0.00510732 0.00411673 -0.0166121
171 2 -0.810043 11.3246 14.911 13.6423 0.0240833 -0.00871543 0.000448752
172 2 -0.715871 13.2792 14.9033 11.5039 0.00576904 0.0108219 -0.00455414
173 2 -0.806349 13.1548 5.08671 9.23052 0.00928181 -0.0144955 -0.00552854
174 2 -0.779284 12.6386 7.21806 10.5487 0.006897 0.0118698 0.00334778
175 2 -0.722785 9.52254 9.57861 2.21081 0.00428879 0.00624361 0.000668479
176 2 -0.802691 8.92932 11.6374 3.83857 0.00903248 -0.00318157 -0.0242708
177 2 -0.651156 10.6809 9.71413 4.73755 0.0102675 0.00525359 -0.0175044
178 2 -0.77581 11.1749 11.4733 2.82997 -0.0275607 -0.00749546 0.00614837
179 2 -0.871289 9.4369 13.0728 5.77811 0.000372382 -0.00804927 -0.00746356
180 2 -0.656224 11.2328 12.5597 7.724 0.000391262 0.00114554 -0.0094228
181 2 -0.766626 13.3349 9.65658 5.70817 0.00141013 0.00140749 -0.00258885
182 2 -0.836865 13.5213 11.3852 7.83225 -0.000590426 -0.0144101 -0.0161697
183 2 -0.809031 13.1984 12.939 2.23618 0.00439142 0.00378883 0.00233043
184 2 -0.839509 10.9681 12.9202 15.2018 0.0109027 0.00163033 0.00585163
185 2 -0.743578 12.8881 11.356 15.0262 -0.00631522 0.00732824 0.00601886
186 2 -0.865509 8.9945 9.71996 9.5591 -0.000323708 0.0047929 0.0168198
187 2 -0.642693 9.40896 10.8893 11.4832 0.0116077 -0.00101128 -0.0106015
188 2 -0.962426 11.145 9.16059 10.9967 -0.0163089 0.00238106 -0.00774044
189 2 -0.673585 11.1326 11.105 9.31887 0.00932924 0.0165336 0.0077535
190 2 -0.644083 9.09293 13.4055 13.0468 0.0137769 0.00566665 -0.00294167
191 2 -0.678221 13.3038 8.85916 12.4773 0.00688358 -0.0134581 0.00414589
192 2 -0.741056 12.8652 13.0102 9.91478 0.018146 -0.00130975 -0.00518573
193 2 -0.596484 12.065 11.6112 12.7777 0.00869122 -0.0196006 -0.00708796
194 2 -0.558641 1.62551 8.4387 4.98611 -0.00348578 0.0267173 -0.00761794
195 2 -0.517462 8.7197 12.7425 15.2226 -0.00327795 -0.00489593 -0.00990789
196 2 -0.720586 10.4686 13.3265 10.9568 0.00860321 -0.00154284 -0.0187395
197 2 -0.66172 12.404 15.507 8.38836 0.0131565 0.0182641 -0.00774275
198 2 -0.68724 8.94984 2.35471 5.72586 -0.00842506 -0.00747934 0.00191202
199 2 -0.669511 4.72711 5.3012 5.06862 0.00517567 -0.000203817 0.0194357
200 2 -0.630668 13.5888 13.8651 6.96838 0.00544833 0.00127204 -0.0104789
201 2 -0.651987 2.70061 13.794 10.7534 -0.0076388 -0.0125578 -0.00218463
202 2 -0.574571 15.5159 12.1596 15.2229 -0.0104806 -0.00376715 -0.0206138
203 2 -0.636777 5.06695 9.16121 7.98407 -0.017842 0.000592541 0.00559489
204 2 -0.592537 12.2096 8.86007 1.85122 0.0146484 -0.00530795 0.0012565
205 3 0.388693 12.3794 12.3716 13.3942 -0.0762838 -0.0275027 -0.0164427
206 3 0.399409 11.3567 12.0503 12.4519 0.0559008 -0.0338608 0.00173236
207 3 0.404115 15.3537 8.74582 5.59145 -0.0329761 0.0105887 -0.00670537
208 3 0.388835 2.39364 7.81629 5.48203 -0.0223699 0.0216722 -0.00809517
209 3 0.420237 9.43386 12.6293 1.64193 -0.0162579 0.0284663 -0.0894285
210 3 0.349408 8.86926 11.7301 14.6661 -0.0943512 -0.0826888 0.0159157
211 3 0.379779 9.83873 14.1739 10.8056 0.011258 0.000535747 0.00888424
212 3 0.454884 10.9382 13.1285 10.2193 -0.00589713 -0.015592 0.0536664
213 3 0.422919 12.1303 1.93237 8.39905 0.0113656 -0.0369437 0.064146
214 3 0.394593 12.588 15.2434 7.46663 0.00169798 -0.0126535 -0.0071034
215 3 0.34503 9.85746 2.56578 5.13998 0.00184834 -0.0472845 -0.0270198
216 3 0.432598 8.4659 2.03978 5.11893 0.00967224 -0.0526179 0.0194903
217 3 0.444802 5.39743 5.78492 4.74877 -0.0112005 -0.0206257 0.06624
218 3 0.423807 4.78245 4.43276 4.7312 -0.0111178 -0.0682302 -0.0410675
219 3 0.347826 14.3555 14.1542 6.29797 0.0473121 -0.0263446 -0.059124
220 3 0.394609 13.2677 12.9827 6.65587 -0.0719563 -0.0077105 0.0400777
221 3 0.332547 2.36181 13.1165 10.0783 -0.0509328 0.0653237 0.0205169
222 3 0.386325 2.68923 14.6097 10.2883 0.0501728 -0.0573318 0.0119961
223 3 0.393792 11.94 9.62015 15.7307 -0.0581518 0.00675127 0.047565
224 3 0.482814 2.09517 12.4833 14.922 -0.0335085 -0.0594426 -0.0347279
225 3 0.416025 5.00809 8.15816 7.9527 0.0214069 0.0200126 -0.0607209
226 3 0.36695 4.35453 9.66505 7.61302 0.0334318 0.0369299 0.0644425
227 3 0.441736 13.4243 9.80597 12.868 0.0335109 -0.0258306 0.0138265
228 3 0.41481 11.7374 8.21974 1.31436 0.0392583 0.0484122 -0.0173097
ITEM: TIMESTEP
66000
ITEM: NUMBER OF ATOMS
228
ITEM: BOX BOUNDS pp pp pp
1.3596805912401617e+00 1.5800319408759414e+01
1.3596805912401617e+00 1.5800319408759414e+01
1.3596805912401617e+00 1.5800319408759414e+01
ITEM: ATOMS id type q x y z vx vy vz
1 1 1.62759 15.7817 1.53817 15.6944 -0.00164009 0.0147803 0.00598507
2 1 1.58963 3.18244 3.05699 3.15029 -4.66786e-05 -0.0108892 0.00805802
3 1 1.3672 1.43326 4.96046 4.78203 -0.00830938 -0.00398321 -0.00848147
4 1 1.30494 3.30838 6.58499 6.4996 -0.00379851 -0.00671088 -0.00469917
5 1 1.65524 4.9962 1.44132 5.1526 0.00346759 0.00300449 0.000604239
6 1 1.426 6.84815 3.27425 6.71494 0.000546815 -0.00871113 0.00463496
7 1 1.47941 4.98854 4.84739 15.7778 -0.00187554 -0.0131126 0.00226827
8 1 1.31467 6.69074 6.77505 3.06326 -0.0112738 0.00366653 0.00846862
9 1 1.59639 1.54273 1.52789 8.48033 -0.00327708 0.000503007 0.00219686
10 1 1.59382 3.54427 2.94651 10.2407 -0.00130383 0.00891125 -0.0169368
11 1 1.57518 1.67713 4.7503 12.0849 0.00581563 0.00189066 0.00152609
12 1 1.48341 3.33389 6.57997 13.7954 -0.00066243 -0.0066088 -0.00903121
13 1 1.55601 4.90525 15.6275 12.394 -0.00428609 0.00114762 0.00833452
14 1 1.5049 6.58381 2.87678 14.3316 -0.00100748 -0.0113668 -0.00351228
15 1 1.24027 5.0292 5.01916 8.74655 0.0136808 -0.000796282 0.0120544
16 1 1.57363 6.87803 6.77154 10.9288 0.00461192 0.00147009 -0.000700354
17 1 1.24376 1.57232 8.27157 1.60149 0.00250654 0.00150986 -0.000356645
18 1 1.51212 3.50347 10.2837 3.2085 0.00341336 0.0010742 -0.00855647
19 1 1.49357 1.54952 12.0659 4.86975 0.00629019 0.00267063 0.00766445
20 1 1.42665 3.03443 13.9257 6.73517 -0.00699398 -0.00227707 0.0134664
21 1 1.59973 5.25122 8.70951 5.18129 -0.0111635 0.00244453 -0.00857895
22 1 1.21915 7.20832 10.6347 7.06998 0.00781461 0.0105903 0.0156639
23 1 1.35704 4.79162 12.4688 15.7756 0.00907657 0.0143709 0.0103697
24 1 1.2844 6.50418 14.049 3.26012 -0.0101425 -0.00568029 0.00878188
25 1 1.37622 1.78274 8.49163 8.34504 -0.0126313 -0.000830407 0.00665487
26 1 1.48674 3.28216 10.3843 10.4025 0.00818727 -0.0161198 -0.00558611
27 1 1.61 1.49749 12.0931 12.2078 -0.0061528 -0.0157483 0.0046958
28 1 1.59967 2.91656 13.9995 14.0156 -0.00468576 0.0128361 -0.00656933
29 1 1.54595 5.07047 8.68799 12.5054 0.0039559 -0.00219096 0.00969197
30 1 1.51043 6.621 10.8838 13.9596 0.000278454 -0.00267991 -0.00645786
31 1 1.29174 4.83474 12.0948 8.50178 -0.00811483 -0.00415869 -0.00616365
32 1 1.31859 6.76666 14.1396 10.3912 0.00371972 0.00220279 0.00399288
33 1 1.36386 8.51771 1.48461 1.60717 -0.00366897 0.00473463 -0.00145408
34 1 1.27909 10.4167 3.4064 2.94419 -0.00502781 -0.00515185 0.00766169
35 1 1.51561 8.61061 5.29034 5.07656 -0.00669351 -0.00052887 -0.0126214
36 1 1.64409 10.2714 6.77044 7.09445 0.00158046 -0.00162055 -0.00978229
37 1 1.31592 12.5975 1.56507 4.69 0.00811984 -0.0107922 0.0113055
38 1 1.30451 14.2888 3.25445 6.8321 0.00669785 -0.00401958 0.00105161
39 1 1.37634 11.9523 5.12321 15.4538 0.0060154 0.0136714 0.00262884
40 1 1.42574 13.8409 6.64081 3.02604 -0.0037259 0.00678626 -0.00558297
41 1 1.32027 8.56919 1.55289 8.63975 0.00844896 -0.0141494 -0.00134498
42 1 1.33524 10.248 3.24618 10.6395 -0.00536778 0.00706512 0.00762149
43 1 1.44039 8.42403 4.65652 12.8938 0.0046173 0.01154 0.000744484
44 1 1.44303 10.0245 7.11951 13.6106 0.000536639 -0.00675947 -0.00384242
45 1 1.29047 12.0949 1.42036 12.186 -0.00885877 -0.000961903 -0.00905425
46 1 1.39854 14.0574 3.37587 14.0099 0.0036679 -0.00535278 0.010276
47 1 1.34065 12.1429 4.76429 8.49352 0.00363318 0.00901445 0.00826865
48 1 1.4218 14.6021 6.47168 9.92204 0.00205233 -0.0164562 0.00135264
49 1 1.37821 8.3217 8.76587 15.667 -0.0122571 0.00804899 0.0120743
50 1 1.24312 10.5272 10.4439 3.37229 0.000483885 -0.00377455 -0.00460753
51 1 1.25596 8.96232 12.3211 5.10917 0.00766533 -0.00483595 0.00158397
52 1 1.11566 10.8005 14.2551 6.84332 0.00733746 0.00293802 0.00794408
53 1 1.3453 12.1633 8.61449 5.30285 -0.00699897 0.00971265 -0.00747717
54 1 1.52107 14.1619 10.4749 6.95124 -0.00390016 0.015098 0.00381441
55 1 1.36547 12.3231 12.1776 1.53584 -0.0202182 -0.00296678 -0.00835658
56 1 1.3371 14.1051 14.0695 2.95986 -0.00257641 0.00518063 -0.00231394
57 1 1.6349 8.79792 8.32799 9.20645 -0.0087806 -0.00245468 -0.0105983
58 1 1.25635 10.6499 10.3559 10.6904 0.0161492 0.0147273 -0.0100145
59 1 1.54164 8.66669 12.3719 12.1527 0.00477101 -0.00815888 -0.0107302
60 1 1.32643 10.3556 13.9775 14.1537 -0.000849262 -0.0112276 0.00970991
61 1 1.38027 12.1874 7.86671 11.707 -0.000210708 0.00945878 -0.0127281
62 1 1.18996 14.5821 10.9244 14.6545 0.00103746 0.00357981 0.00980283
63 1 1.41856 12.5347 12.1506 8.94779 -0.0131366 0.00507474 0.00540177
64 1 1.40349 14.3057 14.2485 10.8108 -0.00717887 -0.00929035 -0.00659475
65 2 -0.824979 2.50397 2.25796 1.88833 -0.0160892 0.00553525 0.011556
66 2 -0.846215 1.7366 14.9421 14.6003 -0.00540738 -0.00395266 -0.000998969
67 2 -0.778432 14.6754 2.41046 15.123 0.017639 0.000512312 -0.00492629
68 2 -0.733688 14.9304 15.3744 2.47177 -0.00431428 0.007308 -0.000597689
69 2 -0.745266 1.95406 3.90695 3.73477 -0.000185799 0.00595634 -0.00134522
70 2 -0.778712 4.20423 2.57959 4.21032 0.013729 -0.00773209 0.005782
71 2 -0.755056 3.83515 4.04733 2.2992 0.00133439 0.00256669 0.0071009
72 2 -0.760835 2.14774 6.10821 5.65202 0.00139918 0.00733841 -0.00108083
73 2 -0.646754 15.3954 4.11343 6.25842 0.00392052 -0.00117399 -0.00345671
74 2 -0.702133 14.6899 5.76217 4.0219 0.00748937 0.010418 -0.00137027
75 2 -0.605126 3.64802 5.60293 8.01022 -0.0136464 0.00529829 -0.00170639
76 2 -0.778423 4.27542 7.66909 5.64363 0.00147401 0.0115756 -0.00182226
77 2 -0.730321 2.70781 8.08217 7.17592 -0.00510647 0.00320848 0.00666267
78 2 -0.841139 5.79262 2.46402 5.87568 0.0102045 0.00163599 0.00129657
79 2 -0.763765 3.86949 14.9444 5.82013 0.00471899 0.00438584 0.00672656
80 2 -0.771259 5.97135 15.1489 4.37274 -0.00271847 -0.0175618 -0.0139378
81 2 -0.653001 6.25461 4.41089 7.76814 -0.00375882 0.0181734 0.00832538
82 2 -0.796103 7.62177 4.30164 5.677 -0.0082828 0.00449329 -0.00409294
83 2 -0.661325 7.40536 2.55118 7.97761 0.00861433 -0.00303726 0.00270675
84 2 -0.675169 5.71427 5.67179 2.63407 0.00412586 0.00152328 0.00813729
85 2 -0.741003 4.64078 5.72917 14.6037 -0.00493383 -0.00283557 -0.00159358
86 2 -0.773344 6.11416 3.91513 15.5338 0.011674 -0.00379844 0.0201837
87 2 -0.702994 6.24301 7.91474 4.3694 -0.0133218 -0.00924296 0.00292525
88 2 -0.763579 7.85965 5.92648 3.94368 0.0149951 0.00109891 -0.00798492
89 2 -0.701361 7.38027 7.41091 1.79543 -0.003341 -0.00152082 0.021094
90 2 -0.827533 2.63997 2.37894 8.97785 0.0105924 -0.0031999 0.0055114
91 2 -0.824812 2.21339 14.7381 7.96721 -0.00103226 0.0236111 -0.00406379
92 2 -0.876376 15.0466 2.087 7.43706 -0.00530686 -0.0043198 -0.000850904
93 2 -0.689079 14.8238 15.325 9.7931 0.010246 -0.00354948 0.0156605
94 2 -0.755173 2.40854 3.80751 10.9443 0.00674784 -0.0137746 0.0080127
95 2 -0.806256 3.98654 1.97527 11.367 0.00843386 -0.0177922 -0.0066804
96 2 -0.784039 4.57723 3.86212 9.69889 -0.000293267 0.00297571 -0.00102823
97 2 -0.908591 2.42338 5.65529 13.0249 0.000951437 -0.0154288 -0.00143717
98 2 -0.730582 14.8859 3.98119 12.6304 -4.97685e-05 -0.0297727 -0.00867957
99 2 -0.687187 15.4019 5.83098 11.1986 0.000120537 0.0029499 -0.00470979
100 2 -0.629541 2.44702 7.4545 14.8866 0.0101172 0.00592383 -0.00651718
101 2 -0.793017 4.19358 7.82126 13.4448 0.00526055 0.0142882 -0.00217229
102 2 -0.724798 5.28233 2.29757 13.6238 -0.00591065 -0.00504223 0.0104311
103 2 -0.83811 3.86519 14.85 13.2406 0.00531649 0.00450953 -0.00344915
104 2 -0.807567 6.02479 15.0025 11.606 0.00975818 0.0129734 0.00619197
105 2 -0.752914 7.76344 1.91869 14.8088 0.000174713 -0.00836056 0.010463
106 2 -0.816726 7.25612 3.71645 13.3286 0.000759415 0.0111599 -0.0107989
107 2 -0.647777 5.60866 6.19821 9.97027 0.00245707 -0.0145986 0.00186202
108 2 -0.827759 6.12658 7.82577 11.8312 -0.00562791 -0.0155954 -0.012561
109 2 -0.690065 7.40203 5.85194 11.9204 0.00481954 -0.00269186 -0.0172014
110 2 -0.871145 7.93998 7.31966 9.92218 -0.0015467 -0.0102892 0.00832894
111 2 -0.69961 2.87696 9.04768 2.46559 -0.0136139 -0.00535715 -0.00412166
112 2 -0.754656 14.8595 7.36694 2.16757 0.00453011 0.00940897 -0.00755055
113 2 -0.593153 14.8521 9.40397 15.3283 0.0102246 -0.00561334 -0.0128158
114 2 -0.845363 2.59351 11.2132 4.01806 0.00346072 0.0165838 -0.0119177
115 2 -0.804807 4.63622 9.66431 4.18212 -0.00136058 -0.0117036 0.00888551
116 2 -0.677134 4.29517 10.9732 2.0031 0.0118441 -0.00801923 -0.00675809
117 2 -0.797103 2.29801 13.2532 5.51425 0.00727011 9.58182e-05 -0.00408251
118 2 -0.836442 15.0903 11.2796 6.05191 -0.0027264 0.00103106 -0.00576926
119 2 -0.68304 14.8929 12.7495 4.00748 0.0129066 0.000164011 0.0124449
120 2 -0.775033 4.14759 13.1561 7.5998 -0.00602265 -0.0187548 0.00753083
121 2 -0.623675 6.47197 9.38132 5.86339 0.00933143 0.00394607 -0.0121836
122 2 -0.696878 6.00498 11.4792 7.63412 -0.0103714 0.00838562 -0.00355915
123 2 -0.666535 8.24078 11.3069 6.18109 -0.00875918 0.00482374 0.00706319
124 2 -0.561972 7.73713 9.34399 8.54335 -0.0106548 -0.00602548 0.0124524
125 2 -0.686669 5.04287 13.4423 2.5974 0.00523614 0.00116049 0.00652877
126 2 -0.787797 3.5509 12.9611 14.9212 0.0146245 0.00883184 -0.0156216
127 2 -0.764972 6.07892 12.1312 14.9345 0.00114369 -0.0141795 -0.00958531
128 2 -0.722828 7.3532 14.7156 2.22161 0.00181796 0.0205081 -0.0155145
129 2 -0.595628 7.57084 13.2692 4.37957 -0.00500663 0.00354661 -0.00289988
130 2 -0.673 2.26906 9.33499 9.70213 -0.00682285 -0.00791327 -0.00567588
131 2 -0.714655 1.38701 7.15178 9.11013 0.0120287 0.00756426 0.00866075
132 2 -0.727413 15.0624 9.4051 7.81109 -0.00446319 -0.00365021 -0.00156735
133 2 -0.806233 2.29437 11.3281 11.2355 0.0043527 0.0110736 -0.00325574
134 2 -0.742703 4.35616 9.52227 11.2363 0.0052831 0.0115663 0.0174623
135 2 -0.818297 3.81599 10.8991 9.09518 0.00616759 0.00717891 -0.0181478
136 2 -0.745224 2.65494 13.0325 12.7801 -0.0107591 -0.0144612 0.0158694
137 2 -0.793423 15.0507 11.2356 13.1175 -0.00793381 -0.0255611 -0.00836386
138 2 -0.779766 15.1434 12.9445 11.1416 -0.000441474 -0.00828314 -0.00248416
139 2 -0.800593 5.65413 10.0541 13.1876 -0.00581553 0.0177127 -0.00326403
140 2 -0.729549 7.68524 9.97836 15.0886 0.0118981 0.0224017 0.00743194
141 2 -0.762862 7.68246 11.2971 13.0724 0.0115567 0.0133704 0.00527517
142 2 -0.666758 5.84534 12.9667 9.70478 0.00752285 -0.00852442 0.0109146
143 2 -0.730585 7.61102 15.3237 9.60908 -0.000520577 -0.0069705 -0.0164528
144 2 -0.728364 7.88547 13.0704 10.9805 0.00473681 0.00487218 -0.0221882
145 2 -0.720346 9.01642 2.62016 2.5831 0.0158615 -0.00238394 -0.00594043
146 2 -0.617237 9.65553 15.1487 15.1474 -0.0103507 0.00261224 0.0176515
147 2 -0.676925 10.0429 4.07587 4.35727 -0.0188507 0.00674186 0.00889436
148 2 -0.571444 11.6174 2.20837 3.49213 -0.0064475 -0.0025036 -0.0094607
149 2 -0.710227 10.8128 4.01193 1.63303 0.0191454 0.00163609 0.0199112
150 2 -0.874835 9.28891 6.02678 6.13102 -0.000569552 -0.0348555 0.0117308
151 2 -0.800286 11.3358 5.83719 7.7336 -0.00900574 0.0230329 0.00272384
152 2 -0.737354 11.1445 7.78745 6.20046 0.00458204 0.00198943 -0.00725438
153 2 -0.808014 9.27826 7.55067 8.01484 0.0086029 0.0134219 -0.0126698
154 2 -0.633165 13.7701 2.5913 5.24355 0.0119502 0.0227668 -0.000432298
155 2 -0.722548 11.7491 15.462 5.81716 0.00816097 -0.00908229 -0.00284142
156 2 -0.71959 12.9246 14.7187 3.83748 -0.00336202 0.0268634 0.0022512
157 2 -0.731066 12.7673 3.83901 7.44848 0.0122069 -0.0152979 -0.0130778
158 2 -0.742597 12.8589 5.60026 2.28271 -0.00902927 -0.0112087 0.00150563
159 2 -0.639043 11.2962 6.11192 14.3628 -0.0167882 -0.0165381 -0.00779413
160 2 -0.700314 12.9727 4.40492 14.6528 -0.0104559 -0.000902649 -0.0198149
161 2 -0.62823 13.0009 7.5758 4.31935 0.00955215 0.0171156 0.0164785
162 2 -0.633191 9.70095 2.55094 9.00955 -0.00510562 0.00225006 0.00525135
163 2 -0.621551 9.40358 14.9571 7.61838 -0.00116001 0.00950578 -0.00349401
164 2 -0.697481 9.36448 3.95808 11.6775 0.00742475 0.00593325 -0.00973821
165 2 -0.756107 11.0806 1.96185 10.9784 -0.00592207 0.010466 -0.00412098
166 2 -0.621327 11.1149 4.34073 9.92893 0.00206434 -0.00466978 0.00373567
167 2 -0.763883 9.36334 5.78347 13.2108 0.000857289 0.00722834 -0.00372463
168 2 -0.767807 9.24683 8.23636 14.396 0.00292862 0.0165034 -0.02097
169 2 -0.738811 10.8813 7.26787 12.3929 -0.0111316 -0.012919 0.00682005
170 2 -0.616589 12.9832 2.49813 13.2532 0.00399551 -0.0109989 0.00748682
171 2 -0.581048 10.799 15.0282 12.9277 -0.0114682 0.0155342 -0.00548352
172 2 -0.787002 13.1823 14.9334 11.6565 -0.0221245 -0.00552811 0.00414571
173 2 -0.680831 13.5144 5.56374 9.37201 0.00080245 -0.00116792 0.00796053
174 2 -0.647254 13.453 7.43245 10.6338 0.00866888 -0.00832413 -0.00885556
175 2 -0.700227 9.30235 9.30731 2.30128 0.0125857 0.00537328 -0.0101076
176 2 -0.695595 10.0207 11.4653 4.45676 -0.00814019 -0.0113922 0.00190547
177 2 -0.663606 11.4167 9.84533 4.46462 -0.00232914 -0.000595832 0.0162151
178 2 -0.739684 11.6916 11.2172 2.56969 0.00233011 0.00623601 0.00475875
179 2 -0.626886 9.72421 13.5474 5.99938 0.0120535 -0.0321223 -0.0164804
180 2 -0.608087 11.702 12.9176 7.92195 -0.00174876 0.00380188 -0.000510499
181 2 -0.700871 13.2967 9.34636 6.28276 -0.00557972 0.0228522 0.0239245
182 2 -0.759321 13.3261 11.0385 8.13425 0.0249496 -0.0180387 -0.0140564
183 2 -0.718887 13.6569 13.0557 1.94902 0.013263 -0.0033017 0.00837271
184 2 -0.632993 11.4543 13.471 15.2491 -0.0206735 -0.0161286 0.0150819
185 2 -0.672833 12.9951 11.4515 14.7785 0.00273023 0.00186604 -0.0127798
186 2 -0.709015 9.92664 9.26934 9.40623 -0.00643423 -0.00339225 0.00217025
187 2 -0.737787 9.57674 11.2427 11.4561 -0.00929605 -0.0227761 0.00719874
188 2 -0.733425 11.6644 9.33759 11.4261 0.0123896 0.00445305 -0.0167689
189 2 -0.685936 11.3587 11.5308 9.67371 -0.00361361 -0.000442177 0.00658378
190 2 -0.836639 9.39886 13.1932 13.1342 0.0124013 0.000426594 0.00114118
191 2 -0.671646 12.9215 8.39984 12.9201 0.0115232 0.00173575 -0.00632793
192 2 -0.694492 13.3521 13.4622 9.69901 -0.00820499 0.000655351 -0.0187917
193 2 -0.62399 12.044 12.722 12.8704 0.00493387 0.0195503 -0.00470744
194 2 -0.59818 1.36889 8.90079 4.72372 -0.00780759 0.00117672 -0.0119692
195 2 -0.658376 9.20612 11.9477 1.87085 0.00213846 -0.00297709 0.00848044
196 2 -0.636743 10.2475 13.5842 10.7538 -0.0225344 -0.00533153 -0.00463469
197 2 -0.54459 12.0475 15.4596 8.21376 -0.0287564 -0.00980693 0.0121758
198 2 -0.614351 8.65235 1.98349 5.29453 0.00899583 0.0039255 0.00295014
199 2 -0.605738 4.81409 5.428 5.46542 -0.0131493 -0.00777428 0.0254564
200 2 -0.594684 13.824 14.5868 6.70505 0.0122312 0.0021806 -0.0114796
201 2 -0.597941 3.22166 13.7976 10.3614 0.0152182 -0.00578764 -0.00525372
202 2 -0.587228 15.7706 11.6433 15.4678 -0.00966582 0.0060775 0.000231314
203 2 -0.672644 4.7334 8.5994 8.57268 -0.00274183 0.00184651 -0.00225347
204 2 -0.547294 12.3772 8.3818 1.97086 0.00252405 0.0265922 0.0122915
205 3 0.410448 12.5728 12.1996 12.3827 -0.0101461 -0.0211977 0.0304281
206 3 0.401659 11.2404 12.4249 12.5718 0.0197181 -0.0340385 -0.0165065
207 3 0.407974 15.6218 9.08282 5.69522 -0.0455328 0.0570806 -0.0264164
208 3 0.420665 1.7039 7.99893 4.57717 -0.0349216 -0.0227686 -0.0653474
209 3 0.392097 8.4157 11.3623 2.00751 0.0151467 -0.0106802 0.0547187
210 3 0.387705 8.88311 12.7428 2.07865 0.0160709 0.0392531 -0.0191005
211 3 0.423456 9.93953 13.5649 9.92047 -0.0224291 -0.0630292 -0.0557928
212 3 0.422082 10.3405 14.5339 10.7968 0.012684 -0.0117982 -0.0142666
213 3 0.422962 12.6262 1.44579 7.38067 -0.0121821 -0.00336765 -0.0209841
214 3 0.412745 12.535 15.037 9.20004 0.039321 0.0269954 0.00508922
215 3 0.455447 9.14244 15.7693 5.65246 0.0200705 0.00342156 -0.0529051
216 3 0.437405 9.11318 2.7684 4.77804 -0.00961631 0.0597681 -0.068562
217 3 0.36882 5.48114 4.64929 5.80614 -0.0289471 -0.00426884 -0.0340444
218 3 0.391126 5.64698 5.89517 5.22196 0.0144253 0.0430485 -0.0567276
219 3 0.380844 14.5228 15.1231 6.1791 0.0163505 -0.0381926 0.0484142
220 3 0.364879 13.4497 14.0275 5.95424 -0.022845 -0.0186243 0.00720598
221 3 0.395774 4.10765 13.5788 10.5141 0.00428636 -0.013684 0.0262152
222 3 0.420662 3.00157 13.592 9.50643 -0.0599108 0.0105563 -0.00643419
223 3 0.325985 11.9071 7.52996 1.69965 0.00164138 -0.014841 0.0106487
224 3 0.375699 15.7069 11.1462 1.8575 0.0416841 0.028813 -0.0590629
225 3 0.461941 4.22637 9.11713 8.12575 -0.0111912 0.00919215 -0.00816425
226 3 0.456776 4.67168 8.06524 9.29967 -0.112996 0.0146385 -0.0107976
227 3 0.455987 13.431 9.13786 12.8473 0.037671 -0.0883446 -0.0268016
228 3 0.341294 11.6324 9.06534 2.23164 -0.0683869 0.0402501 -0.0113593
ITEM: TIMESTEP
68000
ITEM: NUMBER OF ATOMS
228
ITEM: BOX BOUNDS pp pp pp
1.3004137347342208e+00 1.5859586265265333e+01
1.3004137347342208e+00 1.5859586265265333e+01
1.3004137347342208e+00 1.5859586265265333e+01
ITEM: ATOMS id type q x y z vx vy vz
1 1 1.28675 1.54361 15.7252 15.7022 0.00380999 0.00755741 -0.000644681
2 1 1.13282 3.00551 3.19807 3.09461 0.000420486 -0.0126588 0.00358987
3 1 1.21937 15.7173 5.07061 5.03801 0.00361229 0.00419097 0.000701265
4 1 1.43744 3.10946 6.59143 6.72307 -0.00412907 -0.00223978 -0.000201571
5 1 1.29756 5.04083 15.8765 4.9701 0.0108582 0.00435997 0.000784162
6 1 1.26438 6.61564 3.44912 6.70809 0.000592154 0.00326403 -0.000329607
7 1 1.15604 4.71239 5.09177 1.4888 0.0109146 -0.0115335 0.00089058
8 1 1.38431 6.56047 7.2227 3.23226 0.00529408 -0.000690165 -0.00110376
9 1 1.40616 15.9088 15.6805 8.87256 0.00389436 0.0140622 0.000447694
10 1 1.72907 2.92612 3.33726 10.3197 0.00350044 -0.00216364 0.0152847
11 1 1.63426 1.37209 4.85762 12.4267 0.000133184 0.000638005 0.00475864
12 1 1.41748 3.44466 6.83271 13.6442 0.00867079 -0.0088149 0.0025769
13 1 1.32086 5.13236 1.56229 11.9787 0.0100084 -0.000874858 -0.00448107
14 1 1.34991 6.71292 3.21584 14.0917 -0.00938182 0.00576729 -0.0100664
15 1 1.40938 4.99136 4.88171 8.75945 3.74454e-06 0.00356095 0.0111453
16 1 1.35556 7.06298 6.68778 10.4519 -0.00907531 0.000426943 -0.000889973
17 1 1.18189 1.68333 8.26344 1.53396 -0.00857499 0.00471936 0.0045575
18 1 1.17377 3.28939 10.4463 3.47009 0.00848344 -0.00254994 -0.00305212
19 1 1.23296 1.41576 12.4552 4.97861 -0.0019639 0.00720312 -0.0100502
20 1 1.40691 3.1898 14.1392 6.98202 -0.00393501 -0.00189817 -0.0173852
21 1 1.48526 4.87493 8.60455 5.38669 0.00212277 0.00322493 0.00943559
22 1 1.53944 6.87498 10.248 6.94836 0.00228003 0.00060463 0.0041669
23 1 1.35952 5.26568 11.9238 1.27477 -0.00462091 -0.00327912 -0.00991762
24 1 1.16306 7.10992 13.5837 3.15802 0.0198574 -0.0106811 -0.00694026
25 1 1.44172 1.46789 8.58093 8.59221 -0.00355479 -0.000586117 -0.0116259
26 1 1.3768 2.95092 10.6551 10.1846 -0.0103314 -0.00620571 -9.03088e-06
27 1 1.1635 15.8476 12.2132 12.3792 0.00956163 0.00365321 0.00510575
28 1 1.3728 3.3593 14.0229 13.774 0.0142002 -0.0137518 -0.0113122
29 1 1.32865 5.03972 8.71659 12.0753 -0.00454916 -0.00651038 0.00908298
30 1 1.34977 6.96372 10.6468 13.7488 -0.00164576 -0.00236693 0.013247
31 1 1.23164 5.04914 12.4464 8.79104 0.00210151 -0.000290168 0.00282811
32 1 1.33359 7.05995 14.317 10.5524 0.00504681 -4.9122e-06 0.0125874
33 1 1.1514 8.59525 1.6395 1.35687 -0.00763289 -0.0156406 0.00408879
34 1 1.47678 10.3793 3.45285 3.34813 0.00292522 -0.00115671 -0.0116624
35 1 1.37194 8.60726 5.28259 4.80822 0.0142397 -0.00822509 0.00141708
36 1 1.27205 10.5046 6.81137 6.73073 -0.00606009 0.00448138 0.00208894
37 1 1.64764 12.3188 1.57075 4.83477 0.0036456 -0.00241159 0.0111517
38 1 1.18142 13.9385 3.09397 7.02279 -0.00357265 -0.0142937 -0.00158003
39 1 1.41567 12.3238 4.99959 15.9221 0.0161139 -0.00360181 0.00264127
40 1 1.46962 14.0168 6.71524 3.11666 0.0153662 -0.0177377 0.00822531
41 1 1.32182 8.97099 15.8733 8.27741 -0.00435333 0.00365687 -0.00065311
42 1 1.4358 10.4162 2.9518 10.4566 -0.00695533 -0.018127 -0.00090162
43 1 1.64368 8.45442 4.60179 12.2018 0.00532293 0.00196925 0.00252087
44 1 1.23649 10.1285 6.47307 13.8655 0.00601824 0.020777 0.00620438
45 1 1.56247 12.1908 1.57932 12.3131 -0.00386575 0.00912568 0.00597574
46 1 1.51997 13.8881 3.17614 14.0451 -0.00299173 -0.000740177 0.00649154
47 1 1.45244 12.5245 4.92135 8.85456 0.00104022 0.00758772 -0.00228039
48 1 1.59942 14.3332 6.75958 10.819 0.00877852 -0.00221254 0.0134302
49 1 1.4867 8.51466 8.63073 15.8217 -0.00628924 0.000781088 0.0050908
50 1 1.71995 10.3751 10.2334 3.20626 -0.0115817 -0.00474083 0.014428
51 1 1.58004 8.86462 11.9057 5.25815 0.00420919 0.00803118 -0.000339451
52 1 1.45268 10.7459 14.0726 6.52156 -0.0133797 -0.00578542 -0.00845761
53 1 1.38997 12.2826 8.46466 4.70107 0.00697909 -0.00669984 -0.00279704
54 1 1.45098 14.1653 10.2626 6.73129 0.00727201 0.0064449 -0.004629
55 1 1.42015 12.0817 12.347 1.70335 -0.00322161 0.00879627 -0.000983771
56 1 1.42987 14.024 14.166 3.13551 0.00466026 0.00391707 -0.00801324
57 1 1.46856 8.76368 8.55398 8.61125 -0.0123107 -0.00567413 0.0148671
58 1 1.16289 10.6387 10.3778 10.2377 0.00891223 -0.0103544 0.00861792
59 1 1.06082 8.90738 12.7739 12.2879 -0.0048542 0.00650289 0.00299727
60 1 1.37872 10.6774 14.4958 14.3059 -0.000324873 -0.0040855 -0.00906915
61 1 1.49432 11.8377 8.09677 11.9629 0.000274588 0.00275294 -0.00465787
62 1 1.30874 14.6962 10.9844 14.8192 -0.0145001 0.00262677 -4.8782e-05
63 1 1.54423 12.3946 12.3355 8.44496 -0.0070327 -0.00302243 0.00895361
64 1 1.46234 13.7325 14.1325 10.7344 -0.0103672 0.00135608 -0.00546274
65 2 -0.542497 1.83143 2.35909 2.27336 0.0034468 0.00937028 0.0125856
66 2 -0.782598 2.40154 14.9218 14.6121 0.000430635 -0.0157095 0.00341836
67 2 -0.572778 14.7423 2.04375 15.0312 -0.0171936 0.000984387 -0.00243202
68 2 -0.609805 15.2927 14.7821 2.13225 -0.00966879 -0.0167481 0.00110084
69 2 -0.579809 1.93975 3.94759 4.20288 0.00156646 0.0163056 0.00780952
70 2 -0.652125 3.86743 2.24514 4.30259 0.00942946 0.0104747 -0.0132474
71 2 -0.668151 3.67107 3.82918 1.8002 -0.00421791 -0.0123838 -0.00129128
72 2 -0.676493 1.82811 5.72174 6.43438 0.0227417 -0.00757262 -0.00642722
73 2 -0.458647 15.1669 4.06446 6.16564 -0.00580875 -0.00695973 0.00747987
74 2 -0.678414 14.7783 5.55777 3.75951 0.00421566 5.19767e-05 -0.00570611
75 2 -0.629086 4.20638 5.84239 7.77872 0.0046405 0.0170464 0.0179637
76 2 -0.768476 4.26613 7.16263 5.98774 -0.00133817 0.00722171 -0.00300385
77 2 -0.744028 2.46374 7.7771 7.43702 0.00448956 0.00998232 0.00482359
78 2 -0.694565 5.9227 2.22023 5.95254 -0.00905489 -0.00824749 -0.0187473
79 2 -0.556723 4.45932 14.9535 6.01169 -0.00403949 0.0153167 0.0119395
80 2 -0.517579 5.98002 14.7254 4.09769 0.0100155 0.0216181 0.0111602
81 2 -0.708911 6.03213 3.86046 8.09677 0.00571182 0.000957844 0.0195608
82 2 -0.682078 7.88049 4.43197 6.00632 -0.00806907 0.00317671 -0.00937291
83 2 -0.53608 8.12931 2.24891 7.37264 -0.000992296 0.000758515 -0.00948151
84 2 -0.607463 5.56156 5.9813 2.96231 0.00407884 0.0159127 -0.0091697
85 2 -0.646147 4.39748 5.923 14.801 -0.00663564 0.00616298 0.0039907
86 2 -0.594515 5.89665 4.29088 15.2782 0.00214038 0.00313718 0.00557638
87 2 -0.755982 5.4552 7.94498 4.09576 -0.00872904 0.000263602 -0.018282
88 2 -0.712042 7.4943 6.0406 3.87611 -0.00544687 -0.00428389 -0.00895608
89 2 -0.731592 7.16851 7.98848 2.00084 0.00905328 -0.00206541 0.00110488
90 2 -0.81126 2.21214 2.27582 9.40784 0.00282311 -0.0023139 0.00914489
91 2 -0.828829 2.11728 14.6857 8.01457 0.00647089 0.0155744 -0.0135886
92 2 -0.707584 14.769 1.99095 7.78158 -0.00319597 -0.00410629 -0.00549759
93 2 -0.747953 14.7635 15.0742 10.0141 -0.00083335 -0.0196106 0.00519908
94 2 -0.890426 1.96728 3.9225 11.2266 0.00516544 -0.0164236 -0.0188385
95 2 -0.749624 3.86229 2.5279 11.1842 0.00157273 0.0119397 0.0015763
96 2 -0.795378 3.7313 4.37357 9.39091 0.00511129 0.00501908 0.010201
97 2 -0.776171 2.4505 5.79851 12.9162 0.0118004 -0.00104043 0.00392303
98 2 -0.746146 15.3078 3.96454 13.5602 -0.00545876 0.0262507 -0.00732156
99 2 -0.870532 14.8855 5.8858 11.8689 7.08125e-06 0.0103661 0.00772859
100 2 -0.627319 2.22808 7.50587 14.7229 0.0254274 -0.0224972 -0.00715907
101 2 -0.81372 4.30529 7.59401 12.7195 -0.0102914 -0.00106104 -0.00611507
102 2 -0.682084 5.67789 2.38456 13.1058 -0.00273085 0.0103406 -0.00809855
103 2 -0.719173 4.37201 14.798 12.6916 0.00159765 0.012224 -0.0180368
104 2 -0.709331 6.05 15.5756 10.7545 0.00526551 0.0126965 -0.00130093
105 2 -0.631981 7.57644 1.9876 14.7278 -0.00174165 -0.0202075 -0.0132642
106 2 -0.850949 7.47123 3.73996 12.8872 0.00285074 -0.00326136 -0.00588033
107 2 -0.704195 5.89178 5.82727 10.032 0.00149062 0.00649912 0.0231189
108 2 -0.615338 6.38342 7.76613 11.3367 -0.00155195 0.0061597 0.000883755
109 2 -0.727671 7.99646 6.01048 11.6247 0.000249517 0.00401305 0.00629698
110 2 -0.750208 7.71143 7.63251 9.17078 -0.00189349 0.00649953 -0.0105391
111 2 -0.589107 2.64369 9.1701 2.62086 0.0132478 -0.000494065 -0.00705464
112 2 -0.7263 15.3487 7.56017 2.72719 -0.0332432 -0.0086112 0.00243567
113 2 -0.607189 15.2898 9.498 15.4289 -0.00403363 0.00632785 0.0116662
114 2 -0.673723 2.26413 11.5877 4.04778 -0.00271853 0.00943473 0.00509852
115 2 -0.703427 3.59872 9.42462 4.7952 -0.00676588 -0.000365552 0.0112176
116 2 -0.626258 4.45461 10.9974 2.15629 -0.0116026 -0.00338068 -0.0252948
117 2 -0.706736 2.59172 13.5009 5.78331 -0.00382181 -0.000577521 0.00904783
118 2 -0.704584 15.2382 11.2462 6.01736 -0.0177947 0.0171906 -0.00475762
119 2 -0.673837 15.1225 13.6354 4.19417 -0.00517921 -0.00489027 0.00698208
120 2 -0.60434 4.51221 13.6127 7.6138 -0.00297437 -0.00121456 0.000165837
121 2 -0.841195 6.00126 9.19517 6.14785 -0.0185768 -0.0167145 -0.0193284
122 2 -0.606447 6.30476 11.2273 8.08764 0.00771932 -0.00881181 0.00481969
123 2 -0.7764 7.79701 11.2818 6.10105 -0.0101158 -0.00855689 -0.0104343
124 2 -0.761552 7.67364 9.33649 7.86637 -0.00358643 0.0103227 -0.00572194
125 2 -0.697425 6.06812 12.934 2.21487 -0.00174276 -0.0122408 0.00119213
126 2 -0.588852 4.21085 13.1771 14.8929 0.0231259 -0.00258448 -0.0153164
127 2 -0.755818 5.82857 10.9144 14.8207 -0.000743884 0.00862961 0.0033386
128 2 -0.523751 7.45354 15.1706 2.0513 0.00903715 -0.00736183 0.0166454
129 2 -0.594528 7.62963 12.5296 4.35865 0.00273977 -0.0124196 0.00317473
130 2 -0.802347 2.28006 9.38948 9.48249 -0.00980948 0.00612644 -0.0112423
131 2 -0.649429 15.2531 7.47765 9.57927 -0.00113633 0.00580357 -0.00332003
132 2 -0.762385 14.9279 9.1451 7.44084 0.00886468 -0.00693699 -0.00864966
133 2 -0.642836 1.85216 11.4411 11.0086 0.0153851 -0.00457415 0.0158776
134 2 -0.65088 3.76414 9.67192 11.2603 0.0165671 -0.010476 0.000819416
135 2 -0.798368 3.83601 11.545 9.2417 -0.00721823 -0.00806543 0.00431961
136 2 -0.774174 2.63076 12.795 13.1733 0.00593612 0.00389547 -0.00116111
137 2 -0.644142 14.9597 10.927 13.3789 -0.0161505 0.00926871 0.00162821
138 2 -0.652962 14.8717 12.9188 11.4406 -0.00923794 0.00687972 -0.00958479
139 2 -0.681588 6.12275 9.51237 12.8367 -0.00362038 0.0117682 -0.00485108
140 2 -0.670311 8.15785 9.7077 14.6644 0.000669475 0.00101107 -0.00475366
141 2 -0.703277 8.04758 11.5399 13.2802 0.00599996 0.00719485 -0.0101436
142 2 -0.59851 6.10176 13.1829 9.90139 0.00210126 -0.00534718 -0.00309839
143 2 -0.56196 7.94 14.7426 9.25055 -0.00370462 -0.00519038 -0.0124783
144 2 -0.660643 7.52925 13.317 11.6552 0.00898726 -0.00032442 -0.00430622
145 2 -0.739009 9.28273 2.48762 2.68179 -0.00842446 0.00595659 0.0122715
146 2 -0.685357 9.66969 15.1592 15.0958 0.00353169 0.00848309 -0.0141112
147 2 -0.802822 9.72277 4.73003 3.8999 0.000836628 0.00235051 0.00392112
148 2 -0.809949 11.2209 2.48661 4.20381 0.0026543 0.0149169 0.00527
149 2 -0.694529 11.4011 4.06859 2.10079 0.00537739 -0.000600185 0.013259
150 2 -0.656655 9.42239 6.36636 5.69925 -0.000974606 0.0173595 -0.00931345
151 2 -0.581346 11.5215 5.97415 8.05428 -0.00155435 -0.00768298 -0.0168508
152 2 -0.593404 11.4682 7.3979 5.59699 0.0169641 3.43048e-05 0.00346824
153 2 -0.670367 9.66512 8.08343 7.3836 -0.00196314 0.00233492 0.00491021
154 2 -0.751619 13.1229 2.4907 5.63852 -0.0147176 -0.00965758 -0.0119213
155 2 -0.799065 11.4455 15.4545 5.90868 0.00516852 -0.0228187 -0.0190351
156 2 -0.82657 13.1689 15.3007 3.77941 0.012872 0.0174097 -0.00624212
157 2 -0.670042 13.2975 4.57453 7.61939 0.00115317 -0.00166831 0.0127248
158 2 -0.869655 13.2034 6.16239 1.96525 -0.00685285 0.00667189 -0.000714962
159 2 -0.550667 11.2555 5.52376 14.519 -0.000496749 0.0182684 0.00734172
160 2 -0.74807 13.0034 3.83991 14.9766 0.00385263 -0.00643308 -0.0118281
161 2 -0.75367 13.3044 7.37973 4.35952 -0.0110769 0.0172423 0.0135489
162 2 -0.678716 9.36447 2.42062 9.45927 -0.0137409 0.00997115 0.0156633
163 2 -0.729859 9.99694 14.8865 7.63361 -0.013856 0.00438434 -0.00590397
164 2 -0.722248 9.34876 4.06556 11.0481 -0.00681839 -0.00739183 -0.0120772
165 2 -0.82382 10.8745 1.9693 11.5176 -0.00613583 0.00308961 -0.000276082
166 2 -0.736999 11.664 3.97702 9.67599 0.0115697 0.00599344 0.00242962
167 2 -0.699479 9.48385 5.08729 13.1813 -0.00630889 0.00203394 -0.0057998
168 2 -0.672641 9.10282 7.39145 15.295 -0.00221814 -0.0108446 0.0238261
169 2 -0.841168 10.9322 7.23333 12.7529 -0.00758898 0.0108901 0.0121139
170 2 -0.853528 13.1623 2.66218 12.8063 0.00644092 0.0213073 -0.00361341
171 2 -0.719127 11.6067 15.6831 13.7629 -0.00783101 0.00808896 0.00810562
172 2 -0.944288 12.7957 14.978 11.5284 -0.00806784 0.00584247 -0.00165251
173 2 -0.688323 13.4836 5.85844 9.80696 0.0128009 -0.00952835 -0.0110976
174 2 -0.755044 13.1575 7.59032 11.3599 0.0161566 -0.0188267 -0.00447349
175 2 -0.852068 9.61992 9.35198 2.07643 0.00102144 0.00282177 0.00134564
176 2 -0.872337 9.45405 10.9671 4.09785 -0.0114601 -0.00733129 0.00964166
177 2 -0.89433 11.1448 9.29074 4.01421 -0.012318 0.00318184 0.00891717
178 2 -0.881623 11.2423 11.3941 2.53457 -0.0043302 -0.000908571 -0.00747081
179 2 -0.811629 9.80494 12.874 6.04755 -0.00892787 -0.0105722 0.0176999
180 2 -0.780513 11.8716 13.383 7.40849 -0.00218126 -0.00340313 0.027631
181 2 -0.650872 13.0145 9.59045 5.94828 -0.00928029 -0.0031942 0.0131353
182 2 -0.70553 13.3199 11.2072 7.83413 0.00170349 0.00396791 0.00262026
183 2 -0.778707 13.1455 12.9271 2.67607 0.00335314 -0.00907699 -0.00784877
184 2 -0.784073 11.5237 13.5032 15.3685 -0.000196535 -0.00830865 -0.007787
185 2 -0.68433 13.0583 11.3747 15.0972 0.0165572 0.0133721 0.0106774
186 2 -0.686701 9.70695 9.15586 9.88747 -0.0020565 -0.00883347 0.0115118
187 2 -0.677797 9.92081 11.43 11.2395 -0.0186292 -0.00976596 -0.00207515
188 2 -0.604171 11.8066 9.14817 10.8107 0.00617805 -0.00125439 -0.00636823
189 2 -0.713914 11.2731 11.5229 8.95469 -0.01292 -0.00616406 -0.0254129
190 2 -0.642561 9.31546 13.8516 13.4608 0.0105475 -0.0152657 0.00578976
191 2 -0.549873 12.5591 8.69544 13.3098 0.00757794 -0.016486 -0.012824
192 2 -0.816135 13.069 13.2136 9.67961 -0.00939677 -0.0176282 8.72346e-05
193 2 -0.688003 11.9242 12.823 13.0846 -0.011751 -0.0117888 -0.0194498
194 2 -0.604481 15.3659 8.17782 5.10885 -0.00514644 0.012486 0.00206456
195 2 -0.695076 8.40797 12.5513 15.5432 0.0203061 0.0206812 -0.00802655
196 2 -0.577815 10.0278 13.8172 10.8241 0.00563115 -0.000238747 -0.00710381
197 2 -0.620385 12.1592 1.39528 8.81692 -0.00937277 0.000729797 -0.0143283
198 2 -0.643159 9.04606 14.4175 3.8068 0.00348391 -0.00984706 0.0145581
199 2 -0.618243 5.09306 4.55712 5.75092 0.000989363 0.000362753 -0.00708864
200 2 -0.642502 14.1907 14.0888 6.74925 0.00925266 -0.0114088 -0.0149497
201 2 -0.625469 3.88729 13.8655 10.0634 -0.00575433 0.00781714 0.0114352
202 2 -0.694872 15.4338 12.1223 15.5113 0.00770786 0.00362683 0.00118763
203 2 -0.562437 4.94986 8.68904 8.59065 0.00221384 0.0048625 0.00117976
204 2 -0.674697 12.5514 8.41334 1.2701 -0.0100486 0.0306814 -0.00514025
205 3 0.438459 12.5537 12.6666 13.75 -0.0260885 -0.0183697 0.0729051
206 3 0.335193 11.1625 12.1044 12.9097 0.000797394 -0.0279443 -0.0162204
207 3 0.424833 1.57927 8.18457 4.65231 0.0108234 0.0105571 -0.0423475
208 3 0.434598 15.6786 8.21425 6.02777 -0.0135418 -0.0417366 -0.0298974
209 3 0.478465 8.13388 13.0843 14.9323 0.0288782 -0.0196762 -0.0369732
210 3 0.425634 8.6732 11.6853 15.3061 -0.0719976 0.0400576 0.0107163
211 3 0.345025 10.9055 13.9721 11.5095 -0.000999415 -0.0789703 -0.112621
212 3 0.384054 10.217 12.7446 10.5979 0.0585474 0.0503759 -0.0861731
213 3 0.375679 12.0082 15.0487 9.35384 -0.00708867 0.00720056 0.0690154
214 3 0.412905 12.7103 1.12504 8.20721 0.0193923 -0.093269 -0.0227695
215 3 0.364034 8.77667 15.3392 4.322 -0.00818329 0.0309473 -0.00880151
216 3 0.363832 9.23641 14.7708 2.87575 -0.0300807 -0.0819383 -0.017628
217 3 0.385721 5.47664 5.32311 5.16 -0.0651229 -0.0714335 -0.0673303
218 3 0.316966 4.9643 4.00555 4.84679 0.00150743 0.0099178 0.00949143
219 3 0.417212 14.2326 14.9653 6.80121 0.015733 -0.008532 0.0411051
220 3 0.384341 14.9874 13.7641 6.36747 -0.055887 0.0678296 0.0206057
221 3 0.379937 3.13088 13.3713 10.5407 0.0271312 0.00229314 -0.0442185
222 3 0.429186 4.42663 14.5128 10.5395 0.00881349 -0.0369978 0.0302439
223 3 0.354385 13.3314 8.13554 1.83186 -0.0515185 0.0289917 -0.0282564
224 3 0.428993 1.62974 12.5236 15.0899 -0.0417318 -0.0736522 0.0876345
225 3 0.383404 4.71619 9.22271 9.27423 -0.0169944 -0.0554393 -0.0607131
226 3 0.389395 5.59031 8.06659 9.08298 -0.0374595 0.0590425 -0.0208954
227 3 0.405105 12.405 7.96243 14.2853 -0.037345 0.0493805 0.054958
228 3 0.410495 12.0884 9.1992 1.27135 -0.0393358 0.056604 -0.0185909
ITEM: TIMESTEP
70000
ITEM: NUMBER OF ATOMS
228
ITEM: BOX BOUNDS pp pp pp
1.3661590445023970e+00 1.5793840955497185e+01
1.3661590445023970e+00 1.5793840955497185e+01
1.3661590445023970e+00 1.5793840955497185e+01
ITEM: ATOMS id type q x y z vx vy vz
1 1 1.44324 1.62133 1.47864 15.5857 -0.00488344 -0.0016825 -0.0121211
2 1 1.39494 3.34314 3.00872 2.88399 -0.000285703 -0.0121633 -0.00300516
3 1 1.33567 1.81393 4.87355 4.88186 0.00567715 -0.00272827 -0.0140389
4 1 1.40483 2.94123 7.0453 7.0727 -0.0129863 0.00767401 0.000866231
5 1 1.32289 5.04714 15.5702 4.9641 -0.00462032 -0.0083889 0.00344246
6 1 1.47213 6.54662 3.22443 6.86914 0.000445433 0.0124007 0.00822642
7 1 1.54937 4.98437 4.97069 15.773 0.00820177 0.002112 0.00422216
8 1 1.63477 6.7702 6.69953 3.19775 -0.0019538 0.00509232 -0.0189566
9 1 1.39114 1.86279 1.70051 8.67095 -0.000616829 0.0120117 0.00130883
10 1 1.6045 3.41886 3.32106 10.6446 0.00690121 0.0109868 0.00690336
11 1 1.68749 1.88497 5.27911 12.3044 0.00710667 0.00212265 -0.00539713
12 1 1.88385 3.39134 7.12258 14.0806 0.0115437 0.00058464 -0.00839317
13 1 1.72116 5.27768 1.56769 12.5829 -0.0113849 0.0109312 0.00374966
14 1 1.57727 6.90441 3.40045 14.1582 -0.0171705 -0.00546014 -0.0217702
15 1 1.30464 4.82692 5.18241 8.71463 0.00865446 -0.00337428 -0.00241631
16 1 1.4097 6.64334 7.05714 10.6455 0.00831466 -0.00600235 -0.0023931
17 1 1.69724 1.3911 8.71205 1.41292 -0.00897376 -0.00774294 -0.00920081
18 1 1.27707 3.2144 10.0375 3.34681 0.0244589 -0.0162174 -0.000650391
19 1 1.37656 1.45186 12.2751 4.81183 0.012702 0.0114883 0.00383191
20 1 1.45174 3.08239 13.7515 6.79641 -0.00137233 0.00117997 0.00110158
21 1 1.49331 5.19236 8.59275 5.18313 0.00532298 -0.00185993 0.00843827
22 1 1.3201 7.14538 10.4835 7.00761 -0.00461011 0.00241405 0.00239136
23 1 1.46266 4.67069 11.9396 1.4715 0.017215 -0.0126944 -0.0072176
24 1 1.18604 6.6152 13.7712 3.11211 -0.00593232 0.00263353 -0.00606253
25 1 1.39178 15.2742 8.70834 8.87881 0.000712187 -0.0106271 0.00017945
26 1 1.31599 2.90732 10.3702 10.5806 -0.00672127 0.0172237 0.00481726
27 1 1.27752 15.5941 12.4254 11.9813 0.00897448 0.00616241 -0.0205076
28 1 1.52163 3.36548 13.9098 13.8569 -0.0142767 0.00226064 0.00753986
29 1 1.36152 5.09231 8.85267 12.3611 0.0165247 0.0139089 0.00492569
30 1 1.52304 6.98348 10.6032 13.9569 0.00318869 0.020369 -2.12089e-05
31 1 1.25073 4.78838 12.4097 8.94352 -0.00272289 -0.00495688 0.013839
32 1 1.3253 7.11631 14.2119 10.5725 -0.0186168 0.00423004 0.000777196
33 1 1.4976 8.71051 1.69253 1.38285 0.00979232 -0.021875 -0.00278078
34 1 1.93649 10.4055 3.03743 3.43113 -0.0125362 0.00626034 0.0141663
35 1 1.61025 8.41559 4.77573 4.92155 0.00527488 -0.0148694 0.00225536
36 1 1.38434 10.6271 6.49093 6.61215 -0.00498539 -0.00146261 0.00163494
37 1 1.63072 12.2689 1.51245 5.13973 -0.0104005 0.000351955 -0.0099992
38 1 1.26221 14.3716 3.37721 6.77616 -0.011364 0.0104738 -0.011104
39 1 1.53791 12.3574 4.77269 1.52571 -0.00145472 -0.0132119 -0.00444942
40 1 1.61605 14.37 6.59689 2.93548 0.0243194 -0.00264764 -0.00769103
41 1 1.44879 8.56132 1.40314 8.4735 0.000867446 -0.00645135 -0.00905884
42 1 1.47278 10.3859 3.02952 10.2759 0.00327511 -0.0151043 0.0177107
43 1 1.34765 8.65757 4.76613 12.0479 0.00826197 -0.00885514 -0.00196756
44 1 1.21157 10.4733 6.59134 14.3242 0.000586486 -0.00549815 0.00406764
45 1 1.33278 12.2266 1.45074 12.2014 0.00831396 -0.00403528 0.00777693
46 1 1.45333 14.2891 3.44917 13.9405 -6.63609e-05 -0.00657995 0.00626239
47 1 1.52814 12.2347 4.84251 8.54872 0.0128152 -0.0037608 -0.00709169
48 1 1.50289 14.0233 6.42266 10.5472 0.00561786 0.00580331 -0.0022167
49 1 1.27453 8.48534 8.40625 15.7768 -0.00228999 -0.00253677 0.00689118
50 1 1.46085 10.466 10.1885 3.30608 0.00218223 -0.00558371 0.0047404
51 1 1.37597 8.91978 12.065 5.08949 0.00263545 0.00981181 0.00883149
52 1 1.49091 10.5603 14.1798 6.90669 -0.00594995 0.00472868 -0.00114745
53 1 1.47637 12.3867 8.26682 4.80051 0.00475762 0.00716195 0.00653347
54 1 1.30262 13.8776 10.3267 6.53255 0.00973304 -0.00799013 0.00207791
55 1 1.32614 12.1494 12.3097 1.64026 0.00623901 0.00261159 -0.0118224
56 1 1.32792 14.3022 14.3073 3.19135 -0.00433744 0.00524783 0.01312
57 1 1.21946 8.79835 8.20154 8.62017 -5.99586e-05 -0.00995481 0.0106133
58 1 1.29442 10.4232 10.2057 10.3639 0.00831423 0.00306943 0.00650218
59 1 1.4508 8.85393 12.2308 12.28 0.00345401 0.00732558 -0.0118219
60 1 1.53911 10.3503 14.0896 14.2359 -0.00345258 -0.0168707 0.00425155
61 1 1.28752 12.2313 8.21308 11.9764 0.0095971 0.00692757 0.000996703
62 1 1.37589 14.7319 11.2032 14.8274 0.00378899 0.00547892 0.00453428
63 1 1.5243 12.2256 12.0233 8.58562 -0.0120173 0.0121046 0.00550109
64 1 1.30292 13.9122 14.1148 10.1001 -0.00467122 0.0169743 -0.0064145
65 2 -0.745811 2.01306 2.35272 2.36283 -0.00204032 -0.0107814 0.0089637
66 2 -0.735005 2.72294 14.6033 15.0675 0.000522684 -0.0177241 0.010448
67 2 -0.713638 15.3687 2.53091 14.6712 0.00225682 0.0188578 -0.0140402
68 2 -0.658377 14.8594 15.363 1.83103 -0.00514267 -0.00324691 -0.00213926
69 2 -0.7216 2.80109 4.26541 3.679 0.019908 -0.00503281 0.00340284
70 2 -0.70979 4.36766 2.01667 3.78513 0.00444746 0.00309667 0.0093263
71 2 -0.860961 4.30713 3.77161 1.86838 -0.0126116 -0.0133695 0.0103057
72 2 -0.659197 2.08986 6.19248 6.16991 0.0133361 -0.0107426 -0.00244361
73 2 -0.738563 15.3957 3.87807 5.5665 0.00563851 -0.00503137 0.00294428
74 2 -0.729584 15.4026 5.87409 3.8617 0.0049368 -0.00798483 0.016503
75 2 -0.712616 3.62088 6.06908 8.0615 -0.00417976 -0.000230452 0.00278766
76 2 -0.747323 4.26377 7.59263 5.80162 0.000989092 0.00771436 -0.0156173
77 2 -0.6738 1.84472 7.74672 7.86746 -0.0266685 -0.0128508 0.00381027
78 2 -0.705206 5.67465 2.36911 5.86943 -0.0148873 0.0100564 -0.0233667
79 2 -0.635526 4.08176 14.4805 5.74703 0.010074 -0.0129359 0.00520531
80 2 -0.600548 5.85873 14.2557 4.3661 -0.00709105 0.00147989 -0.0105426
81 2 -0.690961 5.98836 4.36121 7.87037 -0.00633105 -0.00774776 -0.014338
82 2 -0.760982 7.38218 3.79292 5.64492 0.0208199 0.00219215 0.0036174
83 2 -0.711452 7.26178 2.1908 7.84918 -0.0099329 0.0135604 -0.00815708
84 2 -0.866949 6.02949 5.74163 2.42304 -0.00939218 0.014304 -0.00359503
85 2 -0.866173 3.99376 6.07064 14.851 -0.000108016 -0.0050816 -0.00149575
86 2 -0.765846 6.14773 4.62072 14.8653 0.0166847 -0.000168206 -0.0100575
87 2 -0.769735 5.65916 7.68966 4.0122 0.00270961 0.00984432 0.00437072
88 2 -0.860538 7.70952 5.90688 4.14454 0.00130311 -0.00390387 0.0101681
89 2 -0.75524 7.49038 7.84578 2.45359 0.00355231 -0.014893 0.00499555
90 2 -0.825299 2.47347 2.32469 9.83432 -0.00505116 -0.00628789 -0.00154655
91 2 -0.775061 2.44014 15.1882 7.56574 -0.00976384 0.00741669 0.0047862
92 2 -0.686039 15.2397 2.75102 8.06015 -0.00792042 0.0151553 -0.00434568
93 2 -0.673719 15.2848 14.6896 9.42059 0.00204606 -0.00588094 0.0162882
94 2 -0.90904 2.7844 4.44233 11.4578 -0.00710763 -0.000167587 -0.0035226
95 2 -0.809842 4.14724 2.3256 11.7222 0.00759233 0.0057477 0.0127877
96 2 -0.721688 3.97132 3.85967 9.31235 -0.00493606 0.00792954 0.00933645
97 2 -0.938867 2.55028 6.43871 13.0322 -0.0127344 0.0143833 0.000326493
98 2 -0.74475 15.1899 4.52006 13.3072 0.00488036 0.0132742 -0.00779239
99 2 -0.739431 15.0898 5.62445 11.3556 0.00229866 0.00508567 0.00469846
100 2 -0.920503 2.3773 8.04313 14.8007 0.0146001 -0.000635055 0.0297369
101 2 -0.856747 4.59324 7.82029 13.4836 -0.00182737 -0.00503531 -0.0167135
102 2 -0.88246 6.05895 2.22291 13.6836 0.00965798 -0.00158538 0.000887586
103 2 -0.817184 4.48078 15.0181 13.3875 0.00203548 -0.00919872 0.0019305
104 2 -0.769921 6.11065 15.2991 11.5178 -0.00743015 0.00456307 -0.0224421
105 2 -0.836332 8.10356 2.75536 14.9229 0.0105197 0.0164758 0.0181165
106 2 -0.684998 7.16907 4.10191 12.7597 0.00322424 -0.00517473 -0.00439073
107 2 -0.673822 5.71457 5.92252 9.92786 -0.012602 0.0119502 -0.0045514
108 2 -0.822321 6.2409 8.20766 11.5027 -0.00181612 0.0103406 0.000397905
109 2 -0.567541 7.96963 5.95409 11.2213 0.0106569 0.00499427 -0.0117055
110 2 -0.692734 7.57268 7.33218 9.47793 -0.00474574 -0.0135873 0.0113514
111 2 -0.869353 2.15128 9.09254 2.65066 -0.00958753 -0.000632378 -0.0108261
112 2 -0.838643 15.037 7.50416 1.8323 -0.00167644 0.00239929 0.00435866
113 2 -0.807096 14.8763 9.935 15.7872 0.000819441 0.00122204 -0.0228486
114 2 -0.649815 2.53139 11.2006 4.53045 -0.0125231 0.0124801 0.00904113
115 2 -0.697845 4.50147 9.6776 4.3102 0.00831987 0.00194818 0.0103168
116 2 -0.788532 3.75835 11.2872 2.45496 -0.00681332 0.0199823 -0.015028
117 2 -0.859019 1.97208 12.9844 6.07614 -0.00138658 0.00677261 -0.00421308
118 2 -0.513106 14.2115 11.7583 5.51336 -0.0102827 0.0144567 -0.0128011
119 2 -0.791001 15.2849 13.2878 3.77415 -0.0140279 0.00519405 -0.0112867
120 2 -0.75144 4.10214 13.2074 7.73817 -0.00289273 -0.00827901 -0.0054543
121 2 -0.727873 6.35225 9.37966 6.02654 0.00797494 0.00795087 -0.000386731
122 2 -0.53703 5.93283 11.426 7.74919 -0.0175141 -0.0121799 -0.00938529
123 2 -0.648046 8.28991 11.1744 6.18393 -0.00945371 0.00707991 0.00938563
124 2 -0.629438 7.9821 9.70133 8.07229 -0.00877306 0.0141183 -0.0119379
125 2 -0.739124 5.71594 12.9668 2.23703 -0.0037064 0.00619697 0.0067503
126 2 -0.7461 3.91726 12.5837 14.6487 -0.0153579 -0.0144237 0.00898171
127 2 -0.68772 5.86961 11.0813 15.1147 0.00795266 0.0196775 -0.0145829
128 2 -0.601035 7.63264 15.3036 2.48998 0.00421363 -0.0123077 -0.0036637
129 2 -0.561708 7.49189 12.7151 4.1795 -0.00962151 -0.00654754 -0.00859706
130 2 -0.676252 1.94702 9.30207 9.83097 0.0130845 -0.00486194 0.00718908
131 2 -0.817725 14.5591 7.61412 9.837 -0.00856435 -0.0129827 0.00304937
132 2 -0.662746 14.8536 9.8898 7.83099 -0.00237086 -0.0114032 -0.0113905
133 2 -0.745879 1.59003 11.3954 11.0131 -0.00799032 -0.00277338 0.0138452
134 2 -0.754611 3.84832 9.47076 11.5297 0.0168479 0.00803021 0.00360135
135 2 -0.735991 3.85912 11.2488 9.64515 -0.00106711 0.012872 -0.0029628
136 2 -0.737091 2.34845 13.5133 12.8241 -0.00638995 0.00167264 0.018264
137 2 -0.663427 14.679 11.5391 13.2952 0.000779095 -0.0165793 -0.00761494
138 2 -0.700926 14.4439 13.293 11.4312 -0.0118278 0.00675919 0.00596645
139 2 -0.684138 6.04269 10.3129 12.8037 -0.00381698 -0.00261615 0.0106632
140 2 -0.724621 7.72164 9.40639 14.643 -0.00444188 0.013077 -0.0117404
141 2 -0.800633 7.94326 11.6519 13.4606 0.0152865 0.0089778 -0.00835225
142 2 -0.589511 6.12841 13.1393 9.83588 0.00145514 -0.0172325 0.0102018
143 2 -0.785089 8.21094 14.825 9.65813 0.00171313 -0.00583732 0.000607495
144 2 -0.707476 7.90235 12.8836 11.3406 -0.0136867 -0.0175484 -0.00252492
145 2 -0.947436 9.69555 2.20538 2.43869 0.00134754 -0.000574536 0.00360729
146 2 -0.830825 9.23014 14.779 14.9497 0.00137934 0.0096388 0.0078608
147 2 -0.909828 9.35977 3.88025 4.0962 -0.000779569 0.00329443 -0.00103904
148 2 -0.954278 11.3397 2.53497 4.46264 0.0131658 0.0120439 0.0163949
149 2 -0.761612 11.3069 3.90208 2.5391 0.00502872 -0.00275667 -0.0102768
150 2 -0.718808 9.37941 5.55243 6.02327 0.00842935 -0.0182651 0.0133731
151 2 -0.803416 11.471 5.96773 7.78422 -0.00467785 -0.00718767 0.00557744
152 2 -0.728273 11.7306 7.00419 5.50881 -0.0282081 -0.000321765 -0.00158584
153 2 -0.599579 9.80821 7.74903 7.3533 0.00896996 -0.00187416 0.0141047
154 2 -0.740198 13.5308 2.18904 5.80663 0.00196837 -0.00877089 -0.00800222
155 2 -0.855212 11.2264 15.0455 5.75343 0.015956 -0.0080483 0.0028175
156 2 -0.728461 13.0423 14.9435 4.26414 0.0088974 -0.00376947 -0.00322458
157 2 -0.756266 13.0365 4.00947 7.56193 0.01508 0.00365415 0.00480037
158 2 -0.815251 13.1742 5.74991 2.36367 -0.0287802 0.00434478 0.0180304
159 2 -0.740978 11.1872 5.61629 15.3506 0.0217096 0.0160397 0.0155393
160 2 -0.732184 13.4495 3.83798 15.3158 -0.00300988 0.000787658 0.0120307
161 2 -0.771728 13.7682 7.58803 3.93888 -0.0200466 -0.00721 0.0151083
162 2 -0.715255 8.92903 2.55209 9.41997 -0.0048823 0.00385574 0.0147699
163 2 -0.750911 9.31064 14.9059 7.41003 0.0213661 0.00887542 0.0118778
164 2 -0.794675 9.48055 3.94102 11.0617 0.00420313 0.000395755 0.00163886
165 2 -0.775124 11.0487 2.14749 11.4322 -0.00932411 -0.00252342 -0.0217231
166 2 -0.819951 11.3664 3.8272 9.39907 0.00545027 -0.0111771 -0.0148293
167 2 -0.565441 9.4686 5.39624 13.2596 0.00791719 0.00582629 0.0148186
168 2 -0.667762 9.14248 7.3906 14.6837 0.00471563 0.00157089 -0.00295224
169 2 -0.619874 11.2219 7.5361 13.0498 0.0243208 0.0198497 0.00485858
170 2 -0.657438 13.3186 2.54101 12.9387 0.00585643 -0.0101257 0.00224218
171 2 -0.667662 11.3459 15.1883 13.4574 -0.00608331 0.00225919 -0.012901
172 2 -0.73645 13.0578 15.2039 10.97 0.0104522 -0.0192773 0.00246843
173 2 -0.711826 13.4434 5.31437 9.60423 -0.00520804 -0.0116088 0.0087699
174 2 -0.674551 12.8568 6.85688 11.7862 0.0136335 -0.0061301 -0.00873265
175 2 -0.662371 9.72213 9.00654 2.4268 0.000459536 -0.00507109 -0.0117795
176 2 -0.842372 9.76261 11.0334 4.36939 0.00559511 -0.0247135 -0.000602087
177 2 -0.71941 11.4766 9.07573 3.7656 0.0011545 -0.00616767 -0.00300045
178 2 -0.750597 11.2468 11.1772 2.26448 -0.0259207 0.00189526 0.00709944
179 2 -0.585448 9.6129 12.9859 6.35189 -0.00885163 -0.010654 -0.0200149
180 2 -0.763906 11.6093 13.17 7.68971 -0.0283668 -0.0104158 0.00789677
181 2 -0.788118 12.9335 9.33475 5.64512 -0.0123063 0.00683321 -0.000939246
182 2 -0.639019 12.7907 10.8979 7.53776 -0.0181433 0.0157703 -0.00109194
183 2 -0.649598 13.3774 13.2803 2.47619 0.00787033 0.00971665 -0.0114848
184 2 -0.777903 11.3255 13.1607 15.0504 -0.00625222 0.018653 -0.00288437
185 2 -0.609053 13.2245 11.4874 15.0199 0.0143769 -0.0190479 -0.000507775
186 2 -0.616626 9.86801 8.93408 9.43651 -0.0119451 -0.00697859 -0.00530516
187 2 -0.751213 9.80961 11.1364 11.6361 -0.0201138 -0.00446281 0.00316812
188 2 -0.661704 11.6069 9.11327 10.8276 0.0154525 -0.00108427 0.00334709
189 2 -0.72677 11.2683 11.0657 9.27752 -0.00918502 -0.0185645 0.00171384
190 2 -0.755066 9.84436 13.495 12.9068 -0.00430416 0.00281422 -0.0114386
191 2 -0.646636 13.3233 9.13297 12.8599 0.00454274 -0.0126472 0.0113798
192 2 -0.812378 13.1605 12.8805 9.49178 -0.00578839 -0.0115537 0.000245155
193 2 -0.582511 12.0658 12.0716 11.7724 -0.0178619 -0.00242185 0.0216407
194 2 -0.619438 15.5099 9.1772 5.53551 0.00394954 0.017266 0.000848998
195 2 -0.562781 9.02346 12.2388 1.60039 0.00454694 0.00137057 -0.0158707
196 2 -0.622116 8.29759 1.52265 11.8598 0.0112225 0.00161812 -0.00217938
197 2 -0.716803 11.3276 1.39985 8.41087 -0.00302514 -0.016688 -0.000760657
198 2 -0.654769 9.63196 13.9881 3.98461 -0.00628307 -0.00156567 -0.00661727
199 2 -0.584544 4.87373 5.1175 4.94582 -0.00412984 0.00326724 0.00462877
200 2 -0.603502 14.5267 14.1432 6.90603 -0.00648802 0.0038535 -0.00766492
201 2 -0.707309 3.3807 13.8133 10.0269 -0.00565145 0.00558697 -0.0166018
202 2 -0.706454 1.40027 12.1714 15.5053 0.0020594 0.00435446 0.0018335
203 2 -0.598809 4.68594 8.8193 8.48296 0.00315583 0.00207821 0.0130225
204 2 -0.528137 10.9915 10.0705 14.3163 -0.00393538 0.00277427 0.00413078
205 3 0.468428 12.7273 12.5677 12.1298 -0.0301235 -0.0258219 -0.0408849
206 3 0.377057 11.3734 12.6239 11.2793 0.00450929 -0.00931223 0.0175263
207 3 0.394428 1.78862 8.88151 4.98518 0.0820717 0.0205447 -0.075641
208 3 0.390011 14.7211 8.4131 5.16723 -0.0137974 -0.0057483 0.0321812
209 3 0.331295 9.23628 12.4297 2.44326 0.0162698 0.00318204 -0.00496077
210 3 0.312371 8.08587 12.8088 1.63656 -0.0506819 -0.00507792 -0.0225852
211 3 0.442955 8.05639 2.23862 11.3803 -0.026305 0.020524 -0.0134793
212 3 0.416292 9.00236 15.53 11.3787 0.00804068 0.0615433 0.0191467
213 3 0.354232 12.0952 15.4451 8.86263 -0.0142982 0.0263676 -0.00468211
214 3 0.380116 11.8601 2.00061 7.89237 -0.0460652 0.0217201 -0.0460992
215 3 0.404421 10.5601 13.9269 3.94675 -0.0581819 -0.0304797 0.0368711
216 3 0.330597 9.14462 14.0257 3.07124 -0.0151902 -0.0447362 -0.0796878
217 3 0.414087 4.84149 4.44428 4.33362 0.0453983 0.0446759 -0.0454226
218 3 0.391943 4.90363 5.9508 4.33568 -0.05304 -0.0139361 -0.0241234
219 3 0.399769 14.8013 14.9565 6.42828 0.00471736 -0.0444857 -0.0576662
220 3 0.438427 15.244 13.7304 7.24399 -0.0456515 -0.0258925 -0.0296773
221 3 0.410092 2.52793 13.3882 9.95206 0.00514399 0.075594 0.0618157
222 3 0.448611 3.46757 14.6426 9.92277 0.000407159 0.0736982 -0.0136078
223 3 0.388947 11.0398 9.49762 15.1097 -0.00946651 0.064433 -0.0126227
224 3 0.499874 1.88162 12.2941 1.76404 0.0391293 0.0458179 -0.0333395
225 3 0.356596 5.55156 9.05437 7.92771 -0.0025577 -0.103669 -0.0291854
226 3 0.400498 4.69589 9.2219 9.36425 0.010093 0.0576931 0.0364203
227 3 0.465795 13.3969 9.89133 12.4883 -0.00996008 0.0491467 0.0634262
228 3 0.38047 10.2397 9.64759 13.8679 0.0161217 0.0915426 0.057345
ITEM: TIMESTEP
72000
ITEM: NUMBER OF ATOMS
228
ITEM: BOX BOUNDS pp pp pp
1.3349780149565040e+00 1.5825021985043042e+01
1.3349780149565040e+00 1.5825021985043042e+01
1.3349780149565040e+00 1.5825021985043042e+01
ITEM: ATOMS id type q x y z vx vy vz
1 1 1.37239 15.8021 15.5387 15.7527 0.00509498 -0.0074128 0.0124578
2 1 1.25108 2.98413 2.99265 2.74994 0.00515471 0.0102008 -0.00275633
3 1 1.12414 15.5687 4.96941 5.0311 -0.0101824 -0.00124164 0.00353824
4 1 1.22797 3.27647 6.48336 6.75856 -0.00773934 0.0106027 -0.000480309
5 1 1.10212 4.86142 15.5216 4.62504 0.0169737 -0.00451582 0.000313534
6 1 1.14352 6.52434 2.62484 6.81086 0.0129748 0.00612163 0.00192731
7 1 1.66643 4.85211 4.94435 15.7416 -0.00619677 -0.0113664 0.00508091
8 1 1.15709 7.02522 6.73422 2.89225 0.00865336 0.00879311 -0.00528374
9 1 1.24641 15.7265 1.60315 8.63198 0.00336024 -0.000548632 0.000587542
10 1 1.52448 3.05297 3.31014 10.3906 -0.0190889 0.00389318 0.00496458
11 1 1.68734 1.62743 5.16123 12.4071 0.0098395 0.00476734 0.00196406
12 1 1.72918 3.51496 7.00593 13.9309 0.000209105 -0.000859659 0.0122395
13 1 1.57591 5.04105 15.7979 12.0051 0.00517071 -0.00792168 -0.0058425
14 1 1.54396 6.43518 3.30887 13.7724 0.00591049 0.0144434 0.0138687
15 1 1.23416 5.2983 4.84886 8.51764 -0.00733351 0.00777353 0.0053262
16 1 1.45408 6.69585 6.5988 10.6012 0.00479711 -0.00326914 -0.00185251
17 1 1.37176 1.64317 8.39516 1.34782 0.0056444 0.000253761 0.0155025
18 1 1.53607 3.44877 10.1614 3.20275 0.00598196 0.00515277 0.00465064
19 1 1.5271 15.7913 11.7913 4.81109 -0.00972329 0.0195072 0.0068355
20 1 1.28721 3.03744 13.7754 6.45953 -0.00787238 0.00398962 0.000215559
21 1 1.45261 5.20247 8.2961 4.88716 -0.00949197 0.0138351 -0.014668
22 1 1.29365 6.73064 10.3177 6.89209 -0.00956661 -0.00815035 -0.00373018
23 1 1.65003 5.19474 11.9125 1.49466 0.0108322 0.00529886 0.00738346
24 1 1.21657 6.89165 13.7671 3.02556 -0.00425955 0.000469072 -0.0128944
25 1 1.06705 15.7168 8.561 8.48595 0.00780081 0.00720167 -0.0176661
26 1 1.43435 2.78288 10.6468 10.6475 -0.0136127 -0.00690877 0.0230604
27 1 1.22816 15.6098 12.5238 12.325 0.0125352 -0.00605011 -0.0136091
28 1 1.17061 3.60438 14.1266 14.3473 0.00354988 -0.0030259 0.00468977
29 1 1.52938 5.09457 8.86548 11.9883 0.00635728 0.00123276 -0.0127453
30 1 1.43377 7.08913 10.4528 13.9966 0.00106994 -0.0064923 -0.00184191
31 1 1.30628 5.01223 12.2959 8.75564 -0.0120041 0.000754971 -0.0126416
32 1 1.49134 6.83341 13.7745 10.6363 0.0158255 -0.0039335 0.00156102
33 1 1.34119 8.29554 1.68385 15.8048 -0.00835929 0.000505774 -0.0102704
34 1 1.27709 10.3994 3.15027 2.9354 0.00328449 -0.00949876 0.00668426
35 1 1.22286 8.64365 4.54684 5.06928 0.0156443 0.00738108 -0.00337649
36 1 1.37347 10.2826 6.47039 7.19167 0.00162927 -0.00327866 -0.00331793
37 1 1.44638 12.2285 1.9132 5.09451 -0.0195421 -0.000731633 -0.0150208
38 1 1.29352 13.9803 3.60305 7.18541 0.00182981 0.00602081 0.0006034
39 1 1.41166 12.7174 4.75017 1.41783 0.00138102 0.00643118 0.00686641
40 1 1.28832 14.0051 6.82807 3.22726 0.0239699 0.000568366 -0.00501844
41 1 1.50811 8.43835 15.6639 8.79848 0.00320788 0.00525948 -0.00193255
42 1 1.29886 10.3313 3.34131 10.2856 -0.00941178 0.015443 -0.0102832
43 1 1.43328 8.65458 4.90008 12.4784 -0.00614426 -0.00859474 0.0013713
44 1 1.47219 10.7574 6.72425 14.1699 0.0113576 -0.00967734 0.0169845
45 1 1.1889 12.1807 1.71387 12.422 -0.00573565 -0.00661773 -0.005055
46 1 1.45323 14.3854 3.24238 13.8179 -0.00873421 0.00417818 -0.0101042
47 1 1.54367 12.3149 5.36314 9.072 -0.00813271 0.00386303 0.0153887
48 1 1.52539 14.2139 6.95891 10.7704 0.0136798 0.0128696 0.00967405
49 1 1.37659 9.20174 8.8042 15.6991 0.00540218 0.00693892 0.00145921
50 1 1.24478 10.7588 10.5358 3.32216 -0.00789422 -0.0145513 0.00640475
51 1 1.39845 8.7655 12.2365 5.3032 -0.0038409 -6.41058e-05 -0.00458843
52 1 1.25018 10.551 14.1969 6.91677 0.00399768 -0.00898362 0.00567442
53 1 1.47254 11.9116 8.38498 5.1136 -0.00751823 -0.0098118 -0.00414124
54 1 1.22199 13.6419 10.4089 6.68075 -0.00385256 0.00136955 0.0124512
55 1 1.4042 12.3338 12.8248 1.66275 0.00197141 -0.0128569 0.00126133
56 1 1.201 14.3505 14.1519 3.71314 0.00643138 -0.0103525 0.00545199
57 1 1.55903 8.37547 8.21459 8.79583 0.0147985 -0.00460491 0.000745478
58 1 1.36283 9.67539 10.454 10.2308 -0.00656182 0.00227708 0.00431319
59 1 1.62146 8.95679 12.3071 12.5145 0.00268938 0.00700387 -0.0112311
60 1 1.40291 10.2207 14.2525 14.4497 -0.00564843 -0.00342924 0.00540666
61 1 1.17581 11.8558 8.61767 11.9111 -0.0128606 -0.000195002 -0.001411
62 1 1.3524 14.6924 10.8802 14.7358 0.0045305 0.00169271 0.00315833
63 1 1.28773 12.0692 12.2969 8.72629 -0.000660543 0.00424333 0.00416831
64 1 1.27145 13.7658 14.4484 10.5371 -0.00618796 -0.0182481 0.00564872
65 2 -0.662853 2.52071 2.00292 1.51334 0.00273778 -0.00814388 0.00182633
66 2 -0.628391 2.10678 14.5058 14.9085 0.00402342 -0.000589719 0.0113412
67 2 -0.647538 15.2085 1.82446 14.6181 -0.0075384 -0.00124708 -0.00405325
68 2 -0.645139 15.4639 15.0555 2.84211 -0.0133657 0.0145093 0.0218658
69 2 -0.527033 1.53092 3.60017 3.90617 -0.00750906 -0.000112653 -0.00961272
70 2 -0.5484 4.05836 2.36179 3.53715 0.00710845 0.00758786 0.00743734
71 2 -0.723456 4.13014 3.7566 2.00902 -0.00381707 0.0174801 0.00315513
72 2 -0.607213 2.59735 5.47717 5.78078 0.00612857 -0.0246179 0.0108555
73 2 -0.72014 14.4869 4.52202 6.03034 0.0156216 -0.000623055 0.00455109
74 2 -0.669561 15.3023 6.51713 4.28514 -0.00313116 0.0190081 0.0115739
75 2 -0.695235 4.37243 5.12883 7.33555 -0.0129693 -0.00943745 0.00707779
76 2 -0.656577 4.75694 7.01228 5.71843 0.00389688 -0.0163905 -0.0013036
77 2 -0.625074 2.31843 7.18738 7.75649 -0.00356521 -0.0087258 -0.0152868
78 2 -0.512121 5.07446 1.91403 6.04034 0.0110046 -0.0117848 -0.000802768
79 2 -0.565013 3.47245 14.7729 5.22982 -0.00772796 -0.015269 0.0100441
80 2 -0.499261 6.13165 14.5134 4.58991 -0.00193266 -0.00135857 0.00590699
81 2 -0.590817 6.64003 4.06924 7.77384 -0.0194204 0.00105777 0.00359598
82 2 -0.582366 7.35176 3.36234 5.5702 0.00561274 -0.0151066 0.0016849
83 2 -0.74337 7.417 1.6881 7.79451 0.00270279 0.0200609 -0.00425221
84 2 -0.692594 5.90753 5.72615 2.00756 0.0103698 0.00217762 0.00560552
85 2 -0.892077 4.14631 6.07631 14.9455 0.00713309 -0.00902431 -0.00215678
86 2 -0.870868 5.63761 4.1881 14.6658 0.00325666 -0.00733286 -0.0198057
87 2 -0.684801 6.17647 7.8307 3.61983 -0.000565548 0.00525681 0.0029688
88 2 -0.584743 7.85977 5.80675 4.42009 -0.00351674 0.00631286 0.0126124
89 2 -0.548308 7.94352 7.37713 1.69099 0.0045387 -0.000750646 0.0172549
90 2 -0.722114 2.4095 2.35468 9.37905 0.00597613 0.00920668 -0.0100461
91 2 -0.544789 2.71696 15.1671 7.60266 0.000224584 -0.00774829 -0.0312054
92 2 -0.679987 15.0337 2.94032 8.17546 -0.0249055 -0.00141723 -0.0193328
93 2 -0.646426 14.9197 15.3795 9.85562 0.0011703 0.000584503 0.00596678
94 2 -0.884125 2.13073 4.08752 11.3777 -0.0192654 0.0108388 0.0125699
95 2 -0.748957 4.27091 2.54212 11.3355 0.00538255 -0.00420789 -0.00988924
96 2 -0.656139 4.11492 3.86786 9.48025 -0.00444535 -0.00172443 -0.00698155
97 2 -0.894245 2.4425 6.1685 13.2811 5.55854e-05 -0.0118699 0.00500597
98 2 -0.853875 15.2148 4.4413 13.3412 0.0131629 -0.00289052 -0.0101338
99 2 -0.812889 15.0478 6.14752 11.7507 -0.0195906 0.0234043 -0.0310639
100 2 -0.75726 2.72474 7.99706 14.7763 -0.00761575 -0.00799216 0.00500119
101 2 -0.798439 4.46611 7.99306 13.0691 0.000162733 0.00511326 -0.00611519
102 2 -0.790919 6.02629 2.00974 12.9282 -0.0140243 0.00471488 -0.00789229
103 2 -0.688965 4.00723 15.0308 12.9156 0.0132508 -0.0051148 -0.0105441
104 2 -0.873379 6.00885 14.833 11.559 0.0069181 -0.00100324 -0.0246545
105 2 -0.652181 7.17836 2.41276 15.013 -0.0215958 -0.0123876 -0.00679885
106 2 -0.816211 7.7947 3.79809 13.1541 0.00241658 -0.0125741 0.0113393
107 2 -0.749606 5.73582 5.78873 9.71357 0.00781441 -1.00936e-05 0.00696294
108 2 -0.802794 5.67521 7.74441 11.0726 -0.0120114 -0.00847715 -0.00680483
109 2 -0.719459 7.52282 5.70296 11.775 -0.00449956 0.00532069 0.00928888
110 2 -0.818859 7.64843 7.05306 9.43506 -0.0024265 -0.00526368 0.00309123
111 2 -0.703571 2.34312 9.18568 2.50947 -0.0167445 -0.000143075 0.00921931
112 2 -0.677141 15.0681 7.24869 2.00887 0.0138222 0.0119439 0.00993941
113 2 -0.62378 15.3371 9.37948 14.7414 0.0114858 -0.00664128 5.05213e-05
114 2 -0.72805 2.12533 10.8888 3.89281 0.00519191 -0.00573357 -0.0100514
115 2 -0.778481 4.10833 9.01899 4.14208 0.0160608 0.0040344 -0.0109505
116 2 -0.882915 4.37997 10.9297 2.28724 -0.0146538 -0.012595 0.0187894
117 2 -0.768537 2.30299 12.553 5.78445 -0.00650323 -0.0220473 0.00388561
118 2 -0.672559 14.6385 10.6465 5.48043 0.00826982 -0.014019 -0.00801937
119 2 -0.833481 15.0348 12.784 4.05522 -0.00588498 0.00703125 0.00549552
120 2 -0.588195 4.19482 13.2984 7.32573 0.00336265 0.00338963 0.00871609
121 2 -0.690833 5.92343 9.41735 5.73792 0.000257237 0.0205564 -0.00347752
122 2 -0.645218 5.7177 11.0815 7.91828 -0.000997847 0.0226423 -0.0104441
123 2 -0.67996 7.46879 11.4566 6.15965 -0.00377828 -0.0287956 -0.0130954
124 2 -0.669842 7.4287 8.84405 7.66086 0.0104149 -0.00173511 0.00378651
125 2 -0.766553 5.57317 13.0345 2.50536 0.0129111 0.0147188 0.00170856
126 2 -0.719864 4.23397 12.873 15.2079 0.00457293 -0.0117105 0.00517845
127 2 -0.839757 6.26556 11.1596 15.1571 -0.00962786 -0.0113264 -0.00276999
128 2 -0.600567 7.39491 15.2709 2.43056 0.00324528 0.016057 -0.00898945
129 2 -0.585336 8.00887 13.2513 4.15633 0.00441667 0.0024616 -0.0145445
130 2 -0.563907 1.80255 9.48968 10.0273 0.000859735 0.00501774 -0.0240989
131 2 -0.630981 14.7206 7.90148 9.39154 0.000154324 0.00866834 -0.00447324
132 2 -0.559389 14.9363 9.81108 7.55383 0.00911958 -0.0124106 -0.0349875
133 2 -0.754911 1.97599 11.7762 11.3273 -0.00857796 0.00597375 0.0162969
134 2 -0.749296 3.79984 9.61845 11.393 0.00605186 0.0184527 -0.00520989
135 2 -0.65119 3.78269 11.0589 9.57605 0.0184014 -0.00217373 -0.00309966
136 2 -0.427481 2.49389 13.2856 13.1018 0.00201413 -0.00342832 -0.0140466
137 2 -0.795042 15.0359 11.405 13.4197 -0.00339231 -0.011206 0.0163637
138 2 -0.639526 14.977 13.7436 11.2406 0.0169048 -0.00812281 0.00325972
139 2 -0.759978 6.28675 9.54455 12.8337 -0.00954553 0.0121462 -0.00993624
140 2 -0.755737 8.35345 9.77188 14.8107 -0.00529696 0.0097193 -0.00142217
141 2 -0.810164 7.83864 11.7036 13.3993 0.0135139 -0.00531208 0.0100792
142 2 -0.856348 6.09976 12.928 9.61437 -0.0188291 0.00730183 0.00118041
143 2 -0.802061 7.85515 14.805 9.89256 0.00728117 0.00273761 0.012503
144 2 -0.764256 8.03857 13.2636 11.6242 -0.00546304 -0.00882024 -0.00573843
145 2 -0.683785 9.16579 2.90727 1.94231 0.00826998 -0.0137754 0.00517301
146 2 -0.811295 9.29849 14.9409 15.6136 0.016563 -0.000894553 0.00724483
147 2 -0.714918 9.72818 3.87469 4.20621 0.00772818 0.00444883 0.00188581
148 2 -0.742591 11.5351 2.11765 3.83142 -0.00387843 0.0141088 -0.00559578
149 2 -0.680984 11.6049 3.90142 1.96793 -0.000596839 0.013136 -0.00205827
150 2 -0.638242 9.38367 5.62553 6.26474 -0.00404909 -0.0163292 -0.000703191
151 2 -0.702415 11.5528 6.41906 8.17234 -0.0142125 0.000850789 0.0216675
152 2 -0.576545 11.1543 7.06764 5.61169 -0.0121494 0.00047125 -0.017711
153 2 -0.77914 9.42521 7.48929 7.95151 -0.00345248 0.022486 0.0105487
154 2 -0.76156 12.6612 2.36931 6.4503 -0.00708964 -0.00653836 0.0167474
155 2 -0.664071 11.0649 15.3235 5.70001 0.00302074 -0.00246347 0.0090596
156 2 -0.706437 13.4148 15.394 4.79104 -0.0170487 -0.000909978 -0.00320585
157 2 -0.717777 13.4461 4.67657 8.18801 0.00817422 0.00387184 0.0204601
158 2 -0.74807 13.2453 5.59368 2.70431 -0.00914819 0.0153692 0.00590189
159 2 -0.69099 11.851 5.81929 14.7408 0.000324197 0.0141031 0.0106605
160 2 -0.765537 13.4991 3.70864 15.0348 -0.00703691 -0.00239798 -0.00773777
161 2 -0.722827 13.0224 7.60922 4.28759 0.00259902 -0.00246766 -0.00720462
162 2 -0.718311 9.52399 2.22321 9.31909 -0.00533764 0.0105987 0.00741806
163 2 -0.649831 9.75594 14.9124 8.08898 0.00411819 -0.00590678 -0.00559669
164 2 -0.637972 9.38779 4.66871 11.1162 0.0216958 -0.00789867 -0.00638149
165 2 -0.71856 11.3727 2.72369 11.1326 -0.00331374 0.0132877 -0.015094
166 2 -0.775917 11.2012 4.32029 9.3233 0.00433778 -0.0150862 -0.0178816
167 2 -0.69352 9.69629 6.00233 13.2433 -0.00615503 0.00118678 -0.0184945
168 2 -0.783293 10.2126 7.78851 15.3402 0.00220407 -0.0104554 0.00990571
169 2 -0.637738 11.3294 7.36047 12.8756 -0.0124008 -0.00555505 0.0125537
170 2 -0.73406 13.5625 2.21725 12.964 -0.00264182 -0.00551362 0.0169241
171 2 -0.620695 11.3011 15.1845 13.6619 0.026316 -0.0121014 0.00587744
172 2 -0.765508 12.5857 15.196 11.1748 -0.0267814 0.00314743 0.00383224
173 2 -0.806467 13.0744 6.27116 10.0749 -0.0013992 -0.0193826 -0.0150663
174 2 -0.644798 13.3183 7.9928 11.6115 0.00192316 0.00395938 -0.00591415
175 2 -0.757862 9.72538 9.83261 2.29398 0.00640767 -0.0137759 -0.00331705
176 2 -0.680616 9.85231 11.5745 4.55146 -0.00641177 0.00200857 -0.0026624
177 2 -0.756342 11.1822 9.61238 4.70466 0.00577276 -0.00902561 -0.013238
178 2 -0.680311 11.6951 11.4171 2.46669 -0.00171422 0.0060425 -0.00727227
179 2 -0.681096 9.36304 13.066 6.39816 -0.0199153 -0.00335563 0.00238748
180 2 -0.746253 11.485 13.3615 7.88492 -0.00501118 -0.00608532 0.0085365
181 2 -0.65769 12.7239 8.9044 6.29575 -0.00462135 0.00135487 -0.00987085
182 2 -0.688495 13.0609 11.5206 7.63003 -0.0136043 0.0134465 -0.00129112
183 2 -0.743344 13.4916 13.4943 2.43574 0.0104711 -0.0199869 -0.00690166
184 2 -0.79546 11.3412 13.4423 15.1528 -0.00809337 0.0168953 -0.00253419
185 2 -0.682831 13.3185 11.6931 15.373 -0.000313345 0.0157429 0.00531316
186 2 -0.843247 8.6033 9.50778 9.70686 -0.0031517 0.00288239 -0.00387628
187 2 -0.846575 9.60824 11.4994 11.4285 0.0120122 0.0109778 0.0157663
188 2 -0.600548 10.9636 9.61584 10.6306 0.00236543 -0.000460253 0.0010134
189 2 -0.603715 10.9414 11.0608 9.06345 -0.0179609 -0.013337 0.000814718
190 2 -0.863898 9.85441 13.1814 13.3788 -0.00176589 -0.00356526 0.00773876
191 2 -0.57742 12.0076 9.634 13.1525 0.00451646 0.0222094 0.0116241
192 2 -0.673174 13.2845 13.1611 9.43826 0.0165385 0.015458 -0.00281169
193 2 -0.537884 13.472 10.7342 9.98681 -0.00953731 0.0209664 -0.0131038
194 2 -0.547897 1.99018 8.02575 5.60485 0.0111825 -0.0137658 -0.00960981
195 2 -0.625261 8.18377 12.3253 2.18412 -0.000759311 -0.0141012 -0.00334031
196 2 -0.63764 9.31988 1.41674 12.224 -0.00140458 -0.0151052 -0.00753704
197 2 -0.649719 12.6656 15.7295 8.83493 -0.0021831 -0.0183633 0.0153617
198 2 -0.684231 11.1226 13.8135 3.30465 0.00717497 0.0123326 0.0112124
199 2 -0.477905 5.26558 4.52861 4.90507 0.00142353 -0.00856022 -0.00147354
200 2 -0.625438 14.7014 14.8203 7.26022 0.0116501 0.0117545 0.00819062
201 2 -0.574322 3.71209 13.6664 9.48168 -0.00505957 0.00935787 0.00583232
202 2 -0.64939 15.5376 11.459 1.3497 0.0280078 0.00955076 -0.00410259
203 2 -0.631212 4.46851 8.062 8.22985 -0.0142165 5.05589e-05 -0.0091531
204 2 -0.633285 12.5041 12.0523 12.4595 -0.0131704 -0.0138577 -0.0112342
205 3 0.436233 12.8281 10.467 9.34536 -0.0230452 0.0468088 0.024256
206 3 0.35994 13.7403 11.5313 10.8073 -0.0199843 -0.0730311 -0.0318229
207 3 0.371695 15.3523 8.15138 5.96406 0.0244787 0.0274523 -0.0222484
208 3 0.462787 1.86651 7.65079 4.6412 0.0745111 -0.0101894 -0.0119132
209 3 0.354306 9.22472 12.4467 1.72243 -0.0551425 0.0214092 -0.0377886
210 3 0.409407 7.99843 11.3344 2.19631 0.0568824 -0.0402531 0.0140553
211 3 0.389427 9.57647 14.921 12.0933 -0.0558367 0.045069 -0.0332597
212 3 0.433593 8.48738 1.5773 11.8465 0.0103132 -0.0406967 0.030157
213 3 0.444888 12.026 1.5144 8.29022 0.0792118 0.0292719 -0.0433355
214 3 0.417844 12.3656 1.78043 9.80119 0.0427911 -0.0249899 0.00572136
215 3 0.423635 11.5465 13.9799 4.12784 -0.0899773 0.00831119 0.0417972
216 3 0.43501 10.3648 14.2199 2.79246 0.00144262 0.00243453 0.0133692
217 3 0.446783 4.87671 4.72648 5.86917 -0.0507225 0.0105246 -0.0176974
218 3 0.380759 6.18519 5.01828 5.18217 -0.0138939 0.120249 0.0411702
219 3 0.386339 13.8031 15.1353 6.6342 0.0901223 0.041679 -0.0482253
220 3 0.386132 14.0909 14.4406 8.11732 -0.0859662 0.0492192 -0.0386924
221 3 0.406503 3.02308 14.6098 8.74908 0.0114896 0.0520436 -0.0261463
222 3 0.356903 4.02802 14.0289 10.3962 0.00665844 0.0852596 -0.00297246
223 3 0.385547 12.9896 12.0521 13.2554 0.0364198 -0.028141 -0.0205212
224 3 0.47507 15.1171 12.168 1.85068 0.0418361 -0.0535474 0.0470519
225 3 0.442783 5.35428 7.92683 8.3172 -0.0296946 -0.0262165 0.0147563
226 3 0.391236 3.75429 8.25883 9.00145 0.0531655 0.03337 -0.00148827
227 3 0.380973 12.8778 10.1962 13.0948 0.0126292 -0.0781888 0.00993501
228 3 0.360897 12.3136 13.0044 12.1182 0.0724907 0.00529267 0.0447418
ITEM: TIMESTEP
74000
ITEM: NUMBER OF ATOMS
228
ITEM: BOX BOUNDS pp pp pp
1.3272414901827760e+00 1.5832758509816777e+01
1.3272414901827760e+00 1.5832758509816777e+01
1.3272414901827760e+00 1.5832758509816777e+01
ITEM: ATOMS id type q x y z vx vy vz
1 1 1.39588 1.62483 1.36388 1.40954 0.00114269 0.00164744 -0.00583502
2 1 1.35963 3.53672 3.60929 2.83123 0.00498331 -0.00431511 0.00720941
3 1 1.5109 15.8359 4.78754 4.9759 0.00450013 0.000184416 0.00387974
4 1 1.24653 2.85842 6.64451 6.64615 0.0014564 -0.0080169 -0.00853423
5 1 1.24762 4.81546 1.43099 4.91041 -0.00212496 -0.00641125 0.00533925
6 1 1.33168 6.72671 3.02072 6.76484 -0.000754229 -0.0120591 -0.00026681
7 1 1.4374 5.35616 5.21819 15.3676 -0.00276859 -0.00478664 0.000554706
8 1 1.6567 7.03819 6.56245 3.10906 0.00840365 -0.00407419 -0.00100931
9 1 1.17305 1.41746 15.763 8.74317 -0.0138235 0.0114918 0.019634
10 1 1.61554 3.14703 3.58326 10.3357 -0.0179078 0.00471099 -0.00475799
11 1 1.63307 15.8572 5.15023 12.3153 0.0116526 -0.00640072 0.0161625
12 1 1.46188 3.01931 6.78994 14.016 0.00306707 -0.00459203 0.0111034
13 1 1.47843 5.03167 1.58828 11.9983 -0.00589654 -0.0037544 -0.000335513
14 1 1.72392 6.98301 3.00296 13.8914 -0.00778433 -0.00967153 0.00860485
15 1 1.56495 5.16033 4.98501 8.69379 0.0141649 0.00966101 -0.000359714
16 1 1.38818 6.79151 6.59304 10.7879 0.00449622 -0.00112586 0.0142962
17 1 1.39616 1.47685 8.37108 1.73461 0.00623434 -0.00856128 0.0046253
18 1 1.38644 3.32691 10.2352 3.23822 0.00304079 0.00213953 0.0117059
19 1 1.29867 15.7019 11.7469 5.00253 -0.00511684 0.00363847 0.00856211
20 1 1.32109 3.08139 13.7062 6.64089 0.000978046 -0.0152227 0.00738853
21 1 1.47113 5.20633 8.14319 5.03339 0.00743456 0.00951844 0.0159186
22 1 1.36227 6.83239 10.203 6.81066 0.00331005 0.011193 -0.00137437
23 1 1.46073 5.00063 12.1619 15.7624 0.0042325 -0.00905952 0.00201459
24 1 1.43948 6.73878 14.2467 3.2643 -0.00297075 0.00688627 -0.0133065
25 1 1.39884 15.6394 8.36091 8.62628 0.00400636 -0.00315255 -0.006679
26 1 1.20825 3.14038 10.172 9.97304 -0.0045497 -0.0085935 -0.0111657
27 1 1.11522 1.67166 12.099 12.2797 -0.00216928 0.00532836 -0.00720655
28 1 1.53354 3.44654 14.0631 13.8806 0.0168251 -0.0160829 -0.0101587
29 1 1.59463 4.96653 8.64784 12.1966 0.0034726 -0.0129857 -0.00176755
30 1 1.56726 6.80806 10.2946 14.1425 0.00597593 0.00281277 -0.00364033
31 1 1.33369 5.11269 12.3401 8.43518 -0.0190868 0.00238303 -0.00643045
32 1 1.7224 6.6681 13.9977 10.4989 0.00447058 0.0144846 -0.00626364
33 1 1.51895 8.52474 1.497 1.50701 0.00720884 0.00881563 0.00691704
34 1 1.564 10.6985 3.003 3.20373 0.00595099 0.00427061 -0.00089366
35 1 1.37292 8.79354 4.56726 5.04755 0.0101015 -0.000313109 0.0049668
36 1 1.37283 9.96073 6.91592 6.93395 0.00195789 0.0156171 0.0138683
37 1 1.4157 12.259 1.54845 5.28611 0.000758266 0.0116773 -0.0053376
38 1 1.43182 14.2095 3.06737 6.92715 -0.0111356 -0.0160994 -0.00387594
39 1 1.41712 12.4088 5.08231 15.6105 -0.00745374 0.00229219 -0.00512709
40 1 1.366 13.9935 6.64965 3.30038 0.0100154 0.00467543 0.00314352
41 1 1.51152 8.59272 15.8239 8.85914 -0.0138676 0.0022246 0.00544263
42 1 1.21939 10.5839 3.32861 10.5229 0.00731701 -0.00824197 0.0209221
43 1 1.52693 8.79626 5.09502 12.6214 0.0085071 0.00104478 0.0109143
44 1 1.59333 10.4379 6.96172 14.2621 0.00505662 0.00596431 -0.000182984
45 1 1.4002 12.353 1.55946 12.25 0.0167816 0.00994045 0.00349887
46 1 1.4066 14.3468 3.16919 14.259 -0.00213803 -0.00274101 0.00351707
47 1 1.2478 12.3672 5.12131 8.59093 0.00192573 0.00603121 -0.0151581
48 1 1.58131 13.8587 6.66412 10.6144 -0.00184276 -0.0040835 -0.00294022
49 1 1.42368 8.68669 8.67224 1.73453 -0.0021802 0.000580646 0.00128836
50 1 1.17582 10.5726 10.9395 3.10117 0.00586251 -0.00635881 -0.00993785
51 1 1.33125 8.41916 12.3585 5.38258 0.00814209 0.00899585 0.00591478
52 1 1.63014 10.2932 14.257 6.90399 -0.00199141 -0.00512782 0.00652168
53 1 1.50857 11.6763 8.49229 4.88664 0.00547765 0.00769135 -0.0157927
54 1 1.55565 13.7651 9.94475 6.84423 -0.00125898 -0.00709582 -0.0123669
55 1 1.31161 12.61 12.4859 1.35334 -0.000675355 0.0088825 -0.0108224
56 1 1.26094 14.1741 14.0699 3.33733 0.0100356 0.0156688 -0.0165667
57 1 1.43875 8.25207 8.49317 8.83786 0.0038524 0.0142231 0.00878022
58 1 1.39765 10.3308 10.3509 10.4897 0.000555576 0.00244098 -0.00737371
59 1 1.27917 8.51926 12.2824 12.4367 -0.00619846 -0.0111888 -0.0080542
60 1 1.28434 10.4748 14.4066 14.1636 -0.0118128 -0.0116069 -0.0055985
61 1 1.42414 12.2691 8.77705 12.2495 -0.00844526 0.015089 -0.0038769
62 1 1.31372 15.1088 10.9828 15.0329 -0.0100039 0.010512 -0.011258
63 1 1.25254 12.0198 12.0756 8.39906 -0.0182045 0.000721666 -0.00308426
64 1 1.16214 13.7983 13.8922 10.5358 -0.00759709 0.0158665 -0.0128303
65 2 -0.611165 2.69979 2.3567 2.2392 -0.004344 -0.000880553 0.00213203
66 2 -0.746087 2.40218 14.8182 14.6871 0.0309053 -0.0101669 -0.00143117
67 2 -0.766384 15.139 2.44527 15.3301 0.00375849 0.0121486 0.012718
68 2 -0.681229 15.2472 15.1076 2.35147 -0.0126232 0.00277307 -0.000438266
69 2 -0.687987 2.19774 4.35594 3.87818 -0.00625024 -0.00693091 0.00632916
70 2 -0.611841 4.34241 2.61565 3.80205 0.0216766 -0.0197045 0.00921698
71 2 -0.660404 4.20276 4.15793 1.52099 0.0184342 0.0347293 -0.000847481
72 2 -0.784316 2.46653 5.40046 5.87574 0.0088308 -0.0165938 -0.00349302
73 2 -0.792233 15.1828 3.64142 5.94022 -0.00615021 -0.00588594 0.010368
74 2 -0.815103 15.0272 5.97211 4.25767 0.00732074 0.0100745 0.00859922
75 2 -0.608382 4.13694 5.56733 7.7711 -0.0123095 0.00744818 -0.00445207
76 2 -0.784967 4.50261 7.33492 6.02762 -0.0306961 0.0157161 -0.00338962
77 2 -0.730438 2.11135 7.30119 7.81642 -0.0132484 -0.00678843 0.000682568
78 2 -0.682688 5.49484 2.45802 6.0128 0.00711162 0.00445208 -0.00769917
79 2 -0.605233 3.79327 14.5286 5.48801 -0.00913253 0.00834154 0.0018986
80 2 -0.721801 5.56193 14.8487 3.98716 0.0164467 -0.000868895 -0.00575972
81 2 -0.734474 5.92964 4.08868 7.54083 -0.025651 0.000859481 -0.00587368
82 2 -0.706747 7.6022 3.69216 5.38914 0.00313804 0.00285277 0.00889086
83 2 -0.672097 7.4607 1.8973 7.77767 0.00710617 -0.00584255 -0.0067334
84 2 -0.797394 6.4492 5.82798 1.86792 -0.00591778 0.000838671 -0.00190908
85 2 -0.751352 4.36794 6.04228 14.499 -0.0144609 0.00533956 -0.0060177
86 2 -0.752145 6.19379 3.93622 14.7536 0.0113773 -4.84663e-05 0.000764067
87 2 -0.829549 6.05661 7.19075 4.07905 -0.0123789 -0.000977424 0.0180746
88 2 -0.670501 8.04246 5.55463 4.00011 -0.00926257 -0.00275336 0.0100928
89 2 -0.832038 7.94021 7.64088 2.63826 -0.0064425 -0.00667388 0.00864496
90 2 -0.621843 2.52687 2.97819 9.08786 0.00229077 -0.00928388 0.00179186
91 2 -0.595476 1.9858 14.883 7.40684 0.000330288 0.0068235 -0.00990139
92 2 -0.691225 14.7052 2.15189 8.08925 -0.0210616 -0.0070791 -0.00707374
93 2 -0.691031 15.0823 15.0421 9.78172 0.0186195 0.00300632 0.00367089
94 2 -0.846543 2.44482 4.52914 11.2733 0.0131598 -0.00640994 0.00647192
95 2 -0.825671 4.10323 2.59013 11.2496 -0.0163864 0.0075407 -0.0134846
96 2 -0.836054 4.19107 4.28046 9.53424 -0.00836276 -0.00443889 0.00154101
97 2 -0.845512 1.87279 6.29322 13.0634 0.00630298 0.0109162 0.00645853
98 2 -0.704023 15.4082 4.04624 13.4948 -0.00724826 -0.0024887 -0.0192878
99 2 -0.804039 14.6565 5.70836 11.5855 -0.0141007 -0.0394662 0.00144796
100 2 -0.644201 2.59654 7.2967 15.4192 -0.0114389 -0.00351897 -0.0209321
101 2 -0.659949 3.79576 8.00932 13.1541 0.0203772 -0.00425698 0.0111084
102 2 -0.820458 6.14219 2.61724 12.675 0.00355031 0.00277873 0.00963487
103 2 -0.791438 4.25444 15.2478 13.0859 0.00803606 0.00915272 -0.00126331
104 2 -0.939066 6.04717 15.0365 11.332 -0.013664 0.0208136 0.00674531
105 2 -0.832947 7.46919 2.0686 14.9531 -0.00421303 -0.0090267 0.00300544
106 2 -0.863054 8.10454 3.89644 13.3884 0.00436974 -0.026241 -0.00414602
107 2 -0.761209 6.1606 5.57954 9.79433 -0.0274245 0.00961143 -0.00556566
108 2 -0.74298 5.46236 7.36778 11.7343 -0.0122691 -0.0164768 -0.00575534
109 2 -0.775082 8.03096 5.77869 11.3685 -0.00574224 -0.0157585 -0.0136964
110 2 -0.709257 7.00057 7.76978 9.78204 0.0186949 0.00805216 0.000301595
111 2 -0.688688 2.78132 9.00132 2.204 0.00136462 0.00609304 1.60153e-05
112 2 -0.76793 14.9323 7.52663 2.48645 0.00899994 -0.00804013 -0.0109647
113 2 -0.770132 15.2129 9.5405 15.4348 -0.0294691 0.00831986 0.00741708
114 2 -0.782211 2.15326 10.9972 3.87228 0.0311548 0.00242036 0.00398733
115 2 -0.73521 4.26664 9.34205 4.07956 0.0122041 0.035762 -0.0033701
116 2 -0.662208 4.24389 10.873 2.05988 -0.00783065 0.000764404 -0.00741659
117 2 -0.700228 1.89211 12.8115 5.88391 -0.00809965 0.00679145 -0.00518066
118 2 -0.817861 14.5354 10.8453 5.99622 -0.00499607 0.00730731 -0.0166666
119 2 -0.654745 14.9968 12.9296 4.08181 0.011667 0.00388112 0.000136098
120 2 -0.747527 3.76791 12.8336 7.65333 -0.0117866 -0.00416766 0.00573777
121 2 -0.732168 6.19262 9.02803 5.79547 -0.000165718 0.00280784 0.0118167
122 2 -0.663835 5.68562 11.2516 7.57683 0.000918713 -0.0215544 -0.0127666
123 2 -0.734471 7.51954 11.0244 5.75648 0.0301265 -0.0198247 -0.00833715
124 2 -0.701596 7.60504 9.74108 8.18134 -0.0104609 0.012183 -0.00544829
125 2 -0.676754 6.0672 13.1916 1.84613 0.00160343 -0.00602196 -0.00039059
126 2 -0.785926 4.13953 13.1242 14.9339 0.0089154 -0.00830538 0.0210328
127 2 -0.827833 5.90596 11.2531 14.8151 -0.00531098 0.00496326 0.0193574
128 2 -0.816118 7.79157 15.1367 2.64654 -0.000100848 0.00485145 0.0147447
129 2 -0.68146 7.36552 13.4315 4.42186 0.012038 0.013273 -0.0117692
130 2 -0.70586 1.7551 9.5373 9.37612 0.0106515 -0.00266032 -0.00433943
131 2 -0.710233 14.5749 7.92496 9.96795 -0.00463625 -0.0154891 0.0104204
132 2 -0.813989 14.7463 8.89373 7.5026 0.00214777 -0.0018858 0.0109527
133 2 -0.587074 1.92578 11.0449 11.012 0.00214781 0.0106145 -0.0229438
134 2 -0.691243 4.23182 9.40226 11.151 0.0103022 0.00213088 0.00958473
135 2 -0.573078 4.06436 11.0069 8.95456 -0.00127864 0.00311733 -0.0135114
136 2 -0.769009 2.79103 13.0878 12.8406 -0.00719672 -0.00802288 -0.00859215
137 2 -0.643994 15.7868 11.03 13.5863 0.00218023 -0.0137459 0.0134092
138 2 -0.57947 14.7131 13.0939 11.6507 -0.00779249 0.00227317 -0.0109784
139 2 -0.757121 6.10429 9.61284 12.7996 -0.00475917 -0.00555836 -0.00134584
140 2 -0.719619 7.48645 9.18715 14.9541 0.00344801 0.00660633 -0.00909146
141 2 -0.736727 7.88622 11.237 13.5335 -0.00125188 0.00329339 0.00820924
142 2 -0.786947 6.20523 12.8671 9.48528 -0.0109989 0.00188137 -0.000759701
143 2 -0.810056 7.53413 14.8298 9.69065 -0.0246719 0.00542057 0.00571738
144 2 -0.741613 7.65138 13.1628 11.3111 -0.00690588 0.00408903 0.00711743
145 2 -0.845951 9.55284 2.39302 2.37148 0.00522719 -0.005217 0.0198288
146 2 -0.746776 9.31453 15.3946 14.8021 0.0218834 -0.00185187 -0.0199766
147 2 -0.726631 10.0962 4.00556 4.23953 0.0117358 0.00237527 0.0135076
148 2 -0.908265 11.5602 2.40532 4.24893 -0.00565041 -0.0113795 -0.000594872
149 2 -0.704053 11.5874 3.99648 2.23014 0.00765784 -0.01017 -0.00356928
150 2 -0.697205 9.28016 5.68815 6.2386 -0.00108186 -0.0179923 0.0101784
151 2 -0.647078 11.2052 6.02189 7.87666 -0.00804241 0.0204231 -0.00456473
152 2 -0.764467 10.5715 8.0277 5.7753 0.00114873 -0.00360819 0.00936926
153 2 -0.800452 8.91093 7.65829 7.7732 -0.0159813 -0.00449907 -0.00366607
154 2 -0.668765 13.688 1.8191 6.02247 0.0148407 -0.00639487 -0.00129499
155 2 -0.870464 11.1438 15.2956 6.1589 0.0101927 -0.00237599 -0.00121828
156 2 -0.600841 13.2566 15.1609 4.3684 0.0035636 -0.0171902 0.0139632
157 2 -0.720382 13.0485 3.89014 7.75023 -0.00484744 0.00197044 -0.000342534
158 2 -0.667475 13.1219 6.14789 1.98624 0.0185857 -0.0055815 -0.00980142
159 2 -0.727015 11.6481 6.01948 14.7187 0.00215588 -0.00474371 0.0162291
160 2 -0.659084 13.5903 4.60936 14.6935 0.00554776 0.0188774 0.00997804
161 2 -0.690572 12.7751 7.78867 4.0746 -0.00460999 -0.00611476 -0.00628503
162 2 -0.734031 9.2735 2.47332 9.62803 -0.00109404 -0.00213239 0.00869949
163 2 -0.818548 9.3614 15.1229 7.77018 0.00735173 0.00457773 -0.00363425
164 2 -0.647356 9.91268 4.14936 11.7034 -0.00402775 -0.0204615 0.00258354
165 2 -0.660729 11.9403 2.51924 10.9308 0.0121396 0.0117949 -0.00148399
166 2 -0.553205 11.3113 4.69026 9.85151 -0.0105132 0.00978127 -0.0168073
167 2 -0.856753 9.59242 5.88755 13.5656 -0.0189334 0.00388635 -0.0135038
168 2 -0.752725 9.4691 7.724 15.2737 -0.0114401 -0.0164521 0.0122004
169 2 -0.668321 11.2915 7.84277 13.3068 0.00506373 0.00043693 0.0164804
170 2 -0.730625 13.3846 2.20735 13.2832 0.00362748 0.0289938 0.0177208
171 2 -0.698035 11.2251 15.3338 13.0978 0.0105891 0.00390005 0.00567211
172 2 -0.684313 12.9886 14.7828 11.634 0.00966106 -0.0144732 -0.00225697
173 2 -0.762223 13.6064 5.65879 9.53163 0.00947854 0.00251039 0.00502493
174 2 -0.768609 12.8711 7.61741 11.3343 0.00476668 0.0115767 0.00464177
175 2 -0.713933 9.67419 9.85459 2.16157 0.00293852 -0.0020179 -0.0153276
176 2 -0.55517 9.68123 12.1123 4.50449 -0.00189583 -0.0152038 -0.00984967
177 2 -0.637056 11.3488 9.69234 3.93404 -0.000900852 0.0176606 0.00157627
178 2 -0.667108 11.8733 11.4268 2.28524 -0.0119155 -0.00747172 0.0166212
179 2 -0.756696 9.3558 13.1136 6.38552 -0.0171974 0.00071482 -0.00961038
180 2 -0.71349 11.0632 13.3444 7.88501 -0.0147554 -0.0037382 -0.0158358
181 2 -0.758175 12.6472 9.17795 6.04688 -0.0113319 -0.0109275 0.0049483
182 2 -0.746659 13.2406 11.0365 7.90493 -0.00105976 -0.00232374 -0.0125653
183 2 -0.721452 12.9648 13.4911 2.45306 -0.00804744 -0.0100265 -0.00887543
184 2 -0.683889 11.5689 13.9375 15.065 -0.00549715 0.00569397 -0.0136148
185 2 -0.765199 13.9448 12.1065 15.1407 0.00302378 0.00171783 0.00617838
186 2 -0.631827 9.50805 9.11262 9.67964 -0.00648814 0.000460892 0.00519919
187 2 -0.612633 9.22546 11.2659 11.2464 0.00975638 0.00720481 0.00469866
188 2 -0.807421 11.1307 9.51313 11.4389 0.00415133 -0.00627363 -0.0102208
189 2 -0.649263 10.9042 11.1223 9.14728 0.00796754 0.00907429 -0.00120234
190 2 -0.651958 9.6884 13.0096 13.3788 0.00386942 -0.00550746 -0.00277172
191 2 -0.629424 13.1467 9.46551 13.4453 0.0150314 0.00315866 0.00312671
192 2 -0.593319 12.8465 12.7635 9.72755 0.0246815 -0.000396721 -0.0258647
193 2 -0.730416 13.7776 9.99746 11.1161 0.0136625 0.00697426 0.000651792
194 2 -0.671334 2.10564 8.12759 5.10442 0.0108665 0.0143599 -0.00891055
195 2 -0.661644 8.95614 12.3077 2.07052 -0.00102278 -0.00735517 -0.0237925
196 2 -0.5892 8.99622 1.79003 12.1302 -0.00286322 -0.007121 -0.0114783
197 2 -0.60199 12.5941 14.91 8.90686 -0.00755145 -0.0166074 0.0149022
198 2 -0.559129 10.0145 14.4818 3.04049 -0.0185522 0.0030498 0.00486416
199 2 -0.613848 4.40511 5.29231 4.19302 -0.010611 0.00108908 0.0248881
200 2 -0.727477 14.004 13.3761 7.39849 -0.010176 0.00888956 0.0070417
201 2 -0.603502 3.19755 14.7418 9.51417 -0.00105777 -0.00707201 0.00800099
202 2 -0.594824 1.71411 12.0956 15.7617 -0.0216411 -0.00664549 0.00829853
203 2 -0.531717 4.12411 8.25327 8.81751 0.0069256 -0.00378252 0.00148159
204 2 -0.623587 11.9202 12.0636 12.9254 0.00284673 0.0124344 0.000247723
205 3 0.501578 14.524 10.3396 10.8902 -0.0181391 -0.0376435 -0.022685
206 3 0.405307 13.2927 9.66541 10.311 -0.00684576 0.00707748 -0.00746015
207 3 0.359648 1.36761 8.74283 4.68763 0.010767 -0.0478027 -0.0652351
208 3 0.358978 2.64296 7.94401 4.36806 -0.00589995 -0.0115661 0.0739884
209 3 0.424269 8.81309 11.5741 16.1451 -0.0775407 -0.0497233 0.0352781
210 3 0.392907 8.51353 13.2034 1.78105 -0.0044816 -0.0879211 0.0609994
211 3 0.414812 8.74566 2.64861 11.7697 -0.0274259 0.0323161 0.102237
212 3 0.403979 8.22869 1.38997 12.462 0.0607601 -0.0381085 0.0486069
213 3 0.428965 12.9234 14.4873 8.03646 -0.00296119 -0.00647468 -0.014573
214 3 0.430661 13.2542 15.5823 9.00072 -0.0969024 0.0308771 0.0209926
215 3 0.381963 10.8118 14.4761 2.38512 -0.0204833 0.0452435 -0.0418685
216 3 0.350924 10.2581 15.2204 3.69751 -0.00715937 -0.0481351 -0.0348934
217 3 0.417965 3.84464 5.88194 4.55891 -0.0465603 -0.00927158 0.00499332
218 3 0.420524 4.80321 4.82151 5.17074 0.0299707 -0.0227713 -0.0137657
219 3 0.439087 14.8299 13.8466 7.34689 -0.0221856 0.0482183 -0.0270876
220 3 0.446645 14.1079 12.6533 6.85232 0.0611863 -0.0665829 -0.0179966
221 3 0.270465 4.0677 15.6657 9.82765 0.0351209 0.00111721 -0.0285384
222 3 0.352973 2.83372 14.5158 10.4023 -0.0361673 -0.0279091 -0.0086965
223 3 0.434745 12.5372 11.4502 12.5908 -0.0528091 -0.0358798 -0.0730419
224 3 0.453401 1.43946 12.8526 15.5326 -0.0646048 -0.00503471 -0.0438922
225 3 0.354491 4.36812 8.80234 7.90718 0.0214863 -0.00502329 -0.0565707
226 3 0.370814 4.65165 7.41885 8.46915 -0.0407139 0.000877214 0.0633823
227 3 0.412616 14.2162 9.52289 13.3821 0.00656111 0.00166474 0.0227403
228 3 0.435434 11.705 12.9864 12.7549 0.0773964 -0.0370801 -0.0401701
ITEM: TIMESTEP
76000
ITEM: NUMBER OF ATOMS
228
ITEM: BOX BOUNDS pp pp pp
1.3005467509644379e+00 1.5859453249035063e+01
1.3005467509644379e+00 1.5859453249035063e+01
1.3005467509644379e+00 1.5859453249035063e+01
ITEM: ATOMS id type q x y z vx vy vz
1 1 1.45165 15.804 1.63271 1.38543 0.00238361 0.00116432 0.0101866
2 1 1.7296 3.24255 3.10527 3.46581 0.00766552 0.00457239 -0.00439949
3 1 1.39361 1.29523 4.84437 5.23407 -0.00144489 0.0187987 0.00260465
4 1 1.02678 3.3652 6.73558 7.01917 0.0105447 0.00105678 -0.00779986
5 1 1.5746 5.11184 1.33314 4.88797 0.0044284 -0.00693951 -0.000280173
6 1 1.28698 6.89679 2.93513 6.88201 -0.00604017 -0.00340561 -0.000710682
7 1 1.50892 4.79684 4.86649 1.39293 0.00202811 0.000628679 -0.00156534
8 1 1.22986 6.71036 6.52609 3.38723 0.00218096 0.0092848 -0.000508885
9 1 1.42096 1.56414 15.7533 8.56104 -0.00239832 0.013981 -0.00616002
10 1 1.53091 3.26268 2.75713 10.6735 -0.00336636 -0.00351032 0.013868
11 1 1.35224 1.47672 4.60307 12.2022 0.00258684 0.00470389 0.00569525
12 1 1.34042 3.21432 6.79095 14.2459 0.0191125 -0.0124728 -0.00246336
13 1 1.38617 5.32972 1.3226 12.4728 -0.00585423 -0.000793397 0.010524
14 1 1.55394 6.73313 3.09226 14.3887 0.00217091 -0.0115871 0.00544702
15 1 1.26398 4.92355 4.506 8.61231 -0.000161307 0.00460701 0.00607507
16 1 1.28314 6.7344 6.72493 10.3072 0.0111888 0.00740469 -0.00380738
17 1 1.38049 1.56158 8.32276 1.65954 -0.00933339 2.51093e-05 -0.00664979
18 1 1.66879 3.25372 10.4445 3.11386 -0.0170541 0.00921538 0.00104374
19 1 1.33484 15.7517 12.1106 4.78572 -0.00929108 0.0109889 -0.0176017
20 1 1.21199 3.18929 14.0328 6.42214 0.0049903 0.0107852 0.00420891
21 1 1.42053 5.08591 8.92517 4.95015 -0.00455678 0.0033662 0.00965176
22 1 1.52968 7.18824 10.3061 6.61799 -0.00611018 -0.0082339 -0.00348741
23 1 1.31572 5.00621 12.1402 15.8478 0.0049717 0.00205755 0.00321575
24 1 1.45268 6.68947 13.9079 3.22437 0.00772726 -0.00872948 0.000979544
25 1 1.24042 15.7406 8.43516 8.55511 0.0170806 0.00629144 -0.00591975
26 1 1.23785 2.86551 10.3934 9.90635 -0.0076678 0.0162889 0.00387069
27 1 1.39861 1.42149 12.2922 12.1863 0.00177507 0.00696776 -0.008336
28 1 1.36546 3.38396 14.0435 14.1001 0.0135801 -0.0072229 0.00759267
29 1 1.24197 5.10572 8.71226 12.0358 -0.00346126 0.004471 -0.00539767
30 1 1.4471 6.68539 10.3884 13.9428 0.00505145 -0.0038854 -0.00133848
31 1 1.16576 5.11811 12.2142 8.24056 -0.00689217 0.00772354 0.00858992
32 1 1.41067 6.86349 14.3321 10.2398 0.00850154 0.0111846 -0.00737343
33 1 1.19151 8.56955 1.30987 1.55431 -0.0102573 0.00605747 -0.00244684
34 1 1.333 10.66 3.32028 2.93213 0.0036075 0.00672673 -0.00660508
35 1 1.15624 8.92551 4.847 5.15857 -0.00750824 0.0170434 -0.00387071
36 1 1.34055 10.3247 6.95778 7.04023 0.00563893 0.00195961 0.00370483
37 1 1.46763 12.5546 15.6872 4.98462 0.00781139 -0.0103274 -0.00534852
38 1 1.62416 14.092 3.09585 6.95812 0.00728815 0.0055546 -0.00272747
39 1 1.48375 12.2451 5.46036 1.42501 0.0104493 -0.00715507 -0.0101919
40 1 1.37905 14.1246 6.86696 3.48833 0.00852797 -0.005719 -0.000439688
41 1 1.36252 8.94696 1.58546 8.67514 0.0126097 -0.00131868 0.000280522
42 1 1.32231 10.2615 3.48079 10.8632 -0.00445182 -0.0019321 0.00316611
43 1 1.21979 8.32099 5.25776 12.8815 -0.0235232 0.00554151 -0.0125689
44 1 1.57918 10.2375 7.14962 14.5066 0.00630246 0.00688423 0.00163745
45 1 1.19553 12.2373 1.39383 12.446 -0.00615497 -0.00762147 0.0102922
46 1 1.46742 14.0293 3.41993 14.245 0.0115756 0.00325327 -0.00457185
47 1 1.28996 12.1771 4.80328 8.81848 0.00214495 -0.0181258 0.0033723
48 1 1.28531 14.0601 6.59416 10.5518 0.0111903 -0.00399954 -0.00973866
49 1 1.30519 8.35855 8.74063 1.76029 -0.00756776 0.00783666 0.00784187
50 1 1.58326 10.5151 10.5244 3.04244 -0.00554589 -0.00762286 -0.00189279
51 1 1.25432 8.89897 12.2822 4.88388 -0.00665181 0.0117718 0.00930013
52 1 1.30184 10.4804 14.2888 6.80821 0.000346744 0.00268279 -0.000896798
53 1 1.52783 12.0623 8.63468 4.99822 0.00839273 -0.00972676 -0.00169505
54 1 1.37932 14.0292 10.3277 6.66056 0.00620567 -0.00298428 0.0139669
55 1 1.55951 12.2885 12.2797 15.6519 0.0194399 -0.0089241 -0.00459137
56 1 1.5213 13.9669 14.0358 2.81554 -0.000976146 0.00566039 -0.00217772
57 1 1.4561 8.54592 8.85955 8.89972 -0.000978154 -0.00268397 0.0106786
58 1 1.39507 10.6057 10.3329 10.4919 -0.00266379 -0.0011541 0.0108322
59 1 1.31458 8.50108 12.1827 12.1874 -0.00429277 0.00491407 -0.0003198
60 1 1.32644 10.1932 14.0721 14.049 -0.00600891 0.00184005 -0.00247907
61 1 1.51849 12.0218 8.32963 12.1111 -0.00907319 0.00604945 -0.00372692
62 1 1.26711 14.826 10.7652 14.4056 0.00241393 -0.00825189 0.0074754
63 1 1.29141 12.4467 12.2224 8.56988 0.00264654 -0.00176484 -0.00038917
64 1 1.44564 14.1605 14.2049 10.5194 -0.00846955 0.00347616 0.000178438
65 2 -0.723826 2.29584 2.48711 2.37418 0.00476636 0.00449048 0.0158001
66 2 -0.603236 2.29516 15.0503 14.9316 -0.000593899 0.002149 -0.00262494
67 2 -0.783936 15.1943 2.63625 15.0806 0.0030074 0.000735429 -0.00786884
68 2 -0.778891 14.7655 15.3842 2.1703 0.00266837 -0.0068748 -0.00391695
69 2 -0.809772 2.2474 3.9335 4.28214 -0.00512412 -0.00481645 -0.0010858
70 2 -0.949826 4.34577 2.22611 3.93205 -0.0140118 -0.0102846 -0.00591213
71 2 -0.772895 3.8046 4.11552 2.55173 -4.2257e-05 0.000833971 0.0144375
72 2 -0.598792 2.53874 5.95558 5.83917 -0.00400412 -0.0169822 0.00919829
73 2 -0.799894 14.8103 4.23942 6.14201 -0.00280348 0.00516619 0.00151346
74 2 -0.691165 14.9877 5.68359 4.13677 0.0101322 -0.00729256 -0.0160995
75 2 -0.61872 3.69454 5.50602 8.04541 0.00200463 -0.0114078 -0.00147371
76 2 -0.612756 4.36966 7.55416 5.47456 0.0268505 0.00349856 0.0141991
77 2 -0.503769 1.86971 6.93717 7.61519 0.00842726 0.0017597 -0.0207848
78 2 -0.741624 5.83061 2.00589 6.27314 3.51839e-05 -0.00758317 -0.00826814
79 2 -0.732798 3.88267 14.9862 5.29861 -0.0183331 -0.0108959 -0.00438853
80 2 -0.805263 5.97425 15.0866 4.00097 0.0125856 -0.0149498 -0.0073962
81 2 -0.741332 5.74638 3.9585 7.39964 -0.00986165 0.00117505 -0.00247806
82 2 -0.67217 8.24473 3.66723 5.93635 -0.0248628 -0.00259119 0.0188466
83 2 -0.689126 7.66107 2.11723 8.07442 0.0162425 0.00180738 -0.0130158
84 2 -0.638141 6.0321 5.87049 2.23358 -0.0181883 -0.00458925 0.0191542
85 2 -0.761004 3.95533 5.95338 15.387 -0.019706 -0.0116299 -0.00622816
86 2 -0.847544 5.79697 3.95834 15.2372 0.00471423 -0.0121556 0.0237898
87 2 -0.652651 6.07419 7.87279 4.24919 -0.00172745 -0.00973129 -0.00100869
88 2 -0.52838 8.38137 6.17519 4.33164 -0.00039599 0.0105542 -0.0126823
89 2 -0.554869 7.84619 7.47268 2.55576 0.00739672 0.000550855 -0.00316189
90 2 -0.710319 2.68403 1.8485 9.37158 -0.00284762 -0.0127759 0.0131595
91 2 -0.650772 2.48172 14.6783 7.78689 -0.010617 -0.00606452 0.00458026
92 2 -0.757025 15.2085 2.27918 7.82151 0.00547689 -0.0102638 0.00522001
93 2 -0.780768 14.8532 14.9897 9.4331 -0.0137907 0.0119347 -0.00838347
94 2 -0.827375 2.19097 3.64619 11.1875 -0.00392767 -0.00943347 0.011127
95 2 -0.783265 4.04887 1.77885 11.5842 0.0102377 -0.00770497 0.00705014
96 2 -0.672566 4.37581 3.41885 9.73286 -0.000718423 -0.00223384 0.00017881
97 2 -0.617774 2.56112 5.53841 13.3989 -0.00181226 0.00599609 0.00991032
98 2 -0.749749 14.792 4.12248 13.0878 0.00159831 -0.0029655 -0.0082345
99 2 -0.602265 15.3696 5.72584 11.2398 0.0159362 -0.0075828 -0.00671104
100 2 -0.732521 2.49194 7.92833 14.9709 0.0207615 0.00630061 0.00684811
101 2 -0.535495 4.36993 7.66104 13.1307 -0.00618185 0.0034999 0.0125368
102 2 -0.748963 6.1173 2.61804 12.9722 8.58225e-05 0.016454 0.0282621
103 2 -0.717181 4.48003 15.0704 13.7089 0.00439174 -0.00699649 -0.0158142
104 2 -0.761084 6.0594 14.8545 11.5142 0.0113611 0.0115323 0.0172298
105 2 -0.722023 7.43048 1.99554 15.115 -0.00299959 0.00644968 -0.00635382
106 2 -0.702286 7.90866 4.09115 13.8937 -0.00851857 0.00809045 -0.000697079
107 2 -0.670697 5.93118 5.57188 9.53333 0.0022783 -0.0287999 0.00558816
108 2 -0.604352 5.63604 7.43342 11.3913 0.0191171 0.00601736 0.00781469
109 2 -0.579781 7.50762 6.09109 11.5592 0.00144285 0.00550377 -0.00436707
110 2 -0.773222 7.30725 7.98627 9.44906 -0.0206421 0.0077613 0.00865945
111 2 -0.791749 2.37013 9.29756 2.60189 -0.00413316 0.0111216 -0.00228837
112 2 -0.783594 15.2818 7.43066 2.54656 0.000862371 0.0140119 0.00570105
113 2 -0.570015 15.0765 9.23375 14.8904 -0.000453958 -0.0150199 -0.00613238
114 2 -0.806625 2.38015 11.4492 3.86344 0.0126692 -0.00627344 -0.00461746
115 2 -0.833908 4.20639 9.85094 4.08439 -0.000814563 -0.00390092 -0.0200856
116 2 -0.755427 4.14152 10.9202 1.85863 0.0153905 0.000499291 -0.0074563
117 2 -0.584347 1.84817 12.8722 6.07436 -0.0175084 -0.00297283 -0.0236408
118 2 -0.670572 15.0342 10.8721 5.25872 0.00935827 0.00454241 -0.00240122
119 2 -0.736405 14.8481 13.3402 3.89928 -0.00687314 -0.00447255 -0.017267
120 2 -0.597061 4.33191 13.0648 7.20917 0.00200167 -0.00402649 0.00376327
121 2 -0.83513 6.17753 9.88798 5.6302 0.000723891 -0.00916734 -0.00344423
122 2 -0.568766 5.92514 10.827 7.54487 0.0125304 0.011796 0.016196
123 2 -0.631043 8.1031 11.5536 6.3542 0.00186791 0.01847 0.0262161
124 2 -0.85627 7.94052 9.62571 7.71978 -0.00218394 -0.00738271 -0.00252199
125 2 -0.748479 5.59 13.1936 2.36977 0.00360129 0.0119005 -0.0138462
126 2 -0.765497 3.84023 12.8341 14.8411 -0.0110053 -0.0152773 -0.0239673
127 2 -0.79718 6.30534 11.3628 15.1122 0.00332758 0.00976471 -0.00849622
128 2 -0.68905 7.41826 14.6079 2.09692 -0.0100988 0.00943322 -0.0099919
129 2 -0.675807 7.54312 13.0747 4.39159 -0.000413793 0.00420249 0.0108875
130 2 -0.711286 2.43459 9.17512 9.20252 -0.00485554 -0.00598932 -0.00617976
131 2 -0.631614 14.8271 7.71797 9.74213 -0.00190848 -0.0105479 -0.000160476
132 2 -0.726928 14.8547 9.53395 7.79649 -0.0102117 0.00622178 0.00293088
133 2 -0.684266 1.89427 11.2315 11.0121 0.0168261 -0.00773 -0.0128653
134 2 -0.57945 4.20125 9.69452 10.9255 -0.0012683 -0.0157695 0.0143005
135 2 -0.579357 3.82131 11.3906 8.7627 -0.00419911 -0.0114803 -0.00517008
136 2 -0.682865 2.34201 13.4229 12.8505 -0.00663928 0.00568045 0.0127275
137 2 -0.756597 15.1217 11.2761 12.9032 -0.0141453 -0.00901048 0.0211171
138 2 -0.716212 14.7392 13.167 11.4658 -0.029199 -0.00344804 0.0121624
139 2 -0.696985 6.29001 9.38877 12.8925 0.0239666 0.00779231 -0.00288972
140 2 -0.561179 7.5578 9.25721 14.6267 0.0125284 -0.00522058 0.00919276
141 2 -0.723231 7.46759 11.144 12.8289 0.0276373 -0.00668434 -0.0128094
142 2 -0.686397 6.03195 13.509 9.19567 -0.0185036 0.00042229 -0.0176582
143 2 -0.627784 8.12894 15.1103 9.77696 0.0106816 0.0130241 -0.00409252
144 2 -0.625589 7.6689 13.2591 11.2799 -0.00319536 -0.00242548 0.00929741
145 2 -0.660154 9.74617 2.68767 1.81233 0.00433825 0.0105044 0.0210596
146 2 -0.730628 9.22408 15.1359 14.9262 0.0113876 -0.0267313 -0.011258
147 2 -0.651801 9.83386 4.13218 3.88963 -0.0180584 0.00573427 0.000272446
148 2 -0.665586 11.4514 2.03312 4.24399 0.00734289 -0.00487697 0.00823229
149 2 -0.75548 11.361 4.40065 2.20694 -0.027534 -0.0119793 0.0238265
150 2 -0.630927 9.8848 5.54855 6.49436 -0.00534081 -0.00195868 0.0021107
151 2 -0.535205 11.5439 6.19245 7.92644 0.0178926 -0.0164821 0.00212492
152 2 -0.698052 11.4196 7.67156 6.10653 0.0026865 0.00896387 -0.0266566
153 2 -0.686378 9.57641 7.74145 8.14584 -0.00940363 -0.0118 0.00856676
154 2 -0.802156 13.4305 2.07463 5.94908 -0.00977304 -0.00447947 0.00454405
155 2 -0.724159 11.6639 14.858 5.86209 0.0109744 0.00145777 -0.00260356
156 2 -0.725803 12.9894 14.5607 3.85447 0.0111384 0.0151569 -0.00869305
157 2 -0.731098 13.2287 3.84426 7.86588 -0.0116518 -0.0129513 0.00998485
158 2 -0.708333 13.2958 6.04058 2.37458 -6.09038e-05 0.00748798 0.00569297
159 2 -0.870177 11.5072 6.56217 15.0737 -0.00418958 0.0197265 -0.0146328
160 2 -0.762983 13.0059 4.27444 14.9467 -0.0125695 -0.0177112 0.00686429
161 2 -0.761883 12.7744 7.67215 3.98803 0.0146723 -0.00543948 0.00170665
162 2 -0.69891 9.44026 2.61772 9.79123 0.0144943 -0.00881652 0.0266498
163 2 -0.720405 9.35662 15.0428 7.56349 -0.0080069 0.0144933 -0.022222
164 2 -0.598372 9.4552 4.80179 11.6043 -0.00580243 -0.00177788 0.00905683
165 2 -0.73566 11.4612 2.42847 11.4291 0.00538575 -0.00455912 0.00792021
166 2 -0.725347 11.2565 4.08221 9.81927 -0.0321754 -0.000673156 -0.0214004
167 2 -0.673114 9.06667 6.30811 13.9611 0.000911019 0.014512 0.010336
168 2 -0.701715 9.41793 7.94667 15.5023 -0.00163786 -0.0150883 -0.00416947
169 2 -0.645472 10.7245 8.02673 13.1834 -0.0122781 -0.0167366 0.0129314
170 2 -0.637616 13.3801 2.09736 13.3819 -0.010044 0.00606387 0.00676133
171 2 -0.776278 11.2602 14.8625 13.1352 0.0139949 0.000778147 -0.00587703
172 2 -0.695591 13.2628 14.8334 11.5677 -0.0100151 0.00654381 -0.0241477
173 2 -0.586809 13.5555 5.43357 9.48719 0.0130181 0.0119061 -0.0057494
174 2 -0.77273 12.8061 7.09837 11.5233 -0.00307832 -0.00431219 -0.0108611
175 2 -0.744989 9.38135 9.43661 2.66673 -0.00072389 0.0114132 0.00369985
176 2 -0.813949 9.8227 11.4652 3.9435 -0.00445563 -0.0105258 -0.00650806
177 2 -0.743747 11.1021 9.64077 4.28137 0.00754267 -0.0173572 0.0225378
178 2 -0.796362 11.4781 11.3365 2.11239 -0.0170097 -0.00630231 0.00395205
179 2 -0.56738 9.42789 13.7232 5.66335 -0.00355721 0.00464923 -0.0152026
180 2 -0.594974 11.3608 12.8855 7.41898 0.00539852 -0.00995462 -0.0315143
181 2 -0.821449 13.0571 9.45776 5.90353 -0.00437539 0.00992724 0.00363531
182 2 -0.638317 13.6538 11.6639 7.39523 0.0045336 -0.00797843 0.0273514
183 2 -0.856556 13.0045 13.4555 1.81588 0.0016513 0.0195825 0.00410874
184 2 -0.718251 11.1642 12.9557 14.9358 0.00363843 0.00308425 0.00337231
185 2 -0.708962 13.2725 11.2824 14.8142 0.0092762 0.0106796 -0.011047
186 2 -0.770962 9.88844 9.47243 9.47436 -0.0266782 0.0120805 -0.00353934
187 2 -0.74798 9.70883 11.2406 11.4352 0.00514362 0.00262688 -0.00571707
188 2 -0.839612 11.4378 9.53257 11.5203 -0.00120755 0.0130991 -0.0058179
189 2 -0.663872 11.9597 11.0551 9.33013 0.00630797 -0.0115462 0.00701151
190 2 -0.795294 9.47403 13.266 13.0085 -0.013538 -0.00445308 -0.00956152
191 2 -0.65115 12.8704 8.50123 13.312 0.00965502 -0.0198094 -0.00880486
192 2 -0.730867 13.046 13.4275 9.37855 -0.00714399 0.00411578 -0.000334185
193 2 -0.532631 13.9934 10.1279 10.5767 0.00815005 -0.011324 -0.0104628
194 2 -0.519155 1.66423 8.44998 5.06214 -0.019538 0.0241564 -0.00886046
195 2 -0.603642 9.02559 12.4255 1.38487 -0.032436 0.00270826 -0.0055835
196 2 -0.580073 9.02978 1.98486 12.1615 0.00488738 -7.3508e-06 0.00282535
197 2 -0.636501 10.5293 14.0834 10.5969 0.0103085 0.00951651 0.0108224
198 2 -0.683516 9.79624 14.7895 3.12322 0.000833234 0.00891479 -0.0118596
199 2 -0.687351 5.49307 5.12765 4.62149 0.00183784 0.00449425 -0.00371398
200 2 -0.649351 12.0134 15.3559 8.3896 0.00160653 -0.0037254 -0.0124751
201 2 -0.607507 3.38671 13.4572 10.5422 -0.0138017 0.00344525 0.00875222
202 2 -0.638111 1.55363 11.4113 15.1319 -0.0109139 0.00190939 0.0183997
203 2 -0.540572 4.52093 8.44811 7.94582 0.00659675 -0.0130507 -0.00994229
204 2 -0.555022 12.3652 12.1676 11.8544 -0.00524313 0.00643745 -0.0148642
205 3 0.422392 14.3129 10.9182 10.2133 0.0223722 -0.00425737 -0.0239381
206 3 0.431645 13.9256 10.464 11.5939 -0.00266486 0.00953205 -0.0128461
207 3 0.395028 1.63847 7.51378 4.76501 -0.00576303 -0.0439819 0.0257043
208 3 0.32879 15.3683 8.55378 5.73201 -0.0133158 -0.052271 -0.036608
209 3 0.373008 8.18699 12.1367 1.72418 -0.00324863 -0.0688963 -0.0278687
210 3 0.414276 8.90934 13.3151 1.14037 -0.0386823 -0.0824231 -0.0105426
211 3 0.315037 9.98829 1.56829 12.2037 -0.0321956 -0.0589979 0.00990499
212 3 0.393747 8.99278 2.08155 13.1312 0.0200163 -0.0385326 0.00807539
213 3 0.359987 10.6604 15.0639 10.6143 0.0238711 0.0160725 -0.00202568
214 3 0.397284 10.4521 13.7837 11.5546 -0.0544811 -0.00264722 -0.0215606
215 3 0.435508 9.79397 15.0359 4.00493 -0.0187204 0.0679343 -0.00286053
216 3 0.355897 10.3923 15.4387 2.78125 0.0832569 -0.0115644 -0.0274589
217 3 0.364887 5.35477 4.21262 4.74079 0.00318183 -0.0109326 0.0082366
218 3 0.399035 4.86897 5.49099 5.31044 0.0435783 -0.0142458 0.0143677
219 3 0.41158 12.8442 15.6038 8.94153 0.00459209 -0.0197687 0.0486823
220 3 0.408984 11.6914 14.6604 8.78144 -0.0189301 -0.0768907 0.0328191
221 3 0.403114 3.92913 13.1241 9.96289 -0.0422285 -0.00631925 -0.054423
222 3 0.402286 3.93663 14.2603 10.872 0.0135796 0.0786799 -0.0474614
223 3 0.394784 11.4927 11.7569 12.1386 0.00279753 -0.0487212 -0.0357473
224 3 0.387311 1.86538 12.0515 15.8966 0.0239112 -0.0384185 0.0518553
225 3 0.331509 5.12241 7.76555 8.52963 0.0142071 0.0114668 0.0424884
226 3 0.291059 5.15628 8.3312 7.13272 0.0403441 0.0606359 -0.0607291
227 3 0.402764 13.0421 7.52667 13.9176 0.0126198 -0.0337056 0.0860869
228 3 0.383861 11.9559 13.0223 11.5506 -0.0273446 -0.0086051 0.0131606
ITEM: TIMESTEP
78000
ITEM: NUMBER OF ATOMS
228
ITEM: BOX BOUNDS pp pp pp
1.3960142712256918e+00 1.5763985728773774e+01
1.3960142712256918e+00 1.5763985728773774e+01
1.3960142712256918e+00 1.5763985728773774e+01
ITEM: ATOMS id type q x y z vx vy vz
1 1 1.68215 1.519 1.64662 15.6864 -0.011247 -0.000993068 0.0104968
2 1 1.65604 3.11878 3.29869 3.04598 -0.00305348 -0.00465544 0.00451192
3 1 1.59541 15.7806 5.07106 4.82208 0.0107046 0.0106692 -0.0144593
4 1 1.53851 3.1284 6.81619 6.86445 -0.00483206 0.000620655 -0.00481416
5 1 1.54696 4.68643 15.5942 4.82834 0.00388027 -0.0144093 0.00176443
6 1 1.33696 6.54387 2.87087 6.93696 0.0105348 -0.00288942 0.0091269
7 1 1.60423 5.07763 5.06852 1.63215 -0.012778 -0.00855939 0.00181947
8 1 1.51243 6.93018 6.6894 3.51399 -0.0085766 -0.00487016 0.00344208
9 1 1.14868 1.751 1.5718 8.38347 -0.0023183 0.00817861 0.00272146
10 1 1.37739 3.51448 3.05313 10.434 -0.00650868 0.00877658 -0.00541928
11 1 1.40486 1.77779 4.59166 12.2913 -0.0176924 0.00414077 -0.00681662
12 1 1.49676 3.57821 6.76597 13.8416 -0.00142984 -0.0105214 0.00781689
13 1 1.32306 5.07351 15.5725 12.2535 -0.00693972 -0.000681817 -0.00885168
14 1 1.24369 6.75319 2.99961 14.393 0.00686478 -0.0129478 0.00757642
15 1 1.4 4.88157 4.97778 8.58176 -0.0120154 0.00540542 0.00586579
16 1 1.36271 6.88 6.66425 10.275 -0.00416013 0.00268347 0.00573137
17 1 1.15768 1.7612 8.64654 15.4485 -0.0138028 -0.0111346 0.00713509
18 1 1.31773 3.54053 10.2155 3.18539 0.000627693 -0.00440976 -0.00270937
19 1 1.42644 15.5776 11.8786 4.87534 0.00364513 -0.00771571 -0.0157426
20 1 1.22473 3.22952 13.8066 6.61098 0.00181842 0.00774137 0.00131977
21 1 1.3975 5.19827 8.50226 5.14568 0.000510092 0.0159409 -0.00740863
22 1 1.54337 7.10421 10.5525 7.28759 0.0147897 0.00380064 0.000190265
23 1 1.59955 5.09192 12.1414 15.3928 0.0180825 0.00198208 -0.00155142
24 1 1.6616 6.54554 14.0503 3.02437 0.00214405 -0.00357052 -0.0281954
25 1 1.33078 15.3707 8.45931 8.84041 -0.00391499 0.00990007 0.00329445
26 1 1.2491 3.39519 10.5305 10.0623 0.00143631 -0.00895315 0.0030908
27 1 1.49901 1.64052 12.4591 12.2319 0.00595914 -0.00967672 0.0086373
28 1 1.57695 3.27366 14.0833 14.043 0.00740981 -0.0137534 -0.0102973
29 1 1.49633 5.0637 8.62829 11.7763 -0.00953488 -0.00973636 -0.00783545
30 1 1.15876 6.92624 10.2609 13.9144 -0.0062086 0.00199134 0.00112122
31 1 1.28181 5.17298 12.399 8.63832 -0.000253877 0.00115991 0.00856036
32 1 1.44292 7.40641 13.9763 10.5058 -0.00627312 -0.0029101 -0.00156531
33 1 1.51004 8.80766 15.5972 1.85384 0.00751236 -0.00814048 0.00933529
34 1 1.61885 10.526 3.21908 3.35296 0.0068265 0.00217368 0.00518081
35 1 1.60435 8.84045 4.71498 5.4135 -0.00852996 0.00444188 0.00202595
36 1 1.8109 10.3887 6.78057 6.8395 -0.00363173 -0.00466315 -0.0109379
37 1 1.3731 12.5797 15.7633 4.94961 -0.00489348 0.00839352 -0.00815481
38 1 1.46458 14.1342 3.54802 6.77949 -0.00535516 -0.00693207 -0.00101651
39 1 1.42452 12.2933 5.28654 1.70479 -0.00980843 -0.0013469 0.0119079
40 1 1.46026 14.1282 7.24664 3.26781 -0.0129508 -0.00196431 0.00696628
41 1 1.66221 8.68332 1.58666 8.53249 0.0060464 -0.0127838 0.0064242
42 1 1.41192 10.2834 3.15575 10.4179 -0.000791959 -0.0171815 -0.00695499
43 1 1.31714 8.25164 4.86161 12.3308 -0.00745243 0.00407924 -0.00265236
44 1 1.51981 9.96715 6.46212 14.5638 0.00346273 0.000450449 -0.00517594
45 1 1.72385 12.5404 1.77549 12.2936 -0.00821273 -0.00398443 -0.00642239
46 1 1.72595 14.0355 3.48944 14.3723 -5.11422e-05 0.0114823 -8.55601e-05
47 1 1.48045 11.9915 4.82913 8.41902 -0.00328449 0.00842311 0.00843222
48 1 1.19281 13.966 6.35528 10.4045 0.00421326 0.00262988 0.00621001
49 1 1.55697 8.37732 8.63732 1.77498 0.0111414 -0.0123227 0.000988866
50 1 1.48389 10.3723 10.5131 3.23502 0.0137195 0.0152591 -0.00990162
51 1 1.29996 8.42003 12.4658 4.99128 -0.00239557 -0.00434722 -0.0073374
52 1 1.42212 10.3859 14.4379 6.68686 -0.005105 0.00318326 -0.00477443
53 1 1.76059 11.9903 8.59113 4.97244 0.00154164 -0.00316437 -0.00375903
54 1 1.59962 13.5693 10.3617 6.82552 0.00674061 0.00312865 -0.0121009
55 1 1.42818 12.4982 12.0277 1.56514 -0.0127751 -0.00750102 0.00737903
56 1 1.56194 14.3479 14.0163 3.04608 0.00800098 0.00808902 0.00394128
57 1 1.29866 8.82154 8.49392 8.66526 0.00354323 0.0115086 0.00515418
58 1 1.07223 10.9865 10.0571 10.5615 0.0168343 -0.0145369 0.012655
59 1 1.37254 8.97913 12.0416 12.708 -0.00966373 0.00996212 0.00335967
60 1 1.3431 10.9921 14.1262 13.9979 0.00634628 -0.00619551 -0.00593961
61 1 1.37083 11.5693 7.42371 12.1471 0.000786932 -0.00504478 0.0074682
62 1 1.27499 14.542 10.7727 14.2697 0.00293091 0.00535827 0.00766692
63 1 1.37544 12.0824 12.4669 8.89163 -0.00483652 0.00481079 -0.00285782
64 1 1.33607 13.9911 14.1583 10.4264 0.00201911 -0.00291416 0.0115714
65 2 -0.898468 2.41978 2.12156 2.42676 -0.00414251 -0.00441879 0.0168355
66 2 -0.770945 2.49723 15.4168 14.5961 0.0103585 -0.00494046 -0.0136054
67 2 -0.838757 14.6305 2.48874 15.5119 0.0126779 0.00877743 0.0056933
68 2 -0.775654 15.273 14.7726 1.99564 0.00751337 -0.00404609 0.0138229
69 2 -0.79119 2.18903 4.41208 3.59661 0.00439202 0.0120118 0.00281537
70 2 -0.739628 4.05553 2.55044 4.23843 0.00607736 -0.0130061 -0.0176139
71 2 -0.846025 4.01114 4.31292 2.34311 0.0118673 -0.00278235 0.0035955
72 2 -0.804814 2.36888 5.86221 5.94956 0.00165994 -4.21602e-05 -0.00108278
73 2 -0.847677 14.9675 4.21507 5.65998 0.00984996 0.0165732 -0.0167248
74 2 -0.76608 14.7667 6.0128 3.98918 0.00090185 0.00424768 -0.00965494
75 2 -0.809094 4.08855 6.07648 7.7989 0.0159844 0.00126101 0.00549654
76 2 -0.789882 4.27808 7.5397 6.08106 -0.00178546 0.0134061 -0.00795831
77 2 -0.709292 1.98237 7.56968 7.87067 -0.0152765 0.012874 0.0100258
78 2 -0.73981 5.84218 1.85198 5.5692 -0.0127832 0.0198361 -0.00261638
79 2 -0.743941 3.71083 14.4738 5.24081 0.00986992 0.0115709 -0.00486878
80 2 -0.798325 5.46397 14.9166 3.5795 0.00254679 -0.00611961 0.0106882
81 2 -0.815075 5.56377 3.79168 7.7509 0.00714392 -0.00454863 0.00791954
82 2 -0.694082 7.80778 3.8236 6.19616 -0.0080228 0.00868837 0.0161995
83 2 -0.848461 7.49781 2.11994 7.88398 -0.00793058 0.00664907 0.00730001
84 2 -0.782464 5.8371 5.93187 2.78074 -0.00824221 -0.0146743 0.00563374
85 2 -0.761114 4.66643 6.09925 14.8092 0.00683744 -0.000208945 0.00305302
86 2 -0.715809 6.01588 3.89986 15.5784 0.000755654 0.00646972 0.00259814
87 2 -0.773006 6.21454 7.66874 4.48428 0.00672149 0.00467095 -0.0107614
88 2 -0.706647 7.89661 5.58898 4.48846 0.00818398 -0.00164164 -0.00979225
89 2 -0.719942 7.67487 7.96613 3.05718 -2.78096e-06 0.0059471 -0.023313
90 2 -0.682585 3.00463 2.23737 8.96801 -0.00184957 0.0207504 -0.0150831
91 2 -0.733613 2.25056 14.8613 7.25023 0.000370624 -0.0102724 -0.000947508
92 2 -0.654446 15.1938 2.85866 7.96321 -0.023197 -0.00161659 0.00667471
93 2 -0.615741 14.7327 15.4116 9.6971 0.00871982 0.00258246 0.00593765
94 2 -0.753003 2.2416 3.67826 11.1334 0.00266573 -0.00574017 -0.0194537
95 2 -0.720757 4.31638 2.40593 11.5823 -0.00821045 0.0159191 -0.00697107
96 2 -0.70878 4.31043 4.35543 9.93882 -0.0177432 -0.000947693 0.00672262
97 2 -0.623779 2.8718 5.42834 13.2575 0.0254256 -0.0212706 -0.0180783
98 2 -0.780798 15.1381 4.21092 13.5905 -0.0187413 -0.0129777 0.00900892
99 2 -0.576575 15.4652 5.79702 11.572 0.00303528 0.0185468 -0.0047412
100 2 -0.6581 2.36416 7.17947 14.6343 -0.00570218 0.0174732 0.000378543
101 2 -0.799202 4.23386 7.62853 12.7084 0.00127377 0.00729 -0.0182971
102 2 -0.550516 5.32669 2.25503 13.47 -0.0146696 -0.0031954 0.00384148
103 2 -0.840669 4.32466 14.5224 12.9622 0.00940108 0.0168725 -0.0177236
104 2 -0.705923 6.40459 14.9603 11.0541 0.00761074 -0.0127684 0.00107006
105 2 -0.658001 8.06149 2.16178 15.0606 0.00630621 -0.0176829 -0.000588752
106 2 -0.676537 7.3099 3.68984 13.1828 0.0077442 -0.00197809 -0.00529889
107 2 -0.660299 5.74261 6.28915 9.14054 0.0144852 0.0177473 0.0147225
108 2 -0.705103 6.30064 7.95042 11.0061 -0.0147753 -0.00757802 0.0159916
109 2 -0.739665 7.43789 5.85648 11.5207 0.000564537 -0.00429628 -0.00748136
110 2 -0.674757 8.08934 7.17307 9.23003 -0.0318253 -0.00376056 -0.00818082
111 2 -0.712879 2.68738 9.26695 2.40471 -0.00126256 0.00731373 0.00661699
112 2 -0.659907 15.223 7.7988 2.30889 -0.00322134 -0.000314629 0.0091787
113 2 -0.731328 15.0419 9.27423 14.5332 -0.00561815 -0.00118998 -0.00455931
114 2 -0.678526 2.09933 10.7944 3.85561 0.02017 -0.00785661 0.00184461
115 2 -0.711105 4.53235 9.72745 4.4538 -0.0056517 0.00170363 0.00443574
116 2 -0.698692 4.41938 11.0401 2.01889 0.0110196 -0.0146918 0.0117275
117 2 -0.620101 2.34961 12.1909 5.84945 0.0139001 -0.0144157 -0.0202414
118 2 -0.794989 14.4858 11.075 5.6447 -0.00692693 0.0126178 0.0226747
119 2 -0.764246 14.8499 13.097 4.37039 -0.00952213 0.0274417 -0.008063
120 2 -0.637385 4.56917 13.4766 7.41893 -0.0107521 0.0138405 0.00782307
121 2 -0.611133 6.28309 9.62026 6.47008 -0.0139749 0.0140207 -0.00530433
122 2 -0.708667 5.84546 11.2516 7.91235 -0.00297698 -0.0022465 -0.0032395
123 2 -0.697686 7.54009 11.6272 6.23922 0.00592211 -0.0141401 -0.00462789
124 2 -0.743079 7.74838 9.74888 8.42484 0.00769832 0.00606509 -0.0112817
125 2 -0.721762 6.04227 13.0472 1.94952 0.00515785 0.0129091 0.0106015
126 2 -0.81314 4.22714 13.2868 15.1416 0.00137581 -0.0197658 -0.0128211
127 2 -0.674636 5.51991 11.1086 14.3321 -0.0110131 -0.0289137 -0.00628891
128 2 -0.888761 7.57296 14.942 2.35588 0.000504588 0.0170849 -0.00985876
129 2 -0.709719 7.41249 12.8672 3.72911 0.0109186 0.00249812 0.0246169
130 2 -0.65491 1.99149 9.23534 9.78983 0.00165822 0.0216462 0.0010487
131 2 -0.790588 14.4917 7.4527 9.49265 -0.000399305 -0.00639792 -0.0195631
132 2 -0.758495 14.444 9.67325 7.76275 0.00249708 -0.000310481 -0.00101314
133 2 -0.662863 2.77927 11.8076 11.2674 -0.0151272 0.000370723 0.023461
134 2 -0.75162 4.21536 9.706 11.1426 -0.00201053 -0.00224346 -0.00189898
135 2 -0.664679 3.68347 11.595 8.97247 0.019141 -0.0165573 0.0125408
136 2 -0.856414 2.18648 13.3453 13.2742 -0.00614547 0.0263573 0.0077724
137 2 -0.790348 15.007 11.4372 12.7996 -0.00924876 -0.00695022 -0.000817991
138 2 -0.692961 15.3372 13.587 11.2681 -0.016846 0.012093 0.00243804
139 2 -0.60195 6.12296 9.53713 12.6593 0.00598677 0.00525171 -0.0139958
140 2 -0.698032 7.24004 9.05846 15.334 0.00608679 -0.0114515 0.000937234
141 2 -0.696946 7.87861 11.5928 13.7049 0.00538922 0.00683387 -0.00169844
142 2 -0.667587 6.44408 13.1664 9.70244 0.0119592 -0.00263007 0.00566722
143 2 -0.83997 8.35917 14.7129 9.33212 -0.00870927 -0.00266894 0.0137199
144 2 -0.766131 8.40466 13.2569 11.5274 -0.000585388 0.00419278 -0.00604218
145 2 -0.824657 9.4529 2.54976 2.54474 0.0140556 0.00979445 0.00289469
146 2 -0.668894 9.76225 14.7409 15.1519 -0.0145807 0.00458231 0.00657037
147 2 -0.81937 9.89892 3.90666 4.53646 -0.00766178 0.0245389 -0.0102979
148 2 -0.729193 11.43 2.18854 4.25791 0.00979819 0.00445277 -0.000381413
149 2 -0.709904 11.635 4.18858 2.80014 0.00208736 0.00195421 0.0156236
150 2 -0.936337 9.42536 5.77909 6.37023 0.00434266 -0.0140266 -0.0179787
151 2 -0.775042 11.3917 6.34167 7.85587 -0.0204568 -0.00505332 -0.0206602
152 2 -0.812494 11.2168 7.36494 5.70921 0.00807887 0.00898916 -0.00176071
153 2 -0.761495 9.81843 8.09113 7.32593 0.0128898 0.00259136 -0.0205572
154 2 -0.686393 13.4361 2.44645 5.84138 -0.0204446 0.00127713 0.0132195
155 2 -0.757571 11.6289 14.7416 5.80527 0.00326015 -0.00337429 -0.0212228
156 2 -0.733032 13.6742 15.1936 3.82818 0.00354038 0.00913591 0.0151157
157 2 -0.793769 12.8541 4.34883 7.28167 -0.0157798 0.015813 0.0142839
158 2 -0.67125 12.7982 6.71939 2.56757 -0.0112053 0.000346763 -0.0165254
159 2 -0.786092 11.0715 5.47873 15.2394 0.000156015 0.00943292 0.00115571
160 2 -0.81057 13.0672 4.41323 14.9792 -0.0149926 -0.00501731 0.0121992
161 2 -0.846664 13.1518 8.11477 4.20608 0.000806774 0.00912674 -0.0174043
162 2 -0.757075 9.22778 2.82654 9.37785 -0.0043324 -0.00392534 0.00286237
163 2 -0.77565 9.98255 15.5998 7.75543 -0.0166095 0.0113129 0.00627568
164 2 -0.623633 9.60582 4.15851 11.439 0.00822183 0.00105618 -0.0113261
165 2 -0.786296 11.6579 2.68675 11.4658 -0.00422521 0.00591867 -0.0107628
166 2 -0.702693 10.9853 4.1916 9.33208 0.00688305 -0.0123578 -0.0201352
167 2 -0.635222 8.8236 5.77649 13.5925 -0.00445051 -0.0206087 0.00625221
168 2 -0.831767 9.16003 7.41137 15.3919 0.000420359 0.00772001 -0.00483654
169 2 -0.75807 10.5373 7.1549 13.2869 -0.0040032 -0.000801966 -0.00926888
170 2 -0.876693 13.2483 2.57978 13.4615 0.0138662 0.00636312 -0.00382903
171 2 -0.916481 11.5837 15.1611 12.9878 -0.00131976 0.00771576 0.0163778
172 2 -0.843656 13.3177 15.1979 11.4711 0.0338286 -0.00505575 0.0100964
173 2 -0.591545 13.1136 5.20602 9.6035 -0.0219948 0.0114411 -0.000373323
174 2 -0.618958 12.2491 6.53529 11.1381 0.0105589 -0.00505564 0.00956822
175 2 -0.772579 9.20059 9.7313 2.4942 -0.000747577 -0.00215263 0.00854992
176 2 -0.702793 9.72053 11.6579 4.31951 0.00361016 0.0219416 -0.00588525
177 2 -0.832745 11.0385 9.31104 4.00001 -0.0176859 0.00947341 -0.000442713
178 2 -0.79425 11.332 11.0605 2.17363 0.0111024 -0.000314242 0.0135135
179 2 -0.692772 9.26587 13.6363 5.5978 -0.0249626 -0.0169673 0.00531575
180 2 -0.639304 10.9867 13.421 7.59655 -0.0139805 0.0054116 0.0269164
181 2 -0.874795 12.5283 9.39662 6.15254 -0.00753852 -0.0141221 0.00978409
182 2 -0.70893 13.0341 11.2853 7.91217 0.00550389 -0.00249022 -0.000540616
183 2 -0.828971 13.4799 12.9631 2.46628 0.00256327 -0.00920373 -0.020286
184 2 -0.68097 11.9051 13.3461 15.0091 0.00897877 -0.0119241 0.00334883
185 2 -0.772352 13.2497 11.0092 15.0805 -0.00010911 0.0219294 -0.0143113
186 2 -0.595984 9.85352 9.20474 9.69385 -0.00542996 0.00759384 -0.00146725
187 2 -0.566056 9.52604 11.0711 11.6218 0.0247537 0.00392429 0.00386445
188 2 -0.628373 11.407 8.95559 11.8886 0.0140585 -0.00893946 -0.0168435
189 2 -0.692168 11.1437 11.5603 9.6123 -0.010784 -0.00940679 0.00955204
190 2 -0.750985 9.89592 12.9694 13.453 0.00544905 0.002327 -0.00912693
191 2 -0.566199 12.8405 7.6543 13.2565 0.0185717 -0.0155374 0.0343035
192 2 -0.868874 13.2543 13.1092 9.52111 0.0106069 -0.00479453 -0.00225829
193 2 -0.659683 13.13 10.0583 10.6741 0.0146691 -0.0147006 -0.00886632
194 2 -0.614503 1.9866 8.59831 5.75264 -0.00822352 -0.0104743 0.013572
195 2 -0.498459 6.78532 13.6906 14.2086 0.0232162 -0.0251374 0.0105089
196 2 -0.66489 9.00404 1.92429 11.827 0.0107012 0.00419563 0.00678412
197 2 -0.60432 10.8149 14.0007 10.1269 0.00941586 0.00734226 0.0031032
198 2 -0.696102 10.0662 14.3412 3.18336 -0.0153441 -0.000223303 0.00983737
199 2 -0.51803 5.16966 4.7892 5.02585 0.0010752 0.00224284 -0.0011103
200 2 -0.635261 12.9402 15.548 7.76114 0.0177462 -0.00986596 -0.0118842
201 2 -0.681626 4.0537 13.9463 9.70552 0.0028888 -0.0199822 0.0187235
202 2 -0.601558 15.6215 11.6733 15.2271 -0.00981597 -0.014551 -0.018365
203 2 -0.616633 4.25261 9.19221 8.66768 0.0142477 0.0044617 -0.00861546
204 2 -0.610131 12.4218 12.149 12.4895 0.00372243 -0.00804163 0.0188642
205 3 0.355543 13.9935 10.5843 11.1099 0.0270644 0.0264612 -0.0777758
206 3 0.382659 13.5484 9.79053 9.76825 -0.0654852 0.0117349 -0.0812027
207 3 0.422337 1.90951 9.50204 5.80478 -0.0653139 0.034111 -0.0122568
208 3 0.348969 1.63409 8.36709 4.70803 0.0252022 0.0393317 -0.0284407
209 3 0.291765 6.75327 14.3984 13.4693 -0.0202907 0.0484437 0.0722038
210 3 0.365986 7.62274 14.2033 14.4467 0.0519544 -0.0224586 -0.00745154
211 3 0.355685 8.82359 15.3848 11.732 0.014014 0.0173928 0.0321784
212 3 0.377533 9.6311 2.0114 12.6277 0.0291212 0.0825199 0.0289799
213 3 0.311022 10.9761 14.5893 11.1057 0.0359675 -0.0133938 0.0370073
214 3 0.432628 9.91106 13.568 10.1654 0.036094 0.0219673 0.0462985
215 3 0.399567 10.956 14.4703 3.51827 -0.0159824 0.0093336 0.0130835
216 3 0.426151 9.97355 13.4583 3.16679 0.0227837 -0.0352427 -0.028162
217 3 0.378776 5.15523 4.02858 5.54163 -0.032035 -0.0189079 -0.0318156
218 3 0.362881 5.1862 5.40429 5.8747 -0.0248697 0.0256415 0.0344645
219 3 0.424738 13.2522 15.168 7.09142 -0.0246998 -0.0391934 0.0342119
220 3 0.412587 13.5468 15.6254 8.53115 0.0200519 0.0269598 -0.00730243
221 3 0.423472 3.66276 13.6088 10.5082 -0.00411271 0.00627946 -0.00222223
222 3 0.40239 3.458 14.1211 9.08886 0.00060743 0.0562816 0.0307368
223 3 0.341714 11.9604 12.7588 11.8506 -0.0394405 0.00609891 -0.0918446
224 3 0.380283 15.8962 11.0682 1.49867 0.00779958 -0.0533329 -0.0173301
225 3 0.443126 5.03991 8.66562 8.40282 -0.0598761 -0.0240655 0.00320172
226 3 0.371427 3.38695 8.61693 8.35186 -0.0244726 -0.0280714 -0.0444149
227 3 0.425716 12.7324 8.36076 13.9516 0.0659532 -0.0718789 -0.0160227
228 3 0.398093 12.6317 11.4365 11.97 0.00656955 -0.0393124 0.0306132
ITEM: TIMESTEP
80000
ITEM: NUMBER OF ATOMS
228
ITEM: BOX BOUNDS pp pp pp
1.2691935174268876e+00 1.5890806482572597e+01
1.2691935174268876e+00 1.5890806482572597e+01
1.2691935174268876e+00 1.5890806482572597e+01
ITEM: ATOMS id type q x y z vx vy vz
1 1 1.33722 1.60775 1.40079 15.6463 0.000645213 -0.0130753 -0.00292653
2 1 1.28051 3.16915 2.81422 3.51632 0.0106242 0.000750873 -0.00419378
3 1 1.46131 15.8175 4.86727 4.74907 -0.00127918 -0.00210116 0.00270844
4 1 1.4294 3.21821 6.54307 6.72127 0.00429035 -0.00677274 -0.00647825
5 1 1.5339 5.06886 15.7298 5.2962 -0.00862464 0.014734 -0.0041276
6 1 1.45268 6.8289 2.96163 6.92613 0.0115439 -0.00151814 -0.00151546
7 1 1.23718 5.22803 4.86197 1.80458 0.00725937 0.0190572 -0.000340898
8 1 1.4561 7.14431 6.72867 3.30088 -0.0161564 -0.0103401 0.00596072
9 1 1.56111 15.6649 1.43848 8.37088 0.00334595 0.00198686 0.00272267
10 1 1.39475 3.02891 3.15931 10.2332 0.0179254 0.0140643 -0.0201463
11 1 1.57548 1.59952 5.21287 12.0995 -0.00411224 0.00861438 -0.00838455
12 1 1.36172 3.34248 6.30369 14.184 -0.00373268 -0.00683591 0.0190295
13 1 1.28314 4.79006 1.46933 12.2463 -0.00421378 -0.00181174 -0.00471591
14 1 1.29247 6.79689 2.7948 14.3814 0.00592522 -0.00102594 0.0116817
15 1 1.54965 5.13928 4.80518 8.60771 -0.00723251 -0.00385052 0.00316442
16 1 1.53478 6.51771 6.84942 10.4824 0.00365631 0.00166707 0.0117173
17 1 1.26473 1.53784 8.35086 15.5286 -0.0100424 0.00481527 -0.0106673
18 1 1.31981 2.99349 10.1325 3.33624 -0.00080256 -0.0125197 0.00263549
19 1 1.3537 15.9768 12.4913 5.08025 0.000820378 -0.0171667 -0.00238741
20 1 1.47201 3.09099 14.3089 6.96095 -0.011459 0.00437818 0.0214249
21 1 1.30945 5.50511 8.73782 5.18109 -0.00554103 -0.00577323 -0.0029176
22 1 1.4148 7.05005 10.9842 7.13288 5.85369e-05 -0.0122953 0.004733
23 1 1.48917 4.36076 12.0436 15.9769 0.0067792 -0.00409976 0.0102428
24 1 1.47738 6.17975 13.4931 3.38308 0.00302622 0.00845924 -0.000408521
25 1 1.58728 1.38865 8.39287 8.30991 0.00452899 -0.00590504 0.00152534
26 1 1.21122 2.94516 10.2195 10.3654 -0.0095652 0.00388769 -0.015506
27 1 1.2844 15.8365 11.7622 12.3385 0.0143574 0.0106273 -0.00509413
28 1 1.3275 2.99273 13.8585 13.8354 0.00744528 0.0136864 -0.000802389
29 1 1.22199 4.84918 8.61823 12.6731 0.00194307 0.00185757 0.00679738
30 1 1.33284 6.65306 10.4883 14.3261 -0.00776664 -0.00918457 -0.00486863
31 1 1.32514 4.92602 12.637 8.82211 -0.0161774 0.000419562 -0.0106815
32 1 1.26981 6.72009 14.0219 11.0185 -0.0173937 0.00120588 -0.0058805
33 1 1.35985 9.37836 1.65999 15.407 0.0174892 0.00084265 -0.00746737
34 1 1.24202 10.8308 3.42684 2.92154 0.016976 0.000937786 0.00432287
35 1 1.52649 8.85666 5.02155 5.00839 0.00569711 0.0029039 0.0162102
36 1 1.24427 10.4841 6.85323 7.06151 0.00225866 -0.00503669 0.00916669
37 1 1.22067 12.2486 1.30815 5.10848 -0.00426013 -0.0061244 -0.000310603
38 1 1.38341 13.9147 3.57104 6.79979 -0.00239473 0.00444223 -0.00272578
39 1 1.196 12.5652 5.11885 1.14644 -0.00268835 -0.00526683 -0.00807142
40 1 1.28859 14.1858 7.07986 2.92131 -0.000131851 -0.00312945 -0.00222722
41 1 1.32619 8.38076 15.9375 8.99263 -0.012654 0.00622018 -0.00468871
42 1 1.27022 10.3976 2.9554 10.8821 0.0151468 -0.00474772 0.00273212
43 1 1.3538 8.54512 4.84559 12.3549 0.0019751 -0.00558684 -0.0129135
44 1 1.34432 10.3207 6.67305 14.1548 0.00644783 0.00876604 -0.00982867
45 1 1.2898 12.8698 15.6738 12.383 0.000421382 -0.00888135 -0.00362784
46 1 1.37852 14.5657 3.54348 13.9261 0.0131959 0.0215285 0.00336154
47 1 1.25859 12.1343 5.06553 8.93922 0.00927011 0.00158734 0.00736053
48 1 1.56247 14.3776 6.80756 10.5069 -0.0139774 0.00153136 0.00369532
49 1 1.25395 8.4604 8.59079 15.8501 0.00778681 -0.00903835 0.000229484
50 1 1.35147 10.3074 10.3273 3.47913 -0.00343331 0.00810503 -0.0186445
51 1 1.43297 8.56127 12.5254 4.97392 0.00569858 -0.0047485 -0.011895
52 1 1.17447 10.2839 14.2709 6.95455 0.00654556 -0.000446535 0.0118815
53 1 1.3485 12.12 8.5786 5.02502 -0.0192633 0.0157891 0.000609511
54 1 1.44063 14.1558 10.3075 6.77039 0.00366573 0.0106481 0.00253498
55 1 1.56506 12.4066 12.1778 1.76131 0.0134253 -0.00252186 -0.00768889
56 1 1.36715 14.1708 14.2176 3.20749 -0.00348466 0.0162984 -0.00282412
57 1 1.28318 8.50607 8.74076 8.89628 -0.000672821 -0.0083928 -0.000814862
58 1 1.31487 10.8215 10.4572 10.3023 0.00918814 -0.000738012 0.00370415
59 1 1.32918 9.04784 12.1522 12.3343 -0.00408874 0.0187304 -0.00397185
60 1 1.26246 11.0243 13.9797 14.1592 -0.000709493 -0.00742985 0.00730942
61 1 1.21925 12.208 8.34102 12.1772 -0.00981384 -0.0120065 0.0194698
62 1 1.25677 14.0185 10.305 14.6662 0.0256185 0.00680582 -0.00738298
63 1 1.37176 12.5728 12.3536 8.48137 -0.00364215 -0.0154109 0.00225384
64 1 1.23905 14.4778 14.0455 10.2539 -0.00215085 0.000362154 0.00517694
65 2 -0.65668 2.53292 1.86971 2.07912 0.00822029 0.0160237 0.00973922
66 2 -0.679216 2.15368 14.7627 15.3825 0.00135098 0.00251494 -0.000473584
67 2 -0.670858 15.7832 2.54347 14.536 -0.000681739 -0.00824082 -0.0105473
68 2 -0.517387 14.6005 15.2874 2.11805 0.0142723 -0.0227616 -0.00415294
69 2 -0.765926 2.07983 3.72527 4.17299 0.00790577 -0.0121489 -0.00538089
70 2 -0.677793 4.45899 2.25106 4.30033 -0.017286 -0.00948624 0.0128912
71 2 -0.606991 3.96351 4.20653 2.84643 -0.0156693 -0.000600651 0.00499759
72 2 -0.694522 2.18182 5.68577 5.77017 -0.0138883 -0.0159033 -0.000200477
73 2 -0.727438 14.5897 4.43791 5.7168 -0.00552463 -0.00754323 -0.00542086
74 2 -0.681532 15.1408 5.92548 3.78901 -0.0213464 0.00536885 -0.0136254
75 2 -0.676387 3.99751 5.74246 7.80341 -0.00636702 0.0071683 0.00547052
76 2 -0.713659 4.50446 7.80067 5.72187 -0.00159967 0.0115769 -0.00212764
77 2 -0.861242 2.24894 7.46071 7.358 0.0170057 -0.00362793 -0.00661603
78 2 -0.825778 6.1432 1.95467 6.10825 0.0099183 -0.0101421 -0.0117226
79 2 -0.792053 3.85593 15.4689 6.13802 0.00716166 -0.0149444 -0.00519854
80 2 -0.809111 5.45494 14.5028 4.32171 0.00139677 0.00979217 -0.0241404
81 2 -0.844826 5.89847 4.12399 7.54426 -0.00758743 0.00879676 -0.00210555
82 2 -0.584231 7.86132 4.01549 5.60878 -0.00741635 -0.00725124 0.0184483
83 2 -0.734667 7.93369 2.17152 7.65788 0.0280253 0.00134678 0.00346984
84 2 -0.779483 6.17112 6.11997 2.35297 -0.0098835 -0.0148386 -0.00140747
85 2 -0.680626 4.32463 5.40986 15.291 -0.00841783 -0.0016671 -0.00212991
86 2 -0.598519 6.26399 3.68538 15.6862 -0.0133903 0.00123849 -0.00454244
87 2 -0.638338 6.76289 8.02458 4.59711 -0.00272858 0.0204387 0.0116422
88 2 -0.837125 7.82761 5.8045 4.3135 -0.0118295 -0.0120547 -0.00188566
89 2 -0.701794 8.01593 7.50207 2.2826 -0.0029086 -0.0178281 0.0156419
90 2 -0.716742 2.29306 2.07788 9.30744 0.00472882 -0.000173705 -0.00636796
91 2 -0.808219 1.93383 15.07 7.83544 -0.00494541 0.0192377 -0.0139992
92 2 -0.750591 15.0554 2.79815 7.64287 0.000462071 0.0229866 -0.00821466
93 2 -0.798757 14.8663 15.1052 9.25452 -0.00806074 0.000499363 -0.00497427
94 2 -0.697618 2.09832 4.25055 10.7917 -0.0156674 -0.0188015 0.00117714
95 2 -0.709498 4.32563 2.36638 11.0046 -0.000556376 -0.00823922 0.00596681
96 2 -0.732677 4.03032 4.1183 9.47574 -0.0115822 0.0016173 0.0199942
97 2 -0.79468 2.84325 5.39812 13.0844 -0.0044894 0.00333245 -0.0104224
98 2 -0.799533 15.1818 4.31767 12.6553 -0.000694983 -0.0160073 0.00485175
99 2 -0.866248 15.5646 6.27296 11.1805 -0.0202166 -0.0182603 0.00331274
100 2 -0.661069 2.10835 7.03897 14.6558 -0.0184514 -0.00891621 0.01004
101 2 -0.64815 3.65458 7.73736 13.3524 0.00924899 -0.00220333 0.0124502
102 2 -0.681033 5.55061 2.30584 13.3045 0.0239947 -0.00663599 -0.0144854
103 2 -0.767477 3.63608 14.7714 12.7292 -0.00717057 -0.00728961 0.00624988
104 2 -0.770802 6.02895 15.0755 11.9748 -0.0115952 -0.00939521 0.00693219
105 2 -0.752153 7.9262 1.90781 14.8223 0.00465926 -0.0127426 0.0187273
106 2 -0.629116 7.76993 3.99476 13.4198 -0.00589088 0.00134645 -0.00160594
107 2 -0.839371 5.95342 5.96244 9.44065 -0.00667447 0.0133792 -0.0073539
108 2 -0.747392 6.0133 7.77667 11.5341 -0.00780095 0.00316741 0.00839219
109 2 -0.664912 7.52998 5.79012 11.3392 -0.00338812 0.00110566 -0.01254
110 2 -0.695468 7.55995 7.99124 9.95231 0.00971449 -0.00762077 0.00600353
111 2 -0.560006 2.53576 8.92351 2.29051 0.00330937 -0.0162063 0.02214
112 2 -0.60448 15.3072 7.41341 1.90772 -0.0119479 -0.0199879 0.00708497
113 2 -0.581325 14.7772 8.85403 14.931 0.00978065 0.00970435 -0.00877628
114 2 -0.582215 1.90847 11.0461 3.72381 0.012089 -0.00408445 -0.0114605
115 2 -0.559324 4.61621 9.90095 4.36825 -0.000385102 0.0204495 -0.00886851
116 2 -0.675176 3.42734 10.934 2.04996 -0.00414253 -0.00284696 -0.02186
117 2 -0.718224 2.40766 13.338 5.84295 0.0211773 -0.00838013 0.0181242
118 2 -0.6582 15.2885 11.3831 5.93419 0.00827853 -0.00195082 0.0104312
119 2 -0.718808 15.3707 13.5117 3.99818 0.0118951 0.000581765 0.0014925
120 2 -0.757707 4.18526 13.5644 7.84866 0.00769705 -0.00574659 0.00837129
121 2 -0.58587 6.33176 9.9637 6.07587 -0.0197664 0.00276658 0.00827608
122 2 -0.69519 5.82928 11.8495 7.76797 -0.00409489 0.022539 -0.00498081
123 2 -0.771927 8.15016 11.7033 6.21034 0.019198 0.00465922 0.00648233
124 2 -0.724116 7.30477 10.0397 8.30779 0.00375467 0.0127067 0.00175075
125 2 -0.756007 5.11819 12.6893 2.43808 0.0160576 7.3298e-05 0.014661
126 2 -0.750179 3.89648 12.9465 14.7568 0.0102904 0.0173778 0.000450356
127 2 -0.659117 5.65473 11.0453 15.493 -0.00244337 0.00930605 0.00930006
128 2 -0.682918 6.89277 13.8903 2.04017 -0.00587341 -0.00136638 0.0119154
129 2 -0.779499 7.40169 12.6802 4.03382 0.00591351 0.00685949 0.000369246
130 2 -0.676176 2.43626 9.21724 9.29843 0.00702283 0.0148816 0.00058019
131 2 -0.833796 14.9021 7.64622 9.10006 0.00356453 0.0213957 0.00167943
132 2 -0.826734 15.4224 9.50133 7.56126 -0.0147797 0.00387925 0.00675287
133 2 -0.69583 1.78168 11.1858 11.0726 0.0122804 -0.00760654 0.0162226
134 2 -0.594797 3.87852 9.58732 11.9936 -0.00174687 -0.0092003 0.00577956
135 2 -0.501075 3.65887 11.2866 9.30238 0.00309484 -0.0124332 -0.00408919
136 2 -0.795056 2.24626 12.8266 13.0467 -0.000477128 -0.00205194 -0.00426596
137 2 -0.692541 14.7414 10.6285 13.339 -0.0176365 0.0162147 0.0111119
138 2 -0.671789 14.9153 12.7571 11.6572 0.000407888 -0.00726139 0.00101725
139 2 -0.688418 5.57193 9.86909 13.2905 -0.00777281 0.00617335 -1.84994e-05
140 2 -0.731006 7.3336 9.17224 15.0069 0.00339122 0.0154289 -0.0177986
141 2 -0.662411 7.84163 11.1116 13.5433 -0.0012884 -0.00607621 -0.0038737
142 2 -0.697123 6.15822 13.1171 9.87992 -0.0161462 -0.0086707 -0.00595569
143 2 -0.732118 7.5238 15.0123 10.0887 -0.0134278 -0.0063851 -0.0120567
144 2 -0.699279 7.78024 13.0317 12.0637 -0.00166163 -0.00298577 0.0090632
145 2 -0.650322 10.2872 3.01839 1.44223 0.00640239 -0.00757933 0.0162456
146 2 -0.750339 9.92052 14.9277 15.0773 -0.000233405 0.00072743 0.0163754
147 2 -0.623843 9.61568 4.10957 3.85808 0.0067871 0.00797389 0.00240844
148 2 -0.574572 11.4561 2.20521 3.93736 0.00408226 -0.0123904 0.000791586
149 2 -0.540366 11.9286 4.57446 2.894 0.00716043 -0.00394179 -0.0139378
150 2 -0.651674 9.87995 5.638 6.11866 0.00558492 0.00055075 0.00280446
151 2 -0.706265 11.0908 6.19899 8.31608 -0.019703 0.00436408 0.00370994
152 2 -0.691578 10.9757 7.58606 5.73232 0.00929723 -0.00687111 -0.0166714
153 2 -0.604384 9.10528 7.90323 7.6537 0.0060246 -0.0180819 0.00178058
154 2 -0.62167 13.0995 2.4568 5.82528 -0.0135726 0.00352718 -0.00329819
155 2 -0.657996 11.3405 15.1938 6.32883 -0.0106064 -0.00283929 0.00099541
156 2 -0.684345 13.3591 15.3798 4.01999 -0.00505833 0.0197525 0.0144646
157 2 -0.698391 12.7756 4.43287 7.64513 0.00933126 -0.00510242 0.00926255
158 2 -0.57334 13.1164 6.43031 1.86826 0.00135145 -0.0102091 -0.00245758
159 2 -0.598194 11.2196 5.66569 15.1248 -0.00787986 -0.0106784 0.00570473
160 2 -0.721411 13.8823 4.47779 14.942 0.0113172 -0.00242843 0.000766526
161 2 -0.645076 13.2062 8.15841 3.7385 -0.00535318 -0.0128987 -0.0275214
162 2 -0.6941 9.28929 2.23625 9.98668 -0.00175348 -0.0067443 -0.00815203
163 2 -0.64728 9.35051 14.9835 8.21405 -0.00309053 0.0124689 0.0100114
164 2 -0.698953 9.85521 4.19031 11.6341 -0.000732506 0.0192644 0.00838188
165 2 -0.593038 11.6724 2.03396 12.1012 -0.00224291 -0.00278429 0.00207527
166 2 -0.552102 11.1463 3.61514 9.61645 0.010995 0.0118324 -0.0052405
167 2 -0.699548 9.35685 5.63482 13.4144 -0.0081847 0.00490974 -0.0221871
168 2 -0.647592 9.85638 7.69704 15.2323 0.00869077 -0.011652 -0.000527969
169 2 -0.637355 11.5863 7.20768 13.2178 0.000665276 0.00980986 -0.00621298
170 2 -0.639974 13.9892 2.17395 13.2203 0.00218854 0.00074608 -0.0111398
171 2 -0.780148 12.0448 14.6493 13.2111 -0.00645932 -0.00602215 -0.00150916
172 2 -0.668603 13.2744 15.0298 11.0314 0.017291 0.00338639 0.00784426
173 2 -0.711488 13.0687 5.91548 9.96297 -0.00517956 -0.0010182 -0.00365736
174 2 -0.751069 13.57 7.74521 11.2934 0.0410365 -0.0048291 -0.0139645
175 2 -0.579945 9.2582 9.8978 2.41256 -0.00408007 0.0150084 0.0125217
176 2 -0.609273 9.14436 11.3179 4.04908 -0.010142 -0.00930737 0.0100888
177 2 -0.790049 11.1788 9.60555 4.47422 -0.00575727 0.00263744 -0.0176495
178 2 -0.71436 11.377 11.6967 2.68547 -0.0101624 0.0146872 -0.00612866
179 2 -0.691087 9.44129 13.8215 5.51195 -0.000965425 -0.00592128 0.0036901
180 2 -0.693642 11.7195 13.4448 7.80648 -0.0076366 -0.000628628 -0.0158788
181 2 -0.786373 13.2029 9.47244 5.79189 -0.01605 -0.0134164 0.00228998
182 2 -0.768742 13.4276 11.4213 7.33716 0.00251349 -0.0255007 0.00766112
183 2 -0.806933 13.4299 13.25 2.25104 -0.0103817 -0.00599845 0.0203336
184 2 -0.762857 11.6107 12.9365 15.2949 -0.00526758 -0.00381666 -0.0106534
185 2 -0.766708 13.2213 10.8746 15.8595 0.0149581 -0.0284117 -0.00241881
186 2 -0.655618 9.72605 9.5227 9.51648 0.013812 -0.0091763 -0.00693928
187 2 -0.655909 9.50427 11.6471 10.9941 -0.00801608 -0.00949189 -0.00881055
188 2 -0.744372 11.2334 9.22016 11.2005 0.0021836 0.00168098 -0.00625698
189 2 -0.700012 11.6892 11.1757 9.25142 0.0176138 0.00693202 -0.0104669
190 2 -0.719413 9.92399 13.1835 12.9678 0.00379475 0.00643668 0.00625752
191 2 -0.701651 12.5389 9.59995 13.2213 0.01364 -0.0168415 0.00641579
192 2 -0.703055 13.5204 12.9615 9.56177 0.00195947 0.0193718 -0.00884595
193 2 -0.62863 12.6951 9.09139 8.04551 -0.0184572 0.00440103 0.00486272
194 2 -0.580319 1.73165 8.96679 4.69928 -0.00203768 0.0210408 0.00111016
195 2 -0.578704 6.28402 13.9466 14.159 -0.00541986 0.00323348 -0.00538442
196 2 -0.598707 9.31277 15.7806 12.0741 0.0159955 0.0207095 -0.0121471
197 2 -0.573277 9.9993 13.9769 10.9853 -0.00370317 0.0105744 0.00173076
198 2 -0.629948 8.74438 15.7725 2.16345 -0.00847784 0.000883056 -0.00390661
199 2 -0.651832 4.48682 5.48384 5.25546 -0.0472859 0.0132887 -0.00348067
200 2 -0.548646 14.2539 13.5989 6.14354 0.0122065 -0.00244689 -0.00938419
201 2 -0.592216 3.76127 13.7171 10.37 -0.00229076 0.011015 0.0176745
202 2 -0.569302 1.35768 10.7275 15.2728 -0.0219558 0.00785131 0.00223638
203 2 -0.556901 5.07055 9.62777 9.66643 0.0109909 0.0265936 0.00291715
204 2 -0.684313 12.5201 11.516 11.3902 0.00806924 0.00188159 -0.00012839
205 3 0.396387 13.3658 8.52963 8.61587 -0.0240147 -0.0276901 0.0508834
206 3 0.355603 12.0882 8.55435 7.59817 0.025223 -0.0270105 0.00666262
207 3 0.359008 15.2661 9.32007 4.75732 -0.0175059 -0.0145199 0.049634
208 3 0.386436 1.8204 8.55118 5.66809 -0.012514 -0.0694585 -0.0135081
209 3 0.398399 7.14775 14.0011 14.1143 0.0286606 -0.0278064 -0.0467368
210 3 0.371636 6.15945 13.7173 13.1666 0.0222237 -0.0344517 0.0467785
211 3 0.411374 8.48945 15.6031 11.4835 -0.0289527 0.00265083 0.0955007
212 3 0.372709 9.05081 14.9653 12.782 -0.0392219 -0.0416722 -0.00553748
213 3 0.41479 10.4393 13.6933 10.2206 -0.0360571 -0.0299534 0.0361933
214 3 0.420173 10.5988 14.7242 11.276 0.0174038 0.106384 0.0236543
215 3 0.482302 8.34843 15.1182 2.59776 0.00189782 -0.000778116 0.00560561
216 3 0.430174 7.19903 13.255 15.9757 0.00190912 -0.0222033 0.0087338
217 3 0.381902 5.00643 6.23685 4.98898 0.0537102 0.0470721 -0.042046
218 3 0.443202 4.2692 5.15033 4.46863 -0.0359914 0.048021 0.0218738
219 3 0.315456 13.7332 14.0479 5.51 0.109958 0.0265115 -0.000659482
220 3 0.339139 13.2201 13.1633 6.45408 -0.0378489 -0.00786403 0.0358951
221 3 0.370567 3.77478 13.5661 11.6308 -0.038085 -0.0111561 -0.0581488
222 3 0.389362 3.11277 14.4969 10.2031 0.00788838 -0.0282817 -0.0177932
223 3 0.466694 13.2564 12.0281 11.5802 0.037424 -0.0280006 0.0323873
224 3 0.444885 1.60728 11.0507 14.7088 -0.0256327 0.000454031 -0.0843614
225 3 0.370319 5.39082 9.57041 10.6815 0.0205558 0.0400856 -0.0125852
226 3 0.450562 5.89937 10.0474 9.09356 -0.0211214 -0.0645219 0.0387536
227 3 0.371572 11.9153 10.2444 12.9831 0.0185565 -0.00751739 -0.0452852
228 3 0.362749 12.9361 10.6016 11.4623 -0.00845665 0.0705243 0.0350762
