LAMMPS data file via write_data, version 29 Aug 2024, timestep = 320000, units = real

216 atoms
3 atom types

1.3496898117484015 15.810310188251485 xlo xhi
1.3496898117484015 15.810310188251485 ylo yhi
1.3496898117484015 15.810310188251485 zlo zhi

Masses

1 28.0855
2 15.9994
3 1.008

Atoms # charge

2 1 1.404392379519543 3.0133371817163632 3.4443224168305204 3.061253328960337 0 0 0
5 1 1.348299939425605 4.918198408451815 1.6443000727447374 5.116037885302623 0 0 0
70 2 -0.6280596083602169 4.363591618319987 2.6367035851506566 3.8834105391673015 0 0 0
87 2 -0.5911347828769353 5.851012849869495 7.741944402730602 4.1563431579851144 0 0 0
8 1 1.433576300192281 6.744022147724943 7.145986122732553 2.9339689942744505 0 0 0
65 2 -0.8013231731525103 2.3888334557658872 2.3978274174320164 2.1233263462934113 0 0 0
88 2 -0.7621759485574654 7.880450053886563 6.377543377365474 3.6060535718905924 0 0 0
84 2 -0.8383047232423922 5.734534263007436 6.1754288820333985 2.021473733203691 0 0 0
69 2 -0.7886666951572305 1.8899980843045823 4.305622751624866 3.776743713813677 0 0 0
72 2 -0.8503007426580966 2.4509414500504088 5.845312665468983 5.422630729265382 0 0 0
76 2 -0.7362361260104271 4.195942522885617 7.596317884563918 5.8753164414319405 0 0 0
82 2 -0.527496345296885 7.506002098725735 3.806625198998239 5.319104352652142 0 0 0
71 2 -0.6505452121658292 3.6908798833828604 4.806710238077156 2.5648282154146798 0 0 0
89 2 -0.7181930151122299 7.164251232517239 8.229000847200572 1.7854274799334615 0 0 0
35 1 1.31251222039721 8.383851091526317 5.048102097075628 4.540171553528881 0 0 0
7 1 1.713147538274864 4.760648374367296 5.353800244814858 1.3675933306099566 0 0 0
83 2 -0.8013886365842302 7.507892725574222 2.7516990104862984 7.944237607684883 0 0 0
77 2 -0.6578387821836676 2.294586695607176 7.668891595254872 7.115967775584003 0 0 0
10 1 1.377391953867671 3.483631769790815 3.5523251506840947 10.146705643437643 0 0 0
15 1 1.256705833494584 5.114386695834088 5.458105365805245 8.577890700402282 0 0 0
16 1 1.384772068345709 6.969780707188687 6.828840346302677 10.717699949572827 0 0 0
75 2 -0.7504881776246224 3.9345449300034443 6.028792052486995 7.837928686067144 0 0 0
90 2 -0.7434637448320429 2.610332981814726 2.5322246898422525 9.251857927574076 0 0 0
81 2 -0.660741012308921 6.186108409436368 4.904006827606365 7.170797342411227 0 0 0
4 1 1.625154890358574 3.2488559598518636 6.656854122948055 6.511549973743436 0 0 0
6 1 1.417917591697716 6.570740722300866 3.467387297436684 6.915232046443122 0 0 0
96 2 -0.686755926905426 4.249823464560314 4.833742284901026 9.88284821016482 0 0 0
107 2 -0.6498730837920688 6.059234921705216 6.404679537916735 9.514742415289431 0 0 0
110 2 -0.67687207496322 8.201405998891158 7.312503610921349 9.692361086340068 0 0 0
9 1 1.494309241858012 1.3980230401078682 1.6548453514594688 8.704100246964112 1 1 0
95 2 -0.7520808519448232 4.280340854636934 2.382869071610018 10.862718642697104 0 0 0
78 2 -0.7744284841941681 5.483187860678589 2.6088386161879074 6.318895854416331 0 0 0
41 1 1.504942484504513 8.550944341435677 1.8243461701106953 8.470125918767192 0 1 0
11 1 1.467642044064017 1.390919658953069 5.095791196150367 12.065254808211366 0 0 0
12 1 1.508270819563229 3.1346730127682485 7.005367876873268 13.852195248318676 0 0 0
86 2 -0.8199336973823438 5.47498647720389 4.208931922312783 15.133742719351318 0 0 0
14 1 1.29959022658681 6.381817181106253 3.5642715693884632 14.047772157998699 0 0 0
106 2 -0.6535832339775488 7.585462784578924 4.54041577516316 13.629119243966922 0 0 0
100 2 -0.6909609484266361 2.2326712694334 8.171788511338551 14.524752725838889 0 0 0
101 2 -0.7641167649100784 4.132778973486761 7.907366501795351 13.16309696786353 0 0 0
85 2 -0.8351783413346833 3.752295927322627 5.929183483133194 14.881379717185627 0 0 0
97 2 -0.7075161951083677 1.9188897875844892 6.228663622433844 13.093769425604801 0 0 0
102 2 -0.6181912813749625 5.9429711393069224 2.3964419482892207 12.680397364271082 0 0 0
1 1 1.552894648940751 1.657017783530367 1.4459454055268162 15.50595911144803 1 1 -1
109 2 -0.6295620750906008 8.186423248410073 5.963271146246441 11.651022808283786 0 0 0
108 2 -0.8164128592646738 6.0100111787877735 7.757939326429927 11.512524872003086 0 0 0
105 2 -0.6092248587664549 7.235497327642249 2.5902247019883733 15.021403091628985 0 0 0
94 2 -0.6582551031757438 2.7226179680772438 4.504406471918098 11.398908769829466 0 0 0
33 1 1.319137549642706 8.365150644727429 1.4041987156276132 15.356210348054978 0 0 0
13 1 1.386181192526407 5.058577618513883 1.407927196054727 11.72726119645979 0 0 0
18 1 1.558299836077036 3.3868738244320764 10.463985772418729 3.2197908636189965 0 0 0
21 1 1.404457194896732 5.1013318983725515 8.85016428121412 5.341310060745552 0 0 0
125 2 -0.7411275343806729 5.4745401082726195 13.374810044126525 2.6612538957361402 0 0 0
24 1 1.26558006103127 6.657621667383886 14.18136833076044 3.3623745788106456 0 0 0
128 2 -0.5500871927094878 7.294998010799703 14.884786623931623 1.7886909610038488 0 0 0
115 2 -0.7183971452530764 4.344437038462383 9.791114541003944 4.170087093993567 0 0 0
129 2 -0.6192540262313632 7.743489268357923 12.96921105070374 3.879527734998099 0 0 0
79 2 -0.585682000898109 4.0131295765813615 14.84585540054127 5.360064607274881 0 0 0
114 2 -0.765385271499007 2.5574292817222197 11.32322159493429 4.161690036059894 0 0 0
116 2 -0.7233193157749893 4.44817631324684 11.299617318748469 2.536183480260055 0 0 0
80 2 -0.6637762296140334 6.042192834157513 15.209371501723778 4.467919960406757 0 0 0
111 2 -0.6194223590577154 2.4546419185521207 9.394888445073942 2.1428226597020665 0 0 0
51 1 1.161815952163857 8.511593928989832 12.346639117955414 5.023955335452765 0 0 0
123 2 -0.6495881865330148 7.4154337363792955 11.204006453654149 5.527356064443826 0 0 0
23 1 1.457407130261893 5.004814300629821 12.479295646993537 1.5797134301573104 0 0 0
143 2 -0.7374945787691839 7.560591799400264 15.46768755981465 9.42980100763844 0 0 0
124 2 -0.6886110843957972 8.244422503804435 9.460503097407058 7.972559910695328 0 0 0
26 1 1.36497927369305 3.0705947724702956 10.15709912101087 9.853174235678514 0 0 0
31 1 1.475886183621487 5.16512899861223 11.963139039020707 8.357801814862654 0 0 0
130 2 -0.7007919721603926 1.9354019288428939 9.508525746427523 9.005804155509608 0 0 0
20 1 1.10275744638176 3.2096300751379774 13.850694564755342 6.860747087484137 0 0 0
134 2 -0.7397990909555557 4.033397348946622 9.153843327076592 10.59488714554856 0 0 0
120 2 -0.6988741808492932 4.301244045040992 13.189378989116422 7.769988720435778 0 0 0
122 2 -0.7303995888776286 6.18838494455493 11.250710576719518 7.568681019613777 0 0 0
121 2 -0.7078726543354752 6.112032804878579 9.106396640081194 6.393529037506369 0 0 0
32 1 1.424870517060459 7.079381038578378 14.059396226163873 10.085026044372258 0 0 0
135 2 -0.7322559778018913 4.1581161324934195 10.876437156770814 9.02176461908029 0 0 0
142 2 -0.6414759958985642 5.878494596578511 13.063551754448318 9.30380544404802 0 0 0
91 2 -0.6555045955021002 2.137843993538488 14.925080216633052 7.914562626318414 0 0 0
198 2 -0.5799120239107476 6.798122517584383 9.365583569964413 10.219761324837199 0 0 0
117 2 -0.7122341413430291 1.9999245516399182 12.936345640598526 6.178921292806349 0 0 0
22 1 1.247670374342393 7.270331188794313 10.21701606531727 6.803319410460147 0 0 0
211 3 0.4040691918500661 6.60269385488862 9.957196636151666 10.974708255094676 0 0 0
208 3 0.4094945735127456 1.5079461282372932 11.77962978313528 7.823620536206897 1 0 0
144 2 -0.8640660455011092 8.014781618317134 13.135445909041731 10.93563750806669 0 0 0
104 2 -0.6989990896564995 6.048243743700036 14.79234458016981 10.902660474021811 0 0 0
212 3 0.3771948153001122 7.71274423734345 9.334277365843048 10.019191063899855 0 0 0
28 1 1.257198477049612 3.3843984130630425 13.900890837262988 13.695143969340464 0 0 0
126 2 -0.6649852357991363 3.937386798067827 12.715154302097389 14.920867109649368 0 0 0
30 1 1.643608892043101 6.1968474728643725 10.684046407846113 13.705794204849482 0 0 0
66 2 -0.6950087704203473 2.3582984204522455 14.654664231430182 14.695431209220795 0 0 0
133 2 -0.6436957362942648 2.5962960025893915 11.46279560154356 11.238868140363563 0 0 0
141 2 -0.8914376433767618 7.137949522548673 11.363566336245823 12.549622710003156 0 0 0
139 2 -0.8272538581111477 5.250967522742292 9.77607740322676 12.887488727449119 0 0 0
103 2 -0.633283840865841 4.353952376802114 15.160710548044793 13.075614098958223 0 0 0
29 1 1.559262515581657 4.859379438216326 8.652754993576922 11.883382105152215 0 0 0
136 2 -0.602773919618047 2.907237718192162 13.191859629375895 12.441026196776534 0 0 0
59 1 1.657016436427 8.272895070594164 12.192101963900965 12.041155812817632 0 0 0
127 2 -0.7651533366403436 6.005558776240713 11.628858553456288 14.828732736470467 0 0 0
49 1 1.454503599030637 8.262011900940658 8.880467509031497 15.217409473824326 0 0 0
140 2 -0.7536339177952982 7.33618583602985 9.7580056223497 14.17152184699315 0 0 0
27 1 1.327881975301133 1.5126359458671592 12.242163899163982 11.812526503290634 1 0 0
34 1 1.159518472065781 10.279693824575862 2.990267847480368 2.936590741130982 0 0 0
148 2 -0.6645658572188938 11.374267328701883 2.409523581238462 4.3123718610182165 0 0 0
40 1 1.509676442994818 14.063991109960671 6.712463018117066 2.975495767607642 0 0 0
204 3 0.3778294028257269 10.298556821754676 6.445797268483707 1.4111520831472937 0 0 1
37 1 1.405472745674903 12.281439771006388 1.4380107744383765 5.014419812005874 0 1 0
147 2 -0.6656305304080721 9.626306215982629 4.359126808480447 3.8390943975575764 0 0 0
203 3 0.4443675065235893 10.346404249695382 6.014585943433815 3.2479789756656716 0 0 1
112 2 -0.6078718941275971 15.164898708996978 7.447640557923444 1.9245965481971596 0 0 0
194 2 -0.642163330930846 10.721277722475222 6.320829890009031 2.3961833398941517 0 0 1
161 2 -0.6452871849499897 13.083230328037343 7.7195532319660645 3.5805783406422 0 0 0
149 2 -0.5845252810412198 10.940906131535268 3.7901516664974833 1.728891302670626 0 0 0
74 2 -0.7914209923314117 14.829789216580304 6.103760182047226 4.244937112282344 0 0 0
202 3 0.4083729204526098 12.305001428907232 1.7585969087964084 1.8617205474517504 0 1 1
150 2 -0.6811585276794173 8.935033719704606 5.530117416734022 5.852295630056519 0 0 0
145 2 -0.6420179839748473 9.117817914441563 2.231030243624094 1.8927254777234417 0 0 0
158 2 -0.7579721089403386 13.398155803440082 5.588429702563569 2.2397888242328214 0 0 0
152 2 -0.691250943669772 11.051226917858584 7.169175623463009 5.5860353062362895 0 0 0
3 1 1.656070993675479 15.754693359871078 5.058401639231311 4.931569248303124 -1 0 0
53 1 1.216857988921058 11.716297887091192 8.495843160264208 4.585226136776932 0 0 0
73 2 -0.8400279985326899 15.155696445145232 4.158363585767006 6.135185792243673 0 0 0
209 3 0.3821389768870672 11.456866894018267 8.223800730564417 1.4064133824818281 -1 0 0
36 1 1.438547131063229 10.208386848116238 6.3229617575396135 6.711795660358223 0 0 0
38 1 1.296471214446369 14.082045709351494 3.2383797538506984 6.729072675661965 0 0 0
42 1 1.377866931827669 10.523555996852897 3.139395686256151 10.578844992494947 0 0 0
47 1 1.355795786276643 12.18908707847396 4.647960929873717 8.584611835831632 0 0 0
162 2 -0.6851380672685883 9.541103995524507 2.8148334447979004 9.359944665898762 0 0 0
92 2 -0.7409062578365614 15.115379752377638 2.3649258446902883 7.611147935968316 0 0 0
153 2 -0.8146729108153986 9.690891238965762 7.318269251832723 7.655495342795727 0 0 0
151 2 -0.7325327214864751 11.086397959832828 5.23220868931725 7.548959401134091 0 0 0
25 1 1.246106828906927 15.513940128957088 8.392049058540923 8.26148521729079 0 0 0
157 2 -0.6056094466509691 13.15574007804891 3.4701449949402727 8.174252901553512 0 0 0
48 1 1.741508827835191 14.178966317736865 6.448507985399861 9.956774870383073 0 0 0
166 2 -0.6155259170695865 11.81577623243312 3.672980762181399 10.061526479180644 0 0 0
173 2 -0.8442401536600717 13.159343221375172 5.729766058460814 9.07435684885641 0 0 0
57 1 1.390613815180402 9.04615263002276 8.239337054086288 8.725370895359164 0 0 0
131 2 -0.8672096289815268 15.22279560259524 7.1083176266643795 9.196065610177765 0 0 0
163 2 -0.6975475388907595 9.741403768609311 1.4121315911361338 7.629345251789923 0 1 0
154 2 -0.7164823088110819 13.099485911896116 2.0227328558581377 6.225794898221776 0 0 0
174 2 -0.6300850141813631 13.375381262447043 7.548123141982857 10.715553176912975 0 0 0
169 2 -0.6460577982227422 11.27394545642544 8.332216260170796 12.501220981622781 0 0 0
44 1 1.183621623247042 10.957769890242703 7.346230475420815 13.750614194515599 0 0 0
43 1 1.278782618076678 9.011453157198758 5.0971694355724 12.715364805337785 0 0 0
46 1 1.408864208384604 14.222391140277285 3.0486016693165805 13.922307145921641 0 0 0
159 2 -0.5798139585525813 11.700454073425675 6.227844455509669 14.489231939075445 0 0 0
98 2 -0.6778006268623767 15.15387881656965 4.023007235807636 12.929679911668664 0 0 0
168 2 -0.7092459508946636 9.497106614655483 8.014550523833595 14.699070450201766 0 0 0
39 1 1.188079937634377 12.29193630311144 4.912573032546366 15.790772351880333 0 0 0
164 2 -0.6381909156577182 9.843088466665014 3.8979565462055454 11.854773719251336 0 0 0
170 2 -0.8287769504757874 13.059677591790656 2.0889241193615136 13.35904745668115 0 0 0
160 2 -0.5891826538522145 13.38297155972666 4.33980323148902 14.809146822003084 0 0 0
167 2 -0.6258593779448758 10.138056308804076 6.038915264993878 13.179971414328303 0 0 0
67 2 -0.8374979444072715 15.306571774638213 2.088288733056395 14.484257096544747 0 0 0
165 2 -0.5106738014459584 11.22840466938901 1.9961815229292725 11.510371175096653 0 0 0
99 2 -0.8181977320991789 14.65489309676049 5.633677563764999 11.124559407041222 0 0 0
193 2 -0.5927574892896998 11.595722966871097 1.8334015481304724 15.73719462714373 0 1 0
118 2 -0.7766196187464032 14.744368536216712 10.859108849171005 5.0100369529655415 0 0 0
176 2 -0.6011853433473906 9.520928017442397 11.52458546988408 4.13654449027884 0 0 0
50 1 1.223101763070643 9.828120659231448 10.295251089617109 2.812014563536349 0 0 0
177 2 -0.7015727325944724 10.508973550094007 9.17760114405562 3.837330056403138 0 0 0
68 2 -0.6897641207014046 15.007599963125818 15.303606559442116 1.9911525207274552 0 0 0
119 2 -0.7492064341177243 15.164508221079373 13.022229598412597 3.8131628846145187 0 0 0
56 1 1.299113896616017 14.255006638264177 14.251590028459091 3.1711548411385113 0 0 0
183 2 -0.634538081268562 12.960235875045157 13.538647773905744 2.39749944029893 0 0 0
19 1 1.410184218202865 15.757770578323308 12.036423346720898 4.822023246922017 -1 0 0
205 3 0.3996644739690685 9.66978765839359 9.968542266654392 5.905779259961309 0 0 0
178 2 -0.5965826432386921 11.419916455333478 11.218294115935713 2.3392184036615395 0 0 0
156 2 -0.7573737437724247 13.358758297390139 15.244078807599253 3.9539501496907667 0 0 0
175 2 -0.8221568525091869 9.048908596115536 9.828506606499415 1.6314328430006113 0 0 0
181 2 -0.7057650927925991 12.695309450862016 9.564831073221578 5.197008142772389 0 0 0
55 1 1.308381625022188 12.21065542806276 12.361381800529616 1.5263060688306136 0 0 0
155 2 -0.6060527040509159 10.996391345296642 15.100038197233767 5.604398560827581 0 0 0
54 1 1.350894375472839 13.928890709659802 10.141362140499313 6.047103606594608 0 0 0
197 2 -0.5760176171939989 12.262411226476187 8.70441414702236 1.5080830565612067 -1 0 0
192 2 -0.6753994592575971 12.99116633396324 13.560379550635792 9.58973664700563 0 0 0
132 2 -0.7037568599661915 14.742774269029832 9.70463398413454 7.2439611629499145 0 0 0
189 2 -0.5670997701067607 11.73358825485728 11.268235499594045 9.320316709282555 0 0 0
93 2 -0.7812619620487002 14.978214246534966 15.335383575366777 9.77529797377398 0 0 0
216 3 0.4741479531145096 11.748542338757296 8.911555510227759 8.642985487358908 0 0 1
195 2 -0.640967550728501 10.025004867892271 10.267621655123499 6.6781898261806125 0 0 0
63 1 1.019923181270505 12.491547003195073 12.54977462616803 8.261432814009822 0 0 0
186 2 -0.7191914782104527 10.345831744873877 8.977096101544225 9.407103495368844 0 0 0
64 1 1.522232152202257 14.12120175383919 14.185950495932001 10.429285181522248 0 0 0
182 2 -0.6305007612669972 12.722568718421904 11.118488633826109 6.811422172679524 0 0 0
58 1 1.169995878777519 10.516909094899079 10.611579716508036 9.989387887786684 0 0 0
180 2 -0.5877538122981333 11.022271020588555 13.458319225316192 7.90111895135214 0 0 0
200 2 -0.5968072102194584 12.647487324997124 9.063286996899109 8.498860540181893 0 0 1
207 3 0.3590030609068717 15.704134019945757 12.966569084105396 8.79448478441342 0 0 0
199 2 -0.6429043288619187 13.60598319093774 13.989475580335611 7.242272547714033 -1 -1 1
52 1 1.16903510910687 10.160715596655235 14.438689901819918 6.921158432859677 0 0 0
213 3 0.3728867947667331 13.944777414534595 14.790129144979137 7.9105677487978205 -1 -1 1
210 3 0.3663733760408721 14.428462462034673 13.658356998102015 6.8753017436747 -1 -1 0
215 3 0.3711857008294016 12.575768028187035 9.694011408318445 7.678325446065201 0 0 1
206 3 0.3977286019017281 11.021181835981162 10.763293140269205 6.765741108761086 0 0 0
196 2 -0.5896226177191629 15.476874932349435 11.932817297773244 8.594878804358569 0 0 0
187 2 -0.6204487920651874 9.23904429079496 11.265680819083787 10.778076931388567 0 0 0
138 2 -0.7313009374964167 15.394867346714017 13.44242379295467 10.811059048583484 0 0 0
179 2 -0.5733593996310489 8.731321842496872 13.840270031984836 6.296533014471328 0 0 0
137 2 -0.7309229156944738 14.783741625725447 11.565562979220392 12.65724162406444 0 0 0
60 1 1.425248917428315 10.231963778195725 13.69440616984457 13.874274005284935 0 0 0
62 1 1.203165388658978 14.11788015981781 10.77290917437097 13.87678816886818 0 0 0
184 2 -0.6492514781574773 11.02256459900161 13.190808000149985 15.38916384500771 0 0 0
113 2 -0.5954355652852091 15.202098213443408 10.401708956268966 15.169217337043348 0 0 0
188 2 -0.5676344691827911 11.775152633439099 10.219736921048613 11.08754864172786 0 0 0
191 2 -0.6223610489461208 13.175299396563824 9.55113826441631 13.388136571746179 0 0 0
171 2 -0.8599529671732289 11.297258324450672 14.428907955668514 13.091827352725126 0 0 0
185 2 -0.6610295741753252 13.18592881084035 11.856677755259524 14.783959934907795 0 0 0
190 2 -0.8336567051672751 9.353644676096204 12.695906662079762 12.873380861916537 0 0 0
45 1 1.474236199344663 12.402488606083741 15.401810127569261 12.719835315497617 0 -1 0
201 3 0.3791237868221177 11.577109112709019 15.794307253280397 14.824014305452042 0 -1 0
172 2 -0.7325180656001573 13.468750632499654 14.727760739844404 11.766212091520437 0 0 0
146 2 -0.7287280996640839 9.258846084498503 14.73633543530039 14.57382091704298 0 0 0
17 1 1.272997302462902 15.800407533805618 8.832808535374896 15.577311866470941 -1 0 -1
61 1 1.14693119620702 12.449614772272147 8.99988452905166 11.742190111433777 0 0 0
214 3 0.3845449660031651 12.256410611689654 9.633938757246597 15.52675639149331 -1 0 0

Velocities

2 0.010664722158919455 -0.001657181608944776 0.010384329827289198
5 -0.007941294113353072 -0.0020509963633363053 -0.0057331138701799495
70 -0.004551583049055407 0.017474626528867367 0.0006403469286637787
87 0.0031128568722534715 -0.006790046921651003 -0.004999529341335989
8 -0.014214066724842444 0.004473606810512297 -0.001402943530721812
65 0.00679599755308328 -0.010609701919895 -0.016261876943047357
88 -0.0071851409024675265 0.010224229155135179 -0.007011246934822144
84 0.011631626229528165 0.005219978284526356 0.008007580073950178
69 -0.003132400680835302 0.01037036735805668 0.030103897696270428
72 0.005855976038340589 0.01154732170861698 -0.01835898504124929
76 0.0031485714056068465 0.009322121880543367 -0.0004111295803408003
82 -0.0028283503361398936 0.004990966670028724 0.009721252171776391
71 -0.007219469725782652 0.006669007847936119 0.014009147147946517
89 -0.011303383734962593 0.014143203317810632 0.0006587134317823807
35 0.009456139311967373 0.01130017160564973 -0.011716363610764958
7 0.002814974686082626 0.001929815243553381 0.0007561616851763193
83 0.009913451773782028 -0.009007832974862854 0.0025319323091300343
77 0.009884028747379533 -0.0015838573214704147 -0.015121727751783528
10 0.005696926602192843 -0.004330388092553274 0.004038996818084702
15 0.0009656651446089214 -0.0028107737858981364 0.012083154053021626
16 -0.005518214576050847 0.007093703075802681 -0.0019034518259395496
75 0.004025668008109446 0.0017386321890423143 -0.0014615840721339188
90 0.01475986653900752 -0.018482156805548766 0.010953326064992448
81 0.0006357844046759359 0.014778874650777355 -0.00570396941175753
4 -0.0021252000731674225 -0.008974878185799675 -0.0018997778124244934
6 0.009146011371052578 -0.00673511770066776 -0.004580372937183695
96 0.02024750292220903 0.010199472056971448 0.013403013086925082
107 0.015250416538089277 0.010483752397358236 0.0015681525113867025
110 -0.006770495952787711 0.014822694058445836 0.007082271910544582
9 0.006822232264424434 -0.0036662929551964096 -0.0040772707989437705
95 -0.008577942116838598 -0.002109219655103358 -0.0009619189456781578
78 0.015179483728872494 -0.0191135346600779 -0.008190107719804178
41 0.004608411570063653 0.012001779344767788 -0.005052120114083033
11 0.001010878405737897 -0.00660683632847234 0.022587687953689577
12 -0.007329124148221398 0.0016207848334725196 -0.005758262158757133
86 0.008557508031348025 -0.004270240281305135 0.0038786555467077723
14 0.00642726082368446 0.0015418697917049546 -0.0004308534731716545
106 -0.0038777529377456406 -0.0021397082441387346 -8.621151302855196e-05
100 -0.009414630999279631 -0.0021015336479446177 0.0030468091522137743
101 -0.007576191482500125 -0.002351644828403635 0.00751559153769479
85 0.00576666001855817 0.011849742326411524 -0.00023429989579830577
97 0.004166988204890798 0.02685580170435333 -0.0007226993768412705
102 0.002533198474191928 0.0019904054516637136 -0.0006163222862246656
1 0.0013041278244791553 -0.004851201120017471 -0.0002249153444603463
109 0.01551034270221776 -0.016685042725007676 0.0025630790068919816
108 -0.0013956985009502655 0.0024735742725877172 -0.001963478269378784
105 -0.0004551308034719761 0.018501193246339392 -0.0094610642188012
94 -0.0006248155861176158 0.0004564398710544528 -0.02201831628129974
33 0.0006392414387917462 0.008400312130071072 -0.006968720147178447
13 -0.0040688363816817905 0.013035123190692915 -0.0065290753935982404
18 0.003445437521094719 -0.007335097681137263 0.005131744639020478
21 -0.0011648451945382074 -0.0031012387477616973 -0.0007805163602541226
125 -0.01604504051548031 -0.015001762945600544 0.0006632090897246038
24 -0.0023195038523874207 -0.007209159786828103 0.003364875693929517
128 0.012368930799142506 0.010407125089184895 -0.0045150775614629145
115 -0.012116072578116588 -0.010178192349129393 0.014369147650424638
129 -0.009495674390621107 0.01409755107795056 0.006159254409722086
79 0.0011444752788436355 0.0016486890419583347 -0.004667050130078502
114 0.013715353075684613 -0.03164215678429814 -0.006312954698048717
116 -0.015826398066853996 -0.01307031872971704 -0.009575033420496513
80 0.03179113274508546 -0.0030586455295681307 -0.00047778676759474635
111 -0.004340019238353545 0.00039555328953841683 -0.011680900198367554
51 0.005021565394964285 -0.00025221061568520345 0.01079991228372985
123 -0.015545083517311476 0.014294896640429804 -0.009716495026153982
23 -0.007813609027073856 0.003293904337350132 0.011578134251384802
143 0.0036369217632882408 -0.01457570347069442 -0.004766577371717571
124 0.006368917113640927 -1.7035774585623997e-05 -0.014465703535597086
26 0.00905605819368169 -0.004160146142708151 0.016191613259742818
31 -0.000780059318504771 -0.006388230337555577 -0.0046695399565150715
130 -0.009233207818187874 0.019469511185298372 0.0013169276653974527
20 0.0011917635536944013 -0.006833104396221368 -0.00043885965609826507
134 -0.02111227340392307 0.0068669908392359185 0.0020139886463208445
120 -0.016821408395168724 0.013534056799654397 -0.02107492531171144
122 0.02306724340597874 -0.008494617613095078 0.005643532865149623
121 -0.006614072341057994 -0.011603282216612684 0.0009736289599094897
32 -0.002319262070611957 -0.0013055972819910637 0.009449946389172697
135 -0.00602546350569084 0.0009980384398741151 -0.01397736324393703
142 0.0013066639410029294 0.01150261392180458 0.014013844819842925
91 -0.011800341425213431 0.012490791996183439 1.6554034738042393e-05
198 0.005333983774397852 0.0034464087335397122 0.014827172898952263
117 -0.00622623672819257 -0.008574551060687758 -0.007197692457506006
22 0.0007414308427953668 -0.006789429347757193 -0.010106170303516765
211 -0.051364761886537415 -0.06132689088611719 0.034751435976540804
208 0.05215472673061801 -0.051056888752491786 -0.01989748843216852
144 -0.0030404740709432322 -0.010897972872302923 0.008037033620918977
104 0.013894318846118877 -0.018423711987051502 -0.003476829631885636
212 -0.019908285378881455 -0.052889337286953886 0.03625290224074169
28 -0.005171457577639784 -0.0067341103588224385 0.009009174572963083
126 -0.010396522309492695 -0.000683566188208001 0.004030436533570711
30 -0.0025429823862782486 -0.006080869452380402 -0.004467898155314386
66 0.0017534801333460351 -0.00969532965792951 -0.02648947170883298
133 0.008118173177959634 -0.0002666676225579102 -0.005508059240369979
141 0.009264727486948655 0.005554553577678046 0.0022310436583469705
139 -0.0005960931459094959 -0.012690164223186825 -0.0029383153663676467
103 0.010399366073954724 0.009330712349740216 -0.0022961976507136325
29 0.007803546738741958 -0.0015475826569074915 0.007300853799542357
136 -0.009621071021529745 0.006234708794522428 -0.0032261335749349767
59 -0.0012779729877352938 0.005305613228351356 -0.003606386583318745
127 0.008171977464507974 0.016078660681369927 0.007629270570317072
49 0.003745979529722648 -0.01062237210845236 0.000977943405058837
140 0.021092173932079655 0.01712033620510264 -0.002442443897908561
27 -0.01169662396356794 0.011750021056735295 -0.0043302960778982555
34 0.002021504235694935 -0.001833116534003221 -0.00158252728688244
148 0.004549368282597614 -0.004770937045657463 0.009139742813278973
40 0.008085297743175757 -0.002659993334406294 0.004439430255093652
204 0.006019541294594787 0.062411028209897024 -0.044544134234084536
37 0.008299014009968821 -0.005253006907289643 0.002404079484673359
147 0.019362344930210055 -0.003926654698973996 -0.007448891146235886
203 -0.021541877148758923 -0.06214080858669288 0.05451756781020236
112 -0.003172004325705041 0.004278878330954029 0.01052752874125664
194 -0.003986172110629054 0.00526382157553309 -0.007535412255899718
161 0.007000946897688464 -0.005089302908456458 -0.010619802542670472
149 0.006063689228037341 -0.0077449748311189 0.009359073399687104
74 -0.007814364005508072 -0.002026831926508449 -0.009361325648747571
202 0.03991376369396984 -0.0852885638149153 -0.02879601879681439
150 -0.013560691883859713 0.01130748259712513 -0.008764912154794994
145 -0.020798516816096346 -0.00903289736138678 0.007135216400361105
158 -0.027326437110756458 -0.002888563749678491 -0.004689916502446483
152 -0.00886364297269105 -0.005318103325942619 -0.011278624264080979
3 -0.0024979335620238575 -0.00855726417768593 -0.011583782905541353
53 0.009778205344704721 0.006565873512521559 0.0036412202377932544
73 -0.003690424378115316 -0.01647872785766228 -0.014384994674728434
209 0.027643587007750027 -0.033964245970462735 0.09860630896889415
36 -0.0008203322584008011 0.009240225189584486 -0.002046658968722728
38 0.001153114349108385 -0.009264620978625663 -0.006836526998727706
42 -0.007016400629520988 -0.013363644195082226 -0.0012241024568490305
47 -0.016444099249099287 -0.006531247219119863 -0.004533299796809173
162 0.002719811596508203 0.00461763065131011 0.0001768877397297223
92 0.011594373702140363 0.004036531503532816 0.006693357457009849
153 -0.01269657924347657 0.0015218643453387374 0.0064554532439759
151 0.007773464237717356 -0.013767693421549806 0.011961957948616589
25 -0.003015561164150307 0.01365224973673418 0.014569426160326231
157 -0.007694035126532941 0.005501852736237128 0.006233346487536728
48 -0.005598902515053238 0.00529030040189936 0.008998843280819437
166 -0.004827424414691839 0.006746899555923732 0.014102909747342098
173 0.013143113344683082 0.005264519291068817 0.009356368344354724
57 -0.0008007116645857231 -0.0024763841705643464 0.0003494962868757073
131 0.0015168682259915462 -0.011584597031215197 0.010169082441040998
163 0.011968954367360451 -0.005684903600740745 0.008571051533398532
154 -0.010029331125415705 -0.0023942297303547653 -0.006239413143585828
174 0.0032690317931621735 0.003466941981493945 0.005351781438018611
169 0.0025605011480661606 0.014830033719058078 -0.0007363197712803441
44 0.004124975899574395 0.010120836307024992 -0.003558533437967626
43 -0.004551459812523708 0.007141714736878616 0.0025332647171741854
46 -0.005417116498212449 0.007800905063695911 0.0066102727756255026
159 -0.004429304184610704 0.0036880145395550372 -0.00519841545197661
98 0.002705252466048233 -0.005119835107841311 -0.004405471392182554
168 0.019075235113589273 0.018317462572783536 0.018887926458268908
39 0.005932329285070158 -0.009377693896422425 0.007417476458259352
164 -0.02680781055860104 0.009471697349133758 -0.005383479762897677
170 0.02225723736089153 -0.01903402101338525 0.0031237933853140213
160 -0.008540646052329983 -0.009845438682893972 0.009758804249072517
167 0.007862251297712458 0.009341793642066405 -0.00038560963956396887
67 0.017479583738655605 0.020589769514295714 0.014239873335152123
165 -0.012175269920405626 0.0029327048039005706 -0.0029824219467841856
99 0.01615404803470011 0.011466792937691914 0.0049550791704411346
193 -0.004909746685066505 0.0004975178916770169 -0.016709999457673094
118 -0.015514738935457248 0.008012161496217769 0.0010258269466751951
176 0.018100819290679297 0.0028446295507295162 0.009976850526207545
50 -0.01333807550634544 -0.009811095941159307 0.010122214356570776
177 0.01767943567374236 -0.026402111100149086 0.000454670224290529
68 -0.005917870860406485 -0.0005418803053368986 -0.003656502504978572
119 0.00793612429847647 -0.003400710446845848 0.007274875367425818
56 0.004174090585627369 0.007800403282768386 -0.019548114628649645
183 0.01855178599841689 -0.0027326215353151184 0.003441477659337198
19 -0.008812621476943852 0.010438601819526726 0.0034853949625274017
205 -0.027856077672054842 -0.07029649901813675 0.03423082276662768
178 -0.01529471868195708 0.002716711934401576 -0.00893202375914045
156 -0.0047425826677659644 -0.014743862564300004 0.001440250611779405
175 -0.0019466308393456906 0.014466607041906613 0.011316851083878221
181 -0.011047034289756539 -0.0034076091561153535 -0.0030453608048284435
55 0.0012354779900878093 0.004043527301144617 0.006855305975977038
155 0.0039769194864243285 -0.010092996607597212 0.006733878569589069
54 0.006129539522280346 0.010220002164551809 -0.009331417835404275
197 0.007112751570989284 -0.012670263664250303 0.00613609828800849
192 -0.005514009951573674 -0.00629475932757226 -0.013849961502221595
132 -0.001997809522663996 -0.004438795297693779 -0.0011011462207591916
189 -0.01531033447304771 -0.004624906769255456 -0.003897455521197751
93 -0.008234316208002189 -0.004502761164125456 -0.002062751340495845
216 0.0399866342056477 0.010165581202352498 -0.04992369952391112
195 -0.010782867080378036 0.0015169532100066142 -0.012272811320176952
63 0.0026135018241628424 -0.006577651656799859 -0.005078330235029053
186 0.017412624340946377 -0.007946821082063975 -0.002455762868374611
64 0.0023659452746386585 0.004842175257853774 -0.0120473643081016
182 0.00849087630079434 -0.0027757473931130255 -0.0024334478573759693
58 0.012027356620999284 0.006895238933476185 -0.004203397931064785
180 -0.011241175180900087 -0.02068365727261993 -0.001312981785281772
200 -0.008800263641412929 0.004199211812535311 -0.016059273271951346
207 0.003006614928636091 -0.014670011561476275 -0.039569402958528024
199 0.009069180586476487 0.0007863955230944874 -0.0017050067104715347
52 0.00885520733701664 0.00866109863353061 0.006472313084315833
213 -0.048986389542692646 -0.035219097168316775 -0.07123233546273303
210 0.060237550723417126 -0.008676916281965754 -0.04029454782196834
215 0.00548750928128191 -0.10087964159237268 -0.0661073087800104
206 0.04320835652686756 -0.015023824398242246 0.03624851086866609
196 -0.0009958761865395595 -0.011249613773553815 0.003166570968080347
187 0.007276665573400505 -0.010089322388718201 0.015409265537848806
138 -0.00503147514603554 -0.005801737208839176 0.013469438127443861
179 -0.0162738978757577 0.0016382376781696028 0.012917228717406502
137 -0.010945807270089194 0.0066721737710863024 -0.00793084519421514
60 0.0012930643500933489 0.007832012046382984 -0.0035997850623696423
62 -0.0001820782392751618 0.004858653158232895 -0.0029003453047528635
184 -0.025074766557343676 -0.006317673877803965 0.003973791562696985
113 -0.0038886430030001477 0.01889923842781272 0.011089231637512607
188 -0.0015691717549987214 0.005489453057457829 0.005594977757979923
191 0.008560093344778877 -0.003151032306311495 0.005060943758662396
171 -0.01570642451359924 -0.015299735834091907 -0.010569003790917101
185 -0.01753926942917917 -0.005242639471025402 -0.006109282982695178
190 -0.009138066101613003 -0.003824926021128605 -0.023507286747261127
45 -0.007792487246824649 -0.006339007009727023 -0.002404271861921078
201 0.03166479442660725 0.018363831845743354 -0.028639017733377344
172 0.0012036803857894617 0.010389843480389054 0.0017943132757229502
146 -0.010231016545620692 -0.006616473838429203 -0.020852210526009114
17 -0.012531197289409846 0.007778835842441219 0.004975093808120253
61 0.01151463604709496 -0.009716156821430377 -0.0024312415811043792
214 -0.035605909468334335 0.02876759382120532 -0.042449484614068236
