LAMMPS data file via write_data, version 29 Aug 2024, timestep = 240000, units = real

216 atoms
3 atom types

1.4978100229165525 15.66218997708392 xlo xhi
1.4978100229165525 15.66218997708392 ylo yhi
1.4978100229165525 15.66218997708392 zlo zhi

Masses

1 28.0855
2 15.9994
3 1.008

Atoms # charge

2 1 1.918977929828022 3.278793405192734 3.2283027443795813 3.3707183587665126 0 0 0
89 2 -0.8983238377589186 7.617507456079888 8.002737294357974 2.321109656697369 0 0 0
87 2 -0.8811918799651819 5.866382449071627 7.491745338535098 3.965554356745053 0 0 0
72 2 -0.7820421201918223 2.261288942121211 5.892210890283849 6.091351999096269 0 0 0
8 1 1.790414288689692 7.047261324219723 6.786506056691109 3.1727643028642767 0 0 0
78 2 -0.8854783078258492 5.7604680761354325 2.5099792497300095 5.59460232384878 0 0 0
88 2 -0.9489886700007005 8.089737704580145 6.118812152967504 3.982538361357328 0 0 0
65 2 -0.8580249840988989 2.303877557695815 2.6420694299546454 2.3648737095093244 0 0 0
69 2 -0.8464564262790779 2.493482117191178 4.0560071321638365 4.392868394729141 0 0 0
70 2 -0.8784030426592718 3.9137012266497346 2.0843120987564414 4.0967748704320375 0 0 0
71 2 -0.9185755413977046 4.273048029625398 4.1512133499205905 2.7529256287402335 0 0 0
82 2 -0.8982514562743605 7.397657007568442 4.350506316262351 5.657286698952305 0 0 0
84 2 -0.8923509892232514 6.306075604766026 5.785743588698136 2.2464949926030258 0 0 0
76 2 -0.8135324802980666 4.002218305519428 7.718537498663157 5.851588227385115 0 0 0
21 1 1.688911143792788 5.193673017186155 8.403900760285225 4.933274628744263 0 0 0
7 1 1.680896798271246 5.193571737532973 4.825635307331089 1.7015912713309116 0 0 0
35 1 1.880957840727339 8.55579390404699 5.094886665532364 5.051186267209704 0 0 0
193 2 -0.5819266850281686 8.501319485464945 1.7231420069338577 4.875688041377044 0 1 0
4 1 1.665500919060547 3.264332321738217 6.90595364965971 6.932638874928918 0 0 0
6 1 1.587300030879349 6.586570788276486 3.380404681933193 6.5593007998914175 0 0 0
10 1 1.583862435423167 3.4595823035491433 3.2407521190710904 10.26640444418867 0 0 0
15 1 1.635718781725134 5.076545134779506 5.300095540217668 8.758160697293263 0 0 0
16 1 1.81322888048947 6.921256031282932 6.881408955399058 10.47806336911339 0 0 0
75 2 -0.8826555219116801 4.032486363649043 6.137741112064921 8.000985890622387 0 0 0
77 2 -0.7987717839235327 2.2132117871627788 7.803920644607972 7.641839993021169 0 0 0
81 2 -0.7179456823745718 5.611253694764938 4.433205562771617 7.365234350610638 0 0 0
83 2 -0.7742630007330819 7.221744015959816 2.327721705886817 7.572183803754526 0 0 0
90 2 -0.8891239723436462 2.5492488822169523 2.2720286813656596 9.434756726692122 0 0 0
96 2 -0.9048732494275316 4.122783838493771 4.259636649203099 9.379475641915663 0 0 0
107 2 -0.9757679712938655 5.946152242387472 6.047750985124686 9.794142291489983 0 0 0
110 2 -0.9587672368945319 7.913796008081603 7.505277483166564 9.616678285085044 0 0 0
206 3 0.4204533827000503 2.350276619893795 4.642511235088332 9.00144603097774 1 0 0
195 2 -0.5615717318770168 1.5312517522411284 5.121199419514971 8.604289179461528 1 0 0
9 1 1.670701320467586 1.5814439621031098 1.5372493295417446 8.49487735085594 1 1 0
57 1 1.63590890428403 8.55665582762893 8.534579999994975 8.669654800899025 0 0 0
108 2 -0.8001384268997519 6.062473703781888 8.046424138959441 11.02143704742824 0 0 0
12 1 1.704046815765504 3.446745899840222 6.624163952361835 14.017128656142567 0 0 0
106 2 -0.8774377566439714 7.785248016666976 4.100982244214183 13.205829182181606 0 0 0
14 1 1.820226251691463 6.870972585842318 3.1490531043296155 13.929661657562654 0 0 0
105 2 -0.8626747411045297 7.49789299424331 2.3714930458374597 15.139871525364907 0 0 0
102 2 -0.8951056952727735 6.196567575870822 2.2071754035590567 13.000977181596433 0 0 0
85 2 -0.7658431608929571 3.9807081284835903 5.625547892592815 15.042812823021109 0 0 0
86 2 -0.8958027350175882 5.92041430185397 4.051953125414381 14.736123163567203 0 0 0
101 2 -0.8496131258002558 4.511442188233619 7.103621356896955 13.062246905229724 0 0 0
11 1 1.491745445097789 1.6595538790492357 5.1790606439504145 12.108061911348859 0 0 0
97 2 -0.8504342225528984 2.3009549276658294 5.831045585863265 13.277972482173123 0 0 0
100 2 -0.8993043942871517 2.7583654904305557 7.855946295485058 14.664624991877762 0 0 0
29 1 1.56413756915895 5.107877201463258 8.420081414449896 12.243750282390096 0 0 0
94 2 -0.7679330689517965 2.535724554854628 3.979312516748218 11.322525791064368 0 0 0
95 2 -0.7552317825658256 4.621184626378536 2.4251519824513563 11.041640388371054 0 0 0
208 3 0.4190922304008198 7.95702320424498 4.676712800308331 15.602771590115918 0 0 0
109 2 -0.7980654147271058 7.5520522453273085 6.049720695847736 11.756941787976373 0 0 0
17 1 1.649122920441985 1.631732035056082 8.542457829084135 15.512840936156625 0 0 -1
43 1 1.564175416520744 8.565345345715567 4.934566236211858 12.08798920958218 0 0 0
18 1 1.782009103104664 3.1872944711460414 10.240182209215032 3.278882556542099 0 0 0
128 2 -0.8318121729988911 7.8331871957294466 14.683572276169919 2.5864301507552248 0 0 0
125 2 -0.8602728378991253 6.0583033601957 13.001192813374448 2.1565134993956323 0 0 0
24 1 1.654674519356233 6.738138777539893 13.734878491230777 3.2413305445603102 0 0 0
5 1 1.696920207527062 4.947391215599483 15.549803014121906 5.0805761740136415 0 -1 0
80 2 -0.7963365820194748 5.800728065006857 14.82181149939576 3.946609020115811 0 0 0
111 2 -0.8747904896026196 2.5039966840161183 9.238544548415348 2.339207820135151 0 0 0
114 2 -0.9507287400750202 2.2076682137732573 10.844885402402063 4.159573383130072 0 0 0
115 2 -0.7625084537776886 4.3420915068806964 9.502697092623475 4.1766163485819385 0 0 0
116 2 -0.8284772870494732 4.10312313754091 11.297006431859021 2.5506063072521576 0 0 0
129 2 -0.8410575149384858 7.730885662266004 12.643978338529653 3.8098297179633156 0 0 0
123 2 -0.8418614861999364 7.928347198496361 11.146383974267557 5.932187915118838 0 0 0
79 2 -0.8849785372977745 4.226938336438676 14.414555865298105 5.901385092960529 0 0 0
117 2 -0.9460223293727976 2.259499149481024 12.68148705068528 6.015063819713611 0 0 0
121 2 -0.7990298340267251 6.251233620240732 9.1968866025314 5.673192935464577 0 0 0
202 3 0.3982450583317873 8.476519635334487 15.158597991304742 5.3912685945730825 0 0 0
198 2 -0.7137698077320275 6.96016315893312 13.861910225925076 6.951581952496674 0 0 0
22 1 1.395532720755288 6.9337728900876225 10.25596161469279 6.69241941685337 0 0 0
26 1 1.552018746709748 3.234990903554161 10.300079702892777 10.457564190986478 0 0 0
31 1 1.508994085714104 4.946469233498979 12.05873280878799 8.681140554354194 0 0 0
32 1 1.732699478443582 6.778452704955709 13.770947290474123 10.357848756966813 0 0 0
20 1 1.647901869571619 3.1010055034824404 13.747074467279596 6.74275782380621 0 0 0
91 2 -0.8652293968217101 2.086704064555508 14.84371142242209 7.316204707555463 0 0 0
120 2 -0.7668413530725743 3.9595981992731986 13.134571113249592 7.979658165261408 0 0 0
122 2 -0.6885411053806145 5.543689686575836 11.465625260325961 7.344332270739294 0 0 0
124 2 -0.8161362378168562 7.438312399999447 9.386662844466512 7.85270056080076 0 0 0
130 2 -0.7688088899886378 2.2347344757072958 9.641072749729904 9.561739412236285 0 0 0
135 2 -0.7459802710341534 4.35567659518966 10.853803218228443 9.445014401578643 0 0 0
142 2 -0.9430968692646519 5.701162734393664 12.878470941769201 9.73763531448304 0 0 0
143 2 -0.8561906453626276 7.567131288352703 14.584806058153422 9.45926295827597 0 0 0
215 3 0.3308922044674862 7.610287776217478 12.268811029525015 8.708970813474643 0 0 0
211 3 0.4146210893689512 7.807880322494025 13.584010685404277 6.727086327949093 0 0 0
41 1 1.476308634894831 8.369197629282475 15.463726180442606 8.296018935163787 0 0 0
212 3 0.4283195665673488 6.233937181269442 13.528087645740335 7.354064353572333 0 0 0
133 2 -0.7412091501725613 2.343982444836793 11.54802482787985 10.914357404137029 0 0 0
28 1 1.793354030353116 3.2667477536314213 14.05903099351124 14.108377915640773 0 0 0
210 3 0.3691795583224773 2.441653237564824 9.854461400783848 13.402490682682068 0 0 0
30 1 1.677369323939213 6.888216215388915 10.340969218080954 13.825705137738119 0 0 0
144 2 -0.9297616120769855 7.9001979090313235 12.936401136436636 11.118864130243814 0 0 0
66 2 -0.8867823184695626 2.3191892484397476 14.862659017394744 14.992199249839686 0 0 0
103 2 -0.9198645120546737 3.950399490406518 14.95097018178246 13.164783327408578 0 0 0
209 3 0.3796334905746297 3.884461513330852 9.729757223299423 14.095574128463557 0 0 0
126 2 -0.8848565865745458 4.338813516299153 13.018757951604744 14.616091683319471 0 0 0
127 2 -0.8473394498225724 5.813818906728271 10.863081619337052 14.881850968826367 0 0 0
134 2 -0.8020991966759429 4.0341134059121 9.322161738205835 11.567413032476967 0 0 0
13 1 1.627970234554348 5.115707796293869 15.567171669376716 12.235989005281077 0 -1 0
136 2 -0.8257889385459228 2.457444189922707 13.15081528431054 13.168274589244469 0 0 0
139 2 -0.8705667714793885 5.974987914185471 9.199417628475388 13.210853457515839 0 0 0
140 2 -0.8758636967919174 8.118733044891169 9.746435544444118 14.611917285241823 0 0 0
141 2 -0.9925744777635274 7.613652343972344 11.30301389035407 12.898050581899792 0 0 0
214 3 0.3964356933074031 4.8762984328549575 11.650925383331618 12.878375266844365 0 0 0
197 2 -0.5696143761932682 2.9842859800877095 10.32828425736379 14.056676899140587 0 0 0
199 2 -0.615708153259687 4.631152447823835 11.706158428139425 11.991734217457857 0 0 0
27 1 1.356948817865297 1.635908095910667 12.49489059678374 11.982972317557014 1 0 0
104 2 -0.8524615257324024 6.032738991125084 14.586077310786532 11.535787325268696 0 0 0
23 1 1.59607510239205 5.041597951472665 12.029026667241325 15.628911380918638 0 0 -1
213 3 0.40219369416138 4.6405493410854195 12.663936237593528 11.894535943333775 0 0 0
34 1 1.534700964407052 10.459901676171107 3.4951869283132253 3.26449278393145 0 0 0
161 2 -0.8782506517131594 13.29435776463355 7.480909353162027 4.244361068845766 0 0 0
40 1 1.712873870629702 14.267802586861553 6.72990364415642 3.2676929376619777 0 0 0
150 2 -1.026716395831556 9.404031480197993 5.6942657059618655 6.152005299601124 0 0 0
74 2 -0.8253622630973347 15.15931316108767 5.9053016931312 4.170422703916673 0 0 0
112 2 -0.8569720189681784 15.090946348470226 7.477843865079734 2.2779215333397778 0 0 0
145 2 -0.7813688577451842 9.798602083684685 2.273903220815258 2.5221299950423806 0 0 0
147 2 -0.8407739216951534 9.18164379964525 4.1764356935399505 4.071168720412295 0 0 0
148 2 -0.7869120242414646 11.552587025954185 2.4173413555164682 3.9173043816941293 0 0 0
149 2 -0.8390699861123926 11.372029770438676 4.541452238977852 2.575243478394586 0 0 0
73 2 -0.9883806734620221 14.76174904940688 3.967229472161925 6.116502277873206 0 0 0
158 2 -0.797346208447115 13.578886108866385 5.516066876662921 2.4600719269591025 0 0 0
1 1 1.731115106249841 15.466949848074059 1.6883996240393984 1.5243855078546205 0 1 0
154 2 -0.8701727292780174 12.81652955892698 2.3830077143229107 6.214409709656153 0 0 0
37 1 1.68440954744218 12.257896546603657 1.5624229336163857 5.009608705262574 0 1 0
152 2 -0.9153963594230003 10.901913391268135 7.549421505903063 5.5592920151785785 0 0 0
39 1 1.719468140518843 12.278488158744835 5.202914808907924 1.5663260594692345 0 0 1
3 1 1.702394687817349 15.57978700938433 4.864060747004645 5.243928621438766 -1 0 0
53 1 1.785926539265204 12.097245166991748 8.27094354062805 4.931565309517301 0 0 0
201 3 0.4042533132778137 9.457140728369883 1.7258597167806404 4.520886538082484 0 0 0
33 1 1.739773991410044 8.590768634991933 1.5410446515245888 1.7308501014370148 0 0 1
196 2 -0.5902814602944729 8.909707248666463 4.545646403456915 1.6082535447271835 0 0 1
36 1 1.751484659046861 10.240228854369562 6.76518521655282 6.72459004798485 0 0 0
38 1 1.661523741895686 13.679047862360022 3.321647220345831 7.024823689023748 0 0 0
42 1 1.598782177758853 10.083960135823556 3.258022320075181 10.053009910135067 0 0 0
47 1 1.73206078284646 11.923812349576025 5.222775521876793 8.64455402762159 0 0 0
48 1 1.640875232812707 13.81062216243544 6.828063694713294 10.412328041436645 0 0 0
92 2 -0.7941752227551631 14.685906150512782 2.5870944018740984 8.165648704879597 0 0 0
131 2 -0.8298566698910569 14.404363995713197 7.731109626733305 9.32249394748122 0 0 0
151 2 -0.9031714232342495 11.2656555292144 6.277957895955235 7.797577827040164 0 0 0
153 2 -0.8122804700958989 9.49074154987391 7.991937306559813 7.497970219849898 0 0 0
157 2 -0.8549134414229198 12.57621824648508 4.171563974035783 7.641651230556574 0 0 0
162 2 -0.7438435311375795 9.421416082254217 2.0517629147862797 9.168307879360519 0 0 0
166 2 -0.8665530176636554 10.775782955905953 4.393963632932236 9.175537096683346 0 0 0
173 2 -0.9096881263816896 13.031073347248043 5.844256140848246 9.58483777056463 0 0 0
164 2 -0.8397375118939401 9.083785317267552 3.987120111219666 10.88903799426092 0 0 0
205 3 0.4146879111875135 15.455656549892222 5.015957686668111 7.688583508481556 0 0 0
207 3 0.4214559703439095 9.228334684228702 4.9193691232599885 14.946863289100829 0 0 0
44 1 1.587172625161533 10.425768780473831 6.9929532582964 13.952453568499998 0 0 0
170 2 -0.8995393673754917 12.634622141794608 2.6594283876731692 12.945398245689358 0 0 0
46 1 1.818326616667229 13.722240817375457 3.4309079997068634 13.751492128945245 0 0 0
169 2 -0.9144259452292155 11.391953163695124 7.700296043385635 13.108531149720594 0 0 0
168 2 -0.8793112887695362 9.314153553019096 7.691093114701757 14.742617716108246 0 0 0
67 2 -0.8711889452963176 14.403200903400986 2.4764850044234232 14.76245354934467 0 0 0
98 2 -0.8350208840329785 14.625759778216036 4.229293542109591 12.887996442150065 0 0 0
204 3 0.4530657383493897 15.28216264746991 1.698123486008143 11.472366519851576 0 1 0
159 2 -0.8433270785583096 11.245764428491277 6.1087393376282035 15.085179628231739 0 0 0
160 2 -0.8934518089110434 12.853024331502692 4.259979921216572 14.697427149481264 0 0 0
167 2 -0.7346518753486807 9.514465368248572 5.825247512243361 13.013729248013757 0 0 0
45 1 1.752249416359241 11.780771331852268 1.6843792420934967 12.137544654182811 0 0 0
99 2 -0.748348018190121 15.24018143494434 6.223712527264116 11.056194651855531 0 0 0
174 2 -0.8678075935954426 13.189798271614606 7.701290913612375 11.565397153187806 0 0 0
165 2 -0.8084152460317873 10.884134636716958 2.6040284676502568 11.294422527030836 0 0 0
183 2 -0.8079652855458117 12.872861531657392 13.206105791271213 2.5636141411994195 0 0 0
177 2 -0.8947591454413979 11.645705526027253 9.224513715069055 3.876924473448553 0 0 0
50 1 1.858767325273263 10.6636242724324 10.308491222315386 3.162554870775558 0 0 0
118 2 -0.9326983438305353 14.477585421739942 11.384348962263562 5.7475125588710165 0 0 0
51 1 1.686290830382365 8.754760262020362 11.955825143160595 4.816528543275991 0 0 0
178 2 -0.959585033427967 11.32820303428555 11.35694314193642 2.343788013641087 0 0 0
56 1 1.649960685799511 14.061812148319202 13.874014063952998 3.3328130511372693 0 0 0
68 2 -0.8708362642423292 14.895573342360823 15.006617884077322 2.569457365202556 0 0 0
19 1 1.880208936978731 15.650714732461832 11.96657779847423 4.990952923760133 -1 0 0
119 2 -0.8800685950919447 15.114245296156568 12.869282582994341 3.833380827046887 0 0 0
176 2 -0.9186679142816025 9.736266636642277 11.03582635753595 4.071332012951394 0 0 0
156 2 -0.8209456005125677 13.268517312038629 14.71027052145159 4.449395312383582 0 0 0
175 2 -0.8996006799793355 9.674193305268133 9.434627882293608 2.3405331131334925 0 0 0
155 2 -0.9250684817952894 11.10897557356867 14.851451653220625 5.629777936740681 0 0 0
179 2 -0.9267340626791574 9.572164317183141 12.946606324093882 5.654288623743145 0 0 0
181 2 -0.8511103933252313 12.836826540698674 9.155198188333294 5.929545029730703 0 0 0
192 2 -0.8063008330507832 13.082660358904622 13.248609193265882 9.362599728245836 0 0 0
186 2 -0.8680549887907933 9.203760192199537 9.558527341573498 9.617590257094346 0 0 0
189 2 -0.8670078801822793 11.114386556155296 11.344529206767572 9.43747400049488 0 0 0
52 1 1.786499132222073 10.454678460697707 13.887332280658256 6.545063883398609 0 0 0
54 1 1.711812279958333 13.72205376398842 10.369520890594199 6.57142574684818 0 0 0
58 1 1.718878924006204 10.401076256239854 10.302827977812523 10.309190855851412 0 0 0
63 1 1.656854239314453 12.112509141654638 12.142231710117041 8.481902742308662 0 0 0
64 1 1.563243944029473 13.591317476196675 14.250059995496539 10.309314432411824 0 0 0
93 2 -0.760504253290757 14.776581669187753 14.976671329174902 9.500244706935625 0 0 0
132 2 -0.7486458976252462 14.632246561166077 9.65564633817662 7.670731310115271 0 0 0
163 2 -0.8680272613029805 9.443994435417169 14.721827897874196 7.335450363742897 0 0 0
180 2 -0.8639074536166315 11.339952966499173 12.982858178750355 7.470753933860954 0 0 0
182 2 -0.8349317030315316 12.839443563995104 11.203701948156937 7.508353229892555 0 0 0
188 2 -0.8848138196020116 11.223610171306564 9.139610651849175 10.868822546907122 0 0 0
25 1 1.573282537737583 15.427988670700184 8.622719720670522 8.60803306856214 0 0 0
216 3 0.4165566521024822 8.749890165910784 11.155024996696422 8.219589692952967 0 0 0
200 2 -0.5804284118460991 8.595330665881102 12.020104812949686 8.48937322766827 0 0 0
59 1 1.907493499983339 8.58711910208617 12.109994150815812 12.142821413069619 0 0 0
60 1 1.831277123298614 10.010920954146844 13.989700145472781 13.872766287919859 0 0 0
62 1 1.391396655692917 13.811316473466213 10.484515524196212 13.95149675767724 0 0 0
113 2 -0.7567750418217547 14.54489526964948 9.498029528980691 15.168546585383531 0 0 0
137 2 -0.6357519483139745 14.903855663717891 11.244005037224497 13.059005621823221 0 0 0
172 2 -0.9234545371170703 12.67203620723707 15.254643247007884 11.027561235256243 0 0 0
146 2 -0.8998964206218777 9.247760452505567 15.152953306611582 14.70697132395976 0 0 0
171 2 -0.8748673241132936 10.98993262524231 14.828938123839905 13.047780305367148 0 0 0
138 2 -0.7446491131572567 14.811182351723748 13.529734784094401 11.258431948247914 0 0 0
184 2 -0.8267827874809467 11.054771285849366 13.352153875099383 14.82061002980219 0 0 0
185 2 -0.8097080337379233 12.850239344961306 11.591716974698567 14.579377590754572 0 0 0
191 2 -0.746231849966587 12.984817576043827 9.825703394641224 12.82678332771902 0 0 0
190 2 -1.017383316050478 9.471354589157157 12.920442688508128 13.053209460610066 0 0 0
49 1 1.843339795570502 8.60624326752513 8.752441089665425 15.623816560649555 0 0 0
187 2 -0.8036438330375644 9.749060840620572 11.148732829607027 11.43577116714874 0 0 0
61 1 1.622136401304388 12.098185564880406 8.607628231844998 12.060772272230757 0 0 0
55 1 1.697775199154262 12.018754062543543 12.352285465264657 15.625682143591927 0 0 -1
203 3 0.3608125370840778 14.650268073302627 14.968615978512101 12.465428340906232 0 0 0
194 2 -0.5885140411609814 15.431822744489295 15.64450012102358 12.27618531757496 0 0 0

Velocities

2 0.004720093884961301 0.004174194331341431 -0.0016206987132221591
89 -0.008221089007892191 0.003861509468720075 0.0003021833271495458
87 0.005161805205840107 0.011559980266806418 0.001675549709865179
72 0.012063828308501548 0.0037913686582204636 0.005248686924589388
8 -0.008932895926674756 -0.0022505999505988356 -0.005815175252765069
78 -1.1895519993613156e-05 0.018619053092989356 0.0010891570782907212
88 -0.0021960520591368855 -0.004118673951575352 0.010083867011121574
65 0.0078028501677004595 0.005493918030960005 0.006070390254979587
69 0.0014976435851470798 0.014572845590722888 -0.009295847209461515
70 -0.009606496842993872 0.0023867713680116205 -0.005719789513015001
71 0.014679616652428956 -0.013120538321876147 0.007749826044090647
82 -0.005379556484178814 0.004258309523699412 0.010220603619660203
84 -0.013682289354717039 -0.006235817329572901 0.011548315711700686
76 0.013296181437268172 -0.003776262837304421 -0.01134112446000095
21 0.0017390446720016218 -0.013656708398346071 0.00046361377638063706
7 -0.0014226335376196348 0.0007553264426473058 0.0017815296531362129
35 0.002505045221555974 0.005182832749461196 0.0017996544785309058
193 -0.009792913732425886 -0.004626038038159457 0.013762483872403627
4 0.002733732317729545 -0.0046993565540268 0.0023211030382866175
6 0.0072208795671169675 0.0041399944987041476 0.006837529498159036
10 -0.008099759405347944 -0.007177045957147137 0.0017674319063196115
15 0.002777214390141082 0.0050380714480381394 0.0012120745783598282
16 0.003910367680195024 0.0008732710542056005 0.006154657974114829
75 -0.0062456935246596864 0.003539776567914042 0.010485480502034548
77 0.0117439805989098 -0.0027549459751326703 -0.00640558745391574
81 -0.004774258709739751 -0.014970134046278148 -0.0021499337502818667
83 -0.011168871322400171 -0.013221504643429097 -0.0006901170164893144
90 0.01608502234900066 0.006838428849322047 0.010747823375245215
96 0.0024527704748088406 0.0035078500628248546 -0.000597714814530511
107 0.009630220671099655 0.002218692428085079 -0.00910143253938769
110 -0.004239932345036475 0.0004322823072057321 -0.0030138081950993934
206 0.0014870277011423381 0.008649158670742074 -0.03243466667680863
195 0.001007504525849942 0.003089627081422173 0.006321928101255525
9 0.005042603922904679 0.0012668190228494257 0.0023442164806132077
57 0.0014292371996536435 -0.001485293682560802 -0.0016349031695707074
108 0.008203164595832776 0.004588097666843536 -0.006462174140087205
12 6.458572695233219e-05 -0.0012929341109382331 0.0059315659163334
106 0.008518761316789318 -0.0024570460577573246 -0.005052125226515532
14 0.002997028002505442 0.0010557421468751866 0.002598117605308549
105 0.013265411712144164 0.008648522664692269 -0.0024020898719049463
102 0.0038130053607975615 -0.003477114476870572 0.00025427469170516827
85 -0.014035883645235697 0.010644452003389959 0.00222940849682238
86 -0.003353845015288464 -0.005400340044956093 0.0042231073998910875
101 -0.004290764554382652 0.014207236371709245 -0.014195150873668997
11 -0.009861489396448264 0.01072016921920148 -0.00896586317220252
97 -9.700460184236567e-05 -0.005844977818554271 -0.004778325039147227
100 -0.007162014952524761 9.756296833481801e-05 0.0119013777356351
29 -0.0018513005543586468 0.0009864555467532382 0.0005947658540384871
94 0.01684493178804946 -0.007930796773295796 0.005325804088904847
95 -0.00013387904134082692 -0.00912722167373678 -0.0010687161034619915
208 0.03148345450656128 -0.021378879693968216 0.025378060367864955
109 0.010876369097388141 -0.004557532229600296 -0.004487236747726477
17 0.008549125800854793 0.003717427780501616 0.00041018927061024926
43 -0.006640920019304718 0.00023622789900044314 0.004341220297841057
18 0.001421527336972682 -0.0008791729427929034 -0.00863522874360318
128 0.004213784201557369 -0.017739383388899896 -0.005241741089066094
125 -0.006582664896084824 -0.0020229049619185785 0.0038705022914302467
24 0.0030422865315823037 0.0033551652601308897 0.0014774327568889678
5 -0.0027642303248324915 0.00517050701821146 -0.0014243166001826591
80 -0.004506078017417918 0.005694162562474888 0.0010954402607828186
111 8.356523330435938e-05 -0.004162359755781491 0.006196595236892255
114 -0.0019452008657934033 -0.012120878157774979 0.013299491709003
115 -0.010155895152016448 -0.0012283917025200466 -0.007275998042542195
116 -0.005021267552713565 0.0061783186194011835 0.009219179745834792
129 0.007537859240654397 -0.01141156100943251 -0.007795450945015176
123 0.0038074896079733815 -0.004232707584105572 0.021135521021237825
79 0.011997670037690962 0.008086024636531698 0.008048197787309091
117 0.00361343950036933 -0.006150713410937285 0.01752214208917915
121 0.013648006744613925 0.01783108405826032 -0.002483328473707742
202 -0.02332547121096774 0.03810467452527658 0.02365670485150168
198 -0.018009345206297163 0.005540224980861847 0.0010359730881527762
22 -0.012363747567759825 0.004500016869041383 0.001420817841197031
26 -0.005731222794633602 0.0034848748541847 -0.0062481676852048475
31 -0.004182614275693582 0.003557660639375577 0.0025672282929787554
32 0.002971665695860254 -0.0012886592199576276 -0.00808320322684454
20 0.0004816838065347277 0.006420552152988893 -0.007415047969690646
91 -0.004031087300701865 -0.0019132872951928732 0.0006643681888002309
120 -0.0015833827683829334 -0.0004344646958873556 -0.0014572098278384088
122 -0.002528628849098961 -0.003947207032809088 -0.003385263894124219
124 -0.01051463945214721 -0.0071418776680151124 -0.0054262115040753555
130 -0.009214678015194204 0.0028070281745658896 0.0017348546746627186
135 -0.0027998737581411085 -0.004671678919453832 0.007566211596543604
142 -0.017903014148346972 -0.0025778305624609603 0.007869003957199869
143 0.002447683348758095 0.008807670240054227 0.011445485379292132
215 -0.030283817127171774 -0.0291974053894163 -0.003813926436537958
211 -0.059017393664373766 -0.02280637190716722 -0.04477301330000363
41 -0.0015014281097674891 -0.005126390703265891 -0.0052690587711611255
212 0.009234427235588247 0.01855888886606065 0.02690835474858704
133 -0.02088768103475681 -0.0032859070006238927 0.002461225660025772
28 0.00865243704505025 0.003550431741162698 -0.0009859006259364748
210 -0.006755329388085967 0.040570760819103754 -0.027971943239344172
30 0.004113582351846945 0.0049810893941279475 0.010171056213834805
144 0.0025970784655132547 0.011126503163648353 0.0007706286615367534
66 0.011516145356802896 -0.006968407766733152 0.007076650486335483
103 0.009705388361099498 -0.004686161013747746 0.0004104780032878559
209 -0.010528938040390784 0.022315979750139395 -0.024271484187159558
126 -0.001874492361745819 0.007172302213814057 0.012852150507251693
127 0.011515804074964192 0.002040206146004926 -0.01007611879937266
134 0.0025425090879071244 -0.004749713171225633 -0.02161264338717713
13 0.0027302698575634643 -0.004341867699942451 0.0030379367131203186
136 -0.00757027310672899 0.0006257376363323203 0.0012716104688854613
139 0.007937891692954516 -0.010737170319696116 -0.006280382218724342
140 0.00044588119021567185 0.002358006825006406 -0.005229723568064407
141 -0.000654208544161273 0.007284469545607364 0.008263651663667205
214 -0.023356185210910367 -0.06730626153939362 -0.02242522158992382
197 -0.012885276109833324 -0.0024102356725305 -0.004849996039538924
199 0.002097403855174381 0.007520740952169259 0.0025912304605096117
27 -0.010340783069092935 -0.0002120196665599231 0.0028800131324467817
104 -0.00447517690028795 -0.0008781076981659015 0.008159478044597036
23 0.00024048117065783855 -0.0009682218122382943 0.0029668018897704347
213 0.01008686326924131 0.014697649758326483 0.009706936910725992
34 -0.006814291338333611 0.007269443533327053 0.000722698863686522
161 0.002255642430274347 -0.0036449360988614642 0.01429159637632212
40 0.015373639670840844 -0.012907698217614887 0.002694662293067849
150 0.0036480750438345816 0.0004327658549117132 0.0021955256818110658
74 0.006106293652458884 0.004336961113427433 0.0009697864532891579
112 -0.008896277980932855 -0.009075631359314109 -0.003268988183404778
145 0.0011482509008287805 0.002532040486252665 -0.013714702659517537
147 -0.004006286764874791 -0.0019073565982985637 0.003445009998382057
148 -0.00279649739738805 0.005407966584045583 0.000715831987353952
149 -0.008756058708063038 0.00053862075115657 -0.0021679349691222692
73 0.0020209640417437657 0.012801126021067238 0.009319949896058643
158 0.010357971014933662 -0.009458437296992488 -0.006160261860847999
1 0.001027798928199892 0.0013808454997000057 -0.0013751034098802926
154 0.0072499016647752535 -0.011288326217021949 0.008965492704285784
37 -0.013794620322271382 0.0063105131700813945 0.0003764013835279804
152 -0.0038411344515456593 -0.0007167602189010103 -0.001878728642654845
39 0.003107770549938609 -0.0041926765270633845 0.0007311036820404878
3 0.007537270157217279 -0.007297717978143886 0.0025763410971031864
53 -0.0035685009656140393 -0.009851237377118127 0.007123999272180313
201 0.017449160181709302 -0.005339816817876262 -0.005255693020580785
33 0.0010668287283477668 -0.000239380401487334 0.0007704040357294404
196 -0.006124487832317955 -0.010815331342688254 0.010725649846896274
36 -0.011507453430091545 -0.003437666521400627 0.014041027244970044
38 -0.006977371080689629 0.00363557142877581 -0.0035406332808921993
42 -0.0046075687892955 0.012573966397688967 0.0010500539361199255
47 0.007760898182361572 0.0029215088226588627 -0.010877312571484924
48 -0.003211316358240427 0.0026776225349248914 -0.0029648304256056153
92 -0.009780508326038424 0.012954074881787778 -0.004899552101307095
131 -0.0026153565207601894 0.0012987376081967095 -0.01034455355881647
151 -0.011131946460658123 -0.00909927880674269 -0.0036986632427298055
153 0.0028926986208182622 -0.011459112683886783 -0.0030534507673976564
157 0.006495466623617599 -0.004823058911596553 0.004782347684320182
162 0.012927464614785352 0.010541616837372791 0.0006379614766964558
166 0.0021223569443065463 -0.0019206073046258534 0.0028022512139215636
173 -0.006832823501982481 0.004654028673242093 -0.006532154754289789
164 0.006968343730811579 -0.0027251595213001662 0.020679047869378762
205 0.036956618400299845 0.02164833513950908 0.046139497418339795
207 0.012420745247445056 -0.00014784948332471022 -0.03211891632749739
44 -0.00840440171626946 0.004133261045703023 0.006092735007780544
170 0.00012085417174289109 0.000934417334488135 0.0003939428907223815
46 -0.00013728123522030057 -0.0022830111621121446 -0.016539004728492988
169 -0.010242550147024035 0.004009176171972981 -0.0029924019705271677
168 -0.011111833004395008 0.017333885233177086 -0.003019895194544247
67 -0.005569405391388528 -0.00266203444740775 -0.008400835701285242
98 0.005255357205086541 -0.02307389239558638 0.009681848477988917
204 -0.0005791300632819163 -0.04323500789072202 0.04726179984909376
159 -0.0031294888627304653 -0.00029697158073265786 -0.0020696973412506264
160 -0.005122728349261416 -0.013231028230005363 -0.012313773315898656
167 -5.0423060093492114e-06 0.01581466180533141 0.0055270650421779845
45 0.0047136133166814234 0.0005145666681593168 -0.010973614639249325
99 0.019827902529826476 -0.003866564403500074 -0.0013705194942429774
174 -0.015368638849565222 -0.01212597254118364 -0.0032380453683302406
165 -6.064303226296875e-05 0.008114362799781187 0.00439050400894382
183 -0.008259772725379552 -0.009161584103377798 0.005881152153965549
177 -0.005396632997375128 0.011932502696738094 -0.014074063351762672
50 -0.005574180981163684 0.005626219073398228 -0.016774573521926125
118 -0.01620511620426165 -0.008202222743955573 -0.003475522986652551
51 0.002412770394414291 -0.006967911105374467 0.0006786147007738468
178 0.01714710843472391 -0.003713546382943149 -0.010114928830757257
56 -0.004242855206508582 0.000302418536883854 -0.00032578861278989747
68 -0.0010035252225895673 0.0029801066890633244 -0.0012315232427017654
19 0.0015340314888632922 0.012094180529489025 -0.0037533800897122647
119 0.013781070986731692 0.001642705425176501 -0.0031956235331392076
176 -0.0013640610900488136 -0.0070831889673797135 -0.0048311757287483326
156 0.0005568767341519564 -0.004569949684279549 -0.003757780723990292
175 -0.0034701608271475704 -0.014151785528305696 -0.009037741975413923
155 -0.0028677045143223317 -0.005764489503387609 -0.0008559913094281567
179 0.002511567037740285 -0.006557335544432305 0.015390124692952974
181 0.007683255089176429 0.004075800484506471 0.004455084391365081
192 -0.011257952899610985 0.002707427088824011 -0.0020586174638764707
186 0.010781404144074644 -0.0015024811187674771 -0.0012918229726308185
189 0.009640983500574083 0.014460032810144473 0.0010840116644022706
52 -0.015004177267616162 -7.367509755697465e-05 -0.0047184342859816104
54 0.0010037580555326414 0.004206895285496704 -0.008275042810837883
58 -0.008410606412048063 0.004682893474810192 -0.004463252530969516
63 0.001266267103293604 0.00310234872624966 -0.0027022927269546365
64 0.007182985521433545 0.0025629190604003677 -0.004349499954613191
93 0.0001906422240839624 0.0012557172517297264 0.005587636064269363
132 0.015361961186287505 0.0002794646392200879 -0.006420780736833871
163 -0.004202089134493801 0.010458748316998995 0.0039753831623856
180 0.004659597085919207 -0.004813631430812609 -0.0006715018723991118
182 0.014833660324829223 0.004838454808107865 0.005389335137738385
188 0.0020018022786887683 -0.00513066522858709 0.0072894682239314015
25 -0.006939861403613152 0.0030573780314114597 -0.0012650850807889359
216 -0.003675087571411611 -0.021017841838644007 0.025654893533172022
200 0.005304575824677812 0.00017844991697527315 0.004826058720203672
59 -0.00874142979390978 0.00169748698199316 -0.006335416561623983
60 -0.001015588553037362 0.0027443978946613155 -0.0017265632849660225
62 0.005123786574832834 0.0010404752782121282 -0.005599619925730407
113 -0.0012326811589138877 -0.005133607602497336 0.00432193303328915
137 0.0008446287188944374 -0.007416208103888746 0.0010814305811388352
172 0.02269335306403195 -0.009713352372882593 -0.003001384648789672
146 0.0054880218819118734 0.0008917677091183536 -0.006228979659884687
171 -0.001548731321095859 -0.00709237575177885 0.011931016901328789
138 -0.005046988237998742 -0.008592515897064657 -0.006076738660592568
184 0.004125498185041538 -0.007562187306555917 0.0002801133319676696
185 0.0019836466579887854 -0.006617560596775974 0.01474634880342807
191 0.00809492059072804 -0.006414302763087415 -0.007444709539648568
190 -0.0010835649527090217 0.003415725909397384 -0.006534401453099002
49 0.000808348878828448 -0.002454660772612376 0.0049104283678007435
187 0.0027984099165483684 0.0067814846182107725 -0.0176634561257471
61 0.00551723706260548 -0.005773685251668543 0.008580183355213957
55 0.008457163976008453 -0.0020912833949564653 0.0012877634034488764
203 0.07659446642517934 -0.0045954433208741634 -0.023986181495861923
194 0.003615717707766021 0.0005083636324027717 -0.00966213972678737
