LAMMPS (29 Aug 2024 - Update 1)
  using 1 OpenMP thread(s) per MPI task
Reading data file ...
  orthogonal box = (0 0 0) to (28.6 28.6 28.6)
  2 by 2 by 5 MPI processor grid
  reading atoms ...
  1536 atoms
  read_data CPU = 0.007 seconds
WARNING: Changed valency_val to valency_boc for X (src/REAXFF/reaxff_ffield.cpp:294)

CITE-CITE-CITE-CITE-CITE-CITE-CITE-CITE-CITE-CITE-CITE-CITE-CITE

Your simulation uses code contributions which should be cited:
- Type Label Framework: https://doi.org/10.1021/acs.jpcb.3c08419
- pair reaxff command: doi:10.1016/j.parco.2011.08.005
- fix qeq/reaxff command: doi:10.1016/j.parco.2011.08.005
The log file lists these citations in BibTeX format.

CITE-CITE-CITE-CITE-CITE-CITE-CITE-CITE-CITE-CITE-CITE-CITE-CITE

Neighbor list info ...
  update: every = 1 steps, delay = 0 steps, check = yes
  max neighbors/atom: 2000, page size: 100000
  master list distance cutoff = 12
  ghost atom cutoff = 12
  binsize = 6, bins = 5 5 5
  2 neighbor lists, perpetual/occasional/extra = 2 0 0
  (1) pair reaxff, perpetual
      attributes: half, newton off, ghost
      pair build: half/bin/ghost/newtoff
      stencil: full/ghost/bin/3d
      bin: standard
  (2) fix qeq/reaxff, perpetual, copy from (1)
      attributes: half, newton off
      pair build: copy
      stencil: none
      bin: none
Setting up cg style minimization ...
  Unit style    : real
  Current step  : 0
Per MPI rank memory allocation (min/avg/max) = 63.34 | 64.49 | 65.24 Mbytes
   Step          Temp          PotEng         TotEng         Press          Volume        Density    
         0   0             -228984.66     -228984.66     -130957.88      23393.656      2.1836445    
         1   0             -228984.66     -228984.66     -130957.88      23393.656      2.1836445    
Loop time of 0.1174 on 20 procs for 1 steps with 1536 atoms

56.2% CPU use with 20 MPI tasks x 1 OpenMP threads

Minimization stats:
  Stopping criterion = energy tolerance
  Energy initial, next-to-last, final = 
     -228984.662698484  -228984.662698484  -228984.663018938
  Force two-norm initial, final = 1.0666462e-06 2.4092074
  Force max component initial, final = 9.9267453e-08 0.15387268
  Final line search alpha, max atom move = 1 0.15387268
  Iterations, force evaluations = 1 1

MPI task timing breakdown:
Section |  min time  |  avg time  |  max time  |%varavg| %total
---------------------------------------------------------------
Pair    | 0.09054    | 0.094687   | 0.10941    |   1.3 | 80.65
Neigh   | 0          | 0          | 0          |   0.0 |  0.00
Comm    | 0.001382   | 0.016031   | 0.020161   |   3.2 | 13.66
Output  | 0          | 0          | 0          |   0.0 |  0.00
Modify  | 0.0059381  | 0.0060061  | 0.0060358  |   0.0 |  5.12
Other   |            | 0.0006759  |            |       |  0.58

Nlocal:           76.8 ave          88 max          72 min
Histogram: 12 0 0 0 0 4 0 0 0 4
Nghost:         2872.2 ave        2920 max        2793 min
Histogram: 4 0 0 0 0 8 0 0 0 8
Neighs:        34128.8 ave       38618 max       32147 min
Histogram: 12 0 0 0 0 4 0 0 0 4

Total # of neighbors = 682576
Ave neighs/atom = 444.38542
Neighbor list builds = 0
Dangerous builds = 0
Setting up Verlet run ...
  Unit style    : real
  Current step  : 0
  Time step     : 0.25
Per MPI rank memory allocation (min/avg/max) = 62.21 | 63.36 | 64.15 Mbytes
   Step          Temp          PotEng         TotEng         Press          Volume        Density    
         0   2300          -228984.66     -218460.91     -110393.99      23393.656      2.1836445    
      1000   1929.1124     -221848.29     -213021.55     -21371.726      23393.656      2.1836445    
      2000   2952.1918     -217330.32     -203822.44      6493.1457      23393.656      2.1836445    
      3000   3944.6206     -211381.56     -193332.78      27811.574      23393.656      2.1836445    
      4000   4499.7273     -208439.69     -187850.99      28085.395      23393.656      2.1836445    
      5000   3992.131      -209957.57     -191691.4       44179.218      23393.656      2.1836445    
      6000   4207.432      -210183.92     -190932.63      24132.301      23393.656      2.1836445    
      7000   4303.0754     -208988.93     -189300.02      41987.787      23393.656      2.1836445    
      8000   4209.8746     -210801.21     -191538.75      43197.413      23393.656      2.1836445    
      9000   4197.9266     -209302.2      -190094.4       54108.374      23393.656      2.1836445    
     10000   4122.2453     -208790.72     -189929.21      45546.083      23393.656      2.1836445    
     11000   4174.2179     -210140.78     -191041.47      32379.506      23393.656      2.1836445    
     12000   4398.3765     -209478.85     -189353.88      30415.624      23393.656      2.1836445    
     13000   4229.3425     -209933.38     -190581.84      37610.693      23393.656      2.1836445    
     14000   4175.8172     -209699.96     -190593.32      42400.457      23393.656      2.1836445    
     15000   4314.3969     -209101.47     -189360.76      24712.297      23393.656      2.1836445    
     16000   4213.2823     -210084.45     -190806.39      34136.096      23393.656      2.1836445    
     17000   4211.531      -209942        -190671.96      52962.212      23393.656      2.1836445    
     18000   4319.6822     -209270.58     -189505.68      56831.951      23393.656      2.1836445    
     19000   4120.1294     -210068.76     -191216.93      33987.68       23393.656      2.1836445    
     20000   4335.6662     -209588.61     -189750.58      48109.064      23393.656      2.1836445    
     21000   4272.1704     -209649.55     -190102.05      29319.241      23393.656      2.1836445    
     22000   4228.0634     -210468.51     -191122.83      22866.623      23393.656      2.1836445    
     23000   4293.2006     -209200.57     -189556.84      34164.013      23393.656      2.1836445    
     24000   4143.3743     -209418.45     -190460.26      27602.965      23393.656      2.1836445    
     25000   4128.4382     -208749.15     -189859.3       23318.28       23393.656      2.1836445    
     26000   4119.8226     -208448.77     -189598.35      26712.931      23393.656      2.1836445    
     27000   4072.8521     -209483.76     -190848.25      26576.676      23393.656      2.1836445    
     28000   4280.1008     -208738.65     -189154.87      37074.587      23393.656      2.1836445    
     29000   4184.3227     -209606.18     -190460.63      48073.769      23393.656      2.1836445    
     30000   4240.4929     -209201.62     -189799.06      25320.43       23393.656      2.1836445    
     31000   4289.9561     -208659.63     -189030.75      36369.601      23393.656      2.1836445    
     32000   4175.8996     -209466.9      -190359.89      24495.563      23393.656      2.1836445    
     33000   4232.4797     -208632.7      -189266.81      25132.395      23393.656      2.1836445    
     34000   4173.402      -208786.47     -189690.89      28769.077      23393.656      2.1836445    
     35000   4376.0222     -210040.92     -190018.24      30140.862      23393.656      2.1836445    
     36000   4211.8705     -207928.44     -188656.84      47989.601      23393.656      2.1836445    
     37000   4212.5087     -209299.26     -190024.74      40605.023      23393.656      2.1836445    
     38000   4199.6471     -208871.36     -189655.69      32847.278      23393.656      2.1836445    
     39000   4338.8067     -208892.32     -189039.92      42019.371      23393.656      2.1836445    
     40000   4063.971      -208645.24     -190050.37      42787.063      23393.656      2.1836445    
     41000   4276.6455     -209652.14     -190084.16      39307.654      23393.656      2.1836445    
     42000   4344.889      -208971.11     -189090.88      52058.562      23393.656      2.1836445    
     43000   4147.2384     -209406.47     -190430.6       41218.79       23393.656      2.1836445    
     44000   4295.0467     -209300.62     -189648.44      46526.187      23393.656      2.1836445    
     45000   4042.7744     -209466.85     -190968.96      40225.996      23393.656      2.1836445    
     46000   4223.0547     -209066.51     -189743.74      33443.068      23393.656      2.1836445    
     47000   4299.5575     -209651.69     -189978.88      27411.114      23393.656      2.1836445    
     48000   4109.562      -209156.2      -190352.72      27650.09       23393.656      2.1836445    
     49000   4365.0844     -209316.97     -189344.34      55340.148      23393.656      2.1836445    
     50000   4192.3898     -209854.58     -190672.11      41086.246      23393.656      2.1836445    
     51000   4232.8668     -209102.2      -189734.54      57202.579      23393.656      2.1836445    
     52000   4343.3882     -209325.21     -189451.85      25956.919      23393.656      2.1836445    
     53000   4228.1914     -209534.13     -190187.86      34355.26       23393.656      2.1836445    
     54000   4263.5596     -208212.08     -188703.98      25039.852      23393.656      2.1836445    
     55000   4159.8731     -209346.06     -190312.38      53212.315      23393.656      2.1836445    
     56000   4201.3348     -209006.16     -189782.77      33217.302      23393.656      2.1836445    
     57000   4278.9087     -209619.37     -190041.03      24867.751      23393.656      2.1836445    
     58000   4221.1824     -209689.12     -190374.91      38591.993      23393.656      2.1836445    
     59000   4296.5673     -209300.7      -189641.57      50158.094      23393.656      2.1836445    
     60000   4133.8012     -209795.42     -190881.03      23492.517      23393.656      2.1836445    
     61000   4267.3785     -209405.45     -189879.88      41412.359      23393.656      2.1836445    
     62000   4171.8825     -209653.25     -190564.62      16002.191      23393.656      2.1836445    
     63000   4320.8391     -208734.3      -188964.11      32614.457      23393.656      2.1836445    
     64000   4117.398      -209418.95     -190579.61      30534.537      23393.656      2.1836445    
     65000   4223.0359     -209401.71     -190079.02      24052.512      23393.656      2.1836445    
     66000   4249.9914     -209222.07     -189776.05      37110.098      23393.656      2.1836445    
     67000   4169.4902     -209592.3      -190514.62      16468.12       23393.656      2.1836445    
     68000   4400.0946     -209370.52     -189237.7       56161.812      23393.656      2.1836445    
     69000   4222.2164     -210297.7      -190978.76      43724.742      23393.656      2.1836445    
     70000   4284.3413     -209397.59     -189794.4       21150.626      23393.656      2.1836445    
     71000   4164.7001     -209227.04     -190171.28      43703.409      23393.656      2.1836445    
     72000   4162.76       -210651.54     -191604.65      36398.743      23393.656      2.1836445    
     73000   4212.7224     -209798.04     -190522.55      50337.85       23393.656      2.1836445    
     74000   4161.8975     -209206.38     -190163.44      35688.515      23393.656      2.1836445    
     75000   4070.537      -210005.93     -191381.01      44955.357      23393.656      2.1836445    
     76000   4187.2779     -208959.44     -189800.37      39666.921      23393.656      2.1836445    
     77000   4193.7145     -209862.56     -190674.04      24906.166      23393.656      2.1836445    
     78000   4119.908      -209047.49     -190196.68      26038.719      23393.656      2.1836445    
     79000   4244.4214     -209160.03     -189739.5       49740.544      23393.656      2.1836445    
     80000   4047.6973     -209364.16     -190843.74      44137.827      23393.656      2.1836445    
     81000   4154.7658     -209036.38     -190026.07      32559.209      23393.656      2.1836445    
     82000   4174.698      -209640.97     -190539.45      43557.606      23393.656      2.1836445    
     83000   4136.9109     -209595.63     -190667.02      54945.4        23393.656      2.1836445    
     84000   4117.4722     -209130.31     -190290.63      41447.751      23393.656      2.1836445    
     85000   4444.329      -209270.22     -188935         39316.259      23393.656      2.1836445    
     86000   4125.5715     -209182.39     -190305.66      15386.812      23393.656      2.1836445    
     87000   4311.9025     -210136.69     -190407.39      43154.863      23393.656      2.1836445    
     88000   4166.6633     -208737.55     -189672.8       28420.344      23393.656      2.1836445    
     89000   4218.6008     -209603.25     -190300.86      35022.985      23393.656      2.1836445    
     90000   4093.2689     -209024.85     -190295.92      50042.792      23393.656      2.1836445    
     91000   4355.5543     -208492.29     -188563.26      35498.683      23393.656      2.1836445    
     92000   4243.9691     -208939.12     -189520.66      30641.767      23393.656      2.1836445    
     93000   3997.6106     -209079.26     -190788.02      22700.953      23393.656      2.1836445    
     94000   4287.7887     -208846.13     -189227.17      49840.698      23393.656      2.1836445    
     95000   4256.375      -209751.35     -190276.12      34907.694      23393.656      2.1836445    
     96000   4149.6068     -209389.83     -190403.13      29210.419      23393.656      2.1836445    
     97000   4316.8646     -209477.39     -189725.39      28838.546      23393.656      2.1836445    
     98000   4084.2002     -209596.54     -190909.1       29355.91       23393.656      2.1836445    
     99000   4274.7993     -209306.32     -189746.79      67194.873      23393.656      2.1836445    
    100000   4106.9512     -209080.15     -190288.61      34498.808      23393.656      2.1836445    
    101000   4175.0155     -209747.05     -190644.09      25179.593      23393.656      2.1836445    
    102000   4235.368      -209520        -190140.89      46137.249      23393.656      2.1836445    
    103000   4253.2748     -210194        -190732.95      28753.892      23393.656      2.1836445    
    104000   4272.7426     -209483.86     -189933.74      38554.989      23393.656      2.1836445    
    105000   4192.8322     -209557.04     -190372.55      42730.243      23393.656      2.1836445    
    106000   4132.5144     -209743.9      -190835.4       26765.945      23393.656      2.1836445    
    107000   4197.2107     -209034.95     -189830.43      30998.878      23393.656      2.1836445    
    108000   3989.3575     -209143.4      -190889.92      27004.096      23393.656      2.1836445    
    109000   4252.1208     -209409.92     -189954.16      19794.798      23393.656      2.1836445    
    110000   4292.6731     -210260.09     -190618.78      48433.79       23393.656      2.1836445    
    111000   4128.2013     -209500.94     -190612.18      28317.107      23393.656      2.1836445    
    112000   4328.6245     -209339.51     -189533.7       28947.509      23393.656      2.1836445    
    113000   4079.4177     -209151.17     -190485.62      50223.871      23393.656      2.1836445    
    114000   4107.7068     -208770.79     -189975.8       29786.467      23393.656      2.1836445    
    115000   4251.0613     -209251.69     -189800.77      29372.876      23393.656      2.1836445    
    116000   4215.2512     -209592.54     -190305.48      48432.175      23393.656      2.1836445    
    117000   4248.6675     -208623.53     -189183.56      33064.958      23393.656      2.1836445    
    118000   4150.5835     -209476.87     -190485.69      29795.857      23393.656      2.1836445    
    119000   4308.1859     -208669.64     -188957.35      35481.611      23393.656      2.1836445    
    120000   4190.6778     -209204.54     -190029.92      42009.555      23393.656      2.1836445    
    121000   4280.3199     -209678.86     -190094.07      49225.093      23393.656      2.1836445    
    122000   4370.4338     -208620.71     -188623.6       34884.725      23393.656      2.1836445    
    123000   4159.6887     -208876.62     -189843.79      43096.729      23393.656      2.1836445    
    124000   4205.1433     -209606.13     -190365.31      26979.47       23393.656      2.1836445    
    125000   4438.6372     -209470.2      -189161.02      35132.805      23393.656      2.1836445    
    126000   4179.2819     -209555.72     -190433.23      48808.067      23393.656      2.1836445    
    127000   4322.901      -209348.57     -189568.95      44293.115      23393.656      2.1836445    
    128000   4242.9296     -209039.09     -189625.38      17003.301      23393.656      2.1836445    
    129000   4051.6483     -209132.27     -190593.78      33123.001      23393.656      2.1836445    
    130000   4338.7985     -208831.19     -188978.82      31876.714      23393.656      2.1836445    
    131000   4212.7897     -209117.28     -189841.48      52301.436      23393.656      2.1836445    
    132000   4241.6985     -210084.24     -190676.17      53383.534      23393.656      2.1836445    
    133000   4056.1626     -209580.8      -191021.65      32851.384      23393.656      2.1836445    
    134000   4159.9283     -209356.46     -190322.53      36868.136      23393.656      2.1836445    
    135000   4339.5729     -209025.28     -189169.38      33112.598      23393.656      2.1836445    
    136000   4204.2506     -209465.5      -190228.76      37603.055      23393.656      2.1836445    
    137000   4185.6258     -209277.91     -190126.4       43823.476      23393.656      2.1836445    
    138000   4354.4174     -208964.07     -189040.24      39511.333      23393.656      2.1836445    
    139000   4192.7155     -209493.8      -190309.85      30879.535      23393.656      2.1836445    
    140000   4240.4992     -208436.48     -189033.9       25263.59       23393.656      2.1836445    
    141000   4099.0581     -209076.52     -190321.1       31443.977      23393.656      2.1836445    
    142000   4254.425      -209300.72     -189834.41      42957.056      23393.656      2.1836445    
    143000   4291.314      -208836.63     -189201.54      35508.973      23393.656      2.1836445    
    144000   4284.3392     -209551.34     -189948.16      45660.091      23393.656      2.1836445    
    145000   4082.6745     -209985.37     -191304.92      43686.115      23393.656      2.1836445    
    146000   4239.1493     -209428.68     -190032.27      39563.119      23393.656      2.1836445    
    147000   4272.3243     -209267.1      -189718.89      23389.386      23393.656      2.1836445    
    148000   4143.7769     -209810.57     -190850.54      49800.027      23393.656      2.1836445    
    149000   4282.1256     -209070.08     -189477.03      30992.845      23393.656      2.1836445    
    150000   4235.8181     -209522.28     -190141.11      37966.406      23393.656      2.1836445    
    151000   3975.0305     -209803.75     -191615.82      45983.78       23393.656      2.1836445    
    152000   4257.7795     -208872.67     -189391.01      31853.214      23393.656      2.1836445    
    153000   4097.0475     -209321.75     -190575.54      45513.508      23393.656      2.1836445    
    154000   4207.2187     -208988.04     -189737.73      36097.964      23393.656      2.1836445    
    155000   4300.6567     -209108.94     -189431.1       26001.512      23393.656      2.1836445    
    156000   4112.5707     -209083.68     -190266.43      41201.857      23393.656      2.1836445    
    157000   3992.7136     -210073.81     -191804.98      44556.873      23393.656      2.1836445    
    158000   4113.0611     -208706.91     -189887.42      19859.631      23393.656      2.1836445    
    159000   4210.9351     -209325.99     -190058.67      36711.744      23393.656      2.1836445    
    160000   4262.025      -209937.17     -190436.09      16512.306      23393.656      2.1836445    
    161000   4175.431      -209050.82     -189945.96      29391.776      23393.656      2.1836445    
    162000   4138.5639     -209602.25     -190666.07      38608.721      23393.656      2.1836445    
    163000   4274.8525     -209227.77     -189668         37802.149      23393.656      2.1836445    
    164000   4128.2041     -209421.44     -190532.66      24889.237      23393.656      2.1836445    
    165000   4109.2953     -209218.07     -190415.82      28003.682      23393.656      2.1836445    
    166000   4221.3594     -208778.73     -189463.72      28326.787      23393.656      2.1836445    
    167000   4211.5447     -209903.01     -190632.91      60604.325      23393.656      2.1836445    
    168000   4222.7723     -209090.54     -189769.06      31705.19       23393.656      2.1836445    
    169000   4217.0515     -208936.42     -189641.12      33076.8        23393.656      2.1836445    
    170000   4194.5712     -209522.5      -190330.06      30495.966      23393.656      2.1836445    
    171000   4181.9862     -209769.42     -190634.56      25440.393      23393.656      2.1836445    
    172000   4298.2284     -208940.36     -189273.63      38407.228      23393.656      2.1836445    
    173000   4146.5891     -209511.5      -190538.6       42478.997      23393.656      2.1836445    
    174000   4286.9911     -209413.82     -189798.51      41648.913      23393.656      2.1836445    
    175000   4147.7368     -208819.9      -189841.75      34268.905      23393.656      2.1836445    
    176000   4219.3424     -209026.92     -189721.14      9326.4234      23393.656      2.1836445    
    177000   4248.739      -209738.27     -190297.98      31020.546      23393.656      2.1836445    
    178000   4256.6409     -208958.04     -189481.6       31884.346      23393.656      2.1836445    
    179000   4253.2187     -209432.21     -189971.42      46157.327      23393.656      2.1836445    
    180000   4253.7423     -209572        -190108.82      39756.029      23393.656      2.1836445    
    181000   4378.0044     -208774.89     -188743.14      20863.326      23393.656      2.1836445    
    182000   4018.697      -208832.2      -190444.48      20907.669      23393.656      2.1836445    
    183000   4330.7199     -208969.4      -189154         40883.166      23393.656      2.1836445    
    184000   4055.5273     -209107.14     -190550.9       17732.07       23393.656      2.1836445    
    185000   4143.7036     -209222.58     -190262.88      30468.127      23393.656      2.1836445    
    186000   4321.126      -209225.4      -189453.91      36587.875      23393.656      2.1836445    
    187000   4109.3053     -209963.64     -191161.33      22862.562      23393.656      2.1836445    
    188000   4159.8749     -208786.1      -189752.41      25178.228      23393.656      2.1836445    
    189000   4267.8462     -208568.8      -189041.09      28420.71       23393.656      2.1836445    
    190000   4232.4647     -208798.52     -189432.69      44015.671      23393.656      2.1836445    
    191000   4264.1743     -209360.07     -189849.16      38424.812      23393.656      2.1836445    
    192000   4369.481      -208441.37     -188448.62      46106.942      23393.656      2.1836445    
    193000   4196.3479     -208830.48     -189629.9       39021.494      23393.656      2.1836445    
    194000   4160.8073     -208576.49     -189538.54      37384.068      23393.656      2.1836445    
    195000   4118.7801     -208788.14     -189942.48      46109.764      23393.656      2.1836445    
    196000   4149.152      -208399.09     -189414.46      38724.716      23393.656      2.1836445    
    197000   4235.4743     -208733.08     -189353.49      15538.663      23393.656      2.1836445    
    198000   4198.3222     -209070.05     -189860.44      39106.237      23393.656      2.1836445    
    199000   4291.147      -207828.23     -188193.9       19845.611      23393.656      2.1836445    
    200000   4190.2524     -209082.77     -189910.09      22360.175      23393.656      2.1836445    
Loop time of 12409.1 on 20 procs for 200000 steps with 1536 atoms

Performance: 0.348 ns/day, 68.939 hours/ns, 16.117 timesteps/s, 24.756 katom-step/s
49.1% CPU use with 20 MPI tasks x 1 OpenMP threads

MPI task timing breakdown:
Section |  min time  |  avg time  |  max time  |%varavg| %total
---------------------------------------------------------------
Pair    | 8339.2     | 8794       | 9239.6     | 238.6 | 70.87
Neigh   | 95.056     | 97.502     | 99.47      |  12.4 |  0.79
Comm    | 1143.4     | 1588.9     | 2043.4     | 561.1 | 12.80
Output  | 0.013984   | 0.014396   | 0.018166   |   0.7 |  0.00
Modify  | 1918.5     | 1920.9     | 1923.9     |   3.2 | 15.48
Other   |            | 7.805      |            |       |  0.06

Nlocal:           76.8 ave          80 max          70 min
Histogram: 1 0 0 0 1 3 3 3 5 4
Nghost:         2787.4 ave        2816 max        2761 min
Histogram: 4 2 1 1 3 0 2 3 2 2
Neighs:        33480.8 ave       34901 max       30282 min
Histogram: 1 0 0 1 1 3 2 5 3 4

Total # of neighbors = 669615
Ave neighs/atom = 435.94727
Neighbor list builds = 2757
Dangerous builds = 0
Setting up Verlet run ...
  Unit style    : real
  Current step  : 200000
  Time step     : 0.25
Per MPI rank memory allocation (min/avg/max) = 62.1 | 63.35 | 64.15 Mbytes
   Step          Temp          PotEng         TotEng         Press          Volume        Density    
    200000   4190.2524     -209082.77     -189910.09      22359.783      23393.656      2.1836445    
    201000   4294.5761     -208142.18     -188492.16      42824.375      23393.656      2.1836445    
    202000   4176.8296     -208332.12     -189220.86      25200.256      23393.656      2.1836445    
    203000   4051.3868     -208945.02     -190407.72      28151.052      23393.656      2.1836445    
    204000   4168.561      -208821.99     -189748.56      56973.985      23393.656      2.1836445    
    205000   4062.5541     -209348.36     -190759.96      24100.835      23393.656      2.1836445    
    206000   4128.765      -208996.29     -190104.95      39615.289      23393.656      2.1836445    
    207000   4202.2933     -209302.61     -190074.84      28098.096      23393.656      2.1836445    
    208000   4083.6029     -209642.03     -190957.33      36776.666      23393.656      2.1836445    
    209000   4156.1559     -209036.67     -190020         24085.518      23393.656      2.1836445    
    210000   4134.3991     -209455.04     -190537.91      24458.05       23393.656      2.1836445    
    211000   4082.6267     -210275.12     -191594.88      40820.075      23393.656      2.1836445    
    212000   4070.403      -208692.69     -190068.38      29184.404      23393.656      2.1836445    
    213000   4000.3367     -209072.65     -190768.93      37129.831      23393.656      2.1836445    
    214000   3939.9161     -210479.32     -192452.06      24985.718      23393.656      2.1836445    
    215000   4115.4418     -209952.17     -191121.78      40721.263      23393.656      2.1836445    
    216000   4170.9063     -209892.61     -190808.45      34992.639      23393.656      2.1836445    
    217000   3880.9413     -209926.08     -192168.67      17662.363      23393.656      2.1836445    
    218000   4021.2635     -209451.59     -191052.12      29279.398      23393.656      2.1836445    
    219000   3988.3541     -210058.54     -191809.65      26538.176      23393.656      2.1836445    
    220000   3897.2889     -211033.92     -193201.71      29331.652      23393.656      2.1836445    
    221000   4069.323      -209968.78     -191349.42      20312.012      23393.656      2.1836445    
    222000   3968.1437     -209972.7      -191816.29      22552.104      23393.656      2.1836445    
    223000   3967.4537     -210486        -192332.74      19028.778      23393.656      2.1836445    
    224000   4238.1528     -210489.04     -191097.19      25781.757      23393.656      2.1836445    
    225000   3803.1276     -209827.18     -192425.81      26392.56       23393.656      2.1836445    
    226000   3941.1831     -209402.8      -191369.74      31323.064      23393.656      2.1836445    
    227000   3966.633      -209966.62     -191817.12      30516.581      23393.656      2.1836445    
    228000   3934.9761     -210439.17     -192434.52      19598.274      23393.656      2.1836445    
    229000   3701.2945     -210924.06     -193988.63      24659.205      23393.656      2.1836445    
    230000   3990.8009     -211092.58     -192832.5       41819.414      23393.656      2.1836445    
    231000   3877.9141     -210512.05     -192768.49      22093.282      23393.656      2.1836445    
    232000   3722.0546     -210805.63     -193775.21      48895.24       23393.656      2.1836445    
    233000   3861.6836     -210440.66     -192771.36      41681.285      23393.656      2.1836445    
    234000   3765.2931     -211078.46     -193850.2       14423.848      23393.656      2.1836445    
    235000   3998.7074     -210620.8      -192324.54      33381.836      23393.656      2.1836445    
    236000   3936.4173     -211293.84     -193282.59      31701.187      23393.656      2.1836445    
    237000   3860.841      -211241.58     -193576.13      22396.751      23393.656      2.1836445    
    238000   3842.9443     -210611.09     -193027.53      31195.777      23393.656      2.1836445    
    239000   3786.9495     -211311.74     -193984.39      28115.251      23393.656      2.1836445    
    240000   3855.8623     -210152.09     -192509.42      32357.794      23393.656      2.1836445    
    241000   3897.8673     -211485.76     -193650.89      29066.442      23393.656      2.1836445    
    242000   3792.6733     -211700.89     -194347.34      12821.821      23393.656      2.1836445    
    243000   3608.7223     -211606.06     -195094.19      38171.21       23393.656      2.1836445    
    244000   3899.4857     -211700.52     -193858.25      22649.058      23393.656      2.1836445    
    245000   3638.7318     -211728.66     -195079.49      25674.378      23393.656      2.1836445    
    246000   3852.9997     -212097.26     -194467.7       13798.351      23393.656      2.1836445    
    247000   3741.0441     -211465.46     -194348.15      26237.499      23393.656      2.1836445    
    248000   3715.1945     -212304.67     -195305.64      8464.0758      23393.656      2.1836445    
    249000   3674.0721     -210845.24     -194034.36      44294.129      23393.656      2.1836445    
    250000   3754.9207     -212053.36     -194872.55      40285.57       23393.656      2.1836445    
    251000   3679.8051     -211673.33     -194836.23      28833.671      23393.656      2.1836445    
    252000   3635.0473     -211921.7      -195289.39      23037.076      23393.656      2.1836445    
    253000   3742.7223     -212372.32     -195247.33      40839.796      23393.656      2.1836445    
    254000   3605.2936     -211360.27     -194864.09      37587.773      23393.656      2.1836445    
    255000   3612.4002     -212423.41     -195894.72      27705.214      23393.656      2.1836445    
    256000   3609.0067     -212516.62     -196003.45      23299.184      23393.656      2.1836445    
    257000   3769.2228     -212620.05     -195373.8       23348.723      23393.656      2.1836445    
    258000   3608.6634     -212577.01     -196065.41      18250.399      23393.656      2.1836445    
    259000   3724.9464     -212486.57     -195442.92      23147.768      23393.656      2.1836445    
    260000   3569.752      -211845.07     -195511.52      34803.608      23393.656      2.1836445    
    261000   3543.0327     -212865.04     -196653.74      28724.802      23393.656      2.1836445    
    262000   3497.7231     -212378.31     -196374.32      8487.479       23393.656      2.1836445    
    263000   3619.5885     -212431.49     -195869.91      27749.508      23393.656      2.1836445    
    264000   3738.3521     -212527.7      -195422.71      28932.457      23393.656      2.1836445    
    265000   3510.2366     -212572.1      -196510.86      9400.7565      23393.656      2.1836445    
    266000   3663.4998     -212554.89     -195792.38      31509.56       23393.656      2.1836445    
    267000   3667.7649     -212713.34     -195931.32      33261.168      23393.656      2.1836445    
    268000   3487.4435     -212841.33     -196884.38      20910.144      23393.656      2.1836445    
    269000   3692.2207     -212566.89     -195672.97      27536.026      23393.656      2.1836445    
    270000   3505.7613     -213120.86     -197080.1       21465.383      23393.656      2.1836445    
    271000   3505.5282     -212900.94     -196861.24      23956.481      23393.656      2.1836445    
    272000   3570.5293     -212594.23     -196257.12      30443.528      23393.656      2.1836445    
    273000   3506.4692     -213648.3      -197604.3       31068.667      23393.656      2.1836445    
    274000   3629.4722     -212948.03     -196341.22      45687.281      23393.656      2.1836445    
    275000   3487.0687     -212637.34     -196682.1       34861.364      23393.656      2.1836445    
    276000   3408.2227     -213444.11     -197849.64      30508.797      23393.656      2.1836445    
    277000   3543.9599     -212983.56     -196768.02      26427.565      23393.656      2.1836445    
    278000   3409.9705     -213563.66     -197961.19      23289.848      23393.656      2.1836445    
    279000   3415.9423     -213475.45     -197845.66      32658.019      23393.656      2.1836445    
    280000   3478.3434     -213193.85     -197278.54      17264.905      23393.656      2.1836445    
    281000   3478.2229     -213940.66     -198025.9       15571.977      23393.656      2.1836445    
    282000   3267.9814     -214296.25     -199343.45      15117.3        23393.656      2.1836445    
    283000   3294.8167     -213903.54     -198827.96      23977.957      23393.656      2.1836445    
    284000   3556.3871     -214054.66     -197782.25      28771.88       23393.656      2.1836445    
    285000   3306.3598     -213913.94     -198785.55      22605.853      23393.656      2.1836445    
    286000   3402.1065     -214034.1      -198467.61      9735.0252      23393.656      2.1836445    
    287000   3390.7922     -213858.13     -198343.41      12214.713      23393.656      2.1836445    
    288000   3392.7546     -214812.59     -199288.9       19568.546      23393.656      2.1836445    
    289000   3366.1297     -213779.85     -198377.98      4634.8968      23393.656      2.1836445    
    290000   3272.2302     -214016.54     -199044.31      36769.328      23393.656      2.1836445    
    291000   3372.696      -214354.92     -198923         27873.23       23393.656      2.1836445    
    292000   3382.5204     -213680.29     -198203.42      31195.96       23393.656      2.1836445    
    293000   3279.1367     -214356.81     -199352.98      23257.346      23393.656      2.1836445    
    294000   3281.2032     -214851.49     -199838.2       22391.342      23393.656      2.1836445    
    295000   3397.461      -214495.57     -198950.34      13002.359      23393.656      2.1836445    
    296000   3201.5693     -214431.53     -199782.61      22675.138      23393.656      2.1836445    
    297000   3315.8495     -214621.98     -199450.16      25489.776      23393.656      2.1836445    
    298000   3092.3267     -214793.41     -200644.33      35530.344      23393.656      2.1836445    
    299000   3158.2332     -213964.81     -199514.18      17614.047      23393.656      2.1836445    
    300000   3256.3627     -215388.33     -200488.7       17295.046      23393.656      2.1836445    
    301000   3243.9059     -214897.14     -200054.51      22597.65       23393.656      2.1836445    
    302000   3251.1296     -214803.91     -199928.22      18949.099      23393.656      2.1836445    
    303000   3276.9336     -215201.95     -200208.2       15021.289      23393.656      2.1836445    
    304000   3161.5372     -215904.32     -201438.56      12139.455      23393.656      2.1836445    
    305000   3116.7487     -214706.42     -200445.6       27638.465      23393.656      2.1836445    
    306000   3165.3859     -215117.59     -200634.23      18940.102      23393.656      2.1836445    
    307000   3204.692      -215834.46     -201171.25      20066.622      23393.656      2.1836445    
    308000   3263.6542     -214947.03     -200014.04      26318.141      23393.656      2.1836445    
    309000   3202.9612     -215415.68     -200760.4       3229.7367      23393.656      2.1836445    
    310000   3181.5862     -215673.39     -201115.9       25591.016      23393.656      2.1836445    
    311000   3109.3349     -215588.37     -201361.48      18897.778      23393.656      2.1836445    
    312000   3185.9617     -215166.01     -200588.51      23200.484      23393.656      2.1836445    
    313000   3106.534      -215817.23     -201603.15      22661.704      23393.656      2.1836445    
    314000   3133.2156     -214904.04     -200567.88      21954.412      23393.656      2.1836445    
    315000   3010.0153     -215435.12     -201662.67      13568.772      23393.656      2.1836445    
    316000   3139.9601     -215727.3      -201360.28      18251.745      23393.656      2.1836445    
    317000   3159.9411     -215658.61     -201200.16      13835.846      23393.656      2.1836445    
    318000   3073.2427     -216209.69     -202147.93      21983.711      23393.656      2.1836445    
    319000   3154.5876     -215426.5      -200992.55      24326.318      23393.656      2.1836445    
    320000   3055.9594     -215960.84     -201978.16      24727.548      23393.656      2.1836445    
    321000   3023.6158     -216416.06     -202581.38     -601.85568      23393.656      2.1836445    
    322000   3082.6514     -216365.34     -202260.53      9488.4876      23393.656      2.1836445    
    323000   3012.9104     -215933.04     -202147.34      24274.546      23393.656      2.1836445    
    324000   2903.0811     -216444.36     -203161.19     -2047.588       23393.656      2.1836445    
    325000   3023.6582     -215887.11     -202052.23      16025.608      23393.656      2.1836445    
    326000   2925.2826     -216138.94     -202754.18      6950.849       23393.656      2.1836445    
    327000   2907.7209     -215830.79     -202526.39      9675.1356      23393.656      2.1836445    
    328000   3101.3158     -216656.09     -202465.88      17921.432      23393.656      2.1836445    
    329000   2973.6413     -216760.1      -203154.08      16826.061      23393.656      2.1836445    
    330000   3005.5844     -216192.51     -202440.33      15414.765      23393.656      2.1836445    
    331000   2927.0855     -216887.17     -203494.17      688.27975      23393.656      2.1836445    
    332000   2929.3751     -216047.41     -202643.93      16393.099      23393.656      2.1836445    
    333000   2824.2752     -216483.45     -203560.86      609.44219      23393.656      2.1836445    
    334000   2987.9247     -216887.85     -203216.47      23189.766      23393.656      2.1836445    
    335000   2950.459      -217197.17     -203697.22      11943.103      23393.656      2.1836445    
    336000   2942.2701     -216973.23     -203510.75      5871.2087      23393.656      2.1836445    
    337000   2889.0433     -216664.53     -203445.58      16341.871      23393.656      2.1836445    
    338000   2903.0193     -217116.71     -203833.82      7494.3068      23393.656      2.1836445    
    339000   2816.4086     -217257.51     -204370.91      10079.601      23393.656      2.1836445    
    340000   2885.7246     -216822.44     -203618.68      16954.797      23393.656      2.1836445    
    341000   2740.5954     -216900.68     -204360.97      3210.9644      23393.656      2.1836445    
    342000   3001.8328     -217472.34     -203737.33      3359.404       23393.656      2.1836445    
    343000   2840.4158     -217023.92     -204027.47      10677.954      23393.656      2.1836445    
    344000   2842.7692     -217338.88     -204331.66      24809.575      23393.656      2.1836445    
    345000   2855.5488     -217267.14     -204201.46      7085.5465      23393.656      2.1836445    
    346000   2773.2951     -217657.1      -204967.77      9063.6551      23393.656      2.1836445    
    347000   2799.7227     -216928.14     -204117.88     -2821.6803      23393.656      2.1836445    
    348000   2751.1856     -217614.65     -205026.48      14990.227      23393.656      2.1836445    
    349000   2800.0679     -217745.28     -204933.44      4680.0825      23393.656      2.1836445    
    350000   2772.724      -217333.26     -204646.54      15857.016      23393.656      2.1836445    
    351000   2681.0532     -217686.54     -205419.27      703.08442      23393.656      2.1836445    
    352000   2754.9891     -217355.92     -204750.35      14619.385      23393.656      2.1836445    
    353000   2685.7932     -217727.66     -205438.7       16970.286      23393.656      2.1836445    
    354000   2661.487      -218425.5      -206247.75      5986.9446      23393.656      2.1836445    
    355000   2728.0595     -217650.75     -205168.4       10984.302      23393.656      2.1836445    
    356000   2711.9714     -217755.75     -205347         4114.7245      23393.656      2.1836445    
    357000   2758.3455     -218266.93     -205646        -3492.3748      23393.656      2.1836445    
    358000   2695.9516     -217594.89     -205259.45      11012.552      23393.656      2.1836445    
    359000   2680.7271     -218479.74     -206213.95      93.046311      23393.656      2.1836445    
    360000   2723.9255     -217941.81     -205478.37     -249.53702      23393.656      2.1836445    
    361000   2669.914      -218779.41     -206563.11      3603.0354      23393.656      2.1836445    
    362000   2621.6664     -217996.21     -206000.66      5127.2532      23393.656      2.1836445    
    363000   2575.3336     -217899.65     -206116.1       5041.5792      23393.656      2.1836445    
    364000   2591.9432     -218376.41     -206516.86     -2993.3707      23393.656      2.1836445    
    365000   2704.1729     -218367.81     -205994.75      5683.2877      23393.656      2.1836445    
    366000   2582.4147     -218917.55     -207101.6      -3138.2983      23393.656      2.1836445    
    367000   2587.7211     -218238.38     -206398.15     -11642.067      23393.656      2.1836445    
    368000   2573.6936     -218050.13     -206274.09      10391.724      23393.656      2.1836445    
    369000   2569.1114     -218825.25     -207070.17      2700.4377      23393.656      2.1836445    
    370000   2627.5966     -218335.08     -206312.4       12433.108      23393.656      2.1836445    
    371000   2522.1962     -218482.86     -206942.44     -6302.7596      23393.656      2.1836445    
    372000   2548.9592     -218511.54     -206848.67      9193.3241      23393.656      2.1836445    
    373000   2503.9524     -219094.48     -207637.54     -330.04268      23393.656      2.1836445    
    374000   2605.0757     -218797.25     -206877.62     -4697.0256      23393.656      2.1836445    
    375000   2476.6185     -218645.64     -207313.76      11001.188      23393.656      2.1836445    
    376000   2458.1717     -219382.29     -208134.82      1595.3344      23393.656      2.1836445    
    377000   2536.4391     -218698.09     -207092.51     -8463.5849      23393.656      2.1836445    
    378000   2517.7641     -219271        -207750.86      8906.0356      23393.656      2.1836445    
    379000   2505.2486     -219413.23     -207950.36     -1402.5372      23393.656      2.1836445    
    380000   2547.3275     -218918.83     -207263.42     -4684.513       23393.656      2.1836445    
    381000   2436.575      -219382.15     -208233.49      1759.1499      23393.656      2.1836445    
    382000   2514.9115     -219269.57     -207762.48     -5123.1414      23393.656      2.1836445    
    383000   2536.4085     -219287.01     -207681.57     -3852.4545      23393.656      2.1836445    
    384000   2424.885      -219484.76     -208389.6      -5240.5228      23393.656      2.1836445    
    385000   2487.1046     -218984.11     -207604.25     -13257.735      23393.656      2.1836445    
    386000   2424.6901     -219569.28     -208475.01     -1253.5307      23393.656      2.1836445    
    387000   2455.0406     -219340.05     -208106.9       8188.8688      23393.656      2.1836445    
    388000   2435.9872     -219668.94     -208522.97     -12251.232      23393.656      2.1836445    
    389000   2394.8524     -219519.25     -208561.5      -7163.3906      23393.656      2.1836445    
    390000   2507.9694     -219054.55     -207579.23      217.09202      23393.656      2.1836445    
    391000   2344.2096     -219679.53     -208953.5      -4753.3203      23393.656      2.1836445    
    392000   2325.2586     -219627.76     -208988.44     -7731.2591      23393.656      2.1836445    
    393000   2397.8766     -219360.8      -208389.22     -2024.4499      23393.656      2.1836445    
    394000   2297.9812     -219756.04     -209241.52     -9527.8232      23393.656      2.1836445    
    395000   2396.0443     -219768.42     -208805.22     -3993.7325      23393.656      2.1836445    
    396000   2286.6178     -220001.52     -209539        -5151.9277      23393.656      2.1836445    
    397000   2359.1543     -219798.33     -209003.92     -512.73491      23393.656      2.1836445    
    398000   2224.0118     -219356.61     -209180.55     -9460.6904      23393.656      2.1836445    
    399000   2283.8785     -220188.23     -209738.24     -8892.106       23393.656      2.1836445    
    400000   2265.3101     -219831.29     -209466.27     -1391.2166      23393.656      2.1836445    
Loop time of 13104.9 on 20 procs for 200000 steps with 1536 atoms

Performance: 0.330 ns/day, 72.805 hours/ns, 15.261 timesteps/s, 23.442 katom-step/s
49.2% CPU use with 20 MPI tasks x 1 OpenMP threads

MPI task timing breakdown:
Section |  min time  |  avg time  |  max time  |%varavg| %total
---------------------------------------------------------------
Pair    | 8219.2     | 8705.8     | 9191.2     | 300.9 | 66.43
Neigh   | 82.989     | 85.424     | 89.567     |  18.7 |  0.65
Comm    | 1916.6     | 2400       | 2885.7     | 571.8 | 18.31
Output  | 0.014097   | 0.014446   | 0.018194   |   0.7 |  0.00
Modify  | 1900.2     | 1906.2     | 1909.6     |   5.4 | 14.55
Other   |            | 7.523      |            |       |  0.06

Nlocal:           76.8 ave          81 max          72 min
Histogram: 1 3 2 2 0 2 3 3 2 2
Nghost:         2818.3 ave        2832 max        2802 min
Histogram: 4 0 0 1 1 3 4 2 3 2
Neighs:        33321.1 ave       35203 max       31473 min
Histogram: 1 5 1 1 0 2 3 3 2 2

Total # of neighbors = 666422
Ave neighs/atom = 433.86849
Neighbor list builds = 2368
Dangerous builds = 0
Setting up Verlet run ...
  Unit style    : real
  Current step  : 400000
  Time step     : 0.25
Per MPI rank memory allocation (min/avg/max) = 62.1 | 63.35 | 64.14 Mbytes
   Step          Temp          PotEng         TotEng         Press          Volume        Density    
    400000   2265.3101     -219831.29     -209466.26     -1390.6957      23393.656      2.1836445    
    401000   2281.8585     -220592.46     -210151.71     -6463.5488      23393.656      2.1836445    
    402000   2277.0898     -220008.81     -209589.89     -7637.0133      23393.656      2.1836445    
    403000   2299.0214     -220320.61     -209801.34     -21282.298      23393.656      2.1836445    
    404000   2245.3901     -220276.3      -210002.42     -18587.916      23393.656      2.1836445    
    405000   2299.6053     -219872.03     -209350.08     -9467.0857      23393.656      2.1836445    
    406000   2243.7163     -220449.78     -210183.56     -10725.185      23393.656      2.1836445    
    407000   2287.5361     -220127.54     -209660.82     -9804.8678      23393.656      2.1836445    
    408000   2242.0064     -219780.48     -209522.08     -4941.8338      23393.656      2.1836445    
    409000   2289.1685     -220676.27     -210202.08     -14158.475      23393.656      2.1836445    
    410000   2343.2078     -220157.01     -209435.56     -15530.761      23393.656      2.1836445    
    411000   2241.7127     -220169.38     -209912.33      104.49455      23393.656      2.1836445    
    412000   2295.6863     -220189.39     -209685.38      436.16573      23393.656      2.1836445    
    413000   2314.8361     -220107.45     -209515.82     -491.80802      23393.656      2.1836445    
    414000   2198.3215     -220259.12     -210200.61     -7718.6017      23393.656      2.1836445    
    415000   2225.325      -219936.43     -209754.36     -7198.026       23393.656      2.1836445    
    416000   2291.7558     -220062.94     -209576.91     -890.12779      23393.656      2.1836445    
    417000   2206.8429     -220294.4      -210196.9      -13360.254      23393.656      2.1836445    
    418000   2310.2205     -219908.62     -209338.11     -303.6369       23393.656      2.1836445    
    419000   2280.7551     -220514.35     -210078.66     -10930.281      23393.656      2.1836445    
    420000   2283.9731     -219839.96     -209389.55     -13882.418      23393.656      2.1836445    
    421000   2342.6441     -220481.35     -209762.48     -21177.636      23393.656      2.1836445    
    422000   2263.0505     -220106.03     -209751.34     -10563.443      23393.656      2.1836445    
    423000   2277.7266     -219931.72     -209509.88      69.748385      23393.656      2.1836445    
    424000   2312.0336     -220373.01     -209794.2      -10037.644      23393.656      2.1836445    
    425000   2336.0826     -219901.98     -209213.13     -6783.0591      23393.656      2.1836445    
    426000   2269.417      -220330.37     -209946.55     -15262.973      23393.656      2.1836445    
    427000   2237.571      -219884.65     -209646.55     -15479.814      23393.656      2.1836445    
    428000   2366.5246     -220384.04     -209555.91     -11300.745      23393.656      2.1836445    
    429000   2335.6393     -220239.49     -209552.68     -4366.1809      23393.656      2.1836445    
    430000   2277.7943     -220122.25     -209700.1      -19363.722      23393.656      2.1836445    
    431000   2354.8956     -220517.22     -209742.29     -3887.6809      23393.656      2.1836445    
    432000   2332.2853     -219862.74     -209191.27     -9693.6688      23393.656      2.1836445    
    433000   2366.2377     -220575.87     -209749.04     -14552.448      23393.656      2.1836445    
    434000   2349.1055     -219992.41     -209243.98     -9522.1672      23393.656      2.1836445    
    435000   2241.9391     -220174.18     -209916.1      -10779.558      23393.656      2.1836445    
    436000   2259.3326     -219803.66     -209465.99      3688.4653      23393.656      2.1836445    
    437000   2304.1875     -220057.68     -209514.77      4664.033       23393.656      2.1836445    
    438000   2278.0591     -220221.8      -209798.44      590.43893      23393.656      2.1836445    
    439000   2349.8429     -219897.7      -209145.9      -9690.5351      23393.656      2.1836445    
    440000   2234.1303     -220115.29     -209892.93     -14233.485      23393.656      2.1836445    
    441000   2388.0293     -220241.45     -209314.92     -114.00482      23393.656      2.1836445    
    442000   2347.1115     -219634.23     -208894.92     -9685.9191      23393.656      2.1836445    
    443000   2276.9122     -220172.81     -209754.7      -15035.045      23393.656      2.1836445    
    444000   2352.1977     -220335.69     -209573.11     -7065.4216      23393.656      2.1836445    
    445000   2339.0347     -219913.34     -209210.98     -169.26897      23393.656      2.1836445    
    446000   2258.7736     -219962.47     -209627.35      2623.3184      23393.656      2.1836445    
    447000   2345.3835     -220146.85     -209415.44     -2457.5912      23393.656      2.1836445    
    448000   2298.2498     -220365.13     -209849.39     -15497.152      23393.656      2.1836445    
    449000   2314.6541     -219886.53     -209295.73     -14129.497      23393.656      2.1836445    
    450000   2265.5872     -219914.87     -209548.58     -15166.767      23393.656      2.1836445    
    451000   2324.8743     -220364.55     -209726.99     -4293.7192      23393.656      2.1836445    
    452000   2333.0343     -220173.14     -209498.24      11209.047      23393.656      2.1836445    
    453000   2269.0731     -220427.8      -210045.56     -10085.427      23393.656      2.1836445    
    454000   2286.3892     -219802.78     -209341.31     -4752.9455      23393.656      2.1836445    
    455000   2287.2351     -220110.69     -209645.35     -8419.9989      23393.656      2.1836445    
    456000   2217.1436     -220570.6      -210425.96     -13334.061      23393.656      2.1836445    
    457000   2309.1614     -220166.77     -209601.1      -16936.199      23393.656      2.1836445    
    458000   2294.5192     -219953.21     -209454.54     -10499.165      23393.656      2.1836445    
    459000   2252.9894     -220263.46     -209954.81     -15190.209      23393.656      2.1836445    
    460000   2298.8991     -220027.97     -209509.25     -5001.97        23393.656      2.1836445    
    461000   2336.8696     -219932.61     -209240.16     -4595.7936      23393.656      2.1836445    
    462000   2272.6962     -220369.19     -209970.37     -10930.883      23393.656      2.1836445    
    463000   2300.629      -219675.64     -209149.02     -14647.187      23393.656      2.1836445    
    464000   2306.8501     -220158.89     -209603.8      -7796.6318      23393.656      2.1836445    
    465000   2278.1247     -220107.55     -209683.89     -9290.8286      23393.656      2.1836445    
    466000   2308.2609     -220185.01     -209623.47     -4479.8095      23393.656      2.1836445    
    467000   2359.3557     -219863.57     -209068.24     -4051.5934      23393.656      2.1836445    
    468000   2303.3985     -220434.43     -209895.13     -4756.1297      23393.656      2.1836445    
    469000   2280.0377     -219602.11     -209169.7      -6273.8024      23393.656      2.1836445    
    470000   2348.6985     -220396.39     -209649.81     -12093.898      23393.656      2.1836445    
    471000   2316.8892     -220206.69     -209605.66     -3190.8079      23393.656      2.1836445    
    472000   2297.0656     -219711.67     -209201.35      2179.88        23393.656      2.1836445    
    473000   2282.1811     -220472.38     -210030.16     -3812.4043      23393.656      2.1836445    
    474000   2312.0826     -219784.82     -209205.78     -10057.694      23393.656      2.1836445    
    475000   2273.4829     -219947.46     -209545.04     -2159.235       23393.656      2.1836445    
    476000   2184.6255     -220461.64     -210465.79     -15367.201      23393.656      2.1836445    
    477000   2287.7936     -220204.94     -209737.04     -12312.647      23393.656      2.1836445    
    478000   2367.1593     -220065.88     -209234.84     -14218.83       23393.656      2.1836445    
    479000   2242.7597     -220244.11     -209982.27     -17516.039      23393.656      2.1836445    
    480000   2312.2029     -220024.52     -209444.94     -9944.6032      23393.656      2.1836445    
    481000   2351.6911     -220178.85     -209418.59     -5432.9647      23393.656      2.1836445    
    482000   2257.8575     -220190.12     -209859.2      -4947.9409      23393.656      2.1836445    
    483000   2338.9187     -219833.1      -209131.28     -12526.243      23393.656      2.1836445    
    484000   2252.5571     -219959.07     -209652.4       1441.1112      23393.656      2.1836445    
    485000   2272.1936     -219965.58     -209569.06     -4097.3793      23393.656      2.1836445    
    486000   2326.409      -219837.63     -209193.04     -258.20618      23393.656      2.1836445    
    487000   2249.244      -220244.48     -209952.97     -8124.1925      23393.656      2.1836445    
    488000   2365.2455     -219871.34     -209049.06     -5237.3451      23393.656      2.1836445    
    489000   2329.8282     -220400.83     -209740.6      -14633.834      23393.656      2.1836445    
    490000   2346.6594     -220129.01     -209391.77     -12277.092      23393.656      2.1836445    
    491000   2394.1008     -219824.32     -208870.01     -7805.5436      23393.656      2.1836445    
    492000   2257.4811     -220118.01     -209788.81     -3211.8674      23393.656      2.1836445    
    493000   2357.88       -219976.13     -209187.55     -10133.262      23393.656      2.1836445    
    494000   2343.5174     -220197.03     -209474.17     -6709.2944      23393.656      2.1836445    
    495000   2265.5628     -220074.82     -209708.64     -19583.144      23393.656      2.1836445    
    496000   2329.1788     -219788.76     -209131.5      -5283.8351      23393.656      2.1836445    
    497000   2278.1234     -220313.22     -209889.57     -7816.4395      23393.656      2.1836445    
    498000   2303.2588     -220135.27     -209596.61     -2214.1484      23393.656      2.1836445    
    499000   2361.1327     -220395.48     -209592.02     -9494.6907      23393.656      2.1836445    
    500000   2206.278      -220438.98     -210344.06     -12779.644      23393.656      2.1836445    
    501000   2299.9882     -220094.9      -209571.21     -2311.1831      23393.656      2.1836445    
    502000   2269.5954     -220051.44     -209666.81     -15213.105      23393.656      2.1836445    
    503000   2292.7465     -220233.7      -209743.14     -3804.0429      23393.656      2.1836445    
    504000   2260.9836     -220051.96     -209706.73     -9637.4904      23393.656      2.1836445    
    505000   2368.1617     -220041.01     -209205.38     -20970.95       23393.656      2.1836445    
    506000   2244.0914     -220153.68     -209885.74     -9531.6937      23393.656      2.1836445    
    507000   2334.5197     -219812.61     -209130.92     -2151.5654      23393.656      2.1836445    
    508000   2278.7891     -219982.76     -209556.06     -8226.781       23393.656      2.1836445    
    509000   2229.3495     -220196.85     -209996.37     -10374.972      23393.656      2.1836445    
    510000   2338.0467     -219951.24     -209253.41     -15601.971      23393.656      2.1836445    
    511000   2312.6548     -220483.27     -209901.61     -10743.254      23393.656      2.1836445    
    512000   2302.5286     -220220.37     -209685.05     -10005.704      23393.656      2.1836445    
    513000   2336.8933     -220170.89     -209478.33     -13160.916      23393.656      2.1836445    
    514000   2287.5151     -220580.31     -210113.68     -1659.2007      23393.656      2.1836445    
    515000   2307.5397     -219896.32     -209338.07      12536.387      23393.656      2.1836445    
    516000   2312.4181     -220167.57     -209587        -15207.128      23393.656      2.1836445    
    517000   2319.6067     -219907.24     -209293.78     -4570.2439      23393.656      2.1836445    
    518000   2264.1998     -219788.49     -209428.55      2919.6292      23393.656      2.1836445    
    519000   2312.3524     -220412.1      -209831.83     -7684.258       23393.656      2.1836445    
    520000   2334.0462     -219722.36     -209042.83     -2580.373       23393.656      2.1836445    
    521000   2323.279      -220125.33     -209495.07     -8218.6231      23393.656      2.1836445    
    522000   2245.2763     -220360.34     -210086.98     -6551.5669      23393.656      2.1836445    
    523000   2364.966      -220080.24     -209259.24     -19796.506      23393.656      2.1836445    
    524000   2280.8246     -220424.92     -209988.91     -9387.3897      23393.656      2.1836445    
    525000   2351.2568     -220047.19     -209288.92     -16108.517      23393.656      2.1836445    
    526000   2282.7916     -220211.37     -209766.36     -6620.5286      23393.656      2.1836445    
    527000   2342.9665     -220344.78     -209624.44     -15357.001      23393.656      2.1836445    
    528000   2271.252      -219905.11     -209512.9       1326.7382      23393.656      2.1836445    
    529000   2251.2672     -220124.32     -209823.54     -13699.373      23393.656      2.1836445    
    530000   2334.4438     -220100.29     -209418.94     -7886.68        23393.656      2.1836445    
    531000   2332.0513     -220080.94     -209410.53      445.11614      23393.656      2.1836445    
    532000   2188.9755     -219926.72     -209910.97     -11921.091      23393.656      2.1836445    
    533000   2312.2638     -219996.5      -209416.63     -1642.4571      23393.656      2.1836445    
    534000   2321.1464     -220615.3      -209994.79     -7619.7677      23393.656      2.1836445    
    535000   2320.041      -220443.35     -209827.9      -7197.3276      23393.656      2.1836445    
    536000   2249.0472     -219827.81     -209537.19     -10866.109      23393.656      2.1836445    
    537000   2259.4177     -220374.7      -210036.64     -6577.2107      23393.656      2.1836445    
    538000   2337.0929     -219870.88     -209177.41     -13896.25       23393.656      2.1836445    
    539000   2251.6487     -220108.48     -209805.96     -3939.9235      23393.656      2.1836445    
    540000   2342.536      -220230.99     -209512.62      6602.6273      23393.656      2.1836445    
    541000   2310.8511     -220381.75     -209808.35      472.4784       23393.656      2.1836445    
    542000   2285.967      -219941.06     -209481.51      4813.1032      23393.656      2.1836445    
    543000   2318.7823     -220087.55     -209477.86      14144.625      23393.656      2.1836445    
    544000   2263.1065     -220123.48     -209768.54     -12753.574      23393.656      2.1836445    
    545000   2336.8847     -219914.18     -209221.66     -8306.9388      23393.656      2.1836445    
    546000   2247.726      -220257.64     -209973.07     -2998.7678      23393.656      2.1836445    
    547000   2332.1561     -219925.76     -209254.88     -3164.062       23393.656      2.1836445    
    548000   2324.9082     -220058.79     -209421.07     -17274.627      23393.656      2.1836445    
    549000   2318.5909     -220469.17     -209860.36     -6055.1067      23393.656      2.1836445    
    550000   2330.1631     -219832.12     -209170.36     -10457.535      23393.656      2.1836445    
    551000   2242.3541     -220176.74     -209916.76     -4244.497       23393.656      2.1836445    
    552000   2277.9307     -219990.64     -209567.87     -9440.5123      23393.656      2.1836445    
    553000   2307.8507     -220171.59     -209611.92     -8735.9681      23393.656      2.1836445    
    554000   2290.3913     -220284.46     -209804.67     -11783.923      23393.656      2.1836445    
    555000   2295.2839     -219791.61     -209289.43     -13322.868      23393.656      2.1836445    
    556000   2278.7337     -220337.44     -209910.99     -3766.9876      23393.656      2.1836445    
    557000   2353.7737     -220348        -209578.2      -18615.243      23393.656      2.1836445    
    558000   2301.5656     -219951.15     -209420.24     -441.39971      23393.656      2.1836445    
    559000   2230.2092     -220264.82     -210060.4      -4581.5563      23393.656      2.1836445    
    560000   2283.649      -219880.34     -209431.41     -6139.1353      23393.656      2.1836445    
    561000   2183.5983     -220161.91     -210170.76     -7016.4893      23393.656      2.1836445    
    562000   2243.1509     -219946.37     -209682.74     -5873.7665      23393.656      2.1836445    
    563000   2357.3701     -220059.56     -209273.31     -12777.674      23393.656      2.1836445    
    564000   2286.7097     -220470.9      -210007.96     -2540.9299      23393.656      2.1836445    
    565000   2331.82       -220058.96     -209389.62     -19357.724      23393.656      2.1836445    
    566000   2244.7978     -220461.4      -210190.23     -11997.269      23393.656      2.1836445    
    567000   2286.3067     -219973.43     -209512.34     -4526.2645      23393.656      2.1836445    
    568000   2229.7089     -219902.34     -209700.21     -11741.654      23393.656      2.1836445    
    569000   2245.9475     -220375.1      -210098.67     -21562.086      23393.656      2.1836445    
    570000   2282.4559     -220017.84     -209574.36     -7744.2155      23393.656      2.1836445    
    571000   2309.678      -220559.45     -209991.41     -3786.1866      23393.656      2.1836445    
    572000   2296.7218     -220089.99     -209581.24      9287.4067      23393.656      2.1836445    
    573000   2313.9706     -220138.1      -209550.42     -11673.639      23393.656      2.1836445    
    574000   2214.9922     -219978.04     -209843.25     -14698.247      23393.656      2.1836445    
    575000   2284.3418     -219841.49     -209389.38     -17171.154      23393.656      2.1836445    
    576000   2350.313      -220046.43     -209292.47     -12679.062      23393.656      2.1836445    
    577000   2361.8455     -220532.4      -209725.67     -12756.641      23393.656      2.1836445    
    578000   2298.6095     -219426.95     -208909.56      8356.7474      23393.656      2.1836445    
    579000   2305.172      -220174.11     -209626.69     -9370.3776      23393.656      2.1836445    
    580000   2334.8768     -220101.78     -209418.45     -3857.8857      23393.656      2.1836445    
    581000   2263.4236     -220054.97     -209698.58      1358.0946      23393.656      2.1836445    
    582000   2301.0322     -220378.35     -209849.87      371.78155      23393.656      2.1836445    
    583000   2269.3568     -219840.03     -209456.49     -11233.148      23393.656      2.1836445    
    584000   2244.9955     -220517.02     -210244.95     -15681.923      23393.656      2.1836445    
    585000   2277.7929     -220284.46     -209862.32     -10203.661      23393.656      2.1836445    
    586000   2278.863      -219840.55     -209413.52     -7208.3938      23393.656      2.1836445    
    587000   2244.7201     -220212.5      -209941.68     -3429.7053      23393.656      2.1836445    
    588000   2287.646      -219884.79     -209417.56     -5750.0773      23393.656      2.1836445    
    589000   2333.9062     -220168.49     -209489.6      -3357.0204      23393.656      2.1836445    
    590000   2203.4859     -219971.41     -209889.26     -17226.47       23393.656      2.1836445    
    591000   2402.88       -220117.03     -209122.55      8283.0684      23393.656      2.1836445    
    592000   2264.3982     -220154.2      -209793.34     -5020.31        23393.656      2.1836445    
    593000   2388.0976     -219866.49     -208939.64     -5002.5693      23393.656      2.1836445    
    594000   2282.7191     -220023.14     -209578.46     -11455.06       23393.656      2.1836445    
    595000   2287.4645     -220145.56     -209679.17     -620.71545      23393.656      2.1836445    
    596000   2298.24       -219510.93     -208995.24     -13435.279      23393.656      2.1836445    
    597000   2301.6792     -220320.95     -209789.52     -12243.753      23393.656      2.1836445    
    598000   2373.137      -220150.18     -209291.79     -4365.5116      23393.656      2.1836445    
    599000   2335.0252     -220124.32     -209440.31     -7180.1563      23393.656      2.1836445    
    600000   2291.9999     -220246.19     -209759.04     -18267.983      23393.656      2.1836445    
Loop time of 12449.3 on 20 procs for 200000 steps with 1536 atoms

Performance: 0.347 ns/day, 69.163 hours/ns, 16.065 timesteps/s, 24.676 katom-step/s
49.2% CPU use with 20 MPI tasks x 1 OpenMP threads

MPI task timing breakdown:
Section |  min time  |  avg time  |  max time  |%varavg| %total
---------------------------------------------------------------
Pair    | 8603.2     | 9108.7     | 9665.7     | 286.6 | 73.17
Neigh   | 67.819     | 69.817     | 73.217     |  13.9 |  0.56
Comm    | 931.32     | 1487.4     | 1992.4     | 708.8 | 11.95
Output  | 0.065512   | 0.065868   | 0.069734   |   0.3 |  0.00
Modify  | 1771.6     | 1775.8     | 1777.5     |   2.9 | 14.26
Other   |            | 7.581      |            |       |  0.06

Nlocal:           76.8 ave          81 max          72 min
Histogram: 1 0 2 3 4 2 2 4 1 1
Nghost:         2803.3 ave        2823 max        2781 min
Histogram: 1 3 0 1 2 5 3 1 3 1
Neighs:        33342.7 ave       35007 max       31170 min
Histogram: 1 0 2 1 5 3 0 3 3 2

Total # of neighbors = 666853
Ave neighs/atom = 434.14909
Neighbor list builds = 1909
Dangerous builds = 0
System init for write_data ...
System init for write_restart ...
Total wall time: 10:32:44
