LAMMPS data file via write_data, version 29 Aug 2024, timestep = 1, units = real

192 atoms
2 atom types

0 14.3 xlo xhi
0 14.3 ylo yhi
0 14.3 zlo zhi

Masses

1 28.0855
2 15.9994

Atoms # charge

89 2 -0.9112947770572514 6.2562499997097785 6.256249999710941 0.8937499993375886 0 0 0
2 1 1.822588392760462 1.7875000002625687 1.7875000002630808 1.7875000001753358 0 0 0
88 2 -0.9112951854927519 6.256249995046331 4.468750003911324 2.68124999563559 0 0 0
4 1 1.822590482897587 1.787500014046746 5.3624999949685686 5.362500006567518 0 0 0
87 2 -0.9112951855650826 4.468750003910497 6.2562499950477655 2.681249995635694 0 0 0
6 1 1.822590482932119 5.362499994970408 1.7875000140477595 5.362500006567749 0 0 0
7 1 1.822589771485011 3.5750000002970923 3.57500000029641 1.1527425236579347e-08 0 0 0
8 1 1.822591082002216 5.362500000704531 5.3625000007022825 1.7875000082267631 0 0 0
65 2 -0.9112958582148216 0.8937500000025864 0.8937500000020082 0.8937500000017915 0 0 0
69 2 -0.9112965774535954 0.8937499996918803 2.6812499998576995 2.6812499998574792 0 0 0
70 2 -0.9112965774336401 2.6812499998576924 0.8937499996913687 2.6812499998575183 0 0 0
71 2 -0.9112954112119356 2.6812499998901784 2.6812499998901713 0.893749999658277 0 0 0
72 2 -0.91129568993558 0.8937500000617036 4.468750000030175 4.468750000030302 0 0 0
75 2 -0.9112943540092825 2.6812499999868833 4.468749999560098 6.256249999399289 0 0 0
76 2 -0.9112960943761914 2.681249995636614 6.256249995048298 4.468750003910554 0 0 0
77 2 -0.9112941025153488 0.8937499993221139 6.2562499997277055 6.25624999972843 0 0 0
78 2 -0.9112956899400382 4.468750000029722 0.8937500000614425 4.468750000030427 0 0 0
81 2 -0.9112943539423659 4.468749999559414 2.681249999986893 6.2562499993991665 0 0 0
82 2 -0.9112960943171063 6.2562499950468515 2.6812499956363434 4.468750003910744 0 0 0
83 2 -0.911294102490223 6.256249999726492 0.8937499993214725 6.256249999728181 0 0 0
84 2 -0.9112937963112732 4.468749999997762 4.46874999999846 0.8937500000290106 0 0 0
15 1 1.822590578139579 3.574999990499431 3.574999990498436 7.149999992276479 0 0 0
9 1 1.822590722639447 9.9750323556691e-09 9.976519305121556e-09 7.150000011404353 0 0 0
10 1 1.822590650782923 1.7875000004427837 1.7875000004429826 8.93749996892973 0 0 0
11 1 1.822590757546398 1.522795756159212e-08 3.575000015421351 10.725000032063067 0 0 0
12 1 1.822589917922897 1.7874999846487847 5.362499984992185 12.51249996366997 0 0 0
13 1 1.822590757511088 3.57500001542195 1.5229636662894563e-08 10.725000032062923 0 0 0
14 1 1.822589918053613 5.362499984994148 1.7874999846495228 12.512499963669384 0 0 0
29 1 1.822589635752416 3.57499999616362 7.149999998054939 10.724999981413633 0 0 0
16 1 1.822590681753667 5.362499994876204 5.3624999948739305 8.937500025550277 0 0 0
85 2 -0.9112966452767415 2.6812500041211904 4.468749995453454 13.406250004649149 0 0 0
86 2 -0.9112966451802009 4.468749995452534 2.6812500041210865 13.406250004649106 0 0 0
90 2 -0.9112929868728175 0.8937500006515393 0.8937500006509673 8.04374999860105 0 0 0
94 2 -0.9112967443236417 0.8937500047803326 2.6812499947380473 9.831249997212776 0 0 0
95 2 -0.9112967443494385 2.6812499947378483 0.8937500047800182 9.831249997212645 0 0 0
96 2 -0.9112933738250473 2.681249999236124 2.681249999236291 8.043749998231831 0 0 0
97 2 -0.9112915733416299 0.89374999954062 4.468749999537042 11.618750001558693 0 0 0
100 2 -0.9112980467540618 0.8937499951627956 6.256250003987594 13.406250004971188 0 0 0
101 2 -0.9112960747349794 2.6812500052718433 6.256250004817202 11.618749996163146 0 0 0
102 2 -0.9112915732957876 4.468749999536486 0.8937499995403055 11.618750001558942 0 0 0
105 2 -0.9112980467154771 6.256250003986127 0.8937499951623398 13.406250004970815 0 0 0
106 2 -0.9112960746054739 6.256250004815746 2.6812500052717065 11.61874999616352 0 0 0
107 2 -0.9112972233586939 4.468750000709312 4.468750000710148 8.043749998718756 0 0 0
108 2 -0.9112940822581462 4.468750000279364 6.256249998782845 9.831250001739054 0 0 0
109 2 -0.9112940822101921 6.256249998781347 4.468750000280228 9.831250001738782 0 0 0
110 2 -0.9112942939900707 6.25624999466743 6.256249994668865 8.043750002534406 0 0 0
41 1 1.822591496235771 7.149999994472205 2.735377406526407e-08 7.150000029462616 0 0 0
43 1 1.822589635897899 7.14999999805732 3.5749999961635974 10.72499998141405 0 0 0
25 1 1.822591496171564 2.735194470915303e-08 7.1499999944692885 7.150000029462376 0 0 0
17 1 1.822589736090233 4.168676071003574e-09 7.150000017303144 1.591703800707389e-08 0 0 0
18 1 1.82259117598455 1.7875000004711432 8.93749998049916 1.7874999887641092 0 0 0
129 2 -0.911293951954196 6.256250000170919 11.618750000808298 2.681250000654805 0 0 0
20 1 1.822589523170624 1.7875000100925047 12.51250000071001 5.36250001047701 0 0 0
21 1 1.822590203203607 3.575000009752542 7.150000011574682 3.575000009752416 0 0 0
22 1 1.822591043099534 5.362499953853361 8.93750001575122 5.362499984990161 0 0 0
5 1 1.822589474325948 3.5750000002744686 14.299999999754851 3.5750000003203954 0 -1 0
24 1 1.822589944988775 5.36250000076363 12.512499998762781 1.7875000003339776 0 0 0
79 2 -0.9112952406678553 2.6812499996348094 13.406250000164427 4.468749999938815 0 0 0
80 2 -0.9112957977961303 4.468749999892125 13.406250000210326 2.6812499996523216 0 0 0
91 2 -0.9112960900782512 0.8937499996346674 13.406250000500162 6.256249999516276 0 0 0
111 2 -0.9112926104383984 0.8937500006512267 8.043749998599532 0.8937500006504042 0 0 0
114 2 -0.9112956069794163 0.8937500048822244 9.831249997110787 2.6812499946653374 0 0 0
115 2 -0.9112951594411789 2.681249994872624 8.043750002594553 2.681249994871697 0 0 0
116 2 -0.9112949346510782 2.681249999089425 9.831250001563195 0.8937500004282033 0 0 0
117 2 -0.9112960897188329 0.8937500038524775 11.618750005842701 4.468750003849572 0 0 0
120 2 -0.911295054883916 2.6812499964178627 11.618750005016755 6.256249995992446 0 0 0
121 2 -0.9112937432126584 4.46874999640881 8.043749994388971 4.468749996381305 0 0 0
122 2 -0.91129327231066 4.468749995994807 9.831250006022731 6.256250003065777 0 0 0
123 2 -0.9112948312272089 6.256250007688729 9.831250010617987 4.4687499914000295 0 0 0
124 2 -0.9112978244172312 6.256250003575041 8.043749993625154 6.2562500035485815 0 0 0
125 2 -0.9112959243395866 4.468749999350097 11.618750001401354 0.8937499993534221 0 0 0
128 2 -0.9112960941105337 6.256249999548251 13.406250000562142 0.8937499995714173 0 0 0
51 1 1.822589484188995 7.1499999862898225 10.724999981692836 3.5749999810615734 0 0 0
31 1 1.822589716402861 3.574999999651882 10.724999977929594 7.149999982701006 0 0 0
59 1 1.822590642332031 7.149999990345828 10.72499998927092 10.724999989271277 0 0 0
26 1 1.822588415765424 1.787499994340847 8.937499994158589 8.937500005804392 0 0 0
27 1 1.822590530468795 1.978959218718046e-08 10.724999997227872 10.7249999971435 0 0 0
28 1 1.822589785081181 1.7875000040708682 12.512499982871631 12.512499994517079 0 0 0
144 2 -0.9112932307671653 6.2562499948438575 11.618750006136239 9.83124999780103 0 0 0
30 1 1.822590746083219 5.362500004745452 8.937500003777568 12.512499994622807 0 0 0
143 2 -0.9112922543652432 6.256249998808162 13.406249999691138 8.043749998318816 0 0 0
32 1 1.822591579510392 5.362500016412411 12.512499994646085 8.937500003755302 0 0 0
66 2 -0.9112956607888516 0.8937500000628689 13.406249999940655 13.406249999939805 0 0 0
103 2 -0.911296141997489 2.6812499960778893 13.406249996503345 11.618750005489773 0 0 0
104 2 -0.9112957553620545 4.468750004898062 13.406249995073187 9.831249997148493 0 0 0
126 2 -0.9112941763951543 2.6812500004454107 11.61875000112274 13.406250000869832 0 0 0
127 2 -0.9112950917829409 4.46875000053074 9.831250001515475 13.406249999439956 0 0 0
130 2 -0.9112935805478305 0.8937500012861961 8.043749999366346 8.0437499993673 0 0 0
133 2 -0.9112961561162765 0.8937500013005206 9.831250000645966 9.83125000064577 0 0 0
134 2 -0.9112960506313804 2.6812499985023037 8.043749998892185 9.831250001077386 0 0 0
135 2 -0.9112977071767534 2.6812499941041152 9.831249996708394 8.043750003290672 0 0 0
136 2 -0.9112947264607492 0.8937499988212665 11.618750000680413 11.618750000679677 0 0 0
139 2 -0.9112959215687146 4.468749999967173 8.0437499979477 11.618750001959516 0 0 0
140 2 -0.9112948723684179 6.256249998792306 8.043749998333878 13.406249999674484 0 0 0
141 2 -0.9112941903307278 6.256249994844017 9.831249997800938 11.618750006135874 0 0 0
142 2 -0.9112963781782091 4.468750004336403 11.618750006357896 8.043750002346497 0 0 0
23 1 1.822590625633603 3.574999990247668 10.725000006889882 14.299999990101053 0 0 -1
33 1 1.822589736183712 7.150000017307116 4.170373379963621e-09 1.5917075213423004e-08 0 0 0
34 1 1.822591176187971 8.937499980498615 1.7875000004713546 1.7874999887642504 0 0 0
35 1 1.822590203334285 7.150000011577186 3.5750000097516574 3.575000009752178 0 0 0
36 1 1.822591043159637 8.937500015751425 5.362499953850871 5.36249998499023 0 0 0
3 1 1.822589474326249 14.299999999753009 3.575000000273788 3.5750000003205127 -1 0 0
38 1 1.822589523402042 12.512500000708012 1.7875000100935727 5.36250001047627 0 0 0
53 1 1.822589484225148 10.72499998169153 7.1499999862868275 3.574999981061085 0 0 0
40 1 1.822589945090269 12.512499998759825 5.3625000007621555 1.7875000003346337 0 0 0
73 2 -0.9112952405011132 13.406250000165706 2.681249999635046 4.468749999938847 0 0 0
74 2 -0.9112957978185786 13.406250000211937 4.468749999892358 2.6812499996527364 0 0 0
92 2 -0.9112960900210253 13.406250000501228 0.8937499996340104 6.2562499995164025 0 0 0
112 2 -0.9112960940961996 13.406250000563823 6.256249999549598 0.8937499995709488 0 0 0
145 2 -0.9112926102251094 8.04374999859861 0.8937500006504344 0.8937500006501218 0 0 0
147 2 -0.9112951592276547 8.04375000259338 2.68124999487234 2.681249994871814 0 0 0
148 2 -0.9112956069525773 9.831249997111026 0.8937500048812244 2.6812499946655586 0 0 0
149 2 -0.9112949345235151 9.831250001563145 2.6812499990891356 0.8937500004285632 0 0 0
150 2 -0.9112937431792355 8.043749994387777 4.468749996409372 4.468749996381053 0 0 0
151 2 -0.9112932721832082 9.83125000602347 4.468749995994955 6.25625000306628 0 0 0
152 2 -0.911294831252239 9.831250010618607 6.256250007690292 4.468749991399376 0 0 0
153 2 -0.9112978243697837 8.04374999362346 6.2562500035766195 6.256250003548905 0 0 0
154 2 -0.91129608952077 11.61875000584361 0.89375000385218 4.4687500038498715 0 0 0
157 2 -0.9112950547635978 11.618750005017676 2.681249996417753 6.256249995992451 0 0 0
158 2 -0.9112959242076887 11.618750001402548 4.468749999351033 0.8937499993536544 0 0 0
161 2 -0.9112939517940072 11.618750000808804 6.256250000171973 2.6812500006551305 0 0 0
47 1 1.822589716562462 10.724999977927586 3.574999999652345 7.14999998270055 0 0 0
174 2 -0.9112932306679229 11.618750006137036 6.256249994844395 9.83124999780084 0 0 0
42 1 1.822588415972399 8.937499994158031 1.7874999943420389 8.937500005803827 0 0 0
173 2 -0.9112963780736492 11.61875000635884 4.468750004336708 8.043750002346666 0 0 0
44 1 1.822590746199517 8.937500003777245 5.362500004744179 12.512499994621985 0 0 0
45 1 1.822590530563311 10.724999997228116 1.9791002614510944e-08 10.724999997144131 0 0 0
46 1 1.822589785173468 12.51249998286984 1.7875000040710494 12.512499994516265 0 0 0
61 1 1.822590642386649 10.724999989269696 7.149999990343522 10.724999989271355 0 0 0
48 1 1.822591579598974 12.512499994642756 5.36250001641188 8.937500003755298 0 0 0
67 2 -0.9112956607785366 13.406249999941846 0.8937500000621345 13.406249999939705 0 0 0
98 2 -0.9112961419006549 13.406249996504492 2.681249996078238 11.618750005489574 0 0 0
99 2 -0.911295755357686 13.406249995074358 4.468750004898306 9.831249997148474 0 0 0
131 2 -0.9112922543242505 13.406249999692383 6.256249998808658 8.043749998318876 0 0 0
159 2 -0.9112950916899563 9.831250001515212 4.468750000531605 13.406249999439549 0 0 0
160 2 -0.9112941763222541 11.618750001124015 2.681250000444662 13.406250000869239 0 0 0
162 2 -0.9112935803316125 8.043749999365627 0.8937500012847999 8.0437499993673 0 0 0
164 2 -0.9112960504955819 8.043749998891638 2.6812499985019485 9.831250001077237 0 0 0
165 2 -0.911296156098087 9.83125000064609 0.8937500012996893 9.831250000645753 0 0 0
166 2 -0.9112977070173961 9.831249996708646 2.681249994103682 8.043750003290862 0 0 0
167 2 -0.9112959214399171 8.043749997946787 4.468749999967514 11.61875000195923 0 0 0
168 2 -0.9112948722248674 8.043749998332384 6.256249998793125 13.406249999674891 0 0 0
169 2 -0.9112941902958327 9.831249997801212 6.256249994844876 11.61875000613533 0 0 0
170 2 -0.9112947262819595 11.618750000681198 0.8937499988203081 11.618750000679618 0 0 0
39 1 1.822590625847494 10.725000006889024 3.5749999902474014 14.299999990100853 0 0 -1
49 1 1.822591032529593 7.150000011967359 7.1500000119642495 9.85397181907377e-09 0 0 0
50 1 1.822589123421329 8.937500000003865 8.9375000000031 1.7874999806268503 0 0 0
183 2 -0.9112933688227334 11.618750000682931 11.618750000682063 0.8937499987932809 0 0 0
52 1 1.822591341676947 8.93750005795033 12.512499990783075 5.362500008545532 0 0 0
19 1 1.822591029750046 14.299999986144869 10.724999983303139 3.575000013805182 -1 0 0
54 1 1.822591341646847 12.512499990781723 8.93750005795004 5.36250000854587 0 0 0
55 1 1.822589602647975 10.724999997229508 10.724999997230757 1.9870978640312842e-08 0 0 0
56 1 1.822591088854803 12.512499988691562 12.512499988693776 1.7874999788395394 0 0 0
68 2 -0.9112939181228121 13.40624999993949 13.406249999938431 0.8937500000348377 0 0 0
118 2 -0.9112920971628027 13.406250008433476 9.83125001045184 4.468749991567131 0 0 0
119 2 -0.911295519954948 13.406249996240117 11.618750005753814 2.681249995785402 0 0 0
132 2 -0.9112982102269345 13.406250012879987 8.043749985130585 6.256250011968355 0 0 0
155 2 -0.9112920971340348 9.831250010451907 13.406250008432412 4.468749991567314 0 0 0
156 2 -0.9112955198548511 11.618750005754622 13.40624999623895 2.6812499957852265 0 0 0
163 2 -0.9112982102042537 8.043749985129349 13.406250012879063 6.25625001196858 0 0 0
175 2 -0.9112947149850258 8.043749999350307 8.043749999351242 0.8937500012411121 0 0 0
176 2 -0.911295684324622 8.043749999066474 9.831250000902706 2.681249998429054 0 0 0
177 2 -0.911295684272029 9.831250000902852 8.043749999067401 2.681249998429136 0 0 0
178 2 -0.911296217779804 9.831250000677155 9.8312500006771 0.8937500012398145 0 0 0
179 2 -0.9112979480590604 8.043749984758474 11.618749988799332 4.468749986807133 0 0 0
180 2 -0.911290552437041 9.831249993314817 11.618750010623476 6.256249990385503 0 0 0
181 2 -0.9112979481150753 11.618749988800433 8.043749984759472 4.468749986807211 0 0 0
182 2 -0.9112905524313265 11.618750010624348 9.831249993314675 6.256249990385298 0 0 0
37 1 1.822591029865198 10.724999983303269 14.29999998614581 3.575000013805719 0 -1 0
1 1 1.822590868299432 14.29999999995131 14.299999999953151 3.643663148977794e-11 -1 -1 0
63 1 1.822590422887973 10.724999989243207 10.724999989244171 7.149999920467582 0 0 0
57 1 1.822590379810343 7.150000010137001 7.150000010133464 7.150000033631723 0 0 0
58 1 1.82259170429626 8.937499976523384 8.937499976522343 8.937500023310527 0 0 0
192 2 -0.9113004330454679 11.618750023399587 11.61875002339882 8.043750019562452 0 0 0
60 1 1.822590057695046 8.937500005853792 12.512500004409459 12.512500004414514 0 0 0
191 2 -0.9112966146668353 11.618750005722399 8.043750001856646 11.618750005721145 0 0 0
62 1 1.822590057737966 12.512500004407432 8.937500005853456 12.512500004413566 0 0 0
190 2 -0.9112966147140383 8.043750001855326 11.61875000572107 11.618750005720651 0 0 0
64 1 1.822589883001908 12.51250002778335 12.512500027785483 8.93750002926813 0 0 0
93 2 -0.9112937878191434 13.406249999262116 13.406249999261298 8.043749998749725 0 0 0
113 2 -0.9112947097514024 13.406249999312358 8.043749998698823 13.406249999310742 0 0 0
137 2 -0.9112953648417391 13.406250000046382 9.831250001933489 11.618750001902889 0 0 0
138 2 -0.9112939034412904 13.406250000011877 11.618750001938134 9.831250001898972 0 0 0
146 2 -0.9112947097073992 8.043749998697773 13.406249999311349 13.406249999310777 0 0 0
171 2 -0.9112953648818439 9.831250001933764 13.4062500000455 11.618750001902438 0 0 0
172 2 -0.9112939033271383 11.618750001938915 13.40625000001094 9.83125000189875 0 0 0
184 2 -0.9112959701352968 9.831250001932698 11.618750001903866 13.406250000044071 0 0 0
185 2 -0.9112959701020749 11.618750001905036 9.831250001932311 13.406250000043888 0 0 0
186 2 -0.9112905917440207 8.043749986645633 8.043749986646691 8.043749986648141 0 0 0
187 2 -0.9112941767469109 8.043749986651331 9.831250013317572 9.831250013317906 0 0 0
188 2 -0.9112941767549146 9.831250013317447 8.043749986652546 9.831250013317796 0 0 0
189 2 -0.9112998432223663 9.83124999567352 9.831249995673536 8.043750004325464 0 0 0

Velocities

89 0 0 0
2 0 0 0
88 0 0 0
4 0 0 0
87 0 0 0
6 0 0 0
7 0 0 0
8 0 0 0
65 0 0 0
69 0 0 0
70 0 0 0
71 0 0 0
72 0 0 0
75 0 0 0
76 0 0 0
77 0 0 0
78 0 0 0
81 0 0 0
82 0 0 0
83 0 0 0
84 0 0 0
15 0 0 0
9 0 0 0
10 0 0 0
11 0 0 0
12 0 0 0
13 0 0 0
14 0 0 0
29 0 0 0
16 0 0 0
85 0 0 0
86 0 0 0
90 0 0 0
94 0 0 0
95 0 0 0
96 0 0 0
97 0 0 0
100 0 0 0
101 0 0 0
102 0 0 0
105 0 0 0
106 0 0 0
107 0 0 0
108 0 0 0
109 0 0 0
110 0 0 0
41 0 0 0
43 0 0 0
25 0 0 0
17 0 0 0
18 0 0 0
129 0 0 0
20 0 0 0
21 0 0 0
22 0 0 0
5 0 0 0
24 0 0 0
79 0 0 0
80 0 0 0
91 0 0 0
111 0 0 0
114 0 0 0
115 0 0 0
116 0 0 0
117 0 0 0
120 0 0 0
121 0 0 0
122 0 0 0
123 0 0 0
124 0 0 0
125 0 0 0
128 0 0 0
51 0 0 0
31 0 0 0
59 0 0 0
26 0 0 0
27 0 0 0
28 0 0 0
144 0 0 0
30 0 0 0
143 0 0 0
32 0 0 0
66 0 0 0
103 0 0 0
104 0 0 0
126 0 0 0
127 0 0 0
130 0 0 0
133 0 0 0
134 0 0 0
135 0 0 0
136 0 0 0
139 0 0 0
140 0 0 0
141 0 0 0
142 0 0 0
23 0 0 0
33 0 0 0
34 0 0 0
35 0 0 0
36 0 0 0
3 0 0 0
38 0 0 0
53 0 0 0
40 0 0 0
73 0 0 0
74 0 0 0
92 0 0 0
112 0 0 0
145 0 0 0
147 0 0 0
148 0 0 0
149 0 0 0
150 0 0 0
151 0 0 0
152 0 0 0
153 0 0 0
154 0 0 0
157 0 0 0
158 0 0 0
161 0 0 0
47 0 0 0
174 0 0 0
42 0 0 0
173 0 0 0
44 0 0 0
45 0 0 0
46 0 0 0
61 0 0 0
48 0 0 0
67 0 0 0
98 0 0 0
99 0 0 0
131 0 0 0
159 0 0 0
160 0 0 0
162 0 0 0
164 0 0 0
165 0 0 0
166 0 0 0
167 0 0 0
168 0 0 0
169 0 0 0
170 0 0 0
39 0 0 0
49 0 0 0
50 0 0 0
183 0 0 0
52 0 0 0
19 0 0 0
54 0 0 0
55 0 0 0
56 0 0 0
68 0 0 0
118 0 0 0
119 0 0 0
132 0 0 0
155 0 0 0
156 0 0 0
163 0 0 0
175 0 0 0
176 0 0 0
177 0 0 0
178 0 0 0
179 0 0 0
180 0 0 0
181 0 0 0
182 0 0 0
37 0 0 0
1 0 0 0
63 0 0 0
57 0 0 0
58 0 0 0
192 0 0 0
60 0 0 0
191 0 0 0
62 0 0 0
190 0 0 0
64 0 0 0
93 0 0 0
113 0 0 0
137 0 0 0
138 0 0 0
146 0 0 0
171 0 0 0
172 0 0 0
184 0 0 0
185 0 0 0
186 0 0 0
187 0 0 0
188 0 0 0
189 0 0 0
