192
Lattice="14.3000000000 0 0 0 14.3000000000 0 0 0 14.3000000000" Properties=species:S:1:pos:R:3 pbc="T T T"
Si       0.00000000       0.00000000       0.00000000
Si       1.78750000       1.78750000       1.78750000
Si       0.00000000       3.57500000       3.57500000
Si       1.78750000       5.36250000       5.36250000
Si       3.57500000       0.00000000       3.57500000
Si       5.36250000       1.78750000       5.36250000
Si       3.57500000       3.57500000       0.00000000
Si       5.36250000       5.36250000       1.78750000
Si       0.00000000       0.00000000       7.15000000
Si       1.78750000       1.78750000       8.93750000
Si       0.00000000       3.57500000      10.72500000
Si       1.78750000       5.36250000      12.51250000
Si       3.57500000       0.00000000      10.72500000
Si       5.36250000       1.78750000      12.51250000
Si       3.57500000       3.57500000       7.15000000
Si       5.36250000       5.36250000       8.93750000
Si       0.00000000       7.15000000       0.00000000
Si       1.78750000       8.93750000       1.78750000
Si       0.00000000      10.72500000       3.57500000
Si       1.78750000      12.51250000       5.36250000
Si       3.57500000       7.15000000       3.57500000
Si       5.36250000       8.93750000       5.36250000
Si       3.57500000      10.72500000       0.00000000
Si       5.36250000      12.51250000       1.78750000
Si       0.00000000       7.15000000       7.15000000
Si       1.78750000       8.93750000       8.93750000
Si       0.00000000      10.72500000      10.72500000
Si       1.78750000      12.51250000      12.51250000
Si       3.57500000       7.15000000      10.72500000
Si       5.36250000       8.93750000      12.51250000
Si       3.57500000      10.72500000       7.15000000
Si       5.36250000      12.51250000       8.93750000
Si       7.15000000       0.00000000       0.00000000
Si       8.93750000       1.78750000       1.78750000
Si       7.15000000       3.57500000       3.57500000
Si       8.93750000       5.36250000       5.36250000
Si      10.72500000       0.00000000       3.57500000
Si      12.51250000       1.78750000       5.36250000
Si      10.72500000       3.57500000       0.00000000
Si      12.51250000       5.36250000       1.78750000
Si       7.15000000       0.00000000       7.15000000
Si       8.93750000       1.78750000       8.93750000
Si       7.15000000       3.57500000      10.72500000
Si       8.93750000       5.36250000      12.51250000
Si      10.72500000       0.00000000      10.72500000
Si      12.51250000       1.78750000      12.51250000
Si      10.72500000       3.57500000       7.15000000
Si      12.51250000       5.36250000       8.93750000
Si       7.15000000       7.15000000       0.00000000
Si       8.93750000       8.93750000       1.78750000
Si       7.15000000      10.72500000       3.57500000
Si       8.93750000      12.51250000       5.36250000
Si      10.72500000       7.15000000       3.57500000
Si      12.51250000       8.93750000       5.36250000
Si      10.72500000      10.72500000       0.00000000
Si      12.51250000      12.51250000       1.78750000
Si       7.15000000       7.15000000       7.15000000
Si       8.93750000       8.93750000       8.93750000
Si       7.15000000      10.72500000      10.72500000
Si       8.93750000      12.51250000      12.51250000
Si      10.72500000       7.15000000      10.72500000
Si      12.51250000       8.93750000      12.51250000
Si      10.72500000      10.72500000       7.15000000
Si      12.51250000      12.51250000       8.93750000
O        0.89375000       0.89375000       0.89375000
O        0.89375000      13.40625000      13.40625000
O       13.40625000       0.89375000      13.40625000
O       13.40625000      13.40625000       0.89375000
O        0.89375000       2.68125000       2.68125000
O        2.68125000       0.89375000       2.68125000
O        2.68125000       2.68125000       0.89375000
O        0.89375000       4.46875000       4.46875000
O       13.40625000       2.68125000       4.46875000
O       13.40625000       4.46875000       2.68125000
O        2.68125000       4.46875000       6.25625000
O        2.68125000       6.25625000       4.46875000
O        0.89375000       6.25625000       6.25625000
O        4.46875000       0.89375000       4.46875000
O        2.68125000      13.40625000       4.46875000
O        4.46875000      13.40625000       2.68125000
O        4.46875000       2.68125000       6.25625000
O        6.25625000       2.68125000       4.46875000
O        6.25625000       0.89375000       6.25625000
O        4.46875000       4.46875000       0.89375000
O        2.68125000       4.46875000      13.40625000
O        4.46875000       2.68125000      13.40625000
O        4.46875000       6.25625000       2.68125000
O        6.25625000       4.46875000       2.68125000
O        6.25625000       6.25625000       0.89375000
O        0.89375000       0.89375000       8.04375000
O        0.89375000      13.40625000       6.25625000
O       13.40625000       0.89375000       6.25625000
O       13.40625000      13.40625000       8.04375000
O        0.89375000       2.68125000       9.83125000
O        2.68125000       0.89375000       9.83125000
O        2.68125000       2.68125000       8.04375000
O        0.89375000       4.46875000      11.61875000
O       13.40625000       2.68125000      11.61875000
O       13.40625000       4.46875000       9.83125000
O        0.89375000       6.25625000      13.40625000
O        2.68125000       6.25625000      11.61875000
O        4.46875000       0.89375000      11.61875000
O        2.68125000      13.40625000      11.61875000
O        4.46875000      13.40625000       9.83125000
O        6.25625000       0.89375000      13.40625000
O        6.25625000       2.68125000      11.61875000
O        4.46875000       4.46875000       8.04375000
O        4.46875000       6.25625000       9.83125000
O        6.25625000       4.46875000       9.83125000
O        6.25625000       6.25625000       8.04375000
O        0.89375000       8.04375000       0.89375000
O       13.40625000       6.25625000       0.89375000
O       13.40625000       8.04375000      13.40625000
O        0.89375000       9.83125000       2.68125000
O        2.68125000       8.04375000       2.68125000
O        2.68125000       9.83125000       0.89375000
O        0.89375000      11.61875000       4.46875000
O       13.40625000       9.83125000       4.46875000
O       13.40625000      11.61875000       2.68125000
O        2.68125000      11.61875000       6.25625000
O        4.46875000       8.04375000       4.46875000
O        4.46875000       9.83125000       6.25625000
O        6.25625000       9.83125000       4.46875000
O        6.25625000       8.04375000       6.25625000
O        4.46875000      11.61875000       0.89375000
O        2.68125000      11.61875000      13.40625000
O        4.46875000       9.83125000      13.40625000
O        6.25625000      13.40625000       0.89375000
O        6.25625000      11.61875000       2.68125000
O        0.89375000       8.04375000       8.04375000
O       13.40625000       6.25625000       8.04375000
O       13.40625000       8.04375000       6.25625000
O        0.89375000       9.83125000       9.83125000
O        2.68125000       8.04375000       9.83125000
O        2.68125000       9.83125000       8.04375000
O        0.89375000      11.61875000      11.61875000
O       13.40625000       9.83125000      11.61875000
O       13.40625000      11.61875000       9.83125000
O        4.46875000       8.04375000      11.61875000
O        6.25625000       8.04375000      13.40625000
O        6.25625000       9.83125000      11.61875000
O        4.46875000      11.61875000       8.04375000
O        6.25625000      13.40625000       8.04375000
O        6.25625000      11.61875000       9.83125000
O        8.04375000       0.89375000       0.89375000
O        8.04375000      13.40625000      13.40625000
O        8.04375000       2.68125000       2.68125000
O        9.83125000       0.89375000       2.68125000
O        9.83125000       2.68125000       0.89375000
O        8.04375000       4.46875000       4.46875000
O        9.83125000       4.46875000       6.25625000
O        9.83125000       6.25625000       4.46875000
O        8.04375000       6.25625000       6.25625000
O       11.61875000       0.89375000       4.46875000
O        9.83125000      13.40625000       4.46875000
O       11.61875000      13.40625000       2.68125000
O       11.61875000       2.68125000       6.25625000
O       11.61875000       4.46875000       0.89375000
O        9.83125000       4.46875000      13.40625000
O       11.61875000       2.68125000      13.40625000
O       11.61875000       6.25625000       2.68125000
O        8.04375000       0.89375000       8.04375000
O        8.04375000      13.40625000       6.25625000
O        8.04375000       2.68125000       9.83125000
O        9.83125000       0.89375000       9.83125000
O        9.83125000       2.68125000       8.04375000
O        8.04375000       4.46875000      11.61875000
O        8.04375000       6.25625000      13.40625000
O        9.83125000       6.25625000      11.61875000
O       11.61875000       0.89375000      11.61875000
O        9.83125000      13.40625000      11.61875000
O       11.61875000      13.40625000       9.83125000
O       11.61875000       4.46875000       8.04375000
O       11.61875000       6.25625000       9.83125000
O        8.04375000       8.04375000       0.89375000
O        8.04375000       9.83125000       2.68125000
O        9.83125000       8.04375000       2.68125000
O        9.83125000       9.83125000       0.89375000
O        8.04375000      11.61875000       4.46875000
O        9.83125000      11.61875000       6.25625000
O       11.61875000       8.04375000       4.46875000
O       11.61875000       9.83125000       6.25625000
O       11.61875000      11.61875000       0.89375000
O        9.83125000      11.61875000      13.40625000
O       11.61875000       9.83125000      13.40625000
O        8.04375000       8.04375000       8.04375000
O        8.04375000       9.83125000       9.83125000
O        9.83125000       8.04375000       9.83125000
O        9.83125000       9.83125000       8.04375000
O        8.04375000      11.61875000      11.61875000
O       11.61875000       8.04375000      11.61875000
O       11.61875000      11.61875000       8.04375000
