LAMMPS data file via write_data, version 29 Aug 2024, timestep = 40000, units = real

192 atoms
2 atom types

-0.13298298203115877 14.432982982031248 xlo xhi
-0.13298298203115877 14.432982982031248 ylo yhi
-0.13298298203115877 14.432982982031248 zlo zhi

Masses

1 28.0855
2 15.9994

Atoms # charge

72 2 -0.5815934708733381 1.092413333289512 4.03583590960086 4.2195377134798875 0 0 0
2 1 1.449933001639113 1.3514917032424751 1.5178264952737996 1.232517015568578 0 0 0
82 2 -0.6947166646949009 6.549351625526102 3.03157649462697 4.349982820488231 0 0 0
4 1 1.208320488491789 1.3132397413007961 5.136566678349148 5.376380961048923 0 0 0
71 2 -0.6930364858302793 2.598422382152557 2.451653311816494 1.0979557005980343 0 0 0
6 1 1.118288106509113 5.282784600029741 2.0670459487014146 5.009674661048696 0 0 0
77 2 -0.6016442003147984 0.40355083536326375 5.815241036878998 7.004718869937522 0 0 0
8 1 1.37989767685704 4.942800494535207 5.372267270637016 1.969353242805056 0 0 0
7 1 1.220837296532911 3.433074247132012 3.2239237703852277 -0.057979332325756014 0 0 0
69 2 -0.7409234703786072 0.5768884981327934 2.1791906162321 2.36919377097578 0 0 0
76 2 -0.7386194811889782 2.128106366495797 6.385620809163134 4.6162286972699045 0 0 0
78 2 -0.6149472947881846 4.942475133791557 0.8333195454865548 3.649057215102345 0 0 0
83 2 -0.5611822812687123 6.054953176591977 0.7142947305162927 5.753375700996385 0 0 0
5 1 1.394344109820635 3.7244723186959288 0.19459340723083718 2.9809630822572695 0 0 0
70 2 -0.5479296947937508 2.3671467542192426 0.39526477147416306 2.0412827879249336 0 0 0
75 2 -0.5864260076296034 2.2573638018556603 4.135406495211231 6.016486099242684 0 0 0
81 2 -0.5574308401059072 4.487267621985974 3.3337901800185064 5.6207518618180075 0 0 0
89 2 -0.6522178870378681 6.428362345475944 6.342978334651453 1.04076550082326 0 0 0
84 2 -0.5952018224973347 3.9602817009694276 4.580624689003597 1.124567906866163 0 0 0
65 2 -0.7364535131521933 0.7637561764605149 0.4166801039152488 0.3902360561719954 0 0 0
88 2 -0.6730517095965624 6.222126089190659 4.545407402738971 2.4725814736936043 0 0 0
87 2 -0.7708325289824128 3.8694884929772 6.003069314605351 2.710864973158205 0 0 0
3 1 1.328333231826346 -0.07393609047518335 3.409416524775759 3.2095145144490784 0 0 0
21 1 1.367251903346042 3.03976674504136 7.0407771582191625 3.6159691614004643 0 0 0
15 1 1.284136391541036 3.5367475190446425 3.863595819199907 7.137497242592741 0 0 0
97 2 -0.7117156024884532 0.44706256672135314 3.865625665078461 12.161182180005477 0 0 0
10 1 1.086609618431215 1.9617350843690744 1.6242210075530175 8.683638678639031 0 0 0
107 2 -0.7654790299040178 4.247819811011803 4.766715918474663 8.232771924851727 0 0 0
12 1 1.076134986484355 1.243633233188615 5.204030796188103 12.295904675018383 0 0 0
108 2 -0.6426618107513863 4.0217757514454675 6.323286532391398 10.066335693748762 0 0 0
14 1 1.265282687129428 5.375075362460538 1.7423235495934815 12.813752303762325 0 0 0
100 2 -0.5622327594874792 1.3061879320029903 5.979965350999349 13.66455031443314 0 0 0
16 1 1.568515451856308 5.148876590635116 5.655356147080336 9.081595390242152 0 0 0
109 2 -0.7385091491568614 6.289065022130365 5.041482469235424 9.886448403954544 0 0 0
43 1 1.210645768974921 6.9985837605690016 3.8045850291417707 10.739148291552338 0 0 0
96 2 -0.6628569385126712 2.8284800572302555 2.6908678755704023 7.739169527747987 0 0 0
106 2 -0.51940436416408 6.790360741034395 2.364542411192057 11.869625193906634 0 0 0
95 2 -0.6199645558531556 3.0427907676376833 1.4828011075833063 9.876129513789614 0 0 0
110 2 -0.7528332481008359 5.894242714299708 6.024680483106839 7.853427347790972 0 0 0
102 2 -0.7053845196959064 4.578953619416318 1.08432223150035 11.790294131708038 0 0 0
85 2 -0.4550905192480444 2.289335996495371 4.096505495396045 13.569328273208113 0 0 0
101 2 -0.5228372782313606 1.9345673908197787 6.697835486532871 11.522774357109721 0 0 0
105 2 -0.5387332254220311 6.624365149161224 0.5768483053468952 13.971270021792837 0 0 0
86 2 -0.7994027449003006 4.503168676350267 2.3484133623314714 13.869626019120332 0 0 0
90 2 -0.5107899318505676 0.685253987728934 0.4764874750531831 8.4621757797609 0 0 0
94 2 -0.4554529706460387 0.8869885631208363 2.5950362483930025 10.00820431886016 0 0 0
25 1 1.305374678563698 0.14647418234979065 6.956205718763794 7.906558394269423 0 0 0
13 1 1.326689445713886 3.451030335661091 0.22220143191004876 10.741014929226889 0 0 0
17 1 1.284025590842716 0.15550509043540972 7.126976903001271 14.187760274541887 0 0 -1
57 1 1.239819237328312 7.004415751392963 7.040567243754011 7.154677803384015 0 0 0
117 2 -0.7166339139683902 1.0808009152382796 11.956717632305088 4.371392528552055 0 0 0
18 1 1.162512471854721 1.9062422265274819 9.213462890632737 1.3673187261623425 0 0 0
80 2 -0.6382036973833647 4.322781233323653 13.746937463323762 2.034590992068127 0 0 0
20 1 1.299479702162429 1.938618231448201 13.088167403916282 4.9837724570642905 0 0 0
125 2 -0.6570611716434135 4.758104259079974 11.923662330147536 0.47800642000436433 0 0 0
22 1 1.230266903400725 4.763632870816723 8.6263494540664 5.524450681399233 0 0 0
115 2 -0.4758674618870572 3.1279491036149696 8.545978294944861 2.416360560765545 0 0 0
24 1 1.195233613597174 5.5789424136776775 12.841384795185352 1.456333777502423 0 0 0
129 2 -0.5060884829633241 6.217864261781694 11.443535038669902 2.8079871207070375 0 0 0
114 2 -0.5077766732918153 0.7821885342861923 9.862024916440088 2.9148203413779923 0 0 0
111 2 -0.6534232535237255 1.3162342987166542 7.911610629552387 0.48948249562260193 0 0 0
41 1 1.115924698041233 6.760846361413156 14.25294949614642 6.749224238468994 0 -1 0
79 2 -0.7306707777077927 2.768534127864559 14.036495627885966 4.124885660430576 0 0 0
124 2 -0.5683443530398308 5.812967155956905 8.623680846808277 6.74153015984242 0 0 0
116 2 -0.7590951387921134 2.8713651257807222 10.036635789764345 0.6112361627106799 0 0 0
128 2 -0.663672091922159 6.655570514256079 14.039911189778698 1.2803884883685204 0 0 0
120 2 -0.5639034991345462 1.8994561604772362 12.465029227949074 6.600866546947096 0 0 0
123 2 -0.5630335810800822 5.228934290616308 9.949647967394618 4.845999523584177 0 0 0
51 1 1.018779401318967 6.693365404039549 10.591011323903185 3.9621368018051557 0 0 0
121 2 -0.7622727635569549 4.072353230661197 7.810633274959585 4.480436639306713 0 0 0
91 2 -0.5216690466508589 0.5315092085705814 13.834678553991223 5.614244237509497 0 0 0
19 1 1.363840277757571 -0.015080847129125358 10.957475714622687 3.839351998885198 0 0 0
122 2 -0.4380196607712391 3.5112944816698906 9.830543986536542 6.138696395497293 0 0 0
66 2 -0.4655168582474675 0.3135923310707479 13.820134938978978 12.94189595959986 0 0 0
26 1 1.337199665267767 1.7529240884294663 9.209020782121787 9.25582102790298 0 0 0
136 2 -0.6577368731938505 0.36029961050040726 11.699149378370622 11.54357305484993 0 0 0
28 1 1.071026789640714 1.668436772159479 12.612433243806484 12.113417863059263 0 0 0
104 2 -0.5795693111612273 4.39690544152163 14.134680716804663 9.766504088135193 0 0 0
30 1 1.241679569084018 5.696050519474681 8.926455704154991 12.31250481584713 0 0 0
144 2 -0.5254176229421104 6.523956776300964 11.384552160361793 9.23873024375487 0 0 0
32 1 1.212495633653338 5.327687843537854 12.76720497339192 8.879564310671546 0 0 0
140 2 -0.530016015523786 6.7377936757902255 8.463912965760457 13.483889833773846 0 0 0
126 2 -0.5275812638228279 2.6383806977346684 11.44300282206574 13.206773202617988 0 0 0
103 2 -0.7067545892468933 2.4742762068546735 13.602468722784685 11.111521606620414 0 0 0
134 2 -0.7102698403516755 2.4237033928486977 8.439009974220642 10.317807311537644 0 0 0
142 2 -0.6317923232330557 4.483172936051596 11.922472901097215 8.012119437241704 0 0 0
139 2 -0.6476942589191792 5.1316756732855255 7.68455583935547 11.49447882766903 0 0 0
133 2 -0.6523206555747398 0.3165472367358709 9.827463152635971 10.058949331651924 0 0 0
143 2 -0.6337975746069207 5.650723232072624 13.932752125837215 8.108498054991227 0 0 0
23 1 1.313477102425811 3.8644533954960734 10.743387636808666 14.275463875581124 0 0 -1
130 2 -0.6976440779076259 0.9338653636526235 7.753649875000789 8.824621285370355 0 0 0
127 2 -0.6472489055861815 4.910512418866717 10.060540812917388 13.158669982397397 0 0 0
141 2 -0.6537476084735704 6.543400604472826 10.11331655993611 11.623551718456932 0 0 0
135 2 -0.6368262950671018 2.5783344984829704 10.38602322702396 8.506870152575178 0 0 0
29 1 1.134369376133386 3.340157715379461 7.482015689122194 11.097924119110353 0 0 0
31 1 1.031849510985164 3.0543381883576433 11.34019995746469 7.1915212190210624 0 0 0
154 2 -0.6873066361370549 11.338470963746026 1.2725866070629546 4.764205323898137 0 0 0
34 1 1.278631891610802 9.208771627451291 1.8050097541552845 1.6550076886347533 0 0 0
112 2 -0.8070523051716291 13.678526993616059 6.151528444136976 0.41205863481524874 0 0 0
36 1 1.267669701545572 9.047049510886179 5.347308498992913 5.489936065376052 0 0 0
150 2 -0.5989785013510257 8.473807801507784 4.6717657539423785 3.892674088230253 0 0 0
38 1 1.463485437069515 12.444804966059055 1.9900425813505493 5.544892713586584 0 0 0
35 1 1.52815106583457 7.412755456418924 3.6086204668806228 3.2973804281216914 0 0 0
40 1 1.510835037944163 13.075125553377362 5.274376718150718 1.3924008082466934 0 0 0
73 2 -0.5798280132111806 13.444249254733696 2.95102074202507 4.868447011778553 0 0 0
152 2 -0.5200637680128373 10.456203589027618 5.827157106849188 4.259365279907295 0 0 0
151 2 -0.8009586406581024 9.354815956345378 4.3601179371569545 6.492905214680951 0 0 0
145 2 -0.6321284551263811 8.74734412008967 0.6952532173426854 0.2514874286318253 0 0 0
158 2 -0.7222080896388317 12.058227577703343 4.150241278815107 0.6917362865288487 0 0 0
153 2 -0.6859609202636971 8.051653310268522 6.51359448921547 6.017951830035548 0 0 0
157 2 -0.7228499610088501 11.789610711263752 2.9613005194325757 6.6873347418213624 0 0 0
147 2 -0.8082496355808483 8.168590700418124 2.663634831711606 2.4384582429494617 0 0 0
161 2 -0.5898780870349303 11.957298410384418 6.062329940528827 2.571919019281159 0 0 0
92 2 -0.6911005940685572 13.626596489968465 1.288835490314155 6.20280556924368 0 0 0
149 2 -0.5107412582093115 10.303911843226278 3.107339717054244 1.0122945130132281 0 0 0
148 2 -0.7427733142640484 10.20210755945745 0.8473372232970376 2.369985298342596 0 0 0
74 2 -0.8466274509204574 13.929790334890205 4.445433339414417 2.317077820263319 0 0 0
53 1 1.280321152695223 11.162942760784425 7.088340520522161 3.747737148946371 0 0 0
37 1 1.273664714592539 10.554711328637943 0.04018133095432025 3.5866480152631612 0 0 0
9 1 1.154903956442123 14.177186439453715 -0.10719953661636798 6.927161507220209 -1 0 0
67 2 -0.595657252233864 12.767212834682393 0.40695683948137806 13.377985349939703 0 0 0
42 1 1.071971798845743 8.818158183330373 1.4646207980833104 8.884815781632822 0 0 0
162 2 -0.499514739284093 7.634857115032505 0.8113452516507426 7.580078598350888 0 0 0
44 1 1.119801053013974 8.8631292221716 5.654793773880673 12.75248823301696 0 0 0
61 1 1.28927940961651 10.903083715858267 7.023247667725495 10.905337779478906 0 0 0
46 1 1.376091615712351 11.849495258094493 1.5162525102441886 12.585896375034112 0 0 0
159 2 -0.720555588003856 10.152256466492778 4.821115607582829 13.46659539537374 0 0 0
48 1 1.078419385791471 12.56705313272341 4.820596083257367 9.401599089600198 0 0 0
164 2 -0.489057261755199 8.177320555183082 3.2718518587035836 9.760882440441987 0 0 0
169 2 -0.6702343084660737 9.67083760139549 6.466742068050322 11.590846663260757 0 0 0
160 2 -0.7886434825291289 11.88541043062857 2.73843771411464 13.613611947925245 0 0 0
167 2 -0.6017530327237287 7.764679478884456 4.364848448174062 11.840984249761627 0 0 0
98 2 -0.6794132048405069 13.054344489039478 2.1228842786317763 11.488615070633381 0 0 0
165 2 -0.6691208298865046 9.439986219561229 0.3061056732830045 9.792392680739491 0 0 0
174 2 -0.605960903336987 11.845379021593224 5.8197155086777155 10.710546040532464 0 0 0
168 2 -0.5520289629527706 8.632655446163033 6.915618610861523 13.972006655208782 0 0 0
173 2 -0.6184948231553589 11.211133873133369 4.280771774294146 8.488581300122206 0 0 0
131 2 -0.4608343070738252 13.260313592212299 5.924943358060853 8.10206373796963 0 0 0
166 2 -0.5833604425337352 9.956922171894286 1.99832534743839 7.932924047735581 0 0 0
170 2 -0.6919846744044044 11.103515861513 0.939266355375223 11.440649246594504 0 0 0
39 1 1.495259663422629 11.098977371958272 3.8566305729317163 14.209242667175802 0 0 -1
47 1 1.380162018592077 10.52524908230257 3.543823512235467 7.259567275186878 0 0 0
99 2 -0.6215109915279233 13.924127543556597 4.230236494164521 10.103288566253537 0 0 0
11 1 1.338527458191981 14.23006356236932 3.028555094887443 11.176616808983388 -1 0 0
181 2 -0.8159995345673103 12.08056879323609 7.927287133647187 4.775372135818389 0 0 0
50 1 1.042379596527131 8.901180567459896 8.930670948834132 2.5974996199865137 0 0 0
178 2 -0.5107923450262086 9.833263085123836 10.07531396773266 1.784497465520595 0 0 0
52 1 1.457050650996306 9.20475746074322 12.364332429453578 5.271813956585893 0 0 0
119 2 -0.616916332029199 13.732090106582321 11.415272069842647 2.469518178071393 0 0 0
54 1 1.530881561340258 13.178399788910786 8.74175800096701 5.430673899803673 0 0 0
55 1 1.192163655452796 10.648428118584865 10.586287144172593 0.20560788479118575 0 0 0
56 1 1.105007794566966 12.610123798125487 12.394458834753245 1.7195029946912614 0 0 0
175 2 -0.5840094192081123 7.836774108368966 8.457673816052628 1.3154679567844012 0 0 0
183 2 -0.602633405606498 11.90894959731935 11.096583499444984 0.8934307844915497 0 0 0
155 2 -0.7158161385728266 9.57563778425723 13.528024683521192 4.346197166298949 0 0 0
33 1 1.327806546548914 7.62484954954753 14.229429114604491 0.03518172295547384 0 -1 0
156 2 -0.5484422007683307 11.920736337601708 13.801369000945506 2.9995820600046326 0 0 0
180 2 -0.7707726313425186 10.216212865085886 11.415628509733217 5.771496660729288 0 0 0
132 2 -0.6085895991660889 14.145013023384056 8.085500545322489 6.5960045309399105 0 0 0
182 2 -0.7295335807471759 12.394372814570325 9.678078301262692 6.2687775019363645 0 0 0
63 1 1.258376311581821 11.077881215810104 10.369611268562352 6.835810422948986 0 0 0
177 2 -0.6024478415687341 9.745339227225822 7.712780033910075 3.7256693005569765 0 0 0
68 2 -0.6229153508997287 13.259258400912156 12.871504027146102 0.41839922151196884 0 0 0
163 2 -0.5775403201806523 8.141502541724384 13.364953704608164 6.043079131161313 0 0 0
118 2 -0.7464739776692079 14.197760722746963 9.75797505744615 4.75090837939718 0 0 0
179 2 -0.5203244466551283 7.87863267633889 11.923310461994623 4.5530168933615505 0 0 0
176 2 -0.5236527258237565 8.330883514854653 10.140080936747998 3.4540265235202647 0 0 0
49 1 1.182634381610587 7.290025997155312 7.29118746801715 0.33508821359216423 0 0 0
190 2 -0.7859746337104754 8.685024098050642 11.440264791849728 11.36795964175618 0 0 0
58 1 1.270325995082682 9.1909597798302 8.743679262448952 8.798031056780646 0 0 0
191 2 -0.6211170691211937 12.103732717041401 8.053322251678322 11.641164640976104 0 0 0
60 1 1.448047659970048 9.320324668837253 12.288451560457537 12.519629084948948 0 0 0
184 2 -0.7231343079012961 9.808890127668674 11.612823865285284 13.91352691660508 0 0 0
62 1 1.588718016307141 12.620187560539527 8.920643528932445 12.777902791763719 0 0 0
187 2 -0.6763067033858823 8.625039628572639 9.42419189512288 10.019893845530728 0 0 0
64 1 1.517311202083028 12.482648069424778 12.605191423954244 8.65690809780164 0 0 0
185 2 -0.6764229662214772 11.54326289544237 9.236180854907264 13.802950791617322 0 0 0
172 2 -0.7496428093973391 11.237194976843234 13.115292045411605 9.400116054262117 0 0 0
93 2 -0.7330963956060008 13.387781603687847 13.25440827387407 7.560539365313562 0 0 0
192 2 -0.659904691455435 11.84914884989313 11.551053196509272 7.572467734193667 0 0 0
113 2 -0.7923676490121229 13.565734762571724 7.93579655991153 13.329952968436691 0 0 0
186 2 -0.6485803157721987 7.712696127826128 7.758864437353366 8.178912428628118 0 0 0
189 2 -0.629658145653196 9.971263180441344 9.011057067164199 7.4626408711344965 0 0 0
27 1 1.525389384007292 13.892237502799754 10.854725374838011 10.755169159431984 -1 0 0
138 2 -0.7799320357860088 13.131483224759881 11.992381359175717 9.894641783220447 0 0 0
137 2 -0.7655523781341369 12.931380764673666 10.023448977341301 11.628286207961295 0 0 0
188 2 -0.5619845350546334 10.471669958376037 8.283783525414512 9.621535449251896 0 0 0
146 2 -0.5927802378545478 7.921332453397682 13.235045029246198 13.288286528941693 0 0 0
45 1 1.299282829956651 10.596889049267174 14.12019127033728 10.52799824974731 0 -1 0
59 1 1.287889611728406 7.649352141317385 10.642951344553156 10.637637714951682 0 0 0
171 2 -0.735168054980861 10.25787838411923 13.232786278853393 12.005201001896696 0 0 0
1 1 1.179523911072339 14.03263008057565 14.193699789603398 14.286410428832983 -1 -1 -1

Velocities

72 0.005845026883645656 0.0036731406253193437 -0.025111838840537123
2 0.00014489953775892724 -0.014923813524097204 -0.012034502623863796
82 -0.008723725427641025 -0.010691212095465539 0.012496518543415495
4 0.011129992855739925 -9.53677243729381e-05 0.009155874603247821
71 -0.0026025026985120486 0.002790872889812108 -0.032995063689000646
6 0.018290038988609873 0.0020736036480502144 0.01305792573242754
77 -0.018542359659573193 0.0033075700211490076 0.007881771664846647
8 0.022775284471606944 -0.011698444293552667 -0.005778175664918373
7 -0.005096935976627586 -0.007844615148437581 0.01160327917682781
69 -0.0020736918124038507 0.017563495352702473 -0.00039671304573265446
76 0.017783327498609277 0.012477786328769518 0.018441678715951825
78 0.0003845289954075864 0.012298738225797712 -0.02297999381479179
83 0.0007234975282829259 0.004582972780781659 -0.03769653798284634
5 -0.0059473051227310865 0.02131808465078113 0.004452887663568757
70 -0.017523103316926362 -0.030617504236018524 -0.020766966499801184
75 -3.375721430663595e-05 0.010200923198681435 0.02456388359129199
81 -0.02414095864259212 0.0023607219036505997 -0.001879253914786226
89 -0.013109113277814366 0.005207450989430725 0.00969641227091977
84 0.02468246035033665 -0.0017086887815647319 -0.033428503088777484
65 0.00137082636230187 -0.0012726881426421276 0.03556211837213997
88 -0.02597391517070141 -0.02594267566723501 -0.017464159426547197
87 -0.023307219574182195 -0.033405846677177366 -0.014698914828339602
3 -0.02051485574024618 0.01650625346223187 -0.010465441779641954
21 0.0033868044518601047 0.0051448231015822615 -0.012768969860154716
15 0.008601247889776686 0.0012356749979812107 0.01503796182252131
97 -0.02180624219765438 0.00206309887037328 0.025040903601858306
10 -0.005598561042625143 0.0034535932726025933 -0.009947690635417452
107 -0.00286755436792601 0.029313463065052003 -0.015572002701348384
12 0.0069175335858714295 0.00205513451010984 -0.0028742020617740388
108 -0.01398727558639119 -0.009631698983910465 -0.012062747739575018
14 0.00294254888041896 0.0052220999889068314 -0.010051371266585172
100 0.005555027177585483 -0.005170519183068552 -0.013731898856447038
16 0.01257389237045723 -0.007830005635401633 -0.003240490049220166
109 -0.035549240848213044 -0.0036199158295321283 -0.017907495729232243
43 0.002940641883626932 0.004900460373878467 -0.010258248752130342
96 -0.003700898674860585 -0.006973403801603845 -0.004087340034574249
106 -0.002377419640615772 0.010320191992724563 -0.011430534362624792
95 -0.03488154728337347 0.006557753563740065 -0.04409703320234174
110 -0.0170132904571162 -0.014089652931514927 0.009105997433549952
102 0.011833023138661521 -0.01776869259995469 -0.003994881417052648
85 0.0074812155441200305 0.009461466975353881 0.02681294537337122
101 -0.0014790709854193024 -0.005843468407906862 0.013438715253682561
105 -0.016224897964643787 0.022786342816431843 -0.020330878249519527
86 -0.002497791835429129 0.022092674617113634 0.0023787668637308885
90 0.0006704427986023576 0.006899532473198113 -0.018545675937692286
94 -0.010802894209395486 -0.027541714277610093 0.013930494080248566
25 -0.005742696409705949 -0.011136586877334329 0.019815444198164934
13 0.001310949275614338 0.02753273813695905 -0.012647003167687024
17 0.01666612757394483 0.00875056343543945 -0.008877444357532762
57 0.013296106948996075 0.005277139749058691 0.012162083261218575
117 0.025383392931175294 -0.015295819606219408 0.02311541842662653
18 -0.0007504800474214205 0.0046971922572226 0.0062586435279385925
80 0.012369049315133263 -0.016007398467313444 0.005552191208105994
20 0.006019539234733389 -0.003507324903808491 0.026315646677057446
125 0.05501494031405919 0.022323590129828846 0.020948722377701103
22 -1.866522338412617e-05 -0.0006309335750883533 -0.02285973983385419
115 -0.006948249747927292 -0.011446261124021705 -0.0038813706881479027
24 0.014573904254383653 -0.017188151869750614 -0.010217406520693825
129 0.013180278245785052 -0.009375057120411597 -0.013298067807005085
114 -0.023968043945605706 -0.013090216410151366 0.018792907622287348
111 0.013461729487496547 -0.016003005467783257 0.0011070800631490256
41 -0.006156661820030413 0.006510496899238867 -0.017167985664607813
79 -0.029006104446991487 0.022753205144708175 0.0014876868115689008
124 -0.0025298356494854513 0.0020161589755709544 0.002361033390237246
116 0.0037621701280037174 -0.007214248818518603 -0.003940671833956511
128 0.011714602020289702 -0.015354960243846609 0.0015358862111078382
120 -0.004410608890869713 -0.011672587368663641 0.009935793264928862
123 0.006033939242250037 0.009187833980460627 0.021526665393194443
51 -0.01940425702648033 0.0019563518267091003 0.0004620260497784651
121 0.012562502584938375 0.00996350269684735 0.012615774479016814
91 -0.0008243090022962322 -0.03150564443135492 0.003580991547861278
19 -0.015850142207183247 -0.009451763866196164 0.025800834297646607
122 -0.012315633841285858 0.00023778124950297794 -0.011948994557321761
66 0.011332754894440482 -0.014888261534853058 -0.022307156776266445
26 -0.005649467856902234 -0.0008025677624522523 0.011194250832753617
136 -0.023145786573713294 0.004944739966025808 0.012049707681342864
28 0.007359536800398736 0.006748714045301109 -0.008199207177960296
104 0.006778950407566472 0.01671819565902961 -0.010352343322511155
30 0.01739045607418376 0.015930809802844167 -0.020002032117462955
144 -0.014352755508835188 0.004692341751271393 0.015409464604733199
32 -0.011332534208142375 0.0040807444094157225 0.025892865186967942
140 0.010341949606282874 0.016224767063962017 -0.005083513255819781
126 -0.004968538312511358 0.0128396468982616 0.01270451121595073
103 -0.006574300880408246 0.004733662662486442 0.0030073510440276736
134 -0.011632540299486606 -0.009169309456408582 -2.646362816196334e-05
142 -0.007606513745771841 -0.003752610723592814 0.005713436680908982
139 0.0036249841925551844 0.020615070396120354 0.01773958540227345
133 -0.0024500659242583976 -0.005125666329335357 0.0033033285280403206
143 0.0007315381993486881 0.007728763869829147 -0.00561317066915333
23 0.010978735312999817 -0.000320217129489444 0.008392783246614306
130 -0.008982603931286609 -0.02020675873420491 0.005794858919135656
127 0.008045419720253424 0.031345338215342335 0.036895201159582273
141 0.005135831458286343 0.01101346339212691 8.329436197074361e-05
135 -0.01396799939074391 -0.026481373197355534 0.019126088452894777
29 0.0023523532995880707 -0.002503212305712813 0.012208889578530021
31 -0.0058970473982011854 -0.013694093721738626 0.005375021073986865
154 -0.01258379606021685 0.0018981568678626297 -0.04274041922479232
34 0.0005006787753041546 0.00943058610923822 0.007074424560046354
112 -0.013790212981341452 0.007599530719410543 -0.019817552108030274
36 -0.03211279803557244 -0.012029857473979732 -0.010431027449627936
150 -0.007192473212576859 -0.0008227425788471334 0.01761448261618683
38 0.0021521460398653486 0.008185460469047329 0.0011639131998396023
35 -0.0066152415030412415 -0.02375649479095029 -0.011493657113662778
40 0.01906342490593554 0.01507002874959436 -0.0010654744051708611
73 0.004670163341460252 -0.023806116375283976 -0.011010008223511204
152 -0.007313701095836263 -0.0006385604662430478 0.004581807064049147
151 0.017027970915272122 -0.0061306234586692085 -0.013812544972948553
145 -0.00839497480912945 -0.00025402737253400396 -0.02967190114375685
158 -0.03288513752003245 -0.006807980842220768 -0.0022253415840160925
153 -0.01623759262732532 -0.006515037307862598 -0.0072044040283457695
157 -0.013388629415915596 -0.02051625179996613 0.011446102405671198
147 -0.02317592614610475 -0.0049873173254494025 0.0072631268033212125
161 0.007876190744452269 -0.01251317535858455 0.02396325337320715
92 -0.006024134897585478 -0.0076823700375219526 0.015108241162703488
149 0.005743085097015861 -0.0050386295594358225 0.00935896767328823
148 0.010366475597695733 -0.002018213270438271 -0.013031173449853791
74 -0.003199479998101428 -0.022630076567823884 -0.004641101064430391
53 0.0032043428710778433 0.008046234285342792 0.026473497987781522
37 -0.004262566755669677 -0.012552603426700127 -0.007831340840557066
9 -0.02514501708522775 0.005272513405014082 5.8866015526568714e-05
67 0.017882821501886845 0.03277228577149807 -0.014057546776646947
42 0.008464088690165785 -0.012111671498715679 -0.003429821941858915
162 -0.010901782258637867 -0.02783227633661508 -0.006440491259126503
44 -0.00025073161000489086 -0.003264691195987636 0.013188921826195367
61 -0.0033197097175439072 0.0011644718489869693 -0.0008662074591326281
46 0.022846336803075195 -0.006021638021363473 -0.007597115423917595
159 0.0027010302917825626 -0.008464537538631633 -0.009740752081269245
48 -0.003428739151101028 -0.001994672319604252 -0.021989385884625966
164 0.006782065063907309 -0.009808604678414108 0.010160069338877671
169 -0.002513908151229663 0.001677278973474811 0.000150730721105029
160 -0.0019234976765513446 0.0024369672878931186 -0.0051198723585627786
167 0.010412820855615231 0.023091357993144716 0.008733958522809884
98 0.01108272053172426 -0.015847092400376198 0.026878732708247824
165 0.003559553501583202 0.01672683310802484 0.014343846390122332
174 0.003816308289443877 0.016638973816693717 -0.010500348980806337
168 0.01632935676323377 -0.016094248856016957 0.01796071886014216
173 0.020235746022471218 -0.006581317487717782 -0.02162592164198379
131 0.0024448663234570528 0.007399595871136482 0.01049965562648442
166 0.0019986112037969285 -0.029807475700823826 -0.002348048596815658
170 -0.022768877113229297 0.013207668459507495 0.022238764241808658
39 -0.020636726020308586 -0.011271603901588266 0.0027804131073765346
47 -0.0019183444913292017 0.01237127095750239 -0.012629434917068109
99 -0.011422513977711277 -0.023553436416963867 -0.009343586111753987
11 4.035535929549183e-05 0.01151721118292227 0.0014807845508406027
181 0.029369868132707044 0.007656702125651346 -0.002872763391721201
50 0.006297945393203068 0.0017325325992958865 0.010617916762428408
178 0.011206642268398853 0.009947167149075798 -0.005819516054481527
52 -0.004004675703446766 -0.00935079181805979 -0.004003356040446547
119 -0.00964026601450954 -0.01246101362394828 -0.0008293934304052254
54 -0.010333903970999333 0.0004921120187202462 0.013725710051852235
55 0.0014888248518398995 0.0016274050099013128 -0.02300460533996886
56 0.012288145802329283 0.0005057920448334944 0.022679572157079008
175 -0.00486786024671987 -0.00930773685768737 -0.0016105873538808748
183 0.004332551358084978 0.03190075999602512 0.003974762621740159
155 0.013940951906163344 0.016037658671186845 0.008553408954678854
33 0.011886982154536103 -0.012257468497850567 0.0008689770943648456
156 0.009629751625548952 0.002287706124583009 -0.003096049906132354
180 0.011295993897973752 0.015595145674534723 -0.011290988955480792
132 0.0044432472416128105 -0.0034776849281916095 -0.019024130405820985
182 0.01624165353453457 0.01214255125651256 -0.015188953472947412
63 0.0068165529910955355 0.019879341894430885 0.010749463418900481
177 0.02617377515477754 -0.02636934764465551 0.01987594699353714
68 -0.0023782202823642742 0.012145233955772496 0.011719545706753076
163 -0.015659264308873752 0.0050911792718902355 -0.018128798989914867
118 0.0024657535426923396 -0.0077518055086280326 -0.01206154607150159
179 0.001324069350640514 0.004892291733280446 0.019029189609691716
176 0.028407319445696532 0.03489794706282144 0.0031389350313129425
49 -0.0049523438565772845 -0.006650195641528505 -0.001646755483710086
190 0.017679494981668483 0.010610765465442597 -0.006614632461557459
58 0.009303858762484659 0.00011068137833043666 0.0023654532479463926
191 -0.00252758734245728 -0.011084275343266895 -0.005556381393366142
60 -0.0017380474076343936 -0.005225260937734053 -0.0026684304800159648
184 -0.00490528391675322 -0.02055143277636445 -0.02141441546976842
62 0.0057205904527060855 0.018616548405114623 0.001853446998559856
187 0.013562911425564175 -0.0023182090552587697 -0.005251089154503274
64 -0.032906921812973104 0.008376916017332928 -0.017935533287316317
185 0.013023119368137784 0.012629061503109586 0.0030991571520380835
172 0.0006414445107205651 0.021014412696959254 0.001652653515812354
93 0.019773150319740664 -0.008591161465114083 -0.009864016420945164
192 0.0057421457023331 -0.0023199074882424343 0.0035596488594568138
113 0.0031844723120224476 0.007645274496184328 -0.0008158490223867064
186 -0.011505647156106177 0.007809318394645099 -0.020066369795081
189 -0.012539827322010524 0.010397748557209369 -0.0001840870988505906
27 0.008876742636941931 -0.016754784208361725 0.012871498482491488
138 0.0002556708532842211 0.009182255482716383 -0.004106121271462801
137 -0.00588692839831779 0.003906620283158535 0.014367976519214306
188 -0.021703013953417602 0.01176009717440541 0.012223639567554876
146 0.0051913251370141 -0.0048042255755950634 0.011641098869833395
45 0.004677470043479177 0.01259581343691451 -0.012524347624772753
59 0.004700481501727973 -0.015965272166417823 0.031198578711206185
171 0.0077860932887456324 0.010532135777366046 0.0023482661982046293
1 0.00505675853481044 -0.01307045111379578 -0.01363874664137453
