LAMMPS data file via write_data, version 29 Aug 2024, timestep = 80000, units = real

192 atoms
2 atom types

0.003715000456017137 14.29628499954415 xlo xhi
0.003715000456017137 14.29628499954415 ylo yhi
0.003715000456017137 14.29628499954415 zlo zhi

Masses

1 28.0855
2 15.9994

Atoms # charge

72 2 -0.7943034646659477 1.422061054602883 4.500163066525992 4.334997305265951 0 0 0
2 1 1.421153265396615 1.7018835124888398 1.5073653029928742 1.85593316569744 0 0 0
65 2 -0.6229767372890997 0.922238241737348 0.12616493888391592 1.4122527589529739 0 0 0
4 1 1.53198302698071 2.290278055514878 5.283550897196091 5.309434315913695 0 0 0
5 1 1.389623737048862 3.3809127786857736 0.22765224067153347 4.050887786655757 0 0 0
6 1 1.30835203926695 5.544404446558171 1.8906680117428816 5.522922805646922 0 0 0
83 2 -0.7354405391349392 6.58945119412866 1.1700269783308397 6.561758753022109 0 0 0
8 1 1.417196004934345 5.318012566626499 5.0105907828231295 1.4400113571065511 0 0 0
71 2 -0.8296842783962566 2.3085655003843137 2.2309830001915127 0.5785124357333818 0 0 0
69 2 -0.6799139608593164 0.7596769300076862 2.456039633233371 2.8091430214506947 0 0 0
76 2 -0.7286040976156434 2.8423087832142464 6.091128877660835 4.204261948052014 0 0 0
78 2 -0.6995906483236449 4.164359257895455 1.182858400569177 5.100983237925387 0 0 0
88 2 -0.6654108707239192 6.717828023473427 4.2670591685442005 2.1294718395841143 0 0 0
87 2 -0.635737033359101 4.877234726803534 6.162816979086242 2.375843687292621 0 0 0
70 2 -0.7922414820571131 2.700981535484258 1.103579618229108 3.0253031762642117 0 0 0
75 2 -0.7388465698176864 3.304673774756376 4.645888834804202 6.458241945120131 0 0 0
81 2 -0.7780352083968886 4.8664794438747725 2.8459726350277 6.49939831393802 0 0 0
21 1 1.477156394834589 3.734140209019733 7.138129645083528 3.383003899838829 0 0 0
84 2 -0.8056873835179685 4.203231015746724 4.1166649817573955 0.6700537594975857 0 0 0
89 2 -0.6264892617124608 6.110908061500007 5.855729524199242 0.3528933426028236 0 0 0
77 2 -0.6423415982590179 1.6138919507631562 6.586427523798261 5.733693612667463 0 0 0
128 2 -0.7395475331512628 6.103283714197381 0.08617186129695445 1.2466437168925864 0 1 0
82 2 -0.6571484829512328 6.268493326395194 3.181806776303235 4.252519264318168 0 0 0
3 1 1.57573915311032 0.15289296892721957 3.6740944476381943 3.8190832292642716 0 0 0
25 1 1.23219164628941 0.28047357765850517 6.993989170544112 6.972959479720299 0 0 0
100 2 -0.7043767361804004 0.4484728254927677 6.115644935731119 13.10926373989288 0 0 0
10 1 1.48450021077144 1.8054595755360394 1.4814832681842949 8.830697521332803 0 0 0
107 2 -0.6396391533815242 4.306911935018691 4.646709559990206 8.626132749977666 0 0 0
12 1 1.380100449687932 1.7665386115857595 5.502998937275569 12.44944852320901 0 0 0
97 2 -0.7614180594109983 0.9090850167430221 4.5723982191736745 11.377010387585097 0 0 0
14 1 1.399684914729028 5.037970880385865 1.8276613112902937 12.240489479844914 0 0 0
90 2 -0.8393171545345259 0.6229187357820657 0.542223930021777 8.141708236579651 0 0 0
16 1 1.355738582176466 5.4735873199331735 5.688460044641109 9.029140328184269 0 0 0
110 2 -0.6809670266486559 6.260781991674049 6.64826424673039 7.838682890465874 0 0 0
109 2 -0.7811155331559657 6.491195774790725 4.765698334993583 9.799871210723023 0 0 0
96 2 -0.663934084053192 2.4072846246579536 2.641979813565518 8.00439216380998 0 0 0
106 2 -0.6197980310817802 5.733719281162323 3.0275350355390125 11.256267860542053 0 0 0
95 2 -0.7482239200580472 2.8761204239423543 0.7750311836995712 9.63283139495033 0 0 0
94 2 -0.6706072544335748 1.149338564753433 2.6972063474960595 9.692103767042893 0 0 0
102 2 -0.6539924024935297 4.758867190659084 0.5517640614126862 11.447888023800845 0 0 0
85 2 -0.7143823661364721 2.2422750062228483 4.251483798389324 13.407684203556736 0 0 0
101 2 -0.5966752466178584 2.9355331667600084 6.379052321935092 11.669889022887984 0 0 0
105 2 -0.717302363323044 6.0655652716650375 1.1911120190356796 13.264111222391556 0 0 0
108 2 -0.6308948469151464 4.95263936914825 7.021874076164522 9.851677050909789 0 0 0
43 1 1.340239896179811 7.036062863872395 3.511304577046521 10.352650406457533 0 0 0
86 2 -0.7772487259805504 3.754123135517937 2.5427086643135515 12.928289895950263 0 0 0
11 1 1.601061972200859 0.14020581769256707 3.5933107908003605 10.60629948750318 0 0 0
49 1 1.244997510159166 7.086089348853763 6.96506128385912 14.068505456606207 0 0 -1
7 1 1.660966915148762 3.151224816722733 3.251762688784574 14.163895865877006 0 0 -1
15 1 1.346370162748559 3.869607463291103 3.516803194058765 7.360471651116248 0 0 0
33 1 1.36175121541981 7.0155950251771415 0.40114517970939106 14.284867001216721 0 0 -1
117 2 -0.7224123447758761 1.2173080309974873 11.412817138718673 3.953109311946276 0 0 0
18 1 1.755810184566192 2.0256040443037664 8.662796522564062 1.305843289152677 0 0 0
80 2 -0.6540434276964703 4.721254830109331 13.658318006399774 3.2733478014325326 0 0 0
20 1 1.527310597184295 1.5930496810767016 12.185431251042598 5.20395598105674 0 0 0
129 2 -0.6756105432884865 6.4977300195066805 12.161429484048101 2.6805754005530003 0 0 0
22 1 1.724304121756934 5.469834167074436 9.027352478293706 5.123582302887593 0 0 0
115 2 -0.7982229700520067 2.8892766386623587 7.806120332155296 2.2546099485796147 0 0 0
24 1 1.363065900938313 5.224285757959467 13.223773483052444 1.874064401163306 0 0 0
124 2 -0.7266889479199791 6.3104420688178795 7.95386239838081 5.660864830576128 0 0 0
51 1 1.473527213394512 7.033365788644542 10.931585333628279 3.3620867668298606 0 0 0
23 1 1.356107603239531 3.4311336870771116 11.207327995291754 0.35460047184331545 0 0 0
122 2 -0.777206150461715 4.354785124473686 9.20600085789067 6.298945960249296 0 0 0
116 2 -0.7704034509982052 3.0658153059286235 9.767919001219715 1.1005105893191516 0 0 0
125 2 -0.7722817181056096 4.110772542784861 12.418387294141326 1.1033959482725342 0 0 0
91 2 -0.793277782455601 0.662266126870264 13.028937668770748 6.127430547169757 0 0 0
114 2 -0.7607698874925399 0.9566205664592984 9.064255466008547 2.316400041048202 0 0 0
120 2 -0.7465731143316549 2.545695974347084 11.235881942114364 6.339178451718177 0 0 0
123 2 -0.8373278502993118 5.922648311123117 10.277043447237146 4.536609466154753 0 0 0
79 2 -0.7454200953526474 2.5343767019116883 13.325471540115535 4.7578634753356885 0 0 0
121 2 -0.7820944276238769 4.771696900334423 8.069799185986643 4.17869390548734 0 0 0
19 1 1.254568688989427 0.1634576373153734 10.180274565655846 3.3074864466204987 0 0 0
31 1 1.603844940273335 3.4771023801219814 10.292293211666866 7.076373523489186 0 0 0
111 2 -0.873038002147663 1.3750212380615487 8.174843183620236 0.12439343672732406 0 0 0
136 2 -0.7166659205286671 0.09589704282228045 11.443807326924317 12.069981322806534 0 0 0
26 1 1.486015774357686 1.540939555860137 8.88290151859281 8.936633212637824 0 0 0
127 2 -0.6010186512356681 4.774408548246238 10.486622178186172 14.00230689174583 0 0 0
28 1 1.357871828482632 1.3256389839960458 12.357945955079442 12.554049974693585 0 0 0
104 2 -0.6730546959684739 4.179947455661959 13.179608041213362 9.804580878767744 0 0 0
30 1 1.311677317685714 5.521210707770687 9.397317201086391 12.780848860426746 0 0 0
143 2 -0.7507698199074735 5.689920589727265 13.311905873332192 8.072699319842576 0 0 0
32 1 1.693011921321322 5.009242329139787 12.29517577233685 8.911996122635665 0 0 0
130 2 -0.7499960795906343 0.7279069441513384 7.617600140627086 8.347368240964423 0 0 0
126 2 -0.7551403723873162 2.459020466765166 11.634186002652049 13.391074601669187 0 0 0
103 2 -0.7138757581563606 2.0838691360208186 13.318399691753733 11.414302313379547 0 0 0
134 2 -0.6930667368980219 2.667859878957259 8.312544875715032 9.951084376223204 0 0 0
142 2 -0.802116313616323 4.484086237518555 11.097107868339855 8.06238970235788 0 0 0
144 2 -0.7335991950881895 5.854993490466756 11.706229312677836 10.055514965552254 0 0 0
133 2 -0.6961223909374989 1.0226934503129934 10.028891147008503 9.913155985835328 0 0 0
135 2 -0.8048378724286083 2.4022059681479733 9.681495616702007 7.98673298912142 0 0 0
139 2 -0.6831284024928582 4.874508801073019 8.878622554407336 11.534136965829598 0 0 0
66 2 -0.5915990603986131 0.6436432949600209 13.655948303459462 13.252622971622314 0 0 0
29 1 1.291431861134606 3.892385255094545 7.776587534316921 10.775727934634045 0 0 0
141 2 -0.6648041130739316 6.862221489722202 10.026088242648873 11.846237687778022 0 0 0
140 2 -0.6266512723853235 5.612666428070486 8.16619608761609 13.553509237406367 0 0 0
13 1 1.341210620524289 3.256380269409566 14.12071158967203 10.893864372328764 0 -1 0
41 1 1.30431804500605 7.019546102540464 14.233636010466222 7.435409593695333 0 -1 0
92 2 -0.9811404547081229 13.458993609081535 0.8653725905993269 6.1553716857232645 0 0 0
34 1 1.314061505536137 9.160652721368175 1.8855333618593109 1.7819859537637164 0 0 0
157 2 -0.7902124906080633 11.855483719688392 2.514194431726962 6.628190624008935 0 0 0
36 1 1.286271917808105 9.217152227412212 5.227077526913875 5.405389643540489 0 0 0
150 2 -0.7099776971729531 7.940064213670457 4.8666483948137556 4.5440142168182565 0 0 0
38 1 1.890912823982588 12.737775745858999 1.9697935005203795 5.491527463049413 0 0 0
74 2 -0.7518407482541412 13.949835403808548 4.556492765090702 2.608637936599487 0 0 0
40 1 1.347460797698279 12.918224967609975 5.400736101518559 1.8525129728063132 0 0 0
73 2 -0.9849439586334212 13.450587874329022 3.1002582606657314 4.732932249808904 0 0 0
152 2 -0.5812946180402464 10.032124870421596 6.362753612496785 4.429531212782342 0 0 0
154 2 -0.9317226461112849 11.721038162880893 1.3799844572659783 4.553363148517007 0 0 0
153 2 -0.6536175875664355 8.538698043160553 6.081781239716692 6.564531837940799 0 0 0
112 2 -0.6610453115800268 13.756732618908778 6.522279841146985 0.9611808269358466 0 0 0
158 2 -0.6872367216266231 12.31893272921919 4.5699370453661405 0.5638035702332255 0 0 0
145 2 -0.6049235913567025 8.19540891989322 1.5247776586325623 0.4810879125012928 0 0 0
147 2 -0.7727878554791392 8.498690899485045 2.866417254604917 2.924988172844627 0 0 0
161 2 -0.6964343202598867 11.604344216536136 6.141817283317973 2.6908494269663876 0 0 0
151 2 -0.631178338038934 10.188940686309568 3.990185131524646 6.048242454936581 0 0 0
149 2 -0.7407615484112374 10.061660712413936 2.9698612439192735 0.9827817396360421 0 0 0
148 2 -0.6871770294714102 9.992529103677004 0.6200156441563295 2.6393060286174697 0 0 0
35 1 1.505064903037964 7.424383942041546 3.7646894634224006 3.4575488661011335 0 0 0
39 1 1.413284340874056 10.922577180177878 3.763564707996853 0.09700879035473656 0 0 0
37 1 1.516151101236703 10.983479303304662 0.297952210069346 3.841887154935444 0 0 0
47 1 1.311522151392662 10.8236533797749 3.3962803931906747 7.4375966371708255 0 0 0
42 1 1.164735247038833 9.042864953223217 1.4956360119217391 9.181649908854492 0 0 0
99 2 -0.8103521455863769 13.502836699271077 4.179918390572737 9.62385981546103 0 0 0
44 1 1.32081951201345 9.180829079334783 5.26908787459187 12.37599487582431 0 0 0
173 2 -0.6098105622151878 11.411015445113234 4.724427033018188 7.841843592849169 0 0 0
46 1 1.173270978206381 12.722288266458794 1.506145891038925 12.582560807392678 0 0 0
159 2 -0.7076685267442068 9.945306207763457 4.265747837222237 13.388719220463615 0 0 0
48 1 1.327872232202787 12.667315093968652 5.349949575057402 8.992795979634552 0 0 0
98 2 -0.6036352292156558 13.526193299969243 2.344608008293792 11.252243319367517 0 0 0
169 2 -0.6838363247486849 10.237498564495766 5.889419920280921 11.489273080068179 0 0 0
160 2 -0.5000923865534659 11.333196497698275 2.534055487296007 13.206190399113941 0 0 0
167 2 -0.5155652866500356 8.176454017654974 4.154260648684361 11.40261121139396 0 0 0
170 2 -0.6282370398362854 12.130977684162296 0.19337075481319171 12.027165615839808 0 0 0
162 2 -0.6716470962477556 8.19543422500394 0.24122925587001712 8.527508481265981 0 0 0
174 2 -0.5903852225669299 12.084199678991432 6.309475626822245 10.191317095749811 0 0 0
168 2 -0.6573981756112257 8.007393853121044 6.4163894248912765 12.792276037677098 0 0 0
165 2 -0.5583519101841018 9.87001458328557 0.9422359293813062 10.43966410142524 0 0 0
131 2 -0.5959695476610479 13.234924858435432 6.101564773173754 7.752183097358424 0 0 0
166 2 -0.600990782944452 10.156449622898322 2.821438964354094 8.907237364832522 0 0 0
67 2 -0.5887050155083509 13.831980130661188 1.0850645441202418 13.697691489527406 0 0 0
164 2 -0.6163129448736235 7.985699651813947 2.1859933140702834 10.17368574176995 0 0 0
181 2 -0.7348022551464498 11.681923250828694 8.261316705281537 4.171146099937447 0 0 0
50 1 1.410984227215601 8.409712503691958 8.752435435533389 1.7791665688836722 0 0 0
178 2 -0.791670337701317 9.299667224630737 9.633592182934706 0.8833975671416916 0 0 0
52 1 1.463601084626145 8.749108252390796 12.712329480045742 5.239055248725856 0 0 0
119 2 -0.6340719521950487 13.33988971068461 10.972164828629474 2.2215041497187555 0 0 0
54 1 1.301942231690054 12.466514482709645 8.776941443774561 5.516710688379647 0 0 0
179 2 -0.7197940535958196 8.313793621099649 11.738353873490304 4.264706763695963 0 0 0
56 1 1.314071467583412 12.195987652199328 12.06922911316497 2.027279806919002 0 0 0
118 2 -0.6002096941909312 13.813496735274887 9.83333991269477 4.667447809454076 0 0 0
183 2 -0.7080218087889361 10.788951121827445 11.68381407135385 1.2142042661029924 0 0 0
155 2 -0.7083345989105024 9.907675094499412 14.049003111763689 4.699610209724966 0 0 0
177 2 -0.6948605225901596 9.563130227160277 8.292591139422091 2.7190440508254077 0 0 0
156 2 -0.6611223842276114 11.968580548760839 13.23773847817231 3.1440974350389985 0 0 0
180 2 -0.8504393132821163 9.650346417555545 11.894122662337002 6.211107799175516 0 0 0
163 2 -0.6615881184885445 7.548744068143478 13.187115125646539 6.235693856448842 0 0 0
182 2 -0.7723746931059894 11.602356935259753 9.960337579199757 6.223593592819615 0 0 0
176 2 -0.7869128045203426 7.772137584399046 9.772256091282769 2.848222496423943 0 0 0
175 2 -0.7136700290384003 7.578662675060358 7.365449731091934 1.127800549758764 0 0 0
55 1 1.473692730316973 10.32485020774753 10.619262301853244 0.16292431690345813 0 0 0
68 2 -0.6967534188710707 13.068140748203339 12.890071815146895 0.8694063522418327 0 0 0
63 1 1.647305951512298 10.54999820092753 10.874886707038623 6.83716147347231 0 0 0
132 2 -0.6995451315098533 13.56881984923005 7.782957658898656 6.170466646407881 0 0 0
9 1 1.689119498524932 14.215987653146815 14.179934117307397 7.073339926505838 -1 -1 0
53 1 1.380512965307561 10.792499007980588 7.402800753249313 3.2935639931719383 0 0 0
57 1 1.358727365007251 7.309592018048706 7.232042799711079 6.925225781237291 0 0 0
1 1 1.234245335828169 13.969444683032886 13.944645843957815 0.27655340385538624 -1 -1 0
186 2 -0.7388726572678637 8.116508144447598 8.436027816235216 7.711817356428948 0 0 0
58 1 1.386948007565131 9.009927548940796 9.091682530876053 8.757399355538121 0 0 0
191 2 -0.7169967582128589 10.834874015872273 7.994842453604305 12.062358973575728 0 0 0
60 1 1.426467241068331 8.98506639705827 12.87217602810342 12.816851000721465 0 0 0
184 2 -0.7020109717095648 9.636627564067892 11.283947199409134 13.25294756537468 0 0 0
62 1 1.442629608089936 12.01858348000502 8.844156746424867 12.683726903807763 0 0 0
187 2 -0.6318529249777933 7.986935328438822 10.19598149909606 9.859761775643099 0 0 0
64 1 1.622643131021579 12.498409424452065 12.349576786005755 8.838100410041111 0 0 0
185 2 -0.7325437778371723 11.649276586727664 9.952264586453138 13.883972991062556 0 0 0
172 2 -0.71210559706516 11.309297743202723 13.28294708628833 9.46356494261674 0 0 0
93 2 -0.7910754764141565 13.26435817113811 13.403980565956 8.160736080244256 0 0 0
192 2 -0.7454051819782455 11.540385602629444 11.757931685671004 7.8093533631620895 0 0 0
146 2 -0.7201449071126738 7.946673277014472 13.407194138242742 13.887500463303361 0 0 0
113 2 -0.8806531582428296 13.057270773316459 8.038313081925537 13.278257798763587 0 0 0
189 2 -0.7517461735492668 10.155517973992826 9.93078318596909 7.985893008398992 0 0 0
171 2 -0.7503305844431936 10.002255433645571 13.403552292088452 11.861835432536724 0 0 0
138 2 -0.8244775621993519 13.363454419121203 11.568123200682441 9.908607089549962 0 0 0
190 2 -0.6163889916251152 7.757679798202971 12.404099249205496 11.922146712950925 0 0 0
188 2 -0.7539457180663119 9.952748664546766 8.06313268239427 9.541021073478442 0 0 0
137 2 -0.6823299241425935 12.876874060529218 9.409154695794504 11.272967482701107 0 0 0
61 1 1.33305089316371 10.632087961192228 7.211082851840699 10.644558616668059 0 0 0
45 1 1.334338663891339 10.961017099234182 14.059012325724865 10.79315179887794 0 -1 0
59 1 1.374984175661398 7.191636466897017 11.108257309573379 10.872056472623722 0 0 0
27 1 1.414415905310408 13.983691022946687 10.545821809157633 10.822257323045303 -1 0 0
17 1 1.500022307854984 14.212027211997553 7.34399476253181 13.926426722668266 -1 0 -1

Velocities

72 -0.00820981932042926 0.01631233926611194 -0.004216144417447134
2 -0.007925988126266182 -0.02048488231972251 0.004750583164802282
65 0.0006608860086503838 0.006302185194499918 -0.010547374158867672
4 -0.012533866986841818 -0.006641382152114279 0.0064707472489938115
5 0.008616596506598937 0.015858612481274275 0.018068161667676306
6 -0.009064678710246164 0.014897612188143693 0.006658899525658713
83 -0.007405146056407059 -0.006031252849717418 0.01907537229704797
8 -0.008239694853452944 -0.008171727736498028 0.0021810599055968522
71 0.004011481267856975 -0.0018954062175488696 -0.0005228953816884558
69 -0.029839187915636584 0.019207815202159164 -0.010774815470856623
76 -0.008379550175719489 0.006295764276351048 0.020945405439750705
78 -0.011804428340736807 -0.013550445456249147 0.0197647028219217
88 -0.019384494691193428 -0.02255076396722503 -0.00436197107969275
87 0.010441993390344854 -0.014140097187163775 -0.019310179665946118
70 -0.03022663673715359 0.0014081967410163499 0.015238808202019385
75 -0.019524899992734542 0.01594080848903045 -0.008978247217445905
81 -0.016115272032071384 -0.009638283920798827 0.011264021935677097
21 0.0057600713623649265 -0.0008116429286623156 0.0004889538742266216
84 -0.0003155547093996831 -0.02433999868172941 0.016667207430555327
89 -0.0015791285820989484 -0.0063706692793014386 0.014748230484173112
77 0.013454390891868884 -0.0053473392454336825 -0.020115694636699325
128 0.01814706059992093 1.8147578811204462e-05 -0.0122001763785511
82 0.0015321028545502813 -0.016789394992642887 -0.011171932988367364
3 -0.004723519886233498 -0.01051068887875052 -0.005964772687028817
25 0.012806715492098908 0.007404516504991472 -0.0030625586955417192
100 0.0024774017588321162 -0.004124985640939282 0.0008054559946472253
10 -0.01206699824855892 -0.0053201440955764215 0.007537726725600227
107 0.0046241170867273255 0.009630505913973289 0.020114300708798685
12 0.005353550199001121 -0.008574950630853225 -0.011544878079374333
97 -0.010403851123273106 0.0011626415953889676 -0.004261521320100445
14 0.004621864421717467 -0.005556075652843691 -0.01057630573915953
90 0.025979873908442842 0.038540454672999463 0.003263874050375543
16 -0.009084047626461419 0.00242597551097992 -0.007240938826982854
110 0.027779493308769214 -0.0034423290665286997 -0.0031704846777613734
109 0.014565989087676803 -0.003521717553746058 -0.004861618995293942
96 0.012443621313808002 0.025016779852205465 0.007269403603034862
106 0.0024320148435718523 0.0021178684513530263 0.004817182835437588
95 -0.018187817961297502 0.0025447228076671304 0.019095872595589244
94 -0.00933263062253666 -0.003231546290025262 -0.00899986296497688
102 0.01556416819895877 -0.014061059265268978 -0.022769046216547843
85 -0.00480368935776081 0.00023181515513065766 0.006829214357428132
101 -0.003590031319759017 -0.009641720388915058 0.0102629226549468
105 -0.0030512191927950364 0.0027360943384103537 -0.0013748273813648027
108 0.00016741429673715626 -0.015781915955557273 0.004739632687500364
43 0.015280662886463871 0.009058352242154644 0.016691786960957293
86 0.01882907076939261 -0.016640844777165 0.0055515198035363785
11 0.0026755913269352317 0.00653646907686367 -0.0021734473133296064
49 -0.0018957743616168266 0.00401169895397847 0.0025927418397980583
7 0.0027990912299717297 -0.0001740301217309328 0.0051483470301525456
15 -0.010102377129356131 0.0036314108795990814 0.009204321325909244
33 0.003575751042786798 0.0052637157851383705 -0.013774775657272012
117 0.0048941071229126895 -0.0169388421068181 -0.0009350117187666488
18 -0.010257792429141053 0.02043479415865021 -0.002371895897159573
80 0.005597202807106958 0.015703078377006584 0.0026936496575441274
20 0.0015909092117850669 0.0075488891698381 -0.00913435752766151
129 0.004601476282730885 -0.023798578461540716 -0.00012034854106079478
22 -0.003919684622839713 0.01296099149229249 -0.011555272965493394
115 0.004227733967210074 0.005239904373247908 -0.011590284594759932
24 -0.0040838261071915825 0.004508087467048345 -0.012274556120862057
124 -0.006932475774908656 -0.020988483798296074 0.008582947192229849
51 0.0016997080976321078 -0.008507267524745574 0.008998609073385837
23 0.004590137415133518 -0.002316423625603388 -0.006308361372934271
122 0.022671748558239703 -0.022036614720351164 0.00676901773217657
116 -0.010248603315067004 -0.00104787343216505 -0.01711086330027782
125 -0.004798789266283967 -0.0009158854484215622 -0.008526774120903682
91 0.013763824435706127 0.0005697980543278999 0.017196344526862216
114 0.014466945319655736 0.010911503432689687 -0.001248771321587735
120 -0.0030029633225215242 0.01179082853792905 0.020789547148795662
123 -0.008635868153789781 -0.001286497573797956 -0.002905501208469482
79 -0.007350207426895661 -0.004256329886787073 -0.009263938579784001
121 0.005202744409364134 0.009001537184883314 -0.019059577516644763
19 -0.00562162619982963 0.009216098474889491 -0.017780348986531084
31 0.008208742554139638 -0.017456487000485448 -0.013395346136162683
111 0.0038790677777103526 -0.006577138112196939 0.011244973033005291
136 -0.01726467303917065 0.0004903869694888063 -0.01216097374342281
26 0.005458725215574292 0.0023092858857831256 0.0017034849667808842
127 0.0028963957300235745 -0.006577894954953062 0.010012641990958979
28 0.006343383410224573 0.0008438159994733961 0.008846090037399747
104 -0.00998589768986935 0.002354169401471493 -0.023007125855371624
30 0.008864932308545393 0.006589357694914297 -0.0053658922081368104
143 -0.008122483487546569 0.0051277619141310285 -0.0004185609281553268
32 0.004932586433865778 -0.004418112673815692 -0.006815317598913744
130 0.006900681076155223 0.0015326701770243683 0.010208522313076599
126 -0.01792764316405048 0.00264561221471661 0.007751121921130432
103 0.0006313191812454454 -0.01374193798354211 0.025738648040849785
134 1.4499524255500261e-06 0.0056860741955887546 0.0018548251185825583
142 0.01031334937797249 0.0036666577973175824 0.004544180604104077
144 -0.003038045057217812 0.012177792228826319 -0.000513129265138704
133 0.00024305653861401207 -0.007711635236522494 0.002536330698819433
135 -0.004881644698134193 -0.005740966757339377 -0.004547062709991736
139 0.000706593970535971 0.007954138787842647 0.021352727116802247
66 0.004213695287442862 -0.009967273198468133 0.0022558157013995717
29 0.018125698578612078 -0.009352425947695343 0.007600548365082467
141 -0.011160764589737809 0.002394633234605665 0.007098685181991329
140 -0.00025953653408561383 0.016311205021406115 -0.02063943958404778
13 -0.003987306003162203 0.008832292925311165 -0.009644609231810767
41 0.0014538392809078622 0.007267629636636396 -0.003041611858293642
92 0.00506664360931654 -0.027758769870109615 -0.008313546043733206
34 -0.005190422690521355 -0.0033984385415582077 -0.0007474772381211041
157 -0.0007686355879332059 0.0036030631596158623 -0.025035359938968358
36 -0.007773631591450428 0.016223868205050847 -0.012175094272862686
150 -0.011823814306307096 -0.005506664648222395 0.010262998681074833
38 0.007875559129278746 -0.007114603600472724 -0.0048163539639368095
74 0.03509974636421582 0.004514479928809073 0.01117765011144238
40 -0.008660704014061764 0.02253751420329162 -0.004053487951073757
73 -0.015875848564566378 0.024050041545108262 -0.0013815526711262855
152 0.012116343158162407 -0.003097212706210066 0.007963773316506382
154 0.018196331685076967 0.01319374505928976 -0.008500026151265987
153 -0.005079453436961206 0.0102616370685005 -0.0017224230752194089
112 0.0011857119406912067 0.00969078184422569 0.0128833765108985
158 -0.023049237359019287 0.011288394664810096 -0.008997486751907103
145 0.013435675924716534 -0.011113092541532532 0.01096685750313997
147 -0.008548330717614532 -0.015790021406021714 -0.0030638176962041112
161 -0.008764906961312444 -0.004333088438682117 0.015661647297789964
151 -0.00470992147632082 0.017602658112918404 -0.00034604566583067793
149 -0.027326036711439478 -0.0017010529906096785 0.0016912692524259072
148 -0.013349197798478504 0.008493583408831365 0.011937486305662761
35 -0.015892764328151492 -0.008220903806183757 0.018193268043457663
39 0.0005236471636515017 0.012489451071618718 -0.017518332263252424
37 0.012665581298931292 -0.009156676684661526 0.002140564042741788
47 0.01580100818282545 -0.0006857996119696635 0.0027767838170278114
42 0.018579061265416728 -0.005874872547472762 -0.002890254253273075
99 -0.009386030058909223 0.008022869337080008 0.0032068338175044826
44 -0.007534690468931692 -0.014676683427374855 0.0013131614627847666
173 0.011243340611812437 -0.017877929444678517 -0.022593760493163192
46 0.006677971151682177 -0.01693373153839945 -0.0016738141576845915
159 -0.01795312808078984 -0.013540475386456216 -0.012742780345255469
48 -0.0024217093775086244 0.006786967268546467 -0.00295222093502124
98 -0.00129238257975177 0.012119332472182429 -0.006878408344841524
169 0.006372813940307865 -0.0037065502775258273 0.01715772725522489
160 0.015287277933658708 0.006835056808174733 -0.000175542853098353
167 0.003061562957927156 -0.0013077649434061946 0.004681752745475372
170 -0.008711841222493053 -0.011726511466089462 -0.025770334262923796
162 -0.007480767507467911 -0.013542707630315697 0.006656551523718549
174 -0.0028088470269977497 -0.018969724053533817 -0.026458620535350103
168 0.0007748638141249476 0.003332708091619977 0.0026817233376488043
165 0.007246089261642026 0.01396214042632017 -0.026523851120530455
131 -0.006912593584037512 -0.015359616348029514 0.0019288561607427718
166 0.0017687039906443664 0.015194320028287793 0.005289898698254712
67 -0.006690163613215487 -0.018482940305020526 0.008451497450235362
164 0.015445068156901085 0.0019988922013851676 -0.009164108151496696
181 0.006315398857448247 0.010210773531047901 0.014378527141563825
50 0.009191379050180871 0.006512735058069878 0.0016886834942834567
178 0.0024920270035672 -0.020725217605295276 0.015510358185626636
52 -0.01748504090631107 0.00741998906266022 0.003211587700481547
119 0.012185441150509287 -0.018868620018317715 0.008633934295035733
54 0.004254107920599761 -0.004898128230605283 0.00915166095280122
179 0.0015949743207376624 -0.002119841303522621 0.008219564504390903
56 0.0025805943796880734 0.007731152043539396 -0.004302740647236172
118 -0.0042150088786954 0.0038397866677860734 -0.025039167377200095
183 0.014015956731595598 0.013340268494343388 -0.00423267808914014
155 0.0014379406041430012 0.010740534269900525 -0.006473376479542953
177 0.0025962399344903854 -0.017317384458545835 -0.010569736791285074
156 -0.015196338110132828 0.006766032911835911 0.016291738161121675
180 -0.028780930552113247 0.007454149488485958 0.008903989906863646
163 0.004979533891453243 0.002565603324070438 -0.0001790182613134508
182 0.021369528313828 0.003000306833359156 0.009421405575746632
176 -0.012574869358929552 -0.009885991421574671 0.01169518927898713
175 0.008803660065087761 -0.004099288540153694 -0.015400301578123459
55 0.008901302256231767 0.00861211041157254 0.010534286999836454
68 0.0036097226119472295 0.006405466252561204 0.005548240038239865
63 0.007956018416806316 -0.008584812917501034 0.005805770347387216
132 -0.009020474792051392 0.01141622374856447 -0.0026496776415521795
9 -0.0007489525429831945 -0.0068185292534442814 0.008402579418108036
53 -0.015847166251089062 0.0015219049709365173 -0.006850127960388847
57 -0.0038271423654937632 -0.004769867686176214 -0.0043519365044057115
1 0.009595772815509367 -0.0062098036392447134 -0.00237155806653598
186 0.00613931548747731 0.0005140338339247321 -0.005547222923498365
58 -0.0002423746789991502 0.021188092582634578 0.009058979879020048
191 0.015937014771798177 -0.01776395338227779 -0.006763349534621766
60 0.00029288057936727635 -0.01193636287438602 0.007252448096339858
184 0.0033979471145002675 -0.0035875751566917568 -0.0011370132112543724
62 -0.009645822851431545 -0.01048684792689406 0.0011884957147316514
187 0.011785950635444945 0.004408486106272118 0.001218877113562053
64 -0.005272484834558477 -0.006626856491415077 0.011021226457768108
185 -0.012499592022936505 -0.004725402732333669 -0.016510648504753405
172 0.02016015757851952 -0.0016456463438359605 0.012184717036126825
93 0.00028803812553714715 0.014954959518954928 0.020228692482982886
192 -0.003614700927639388 0.005146127552793662 0.006112661300272262
146 0.012109852392930739 -0.0020758215008533465 0.005496766724169877
113 0.013222298980090337 0.01399688222546715 -0.029993043602817324
189 0.001768252027239592 -0.004962291103569759 -0.029577579080507854
171 0.015248878789032458 -0.01198580432204478 0.009790070144843682
138 0.004776079138969933 0.012744269025409387 0.037303195320791946
190 -0.0031245827911329615 0.007987875176552433 0.008239269999862174
188 0.0018352516785697477 0.013349467456395531 -0.005512655056631159
137 0.0005992029427279005 -0.004639005589421571 -0.012828564999329417
61 -0.014624557793620737 -0.007559637728438933 -0.004841460963841314
45 -0.0013553511170084028 -0.00028440997142184824 -0.001908465706225896
59 -0.0053829720052532 0.016947839415684448 -6.921894494027386e-05
27 -0.008273776001776667 0.009953853947079648 -0.004764137706088564
17 -0.008761373894549106 -0.006896581651487531 -0.000615761746961534
