
read_data       structures/precursor_${phlabel}_N${baseatoms}.data
read_data       structures/precursor_pH6p0_N${baseatoms}.data
read_data       structures/precursor_pH6p0_N1536.data
Reading data file ...
  orthogonal box = (0 0 0) to (33.748 33.748 33.748)
  2 by 2 by 4 MPI processor grid
  reading atoms ...
  1824 atoms
  read_data CPU = 0.017 seconds

# ReaxFF must be defined before pair_coeff. Atom-type mapping is:
# type 1=Si, type 2=O, type 3=H -> ffield elements Si O H.
pair_style      reaxff NULL safezone 2.0 mincap 100
pair_coeff      * * potentials/ffield.reax.SiOH Si O H
WARNING: Changed valency_val to valency_boc for X (src/REAXFF/reaxff_ffield.cpp:294)

neighbor        2.0 bin
neigh_modify    every 10 delay 0 check yes

# ReaxFF electrostatics require dynamic charge equilibration unless checkqeq is disabled.
fix             qeq all qeq/reaxff 1 0.0 10.0 1.0e-6 reaxff maxiter 200

timestep        ${dt}
timestep        0.25
thermo          100
thermo_style    custom step time temp press pe ke etotal vol density
thermo_modify   flush yes lost warn

dump            dmp all custom 500 ${rundir}/minimize.lammpstrj id type q x y z
dump            dmp all custom 500 runs/pH6p0_N1536/01_minimize/minimize.lammpstrj id type q x y z
dump_modify     dmp sort id

min_style       cg
min_modify      dmax 0.05 line quadratic
minimize        1.0e-5 1.0e-7 2000 20000

CITE-CITE-CITE-CITE-CITE-CITE-CITE-CITE-CITE-CITE-CITE-CITE-CITE

Your simulation uses code contributions which should be cited:

- Type Label Framework: https://doi.org/10.1021/acs.jpcb.3c08419

@Article{Gissinger24,
 author = {Jacob R. Gissinger, Ilia Nikiforov, Yaser Afshar, Brendon Waters, Moon-ki Choi, Daniel S. Karls, Alexander Stukowski, Wonpil Im, Hendrik Heinz, Axel Kohlmeyer, and Ellad B. Tadmor},
 title = {Type Label Framework for Bonded Force Fields in LAMMPS},
 journal = {J. Phys. Chem. B},
 year =    2024,
 volume =  128,
 number =  13,
 pages =   {3282–-3297}
}

- pair reaxff command: doi:10.1016/j.parco.2011.08.005

@Article{Aktulga12,
 author = {H. M. Aktulga and J. C. Fogarty and S. A. Pandit and A. Y. Grama},
 title = {Parallel Reactive Molecular Dynamics: {N}umerical Methods and Algorithmic Techniques},
 journal = {Parallel Computing},
 year =    2012,
 volume =  38,
 number =  {4--5},
 pages =   {245--259}
}

- fix qeq/reaxff command: doi:10.1016/j.parco.2011.08.005

@Article{Aktulga12,
 author = {H. M. Aktulga and J. C. Fogarty and S. A. Pandit and A. Y. Grama},
 title = {Parallel Reactive Molecular Dynamics: {N}umerical Methods and Algorithmic Techniques},
 journal = {Parallel Computing},
 year =    2012,
 volume =  38,
 pages =   {245--259}
}

CITE-CITE-CITE-CITE-CITE-CITE-CITE-CITE-CITE-CITE-CITE-CITE-CITE

Switching to 'neigh_modify every 1 delay 0 check yes' setting during minimization
Neighbor list info ...
  update: every = 1 steps, delay = 0 steps, check = yes
  max neighbors/atom: 2000, page size: 100000
  master list distance cutoff = 12
  ghost atom cutoff = 12
  binsize = 6, bins = 6 6 6
  2 neighbor lists, perpetual/occasional/extra = 2 0 0
  (1) pair reaxff, perpetual
      attributes: half, newton off, ghost
      pair build: half/bin/ghost/newtoff
      stencil: full/ghost/bin/3d
      bin: standard
  (2) fix qeq/reaxff, perpetual, copy from (1)
      attributes: half, newton off
      pair build: copy
      stencil: none
      bin: none
Per MPI rank memory allocation (min/avg/max) = 71.24 | 71.76 | 72.16 Mbytes
   Step          Time           Temp          Press          PotEng         KinEng         TotEng         Volume        Density    
         0   0              0             -111697.91     -200117.32      0             -200117.32      38436.525      1.4037505    
        99   24.75          0             -187118.3      -219800.74      0             -219800.74      38436.525      1.4037505    
Loop time of 2.79218 on 16 procs for 99 steps with 1824 atoms

98.3% CPU use with 16 MPI tasks x 1 OpenMP threads

Minimization stats:
  Stopping criterion = energy tolerance
  Energy initial, next-to-last, final = 
     -200117.322491413  -219799.191462089  -219800.736434232
  Force two-norm initial, final = 8464.8454 560.56967
  Force max component initial, final = 2282.255 194.34583
  Final line search alpha, max atom move = 0.00021531438 0.041845451
  Iterations, force evaluations = 99 143

MPI task timing breakdown:
Section |  min time  |  avg time  |  max time  |%varavg| %total
---------------------------------------------------------------
Pair    | 1.0623     | 1.6166     | 2.1656     |  41.1 | 57.90
Neigh   | 0.0071823  | 0.008824   | 0.01054    |   1.6 |  0.32
Comm    | 0.017798   | 0.56587    | 1.1196     |  69.4 | 20.27
Output  | 0          | 0          | 0          |   0.0 |  0.00
Modify  | 0.59318    | 0.5958     | 0.59833    |   0.3 | 21.34
Other   |            | 0.005059   |            |       |  0.18

Nlocal:            114 ave         123 max         105 min
Histogram: 1 1 2 3 1 2 2 1 1 2
Nghost:        2591.25 ave        2622 max        2566 min
Histogram: 3 1 1 3 0 4 0 3 0 1
Neighs:        34380.6 ave       37563 max       31140 min
Histogram: 1 0 2 2 2 5 0 1 2 1

Total # of neighbors = 550089
Ave neighs/atom = 301.58388
Neighbor list builds = 1
Dangerous builds = 0

write_data      ${rundir}/minimized.data
write_data      runs/pH6p0_N1536/01_minimize/minimized.data
System init for write_data ...
write_restart   ${rundir}/minimized.restart
write_restart   runs/pH6p0_N1536/01_minimize/minimized.restart
System init for write_restart ...
unfix           qeq
undump          dmp
Total wall time: 0:00:02
