ITEM: TIMESTEP
0
ITEM: NUMBER OF ATOMS
1824
ITEM: BOX BOUNDS pp pp pp
0.0000000000000000e+00 3.3747999999999998e+01
0.0000000000000000e+00 3.3747999999999998e+01
0.0000000000000000e+00 3.3747999999999998e+01
ITEM: ATOMS id type q x y z
1 1 0.929545 33.7109 0.0273921 33.7267
2 1 0.924118 2.08024 2.16466 2.13458
3 1 0.834981 0.0545913 4.19352 4.25617
4 1 0.925838 2.05145 6.38186 6.32597
5 1 0.91957 4.20008 0.0399125 4.27531
6 1 0.906091 6.37771 2.10417 6.27856
7 1 0.918676 4.16612 4.22316 33.7208
8 1 0.933447 6.38202 6.33752 2.05577
9 1 0.867707 0.0350243 0.040466 8.48283
10 1 0.839059 2.05064 2.09838 10.5653
11 1 0.930112 0.0516032 4.18541 12.646
12 1 0.901731 2.14004 6.36254 14.8163
13 1 0.90673 4.25767 0.0191062 12.6762
14 1 0.930574 6.3252 2.12918 14.7172
15 1 0.912209 4.16722 4.18469 8.38393
16 1 0.980822 6.36657 6.31448 10.4887
17 1 0.931334 0.0323674 0.0260005 16.8934
18 1 0.950623 2.06126 2.14681 19.0157
19 1 0.927877 33.7121 4.19401 21.138
20 1 0.939489 2.16804 6.27169 23.1917
21 1 0.927721 4.22452 0.0472957 21.057
22 1 0.969856 6.27028 2.08625 23.2407
23 1 0.850703 4.16144 4.25309 16.9061
24 1 0.941281 6.28835 6.33258 18.9628
25 1 0.958707 0.0414673 0.0468884 25.3053
26 1 0.934126 2.09251 2.11831 27.4195
27 1 0.949593 33.7007 4.16954 29.5381
28 1 0.91492 2.10383 6.27404 31.6779
29 1 0.941111 4.21502 0.0490464 29.5586
30 1 0.937384 6.30044 2.05966 31.6381
31 1 0.940285 4.17525 4.24737 25.263
32 1 0.941276 6.32362 6.33638 27.3642
33 1 0.918518 33.7462 8.46902 33.7178
34 1 0.813342 2.09539 10.5467 2.14251
35 1 0.975699 33.7164 12.6894 4.26051
36 1 0.936351 2.08467 14.7464 6.27384
37 1 0.916975 4.20198 8.47382 4.18004
38 1 1.0065 6.34961 10.5769 6.31021
39 1 0.93374 4.17554 12.6828 33.7223
40 1 0.936473 6.3337 14.7963 2.13345
41 1 0.926395 33.7162 8.49689 8.44421
42 1 0.940858 2.06729 10.5803 10.5005
43 1 0.966978 33.6987 12.6111 12.656
44 1 0.934873 2.13189 14.7842 14.7913
45 1 0.931676 4.22087 8.45024 12.6533
46 1 0.917559 6.33754 10.5086 14.7522
47 1 0.912982 4.24495 12.6697 8.40993
48 1 0.913206 6.38602 14.796 10.5996
49 1 0.95935 33.7391 8.40141 16.8598
50 1 0.946908 2.11144 10.5654 18.9314
51 1 0.938102 0.057123 12.6679 21.1276
52 1 0.936444 2.06393 14.7212 23.2344
53 1 0.943106 4.25021 8.43886 21.1328
54 1 0.935365 6.3507 10.605 23.1813
55 1 0.819998 4.16734 12.6801 16.8327
56 1 0.922622 6.27068 14.7468 19.0043
57 1 0.917536 33.7097 8.44113 25.3467
58 1 0.965816 2.08386 10.4887 27.4191
59 1 0.903047 33.7044 12.6361 29.5577
60 1 0.928846 2.13314 14.7583 31.6841
61 1 0.928182 4.23599 8.4767 29.5524
62 1 0.890455 6.36859 10.578 31.6817
63 1 0.93404 4.16363 12.6669 25.3317
64 1 0.926902 6.35737 14.7286 27.4239
65 1 0.941374 0.0245507 16.8927 0.0443296
66 1 0.919442 2.11124 19.0219 2.09759
67 1 0.922454 33.6917 21.1066 4.20982
68 1 0.936218 2.16706 23.2417 6.34018
69 1 0.903947 4.23578 16.8602 4.20774
70 1 0.945395 6.36313 18.9829 6.35264
71 1 0.951196 4.17235 21.0616 0.0105433
72 1 0.924482 6.27377 23.1793 2.1347
73 1 0.838221 0.00543633 16.8398 8.38795
74 1 0.934159 2.16426 18.992 10.4907
75 1 0.934355 0.037034 21.1427 12.6086
76 1 0.925296 2.10557 23.2036 14.7666
77 1 0.958615 4.16418 16.8833 12.6217
78 1 0.904556 6.27213 18.9997 14.8181
79 1 0.915664 4.27765 21.1037 8.37896
80 1 0.864877 6.30771 23.218 10.5845
81 1 0.924286 33.7211 16.9029 16.8393
82 1 0.968479 2.12946 18.9755 18.9667
83 1 0.922917 0.0106241 21.0571 21.0366
84 1 0.937338 2.12053 23.2166 23.2014
85 1 0.923638 4.23029 16.929 21.1358
86 1 0.895035 6.36254 18.9748 23.2257
87 1 0.934581 4.18299 21.0662 16.912
88 1 0.946399 6.34718 23.1912 18.9701
89 1 1.02577 33.7245 16.8658 25.2646
90 1 0.654648 2.11412 18.984 27.3859
91 1 0.913585 0.0452988 21.1027 29.4735
92 1 0.829136 2.10516 23.1694 31.6679
93 1 0.902601 4.21107 16.8572 29.5271
94 1 0.933646 6.34953 18.9997 31.6384
95 1 0.895462 4.22633 21.1085 25.2913
96 1 0.933511 6.31964 23.1985 27.3928
97 1 0.797755 0.05206 25.2848 33.6988
98 1 0.896894 2.09259 27.4155 2.15071
99 1 0.961694 33.6888 29.4829 4.20414
100 1 0.924571 2.07424 31.6035 6.32381
101 1 0.952849 4.24569 25.2621 4.27366
102 1 0.888829 6.38393 27.4086 6.26897
103 1 0.934415 4.23469 29.5576 0.0159533
104 1 0.906593 6.29762 31.6933 2.08076
105 1 0.886559 0.0344887 25.3527 8.49421
106 1 0.918418 2.09892 27.4275 10.4972
107 1 0.931717 33.6896 29.5098 12.6644
108 1 0.907078 2.09271 31.6984 14.7322
109 1 0.909033 4.25822 25.3584 12.6798
110 1 0.952861 6.38637 27.3751 14.7756
111 1 0.93387 4.17765 29.4826 8.39722
112 1 0.850043 6.28457 31.6156 10.5571
113 1 0.914976 0.0596691 25.2966 16.8702
114 1 1.02746 2.13694 27.4254 18.9884
115 1 0.917601 0.0362614 29.5169 21.1499
116 1 0.904591 2.07537 31.6815 23.1529
117 1 0.882073 4.22354 25.3012 21.0464
118 1 0.948299 6.32393 27.416 23.1745
119 1 0.939353 4.23766 29.4763 16.8971
120 1 0.95061 6.29358 31.6788 18.9259
121 1 0.921312 0.0185682 25.331 25.3343
122 1 0.934523 2.06403 27.3846 27.3882
123 1 0.958602 0.0424621 29.5433 29.5182
124 1 0.819065 2.13944 31.6851 31.6214
125 1 0.907526 4.16238 25.2946 29.4775
126 1 0.929389 6.32857 27.4199 31.6682
127 1 0.86077 4.24218 29.5509 25.3087
128 1 0.903744 6.29027 31.6475 27.4636
129 1 0.908271 8.4094 0.0194222 33.7019
130 1 0.925705 10.5644 2.15934 2.13751
131 1 0.965463 8.39227 4.27763 4.22334
132 1 0.914131 10.6012 6.28486 6.32297
133 1 0.799796 12.6245 0.0304547 4.16195
134 1 0.942826 14.7546 2.11324 6.28786
135 1 0.94889 12.6396 4.17306 33.705
136 1 0.936942 14.7169 6.26895 2.13761
137 1 0.923372 8.45105 0.0453857 8.41625
138 1 0.910077 10.5175 2.13016 10.496
139 1 0.958952 8.39144 4.21971 12.6779
140 1 0.916702 10.5701 6.33771 14.7119
141 1 0.948036 12.6152 33.71 12.6471
142 1 0.911659 14.8125 2.16169 14.7638
143 1 0.955523 12.712 4.21817 8.43062
144 1 0.912476 14.7536 6.29505 10.5891
145 1 0.896148 8.38978 0.0579152 16.8959
146 1 0.935474 10.5194 2.11922 18.9328
147 1 0.897407 8.48007 4.25752 21.0562
148 1 0.935278 10.5132 6.38663 23.2297
149 1 0.910665 12.6023 33.7141 21.0514
150 1 0.941765 14.7379 2.08366 23.1669
151 1 0.862761 12.6718 4.19934 16.884
152 1 0.919073 14.7366 6.30638 18.9267
153 1 0.928427 8.39225 0.0497671 25.2901
154 1 0.91477 10.5044 2.15806 27.477
155 1 0.975086 8.48957 4.27493 29.5772
156 1 0.922356 10.5809 6.36484 31.6111
157 1 0.997801 12.7106 0.0299436 29.5277
158 1 0.944503 14.7868 2.06936 31.6232
159 1 0.916974 12.6506 4.2407 25.3463
160 1 0.782073 14.7204 6.32811 27.3877
161 1 0.906688 8.37854 8.4888 0.0351573
162 1 0.959017 10.5781 10.5864 2.10341
163 1 0.844674 8.39282 12.6873 4.26595
164 1 0.915278 10.5031 14.7634 6.33119
165 1 0.952438 12.709 8.41932 4.17285
166 1 0.892794 14.7442 10.5005 6.31187
167 1 0.922366 12.713 12.7137 33.6939
168 1 0.910586 14.7544 14.7079 2.06879
169 1 0.951916 8.39843 8.41579 8.38967
170 1 0.924308 10.5581 10.5699 10.5452
171 1 0.960376 8.43322 12.7146 12.6787
172 1 0.940122 10.5051 14.8202 14.8183
173 1 0.948882 12.6688 8.48019 12.6029
174 1 0.89224 14.7877 10.5313 14.7303
175 1 0.900237 12.6315 12.6232 8.45331
176 1 0.872066 14.8014 14.8221 10.5722
177 1 0.946038 8.47272 8.44849 16.8383
178 1 0.962214 10.5013 10.4926 19.0305
179 1 0.949313 8.43311 12.6341 21.1075
180 1 0.905579 10.5604 14.8219 23.1735
181 1 0.920523 12.5983 8.37874 21.0703
182 1 0.947771 14.7936 10.5915 23.2044
183 1 0.927635 12.6218 12.6695 16.8523
184 1 0.8655 14.7766 14.7533 18.9605
185 1 0.892309 8.40723 8.41972 25.2899
186 1 0.778106 10.5003 10.4872 27.4575
187 1 0.908686 8.42659 12.6051 29.5258
188 1 0.932237 10.5104 14.77 31.5836
189 1 0.874275 12.6603 8.49663 29.4758
190 1 0.922861 14.7628 10.5597 31.6178
191 1 0.923471 12.6431 12.6151 25.3256
192 1 0.892591 14.7162 14.7184 27.4133
193 1 0.951634 8.43139 16.8692 0.0139869
194 1 0.925825 10.5878 19.0314 2.09575
195 1 0.918583 8.46884 21.0748 4.22254
196 1 0.944934 10.5185 23.2383 6.32468
197 1 0.932613 12.6433 16.8462 4.26461
198 1 0.965354 14.7967 18.977 6.33384
199 1 0.923965 12.7093 21.1258 33.7311
200 1 0.918614 14.744 23.2311 2.10235
201 1 0.932486 8.44385 16.9257 8.39203
202 1 0.951918 10.5742 18.9286 10.5946
203 1 0.952772 8.47304 21.1037 12.6777
204 1 0.904402 10.5905 23.2066 14.7233
205 1 0.946171 12.612 16.9055 12.6729
206 1 0.907847 14.7802 18.9724 14.7523
207 1 0.921756 12.6536 21.043 8.46949
208 1 0.932216 14.8025 23.2023 10.5016
209 1 0.931383 8.46221 16.858 16.9005
210 1 0.934721 10.513 19.0339 18.9921
211 1 0.920198 8.47909 21.0366 21.0538
212 1 0.956125 10.5456 23.2523 23.2523
213 1 0.939583 12.649 16.9329 21.1427
214 1 0.973706 14.7495 18.9377 23.2373
215 1 0.970624 12.6869 21.0908 16.8152
216 1 0.894447 14.7181 23.182 18.9714
217 1 0.939443 8.42558 16.8147 25.2609
218 1 0.8989 10.6058 19.0278 27.3642
219 1 0.935278 8.46706 21.1352 29.4759
220 1 0.877036 10.585 23.2352 31.6858
221 1 0.966869 12.6923 16.9212 29.4808
222 1 0.926825 14.732 18.9713 31.6518
223 1 0.96117 12.603 21.1348 25.282
224 1 0.934721 14.7603 23.1512 27.4648
225 1 0.871017 8.41268 25.3147 33.712
226 1 0.893598 10.5352 27.4286 2.08062
227 1 0.90853 8.44343 29.5241 4.16004
228 1 0.908873 10.5687 31.5856 6.33011
229 1 0.914575 12.6203 25.2886 4.25996
230 1 0.973951 14.7091 27.4117 6.36265
231 1 0.925581 12.6572 29.4765 33.7356
232 1 0.924364 14.7666 31.6087 2.04971
233 1 0.981893 8.43469 25.2912 8.39496
234 1 0.946351 10.5337 27.463 10.6062
235 1 0.884182 8.465 29.5301 12.6854
236 1 0.879243 10.5934 31.65 14.8192
237 1 0.86336 12.6491 25.2684 12.6536
238 1 0.958716 14.7112 27.4517 14.7051
239 1 0.886925 12.6382 29.4898 8.43838
240 1 0.926261 14.8197 31.5814 10.5619
241 1 0.936739 8.44316 25.3488 16.8797
242 1 0.935464 10.5715 27.4731 19.0063
243 1 0.941699 8.39247 29.4763 21.1395
244 1 0.949065 10.5322 31.6779 23.1875
245 1 0.933946 12.715 25.2548 21.1137
246 1 0.872463 14.7852 27.3991 23.2156
247 1 0.983804 12.6884 29.5099 16.9306
248 1 0.929377 14.7341 31.654 18.9775
249 1 0.842565 8.38792 25.3115 25.2911
250 1 0.960566 10.5864 27.3931 27.4482
251 1 0.889028 8.48203 29.4982 29.5547
252 1 0.924397 10.503 31.5951 31.638
253 1 0.919851 12.623 25.3414 29.5725
254 1 0.909715 14.7987 27.3656 31.6663
255 1 0.942825 12.6183 29.5669 25.3303
256 1 0.897834 14.7964 31.686 27.4021
257 1 0.870772 16.8429 33.7451 33.729
258 1 0.922413 19.0336 2.06775 2.09374
259 1 0.93899 16.845 4.16214 4.19715
260 1 0.951333 18.9545 6.27695 6.28658
261 1 0.958213 21.0598 0.039217 4.27049
262 1 0.932651 23.1792 2.12121 6.27868
263 1 0.936221 21.0963 4.18198 0.0585185
264 1 0.923706 23.1655 6.34531 2.1524
265 1 1.13412 16.9199 33.6927 8.4615
266 1 0.951377 18.9981 2.10023 10.5065
267 1 0.955824 16.9078 4.24454 12.6203
268 1 0.912234 19.0086 6.37284 14.7647
269 1 0.869122 21.1309 0.0188741 12.7106
270 1 0.951393 23.1773 2.07915 14.7144
271 1 0.937681 21.0336 4.23631 8.44602
272 1 0.939126 23.1875 6.29935 10.5135
273 1 0.933469 16.8167 33.722 16.8476
274 1 0.898591 18.9524 2.1596 18.966
275 1 0.958635 16.8478 4.26995 21.1105
276 1 0.940959 18.9776 6.36324 23.1643
277 1 0.935324 21.0784 33.6966 21.1163
278 1 0.904627 23.2316 2.0576 23.1716
279 1 0.932234 21.1063 4.19995 16.9285
280 1 0.912548 23.183 6.29823 19.0192
281 1 0.922546 16.8791 33.7038 25.3491
282 1 0.856171 18.9866 2.16031 27.4112
283 1 0.92814 16.8294 4.23921 29.5777
284 1 0.952317 18.9587 6.32996 31.6843
285 1 0.890063 21.1364 33.7475 29.5484
286 1 0.929464 23.1809 2.07163 31.697
287 1 0.914961 21.0916 4.20097 25.3473
288 1 0.897097 23.1877 6.34736 27.3624
289 1 0.837342 16.8391 8.38032 0.0316451
290 1 0.902612 18.9515 10.517 2.156
291 1 0.903045 16.9285 12.623 4.26936
292 1 0.909801 19.0421 14.7324 6.27184
293 1 0.922242 21.0567 8.4817 4.18262
294 1 0.897805 23.1774 10.558 6.36817
295 1 0.936856 21.1392 12.6144 33.7209
296 1 0.929625 23.2319 14.7403 2.08085
297 1 0.931859 16.8347 8.45066 8.45727
298 1 0.900153 19.0029 10.6048 10.5201
299 1 0.965825 16.8805 12.6252 12.629
300 1 0.898845 18.9537 14.7758 14.7051
301 1 0.936824 21.0755 8.3841 12.6467
302 1 0.918574 23.2537 10.597 14.8226
303 1 0.922819 21.1205 12.7055 8.44718
304 1 0.988765 23.2263 14.7182 10.5888
305 1 0.956804 16.8353 8.38799 16.9223
306 1 0.929099 19.0369 10.5846 18.9612
307 1 0.923155 16.8353 12.6083 21.0503
308 1 0.922886 18.9827 14.7588 23.1919
309 1 0.908566 21.1187 8.40561 21.1179
310 1 1.00667 23.1605 10.5276 23.2334
311 1 0.929677 21.069 12.7109 16.9007
312 1 0.949436 23.1735 14.7833 19.0233
313 1 0.910755 16.87 8.40463 25.2993
314 1 0.889053 19.0253 10.5151 27.3797
315 1 0.931083 16.9226 12.6089 29.5255
316 1 0.919863 19.0107 14.7137 31.6065
317 1 0.945698 21.114 8.46612 29.5885
318 1 0.965057 23.1631 10.4944 31.618
319 1 0.953826 21.0736 12.7094 25.3505
320 1 0.901822 23.1883 14.7399 27.4299
321 1 0.910545 16.8717 16.8669 33.7009
322 1 0.842145 18.9821 18.9918 2.107
323 1 0.921762 16.8492 21.0564 4.1608
324 1 0.941946 18.9507 23.2389 6.27098
325 1 0.948131 21.1337 16.8653 4.16909
326 1 0.829711 23.2494 19.0294 6.37166
327 1 0.921432 21.0474 21.1254 33.7012
328 1 0.95386 23.2433 23.2282 2.12135
329 1 0.933857 16.842 16.8918 8.43475
330 1 0.931178 18.9354 18.9564 10.4973
331 1 0.935829 16.881 21.1303 12.628
332 1 0.912425 18.9935 23.155 14.7754
333 1 0.917621 21.1417 16.8216 12.6147
334 1 0.862669 23.2415 18.9529 14.7284
335 1 0.912452 21.134 21.0821 8.42028
336 1 0.91925 23.2196 23.2519 10.5681
337 1 0.959811 16.8909 16.9093 16.8481
338 1 0.913251 18.9676 18.9693 18.974
339 1 0.920285 16.8549 21.1431 21.1326
340 1 0.987277 18.949 23.2593 23.1796
341 1 0.989274 21.0954 16.8685 21.0533
342 1 0.910104 23.1931 19.0165 23.168
343 1 0.916895 21.1287 21.0664 16.8905
344 1 0.91701 23.2603 23.1699 18.9385
345 1 0.87061 16.9219 16.8517 25.2667
346 1 0.860347 19.0005 18.9847 27.4392
347 1 0.912306 16.8697 21.1181 29.498
348 1 0.95952 19.0272 23.2152 31.6509
349 1 0.970706 21.0729 16.9082 29.5059
350 1 0.996927 23.1512 19.0327 31.6002
351 1 0.861242 21.1067 21.0652 25.3587
352 1 0.956604 23.2005 23.1444 27.4483
353 1 0.963297 16.9033 25.3648 0.0358563
354 1 0.887086 19.0384 27.4074 2.12402
355 1 0.892449 16.8435 29.5872 4.26981
356 1 0.927493 18.9751 31.6182 6.29095
357 1 0.944856 21.0832 25.2939 4.25216
358 1 0.913523 23.1883 27.3762 6.27156
359 1 0.947787 21.1374 29.5002 33.732
360 1 0.902609 23.1728 31.6171 2.087
361 1 0.829559 16.8969 25.3115 8.3884
362 1 0.908669 19.0024 27.4704 10.5593
363 1 0.921115 16.8246 29.4933 12.6351
364 1 0.91764 19.0361 31.5863 14.7752
365 1 0.93652 21.1246 25.2733 12.7015
366 1 0.936439 23.1948 27.411 14.8157
367 1 0.904705 21.0864 29.5387 8.46774
368 1 1.00918 23.2228 31.6066 10.54
369 1 0.893797 16.8799 25.3134 16.8818
370 1 0.95099 18.9497 27.4223 18.9604
371 1 0.905064 16.8914 29.5326 21.1277
372 1 0.917112 18.9728 31.6222 23.2126
373 1 0.913341 21.0633 25.2936 21.1054
374 1 0.865217 23.2006 27.4252 23.2348
375 1 0.940586 21.114 29.5084 16.8386
376 1 0.941906 23.2595 31.636 19.0235
377 1 0.963419 16.8807 25.3677 25.2707
378 1 0.882013 19.0001 27.3617 27.4373
379 1 0.908837 16.8831 29.4971 29.4812
380 1 0.952252 18.9554 31.6812 31.5881
381 1 0.938577 21.1414 25.2769 29.555
382 1 0.903928 23.2445 27.4225 31.6477
383 1 0.86778 21.0794 29.4842 25.329
384 1 0.927404 23.2563 31.6623 27.4494
385 1 0.941127 25.2907 0.00616055 33.7292
386 1 0.951113 27.4454 2.09237 2.12915
387 1 0.861157 25.2821 4.22468 4.2579
388 1 0.926738 27.3756 6.26787 6.28924
389 1 0.927467 29.5788 33.7473 4.17475
390 1 0.934132 31.6791 2.15274 6.27654
391 1 0.926278 29.5102 4.2247 0.0118209
392 1 0.957095 31.6688 6.29542 2.16358
393 1 0.948533 25.3064 0.0581831 8.45736
394 1 0.944159 27.4794 2.07375 10.5517
395 1 0.938953 25.2882 4.24964 12.6713
396 1 0.937201 27.4547 6.34276 14.7224
397 1 0.946382 29.5089 33.7416 12.6738
398 1 0.941855 31.6564 2.14078 14.8227
399 1 0.926251 29.4891 4.18865 8.38897
400 1 0.933897 31.6368 6.27472 10.5078
401 1 0.891328 25.3517 33.6904 16.8384
402 1 1.183 27.4609 2.15578 18.9912
403 1 0.936566 25.2878 4.27596 21.1032
404 1 0.948564 27.4033 6.35931 23.1789
405 1 0.942614 29.5772 0.0269779 21.0766
406 1 0.94863 31.5867 2.14532 23.1676
407 1 0.906327 29.5677 4.16081 16.8574
408 1 0.94626 31.6308 6.32183 19.0309
409 1 0.90849 25.33 0.0113168 25.3049
410 1 0.955817 27.4267 2.13538 27.4764
411 1 0.931928 25.2946 4.17861 29.4966
412 1 0.922525 27.4591 6.32482 31.6233
413 1 0.934893 29.5616 33.6941 29.5557
414 1 0.90769 31.6903 2.11247 31.6401
415 1 0.912052 29.5072 4.26988 25.2906
416 1 0.951871 31.6753 6.31849 27.4606
417 1 0.88892 25.3302 8.4005 0.0277862
418 1 0.927359 27.4232 10.562 2.08266
419 1 0.930262 25.3183 12.6363 4.23766
420 1 0.917631 27.4705 14.7581 6.34079
421 1 0.902311 29.5194 8.49236 4.15939
422 1 0.923931 31.6719 10.5476 6.27438
423 1 0.922587 29.4706 12.6567 33.7387
424 1 0.927696 31.5951 14.7613 2.14031
425 1 0.866117 25.2705 8.38547 8.45556
426 1 0.96256 27.4294 10.491 10.5603
427 1 0.971939 25.3096 12.6855 12.6392
428 1 0.927915 27.3818 14.7619 14.7383
429 1 0.875339 29.5735 8.4147 12.699
430 1 0.831215 31.6849 10.5075 14.7174
431 1 0.947149 29.5023 12.7079 8.42597
432 1 0.95693 31.652 14.7579 10.5548
433 1 0.860575 25.3048 8.41522 16.8262
434 1 0.952985 27.3644 10.5192 18.9415
435 1 0.88796 25.2779 12.7119 21.0559
436 1 0.915111 27.3856 14.7268 23.1887
437 1 0.898823 29.5747 8.46103 21.0398
438 1 0.938989 31.6571 10.5404 23.1675
439 1 0.747038 29.5088 12.6683 16.8905
440 1 0.860477 31.5794 14.7444 19.0293
441 1 0.913236 25.329 8.49352 25.3631
442 1 0.949157 27.3755 10.5604 27.4221
443 1 0.910262 25.274 12.6532 29.5518
444 1 0.916029 27.4787 14.7244 31.698
445 1 0.93561 29.5015 8.46784 29.488
446 1 0.950947 31.6917 10.5398 31.6554
447 1 0.93614 29.5856 12.6132 25.2965
448 1 0.922012 31.6795 14.7794 27.3761
449 1 0.902316 25.2623 16.9044 33.7291
450 1 0.936485 27.4274 18.9478 2.06233
451 1 1.03213 25.2517 21.073 4.21314
452 1 0.897141 27.3646 23.165 6.35464
453 1 0.885999 29.5514 16.8549 4.22944
454 1 0.907552 31.6281 18.9934 6.34485
455 1 0.937495 29.5047 21.0888 33.7361
456 1 0.939512 31.6833 23.1689 2.16305
457 1 0.895394 25.2628 16.8921 8.47966
458 1 0.910483 27.4073 19.0319 10.587
459 1 0.921841 25.3013 21.0564 12.6402
460 1 0.911066 27.3807 23.2419 14.7975
461 1 0.945813 29.5209 16.9153 12.7114
462 1 0.93415 31.6846 18.9904 14.7258
463 1 0.908294 29.5826 21.1081 8.38905
464 1 0.938035 31.5944 23.1855 10.5676
465 1 0.940843 25.3259 16.9056 16.9242
466 1 0.910211 27.4645 19.0423 19.0052
467 1 0.895078 25.3169 21.0735 21.1142
468 1 0.86358 27.442 23.2379 23.2005
469 1 0.926526 29.491 16.8621 21.0957
470 1 0.929946 31.6649 19 23.2154
471 1 0.950986 29.5356 21.0965 16.88
472 1 0.94164 31.6213 23.1676 19.0019
473 1 0.947835 25.2874 16.9213 25.2763
474 1 0.878579 27.4136 18.9336 27.434
475 1 0.943579 25.2768 21.0755 29.5037
476 1 0.923098 27.4703 23.2191 31.6829
477 1 0.932217 29.5736 16.9304 29.4727
478 1 0.973956 31.6946 19.0379 31.5825
479 1 0.929435 29.4948 21.0729 25.3564
480 1 0.922621 31.6136 23.1758 27.3769
481 1 0.946033 25.2942 25.2659 0.0247739
482 1 0.816595 27.4662 27.4423 2.05485
483 1 0.975276 25.3609 29.4729 4.20312
484 1 0.941566 27.423 31.651 6.32888
485 1 0.903267 29.5042 25.3001 4.19604
486 1 0.864216 31.5925 27.4242 6.37448
487 1 0.946971 29.5307 29.5363 33.7278
488 1 0.916106 31.6148 31.5867 2.10604
489 1 0.892095 25.3425 25.3247 8.39328
490 1 1.00646 27.4552 27.3781 10.5423
491 1 0.826705 25.3516 29.4834 12.6462
492 1 0.958078 27.3711 31.6037 14.7957
493 1 0.921511 29.4757 25.2887 12.7024
494 1 0.921542 31.6295 27.3817 14.7581
495 1 0.911005 29.5103 29.5785 8.46308
496 1 0.95248 31.6157 31.6478 10.4968
497 1 0.938633 25.2616 25.3106 16.8374
498 1 0.924639 27.4057 27.412 18.9895
499 1 0.932851 25.3595 29.5193 21.0893
500 1 0.955156 27.4731 31.6176 23.1476
501 1 0.921734 29.4767 25.3478 21.0613
502 1 0.968234 31.6395 27.368 23.2508
503 1 0.94296 29.4998 29.5255 16.8449
504 1 0.928916 31.5957 31.6748 18.9769
505 1 0.763781 25.3524 25.3595 25.2795
506 1 0.881208 27.3917 27.4036 27.4687
507 1 0.967108 25.3642 29.4736 29.4959
508 1 0.966803 27.4005 31.6371 31.6695
509 1 0.966571 29.4942 25.3312 29.5414
510 1 0.856793 31.6272 27.4241 31.6602
511 1 0.903875 29.508 29.4833 25.2974
512 1 0.92749 31.6515 31.6556 27.364
513 2 -0.48258 1.09083 1.11077 1.05909
514 2 -0.496992 1.00845 32.6947 32.7229
515 2 -0.488233 32.7418 1.08057 32.7443
516 2 -0.479306 32.725 32.7218 1.00273
517 2 -0.492002 1.06411 3.13035 3.19375
518 2 -0.48448 3.17916 1.03465 3.14356
519 2 -0.46531 3.21847 3.18785 1.05111
520 2 -0.518314 1.09037 5.27961 5.27708
521 2 -0.481915 32.6351 3.14125 5.33129
522 2 -0.449724 32.6641 5.29379 3.20156
523 2 -0.517829 3.12186 5.25669 7.41081
524 2 -0.452071 3.1235 7.37559 5.24485
525 2 -0.468167 1.03963 7.39077 7.38401
526 2 -0.500505 5.24943 1.08005 5.22694
527 2 -0.485469 3.19413 32.6965 5.28189
528 2 -0.467541 5.2223 32.6402 3.21795
529 2 -0.463419 5.27878 3.17099 7.36828
530 2 -0.485901 7.43682 3.12391 5.22321
531 2 -0.49184 7.37384 1.02972 7.41096
532 2 -0.471795 5.24637 5.31984 1.08785
533 2 -0.509882 3.13201 5.31462 32.7197
534 2 -0.481642 5.30599 3.13641 32.7381
535 2 -0.454897 5.31839 7.40276 3.12016
536 2 -0.484269 7.41499 5.26166 3.21272
537 2 -0.514155 7.33318 7.42513 1.06727
538 2 -0.51538 1.01938 1.04954 9.5477
539 2 -0.453486 1.00504 32.6483 7.32464
540 2 -0.585003 32.6354 1.10852 7.35367
541 2 -0.443004 32.7146 32.6954 9.50656
542 2 -0.485539 0.998742 3.15373 11.602
543 2 -0.459831 3.108 1.09016 11.564
544 2 -0.528249 3.2207 3.16501 9.46232
545 2 -0.491038 1.08636 5.28093 13.6698
546 2 -0.473835 32.6871 3.19144 13.6728
547 2 -0.448158 32.693 5.30516 11.5951
548 2 -0.617406 3.19786 5.24124 15.8393
549 2 -0.455731 3.19638 7.38517 13.729
550 2 -0.484655 1.11071 7.41928 15.8729
551 2 -0.507854 5.2755 1.06825 13.7285
552 2 -0.488013 3.16666 32.7116 13.6901
553 2 -0.431279 5.26367 32.6891 11.6201
554 2 -0.406075 5.32652 3.13099 15.8263
555 2 -0.469956 7.39281 3.20071 13.6513
556 2 -0.580241 7.38063 1.06927 15.7617
557 2 -0.44445 5.31109 5.3184 9.49011
558 2 -0.449136 5.30778 7.39593 11.542
559 2 -0.473105 7.34879 5.32434 11.6312
560 2 -0.487536 7.39941 7.33668 9.50363
561 2 -0.485514 1.01697 1.01137 17.9867
562 2 -0.481751 1.0751 32.6948 15.829
563 2 -0.485795 32.6486 1.08711 15.8386
564 2 -0.451749 32.7061 32.7228 17.9169
565 2 -0.482697 1.10525 3.11829 20.018
566 2 -0.475133 3.1078 1.02085 20.0643
567 2 -0.479277 3.12347 3.22064 17.9523
568 2 -0.46284 1.06501 5.28398 22.1405
569 2 -0.489166 32.6765 3.19412 22.179
570 2 -0.471163 32.6926 5.27293 20.0703
571 2 -0.506456 3.14217 5.22055 24.2498
572 2 -0.472042 3.20103 7.405 22.1825
573 2 -0.434179 1.03532 7.35032 24.2186
574 2 -0.481045 5.29638 1.10005 22.1799
575 2 -0.461244 3.21632 32.7205 22.1858
576 2 -0.472233 5.29528 32.6621 20.0924
577 2 -0.482895 5.2782 3.21273 24.2732
578 2 -0.430422 7.37188 3.11947 22.1838
579 2 -0.48708 7.37069 1.09033 24.2039
580 2 -0.55466 5.22838 5.30868 17.9354
581 2 -0.468775 5.22999 7.36174 19.9973
582 2 -0.47077 7.38867 5.29649 20.0186
583 2 -0.467359 7.33514 7.41482 17.93
584 2 -0.489159 1.02792 1.10837 26.3337
585 2 -0.467299 1.00159 32.6619 24.2743
586 2 -0.454791 32.7353 1.0235 24.2156
587 2 -0.465435 32.7378 32.7053 26.3542
588 2 -0.470655 1.01612 3.21958 28.4571
589 2 -0.468602 3.16045 1.03725 28.4757
590 2 -0.46413 3.14933 3.1599 26.4169
591 2 -0.456102 1.05908 5.2427 30.5447
592 2 -0.499862 32.738 3.12191 30.5533
593 2 -0.486292 32.6447 5.33177 28.4617
594 2 -0.485841 1.04821 7.40291 32.7291
595 2 -0.453607 3.17809 7.41076 30.6172
596 2 -0.493655 5.30903 1.04565 30.5408
597 2 -0.446112 3.18271 32.7176 30.6296
598 2 -0.489749 5.27343 32.6656 28.4781
599 2 -0.481601 7.34226 1.01432 32.6728
600 2 -0.463725 7.39772 3.10771 30.5879
601 2 -0.467776 5.31243 5.31063 26.3518
602 2 -0.458662 5.25878 7.43502 28.4618
603 2 -0.47308 7.38632 5.27495 28.4978
604 2 -0.479066 7.32511 7.40613 26.4195
605 2 -0.580138 1.07367 9.44221 1.0067
606 2 -0.46072 32.6498 7.3661 1.01507
607 2 -0.494307 32.652 9.51003 32.6639
608 2 -0.449288 1.0558 11.5837 3.21264
609 2 -0.482582 3.11943 9.49722 3.21609
610 2 -0.549177 3.21185 11.5813 1.09597
611 2 -0.502889 1.00574 13.6741 5.29732
612 2 -0.486751 32.7527 11.6307 5.2672
613 2 -0.482044 32.6727 13.6695 3.20068
614 2 -0.469171 3.12531 13.7114 7.3544
615 2 -0.484343 3.1214 15.7755 5.26512
616 2 -0.488197 1.07064 15.8345 7.39598
617 2 -0.472919 5.2747 9.44129 5.3076
618 2 -0.469317 5.30663 11.6083 7.35234
619 2 -0.524093 7.34654 11.624 5.28417
620 2 -0.473545 7.33872 9.47176 7.39747
621 2 -0.451983 5.25813 13.7025 1.01615
622 2 -0.497575 3.1072 13.7663 32.7008
623 2 -0.537628 5.31837 11.6397 32.6818
624 2 -0.487621 5.297 15.8779 3.1291
625 2 -0.488746 7.32339 13.7526 3.14231
626 2 -0.467091 7.37173 15.8524 1.06273
627 2 -0.483523 1.09025 9.52759 9.46998
628 2 -0.47504 32.651 7.37324 9.45193
629 2 -0.476877 32.6716 9.52107 7.40663
630 2 -0.474987 1.06193 11.615 11.6396
631 2 -0.443846 3.14308 9.51241 11.5541
632 2 -0.453981 3.17807 11.6507 9.44544
633 2 -0.448234 1.04935 13.6984 13.6773
634 2 -0.484655 32.7195 11.6535 13.6523
635 2 -0.472729 32.7102 13.722 11.5416
636 2 -0.522748 3.10741 13.6813 15.7991
637 2 -0.46805 3.18375 15.7914 13.7276
638 2 -0.483879 1.05329 15.793 15.8548
639 2 -0.466233 5.22284 9.45902 13.7213
640 2 -0.429838 5.29958 11.6246 15.7918
641 2 -0.463319 7.39085 11.6404 13.6851
642 2 -0.469772 7.41941 9.54596 15.8768
643 2 -0.447319 5.24801 13.7682 9.45482
644 2 -0.462921 5.21522 15.7725 11.6393
645 2 -0.485973 7.41965 13.7464 11.6436
646 2 -0.466694 7.37906 15.7752 9.4403
647 2 -0.503185 1.06147 9.48674 17.882
648 2 -0.470587 32.6813 7.4402 17.8746
649 2 -0.480313 32.7364 9.50676 15.841
650 2 -0.365372 1.02966 11.5836 20.079
651 2 -0.448531 3.15411 9.53453 20.0536
652 2 -0.620073 3.20754 11.5687 17.9434
653 2 -0.498385 1.10871 13.6569 22.1333
654 2 -0.473429 32.7502 11.5953 22.1059
655 2 -0.449141 32.7092 13.7675 20.0186
656 2 -0.482957 3.15774 13.754 24.2913
657 2 -0.438817 3.12004 15.7772 22.0933
658 2 -0.496819 1.00826 15.8535 24.2661
659 2 -0.476342 5.26766 9.46831 22.1011
660 2 -0.461041 5.29938 11.6532 24.2315
661 2 -0.488757 7.43553 11.601 22.1774
662 2 -0.459255 7.37867 9.52821 24.2139
663 2 -0.472264 5.21648 13.7474 17.9245
664 2 -0.457453 5.30802 15.8124 20.084
665 2 -0.460526 7.41818 13.7258 20.0595
666 2 -0.458106 7.34244 15.8516 17.9491
667 2 -0.488677 1.07851 9.50997 26.4162
668 2 -0.472324 32.7532 7.32284 26.3627
669 2 -0.467801 32.6795 9.4496 24.2573
670 2 -0.456666 1.03253 11.5865 28.4506
671 2 -0.465291 3.16687 9.45313 28.4154
672 2 -0.470904 3.16364 11.621 26.4208
673 2 -0.476317 1.01946 13.7478 30.6179
674 2 -0.535192 32.7442 11.5707 30.5318
675 2 -0.384022 32.6773 13.7247 28.5278
676 2 -0.473666 1.07154 15.8736 32.7393
677 2 -0.470611 3.13638 15.862 30.5381
678 2 -0.430014 5.30735 9.53549 30.5251
679 2 -0.477232 7.42549 9.44797 32.6493
680 2 -0.482046 7.38654 11.541 30.6076
681 2 -0.460528 5.28281 13.6695 26.3362
682 2 -0.468686 5.28 15.7941 28.4323
683 2 -0.476867 7.43541 13.7221 28.4495
684 2 -0.473979 7.42334 15.7801 26.3267
685 2 -0.477081 1.06097 17.8954 1.01612
686 2 -0.466103 32.6995 15.8093 1.02162
687 2 -0.429361 32.7406 17.977 32.6509
688 2 -0.462421 1.01576 20.0198 3.16113
689 2 -0.447958 3.17356 17.9882 3.16794
690 2 -0.498098 3.2092 20.089 1.03229
691 2 -0.445899 1.08172 22.171 5.31482
692 2 -0.501728 32.7256 20.0494 5.27725
693 2 -0.497904 32.6487 22.1211 3.12469
694 2 -0.507608 3.20453 22.1129 7.3653
695 2 -0.504107 3.16918 24.2428 5.3286
696 2 -0.479301 1.07307 24.2763 7.32833
697 2 -0.456623 5.23266 17.9568 5.31272
698 2 -0.478897 5.21555 20.0099 7.33846
699 2 -0.459465 7.4302 19.9883 5.27899
700 2 -0.494886 7.38361 17.8899 7.36972
701 2 -0.466069 5.21592 22.1538 1.10569
702 2 -0.4853 3.14495 22.148 32.7246
703 2 -0.462754 5.30586 20.0684 32.6432
704 2 -0.474149 5.32944 24.3103 3.17347
705 2 -0.482899 7.39811 22.1511 3.13628
706 2 -0.460488 7.38063 24.2397 1.04224
707 2 -0.469827 1.03515 17.9217 9.44875
708 2 -0.463815 32.6387 15.832 9.51428
709 2 -0.512345 32.7336 17.9707 7.34861
710 2 -0.449249 1.05992 20.0303 11.5765
711 2 -0.480403 3.10534 17.91 11.6152
712 2 -0.483456 3.13553 20.0598 9.50554
713 2 -0.476656 1.06834 22.0873 13.6569
714 2 -0.458477 32.6773 19.984 13.686
715 2 -0.46949 32.7156 22.2028 11.5479
716 2 -0.464544 3.19143 22.1446 15.7914
717 2 -0.457121 3.13367 24.2854 13.7343
718 2 -0.480163 1.04624 24.2246 15.8319
719 2 -0.462363 5.24365 17.8742 13.6536
720 2 -0.476928 5.28826 19.9811 15.8623
721 2 -0.452885 7.41011 20.0828 13.6869
722 2 -0.450577 7.44194 17.9721 15.7873
723 2 -0.503997 5.30507 22.1226 9.54009
724 2 -0.494128 5.32411 24.2987 11.6546
725 2 -0.443281 7.43476 22.2048 11.5687
726 2 -0.459075 7.35377 24.3025 9.48991
727 2 -0.470541 1.0865 17.9041 17.9557
728 2 -0.468007 32.7084 15.795 17.8979
729 2 -0.488737 32.7298 17.952 15.8353
730 2 -0.481215 1.08869 19.9935 20.0226
731 2 -0.471794 3.14749 17.9732 20.0055
732 2 -0.498809 3.17758 20.0551 17.9176
733 2 -0.44727 1.00544 22.192 22.1454
734 2 -0.477634 32.7203 20.0207 22.153
735 2 -0.475973 32.6938 22.1508 20.0632
736 2 -0.490432 3.13177 22.193 24.299
737 2 -0.473388 3.11064 24.252 22.1111
738 2 -0.463325 1.03093 24.2056 24.2015
739 2 -0.467444 5.26299 17.8839 22.1909
740 2 -0.509967 5.31603 20.0054 24.2701
741 2 -0.528587 7.37388 20.0061 22.1448
742 2 -0.534304 7.40676 17.8744 24.2432
743 2 -0.464405 5.32017 22.2025 17.8776
744 2 -0.482389 5.33224 24.2882 19.9908
745 2 -0.46585 7.41848 22.1866 20.034
746 2 -0.458548 7.41615 24.2251 17.9009
747 2 -0.485112 0.99822 17.9447 26.3731
748 2 -0.506522 32.6601 15.7999 26.3256
749 2 -0.46733 32.6609 17.8748 24.2505
750 2 -0.52952 1.06421 20.0196 28.5036
751 2 -0.483956 3.16632 17.8883 28.4555
752 2 -0.484406 3.11739 20.078 26.3545
753 2 -0.497186 0.997495 22.1251 30.5571
754 2 -0.51691 32.7206 20.0113 30.5378
755 2 -0.476128 32.7452 22.1534 28.4811
756 2 -0.628931 1.0374 24.3074 32.6472
757 2 -0.428279 3.1617 24.2757 30.6393
758 2 -0.465011 5.26089 17.9766 30.6233
759 2 -0.468117 7.34449 17.8928 32.7086
760 2 -0.449683 7.42898 20.0677 30.5772
761 2 -0.514969 5.2635 22.1266 26.3092
762 2 -0.46003 5.32672 24.2894 28.4428
763 2 -0.473169 7.37919 22.1838 28.4316
764 2 -0.555439 7.32952 24.2594 26.3764
765 2 -0.454288 1.00499 26.3598 1.00207
766 2 -0.449396 32.7433 24.217 1.03722
767 2 -0.513434 32.6553 26.3623 32.7135
768 2 -0.469478 1.02621 28.5152 3.19597
769 2 -0.445161 3.21384 26.3101 3.14303
770 2 -0.446539 3.2085 28.4667 1.10664
771 2 -0.465303 1.02032 30.619 5.29213
772 2 -0.468081 32.7533 28.51 5.31514
773 2 -0.487465 32.6821 30.6295 3.20746
774 2 -0.476803 3.21329 30.6002 7.43743
775 2 -0.491781 5.29485 26.3198 5.23507
776 2 -0.509698 5.25187 28.4636 7.40443
777 2 -0.490721 7.36675 28.4247 5.21725
778 2 -0.479918 7.40298 26.3907 7.35884
779 2 -0.480944 5.22141 30.6106 1.01734
780 2 -0.482491 3.19807 30.6236 32.6908
781 2 -0.466822 5.23816 28.4366 32.732
782 2 -0.474148 7.37993 32.7153 1.11238
783 2 -0.473033 7.36542 30.5612 3.22027
784 2 -0.520828 1.02955 26.3285 9.54613
785 2 -0.481401 32.7237 24.2081 9.47452
786 2 -0.50317 32.6816 26.401 7.34719
787 2 -0.443329 1.03151 28.5338 11.5543
788 2 -0.477181 3.12023 26.4252 11.6066
789 2 -0.524025 3.2109 28.4255 9.51061
790 2 -0.446617 1.00231 30.5596 13.7387
791 2 -0.479064 32.6703 28.4788 13.6905
792 2 -0.459059 32.6771 30.636 11.5627
793 2 -0.439207 3.17302 30.5826 15.8563
794 2 -0.473685 5.32497 26.3308 13.7151
795 2 -0.47404 5.26165 28.5336 15.8294
796 2 -0.466174 7.38073 28.4714 13.7452
797 2 -0.493314 7.38607 26.3994 15.7962
798 2 -0.442733 5.29706 30.5349 9.44455
799 2 -0.455411 7.38993 32.733 9.47191
800 2 -0.611238 7.39784 30.5844 11.5503
801 2 -0.475081 1.08354 26.3246 17.9786
802 2 -0.439631 32.6659 24.2175 17.9624
803 2 -0.452316 32.6561 26.3863 15.8421
804 2 -0.51911 1.02277 28.5118 20.0883
805 2 -0.376312 3.18805 26.404 20.0828
806 2 -0.533911 3.16907 28.5141 17.8772
807 2 -0.502425 1.02809 30.5403 22.1854
808 2 -0.469298 32.6927 28.4685 22.2011
809 2 -0.434605 32.7233 30.5781 20.0563
810 2 -0.460651 3.20275 30.5963 24.2647
811 2 -0.446666 5.25134 26.3061 22.1983
812 2 -0.468465 5.23454 28.5047 24.2972
813 2 -0.504939 7.38502 28.4937 22.1498
814 2 -0.523782 7.39086 26.3606 24.2757
815 2 -0.503557 5.31542 30.6336 17.9837
816 2 -0.49356 7.44202 32.6621 17.9719
817 2 -0.438737 7.37272 30.6261 20.0626
818 2 -0.504042 1.09315 26.4191 26.3697
819 2 -0.457004 32.7171 24.2637 26.3444
820 2 -0.479721 32.6617 26.3782 24.2335
821 2 -0.477419 1.01985 28.4966 28.4963
822 2 -0.482421 3.22111 26.4224 28.4525
823 2 -0.460136 3.21258 28.5329 26.379
824 2 -0.647249 1.05494 30.5471 30.6049
825 2 -0.482222 32.6918 28.5122 30.5767
826 2 -0.461419 32.6701 30.5444 28.4777
827 2 -0.439682 5.24107 26.4104 30.6187
828 2 -0.546638 7.41591 26.3911 32.6712
829 2 -0.493813 7.32559 28.4571 30.5801
830 2 -0.552821 5.32579 30.6199 26.3261
831 2 -0.440229 7.342 32.7293 26.31
832 2 -0.460907 7.38788 30.59 28.4275
833 2 -0.45615 9.537 1.09901 1.10717
834 2 -0.461659 9.49939 32.6995 32.684
835 2 -0.495392 9.52182 3.17874 3.11218
836 2 -0.503272 11.6107 1.10421 3.21733
837 2 -0.472505 11.6279 3.12773 1.03386
838 2 -0.457916 9.44921 5.28242 5.3111
839 2 -0.488717 11.6408 5.27427 7.33095
840 2 -0.464377 11.6306 7.32915 5.2567
841 2 -0.475417 9.44323 7.40688 7.4334
842 2 -0.454639 13.7346 1.10577 5.29046
843 2 -0.543439 11.5625 32.7349 5.23282
844 2 -0.442736 13.7548 32.6605 3.11796
845 2 -0.46368 13.7456 3.21516 7.41935
846 2 -0.470881 15.8259 3.18542 5.3137
847 2 -0.406191 15.8726 1.05112 7.34846
848 2 -0.457274 13.6792 5.27312 0.995823
849 2 -0.463753 11.6031 5.32096 32.6468
850 2 -0.46762 13.7124 3.16022 32.7439
851 2 -0.485558 13.6845 7.37179 3.18146
852 2 -0.471551 15.7676 5.22834 3.18196
853 2 -0.450942 15.7644 7.33309 1.05234
854 2 -0.473091 9.43855 1.0687 9.47621
855 2 -0.530611 9.52705 32.7215 7.40667
856 2 -0.454551 9.50475 3.11878 11.6507
857 2 -0.459223 11.6118 0.995423 11.6196
858 2 -0.471488 11.5994 3.16837 9.44132
859 2 -0.474443 9.45137 5.24822 13.7511
860 2 -0.483653 11.6441 5.31815 15.8021
861 2 -0.463468 11.637 7.33145 13.6724
862 2 -0.479639 9.43779 7.37388 15.8757
863 2 -0.446074 13.7389 1.0931 13.7538
864 2 -0.486267 11.6361 32.693 13.699
865 2 -0.460892 13.6936 32.7528 11.6161
866 2 -0.538796 13.6788 3.18861 15.8365
867 2 -0.502182 15.7837 3.18293 13.7007
868 2 -0.499831 15.8331 1.08221 15.7814
869 2 -0.487569 13.7469 5.23502 9.4629
870 2 -0.499222 13.6565 7.43979 11.5837
871 2 -0.49121 15.795 5.25141 11.6272
872 2 -0.446568 15.8669 7.35265 9.51402
873 2 -0.472157 9.51154 1.02788 17.9805
874 2 -0.495359 9.47072 32.75 15.8138
875 2 -0.46819 9.44991 3.15355 20
876 2 -0.455022 11.6063 1.08675 20.0015
877 2 -0.462454 11.644 3.22217 17.9157
878 2 -0.461325 9.47116 5.32204 22.1951
879 2 -0.466113 11.5644 5.25064 24.2082
880 2 -0.462255 11.649 7.33137 22.1879
881 2 -0.548141 9.46533 7.35 24.2365
882 2 -0.462635 13.7596 1.03081 22.159
883 2 -0.486457 11.5424 32.7182 22.1963
884 2 -0.475407 13.6994 32.7103 19.9958
885 2 -0.451321 13.734 3.1646 24.2119
886 2 -0.456972 15.8738 3.16475 22.2046
887 2 -0.444536 15.8475 1.01269 24.2602
888 2 -0.508096 13.6883 5.2186 17.875
889 2 -0.465903 13.6992 7.38481 20.0111
890 2 -0.471013 15.8606 5.26907 20.0225
891 2 -0.491283 15.874 7.34064 17.933
892 2 -0.446921 9.54951 0.996218 26.3817
893 2 -0.453399 9.46437 32.6682 24.2942
894 2 -0.495329 9.47966 3.16978 28.4415
895 2 -0.463829 11.6581 1.04715 28.5316
896 2 -0.468656 11.623 3.19647 26.3404
897 2 -0.435009 9.53191 5.2433 30.5638
898 2 -0.471101 9.51122 7.42382 32.7192
899 2 -0.474505 11.545 7.34616 30.5243
900 2 -0.49573 13.7206 1.00977 30.5588
901 2 -0.442779 11.6364 32.7525 30.5295
902 2 -0.470624 13.6816 32.6901 28.5157
903 2 -0.467829 15.7645 1.05174 32.6904
904 2 -0.477452 15.7706 3.14378 30.5475
905 2 -0.493893 13.6627 5.2923 26.3452
906 2 -0.717739 13.7171 7.34295 28.5
907 2 -0.477687 15.8528 5.30828 28.4888
908 2 -0.495068 15.7713 7.39732 26.405
909 2 -0.456399 9.51584 9.5331 1.08214
910 2 -0.440647 9.48376 11.5522 3.12259
911 2 -0.462287 11.5446 9.50762 3.2141
912 2 -0.456216 11.6476 11.5845 1.06334
913 2 -0.510804 9.52594 13.7188 5.29602
914 2 -0.473078 11.646 13.7232 7.42156
915 2 -0.474545 11.5549 15.8428 5.27002
916 2 -0.490797 9.48165 15.8265 7.40402
917 2 -0.486323 13.7227 9.44092 5.23634
918 2 -0.509709 13.7109 11.5574 7.42007
919 2 -0.490191 15.846 11.6069 5.31929
920 2 -0.458912 15.8346 9.45993 7.41946
921 2 -0.518298 13.7492 13.7151 1.0082
922 2 -0.471602 11.6018 13.7109 32.7229
923 2 -0.522892 13.7184 11.6123 32.702
924 2 -0.416675 13.7532 15.8192 3.21518
925 2 -0.486283 15.7676 13.7356 3.22213
926 2 -0.524797 15.8182 15.8742 1.06108
927 2 -0.468398 9.44575 9.44828 9.50799
928 2 -0.453129 9.55066 11.6129 11.6065
929 2 -0.503197 11.5735 9.52728 11.607
930 2 -0.500702 11.5812 11.6082 9.4797
931 2 -0.466994 9.48787 13.7299 13.6577
932 2 -0.472527 11.5613 13.7287 15.7734
933 2 -0.458839 11.6358 15.8534 13.6894
934 2 -0.500954 9.45629 15.8226 15.7929
935 2 -0.46437 13.7309 9.44926 13.6546
936 2 -0.454245 13.6542 11.6449 15.8441
937 2 -0.466977 15.8749 11.6242 13.6534
938 2 -0.453998 15.8412 9.49106 15.8425
939 2 -0.465607 13.7277 13.6903 9.51692
940 2 -0.520962 13.7171 15.765 11.5647
941 2 -0.476419 15.7692 13.6964 11.5925
942 2 -0.568409 15.8128 15.8432 9.52279
943 2 -0.483932 9.50418 9.54355 17.9058
944 2 -0.477263 9.51192 11.5848 19.9788
945 2 -0.480058 11.5815 9.52323 20.0547
946 2 -0.449783 11.6348 11.6296 17.8893
947 2 -0.46011 9.45912 13.7033 22.097
948 2 -0.451833 11.5424 13.7324 24.226
949 2 -0.509421 11.6348 15.7936 22.1747
950 2 -0.513079 9.44208 15.8743 24.267
951 2 -0.421765 13.6634 9.52607 22.1853
952 2 -0.464177 13.6576 11.5595 24.227
953 2 -0.491169 15.7853 11.6401 22.1529
954 2 -0.458412 15.7912 9.50308 24.2852
955 2 -0.546203 13.6966 13.7154 17.9133
956 2 -0.472422 13.6702 15.7964 20.0581
957 2 -0.494726 15.8311 13.6666 20.0154
958 2 -0.448663 15.8497 15.8657 17.9653
959 2 -0.410995 9.55028 9.4731 26.37
960 2 -0.669426 9.43938 11.5861 28.4509
961 2 -0.537839 11.607 9.49459 28.4552
962 2 -0.46776 11.586 11.6081 26.3149
963 2 -0.455893 9.51525 13.6743 30.6421
964 2 -0.458741 9.43347 15.8156 32.6853
965 2 -0.462264 11.6236 15.8323 30.5366
966 2 -0.510943 13.7217 9.48924 30.5746
967 2 -0.583277 15.7877 9.49631 32.7116
968 2 -0.512377 15.8315 11.5818 30.5911
969 2 -0.48689 13.671 13.7383 26.3128
970 2 -0.51251 13.7078 15.8537 28.5162
971 2 -0.498328 15.827 13.7119 28.4668
972 2 -0.488199 15.7934 15.7931 26.3883
973 2 -0.456434 9.51853 17.9 1.05656
974 2 -0.503224 9.53055 19.9972 3.21352
975 2 -0.439272 11.5783 17.8983 3.18289
976 2 -0.500951 11.5492 19.99 1.02481
977 2 -0.4701 9.47132 22.1614 5.26254
978 2 -0.451129 11.598 22.1158 7.4305
979 2 -0.498388 11.5576 24.2035 5.28182
980 2 -0.496347 9.51124 24.2679 7.34406
981 2 -0.45624 13.7265 17.9809 5.22158
982 2 -0.469151 13.722 20.0041 7.41027
983 2 -0.462835 15.7612 20.047 5.32868
984 2 -0.490351 15.7781 17.9068 7.39724
985 2 -0.503215 13.6691 22.1519 1.0591
986 2 -0.493895 11.6508 22.1026 32.6672
987 2 -0.462847 13.6851 19.9808 32.7269
988 2 -0.457253 13.7241 24.2474 3.2125
989 2 -0.453265 15.7722 22.1012 3.15443
990 2 -0.460938 15.8696 24.3155 1.10641
991 2 -0.473578 9.47658 17.9849 9.50131
992 2 -0.457659 9.53531 20.0712 11.6462
993 2 -0.503109 11.5426 17.928 11.6288
994 2 -0.461837 11.5624 20.076 9.51404
995 2 -0.466899 9.50147 22.1386 13.6842
996 2 -0.487946 11.6534 22.1068 15.7749
997 2 -0.529599 11.6527 24.2783 13.6791
998 2 -0.451112 9.50202 24.2965 15.8269
999 2 -0.454979 13.6763 17.9867 13.7528
1000 2 -0.492161 13.707 20.0874 15.8717
1001 2 -0.480859 15.8528 20.0563 13.6837
1002 2 -0.490277 15.7736 17.9165 15.8639
1003 2 -0.468475 13.7632 22.1654 9.542
1004 2 -0.435084 13.6518 24.311 11.5767
1005 2 -0.565046 15.8684 22.1138 11.5522
1006 2 -0.511571 15.7868 24.2504 9.53087
1007 2 -0.469921 9.4526 17.8884 17.9706
1008 2 -0.506866 9.51462 20.0787 20.0307
1009 2 -0.464544 11.5745 17.9448 20.0385
1010 2 -0.45191 11.6205 20.0582 17.9262
1011 2 -0.497377 9.45343 22.0981 22.0904
1012 2 -0.471092 11.5881 22.117 24.2533
1013 2 -0.465966 11.5553 24.2565 22.1336
1014 2 -0.44278 9.54918 24.2287 24.3025
1015 2 -0.458052 13.7143 17.9731 22.1977
1016 2 -0.482151 13.7282 20.0284 24.2234
1017 2 -0.454247 15.8034 20.0094 22.1908
1018 2 -0.495906 15.7791 17.9763 24.2888
1019 2 -0.487911 13.663 22.0955 17.9665
1020 2 -0.481268 13.6887 24.2647 20.0578
1021 2 -0.470773 15.8717 22.1132 19.9832
1022 2 -0.472888 15.86 24.2313 17.9007
1023 2 -0.489646 9.47015 17.9802 26.3171
1024 2 -0.456984 9.5152 20.0201 28.515
1025 2 -0.476906 11.605 17.8946 28.4724
1026 2 -0.495122 11.6595 20.0972 26.3447
1027 2 -0.420309 9.50484 22.1496 30.5909
1028 2 -0.691568 9.45035 24.3098 32.7294
1029 2 -0.481011 11.6217 24.1974 30.5302
1030 2 -0.489524 13.6657 17.8823 30.5835
1031 2 -0.465735 15.8015 17.9684 32.6602
1032 2 -0.467606 15.8456 20.0727 30.5616
1033 2 -0.465295 13.6828 22.1563 26.3229
1034 2 -0.429893 13.7357 24.2197 28.4444
1035 2 -0.509839 15.7736 22.1086 28.5046
1036 2 -0.441195 15.7944 24.3075 26.4125
1037 2 -0.524478 9.50144 26.3836 1.06767
1038 2 -0.481852 9.52889 28.4758 3.18533
1039 2 -0.4187 11.5593 26.4099 3.17226
1040 2 -0.478814 11.5569 28.4459 1.00335
1041 2 -0.489459 9.5202 30.5724 5.28814
1042 2 -0.482576 11.5776 30.6405 7.37891
1043 2 -0.447655 13.7428 26.3362 5.29553
1044 2 -0.532737 13.7601 28.43 7.3415
1045 2 -0.481542 15.8082 28.435 5.26918
1046 2 -0.574949 15.7808 26.3468 7.42346
1047 2 -0.490799 13.749 30.5765 1.04758
1048 2 -0.459527 11.5483 30.5295 32.6968
1049 2 -0.475499 13.6653 28.4453 32.6902
1050 2 -0.575224 15.8383 32.741 1.09357
1051 2 -0.529984 15.8384 30.5666 3.10564
1052 2 -0.448673 9.44195 26.3121 9.4585
1053 2 -0.473803 9.4884 28.4293 11.5855
1054 2 -0.467167 11.5432 26.3473 11.6387
1055 2 -0.471198 11.6188 28.4571 9.53628
1056 2 -0.515203 9.545 30.5473 13.7635
1057 2 -0.463254 11.6146 30.5359 15.8393
1058 2 -0.521968 13.6718 26.4237 13.7326
1059 2 -0.476894 13.6766 28.4893 15.8442
1060 2 -0.48075 15.8228 28.493 13.7671
1061 2 -0.448183 15.7691 26.3959 15.8417
1062 2 -0.508228 13.749 30.5441 9.48336
1063 2 -0.494457 15.7957 32.6777 9.51642
1064 2 -0.449857 15.8582 30.5682 11.5612
1065 2 -0.462488 9.46024 26.3728 17.9604
1066 2 -0.470153 9.5228 28.4547 20.0863
1067 2 -0.446691 11.5515 26.3565 19.9804
1068 2 -0.496812 11.6532 28.497 17.8962
1069 2 -0.450239 9.52877 30.6083 22.0897
1070 2 -0.469756 11.5473 30.5568 24.2439
1071 2 -0.457006 13.731 26.3456 22.1703
1072 2 -0.493161 13.6637 28.4575 24.2996
1073 2 -0.49775 15.7857 28.4375 22.2043
1074 2 -0.509542 15.8381 26.3369 24.2541
1075 2 -0.483749 13.7252 30.5718 17.8983
1076 2 -0.464377 15.8668 32.7181 17.8847
1077 2 -0.442181 15.8462 30.5987 20.0311
1078 2 -0.437958 9.48602 26.3262 26.3433
1079 2 -0.473667 9.53816 28.4757 28.4335
1080 2 -0.487504 11.5753 26.4146 28.4347
1081 2 -0.454582 11.594 28.5347 26.4203
1082 2 -0.485701 9.49982 30.5619 30.6116
1083 2 -0.475712 13.6931 26.3308 30.6002
1084 2 -0.486679 15.8194 26.3368 32.7335
1085 2 -0.447769 15.8708 28.5141 30.6032
1086 2 -0.476155 13.6632 30.5251 26.4061
1087 2 -0.529422 15.8584 32.6541 26.403
1088 2 -0.51948 15.8697 30.626 28.5328
1089 2 -0.455605 17.8739 1.07476 1.014
1090 2 -0.403268 17.898 32.6579 32.6839
1091 2 -0.461096 17.9192 3.13775 3.21499
1092 2 -0.493328 20.0575 1.04611 3.11695
1093 2 -0.484843 20.0027 3.21126 1.06984
1094 2 -0.472336 17.9641 5.3291 5.30985
1095 2 -0.488767 20.0877 5.26663 7.3643
1096 2 -0.451818 20.0106 7.43029 5.28519
1097 2 -0.463716 17.8953 7.32591 7.32329
1098 2 -0.483023 22.1324 1.00391 5.30413
1099 2 -0.470684 20.0367 32.6596 5.2455
1100 2 -0.440399 22.11 32.7423 3.20399
1101 2 -0.450402 22.1591 3.17128 7.35448
1102 2 -0.476988 24.2415 3.13979 5.23878
1103 2 -0.459173 24.2722 1.0304 7.42489
1104 2 -0.465763 22.0968 5.25698 1.08909
1105 2 -0.446945 20.0697 5.32779 32.6678
1106 2 -0.459621 22.1563 3.15615 32.6437
1107 2 -0.503726 22.1773 7.37895 3.22033
1108 2 -0.48337 24.2743 5.30177 3.22008
1109 2 -0.484532 24.2207 7.34782 1.11456
1110 2 -0.519415 17.9503 1.07005 9.49687
1111 2 -0.576265 17.9558 32.6847 7.39617
1112 2 -0.49564 17.9449 3.17806 11.5991
1113 2 -0.483137 19.9787 1.07576 11.5541
1114 2 -0.502815 19.994 3.18803 9.47744
1115 2 -0.460228 17.8989 5.24682 13.689
1116 2 -0.436475 20.0672 5.29534 15.8103
1117 2 -0.499381 20.0256 7.43831 13.6786
1118 2 -0.458749 17.9058 7.39627 15.8292
1119 2 -0.498696 22.1908 1.08157 13.7602
1120 2 -0.490017 19.9855 32.7332 13.7549
1121 2 -0.436874 22.1777 32.6785 11.5495
1122 2 -0.46675 22.1742 3.20403 15.7843
1123 2 -0.473202 24.2493 3.15112 13.6902
1124 2 -0.465298 24.3031 1.10559 15.8488
1125 2 -0.433458 22.1543 5.26102 9.44386
1126 2 -0.49302 22.1688 7.41902 11.6178
1127 2 -0.477717 24.3156 5.22184 11.5781
1128 2 -0.474056 24.2344 7.36566 9.50408
1129 2 -0.463024 17.8781 1.00038 17.9539
1130 2 -0.464892 17.8798 32.6741 15.7912
1131 2 -0.456321 17.8848 3.19602 20.0851
1132 2 -0.435069 20.0037 1.05718 20.0692
1133 2 -0.492329 20.0094 3.16911 17.9046
1134 2 -0.469074 17.9174 5.29244 22.1594
1135 2 -0.455343 20.0044 5.29383 24.3162
1136 2 -0.467801 20.038 7.33758 22.1322
1137 2 -0.497861 17.9577 7.36298 24.2764
1138 2 -0.464334 22.0904 1.02612 22.1704
1139 2 -0.461968 20.0488 32.7306 22.1548
1140 2 -0.466301 22.2009 32.6665 19.978
1141 2 -0.445485 22.1506 3.19881 24.2649
1142 2 -0.455221 24.3098 3.12088 22.1225
1143 2 -0.470915 24.3126 1.0886 24.3056
1144 2 -0.468204 22.1784 5.24077 17.9415
1145 2 -0.50233 22.0921 7.32407 20.0004
1146 2 -0.514374 24.2842 5.27442 20.036
1147 2 -0.514907 24.205 7.39981 17.8687
1148 2 -0.453855 17.9374 1.04773 26.3171
1149 2 -0.495861 17.965 32.6511 24.2975
1150 2 -0.443682 17.9514 3.12556 28.5231
1151 2 -0.482709 20.0186 1.06901 28.5313
1152 2 -0.518951 20.0164 3.12799 26.3467
1153 2 -0.468088 17.9567 5.32199 30.5885
1154 2 -0.498715 17.9775 7.35431 32.7206
1155 2 -0.475315 19.9988 7.43674 30.5614
1156 2 -0.494337 22.0971 1.10229 30.6108
1157 2 -0.470781 20.0124 32.7018 30.5782
1158 2 -0.500003 22.2062 32.6702 28.4712
1159 2 -0.492932 24.2301 1.03911 32.7338
1160 2 -0.46746 24.3035 3.20092 30.5629
1161 2 -0.492448 22.181 5.30634 26.3347
1162 2 -0.472585 22.1311 7.39811 28.4905
1163 2 -0.44997 24.2007 5.24767 28.508
1164 2 -0.480135 24.2935 7.43818 26.3456
1165 2 -0.482186 17.9011 9.4923 1.02296
1166 2 -0.512331 17.9026 11.561 3.14446
1167 2 -0.488623 20.0172 9.46133 3.17453
1168 2 -0.449413 20.0759 11.5525 1.00337
1169 2 -0.488864 17.8868 13.6989 5.2296
1170 2 -0.467145 20.0673 13.747 7.40846
1171 2 -0.478261 19.9838 15.8041 5.21492
1172 2 -0.42854 17.9139 15.8447 7.43875
1173 2 -0.498956 22.1945 9.46993 5.32254
1174 2 -0.471524 22.1782 11.5795 7.37402
1175 2 -0.5879 24.2091 11.5789 5.23076
1176 2 -0.522368 24.2324 9.54122 7.39084
1177 2 -0.485103 22.1424 13.653 0.998492
1178 2 -0.465303 19.9907 13.7289 32.7205
1179 2 -0.481478 22.1995 11.5469 32.7412
1180 2 -0.488184 22.1683 15.8491 3.15027
1181 2 -0.456745 24.2124 13.7265 3.12884
1182 2 -0.465709 24.308 15.7842 1.07589
1183 2 -0.483311 17.8863 9.52964 9.43988
1184 2 -0.481248 17.9314 11.581 11.6236
1185 2 -0.47193 19.9988 9.43355 11.6492
1186 2 -0.475367 20.0196 11.6124 9.45906
1187 2 -0.475421 17.8961 13.6562 13.676
1188 2 -0.452305 20.0726 13.691 15.8329
1189 2 -0.464738 20.0063 15.8707 13.6726
1190 2 -0.465938 17.8956 15.8249 15.8413
1191 2 -0.450676 22.089 9.53401 13.6585
1192 2 -0.471875 22.1293 11.5633 15.7708
1193 2 -0.462369 24.23 11.5628 13.6583
1194 2 -0.52168 24.2243 9.5473 15.8595
1195 2 -0.480789 22.2061 13.7658 9.5115
1196 2 -0.504187 22.1549 15.7866 11.6124
1197 2 -0.502598 24.2225 13.7447 11.6235
1198 2 -0.470372 24.2855 15.7798 9.53232
1199 2 -0.45768 17.8703 9.50324 17.9349
1200 2 -0.469425 17.9792 11.6065 20.0245
1201 2 -0.462871 20.0419 9.46536 20.0268
1202 2 -0.491489 20.0448 11.6079 17.9415
1203 2 -0.44835 17.9846 13.6968 22.1303
1204 2 -0.458042 20.0861 13.6764 24.2936
1205 2 -0.468485 20.0949 15.875 22.0888
1206 2 -0.465878 17.9737 15.7673 24.2647
1207 2 -0.525346 22.1309 9.43301 22.1121
1208 2 -0.493141 22.1663 11.5465 24.1976
1209 2 -0.316477 24.2996 11.6564 22.1078
1210 2 -0.571073 24.2831 9.52374 24.2475
1211 2 -0.47501 22.1227 13.746 17.9578
1212 2 -0.495645 22.1673 15.8656 20.0712
1213 2 -0.484223 24.2915 13.6614 19.9824
1214 2 -0.460989 24.2559 15.7617 17.9486
1215 2 -0.484965 17.9384 9.52128 26.3115
1216 2 -0.47512 17.9655 11.6479 28.4874
1217 2 -0.502986 20.0887 9.46064 28.4959
1218 2 -0.476666 19.9867 11.6558 26.3976
1219 2 -0.439235 17.96 13.68 30.5416
1220 2 -0.491293 17.9219 15.7832 32.7459
1221 2 -0.452745 20.0773 15.8346 30.5336
1222 2 -0.511709 22.1558 9.49018 30.5769
1223 2 -0.450066 24.2142 9.49386 32.6415
1224 2 -0.467822 24.1983 11.6456 30.5395
1225 2 -0.482263 22.102 13.7145 26.3331
1226 2 -0.456886 22.1734 15.7993 28.4836
1227 2 -0.493997 24.3132 13.7446 28.5244
1228 2 -0.467597 24.2607 15.8771 26.3458
1229 2 -0.50557 17.8773 17.9024 1.05806
1230 2 -0.465044 17.9665 20.0489 3.2149
1231 2 -0.492114 20.089 17.8936 3.13878
1232 2 -0.529193 20.0731 20.0485 1.06037
1233 2 -0.455468 17.894 22.2018 5.3306
1234 2 -0.448237 20.0337 22.1448 7.39876
1235 2 -0.495955 20.0302 24.2932 5.30332
1236 2 -0.480815 17.8984 24.2465 7.38696
1237 2 -0.435012 22.0886 17.8691 5.25843
1238 2 -0.540114 22.0995 20.0322 7.33349
1239 2 -0.556226 24.1996 20.0026 5.29893
1240 2 -0.494644 24.2539 17.9685 7.35953
1241 2 -0.452218 22.1627 22.1579 1.06288
1242 2 -0.502849 20.0428 22.1058 32.6697
1243 2 -0.480957 22.1696 20.0095 32.6357
1244 2 -0.466314 22.1646 24.2957 3.21103
1245 2 -0.461243 24.2351 22.1591 3.21933
1246 2 -0.488374 24.2469 24.221 1.08539
1247 2 -0.505838 17.9529 17.9492 9.45302
1248 2 -0.468151 17.8733 20.034 11.6112
1249 2 -0.450417 20.0051 17.9315 11.62
1250 2 -0.436361 20.0278 20.0746 9.53848
1251 2 -0.53661 17.8954 22.1057 13.7003
1252 2 -0.433972 20.0331 22.1799 15.8576
1253 2 -0.465231 20.0635 24.2589 13.7611
1254 2 -0.471245 17.9862 24.2162 15.8513
1255 2 -0.480567 22.0892 17.9836 13.7289
1256 2 -0.486617 22.2048 19.9868 15.8059
1257 2 -0.652495 24.2328 20.0756 13.6658
1258 2 -0.474328 24.3093 17.8892 15.8338
1259 2 -0.478805 22.1045 22.1799 9.47851
1260 2 -0.479185 22.1247 24.2376 11.586
1261 2 -0.473239 24.2251 22.1792 11.6004
1262 2 -0.493587 24.2964 24.2918 9.4742
1263 2 -0.487812 17.8878 17.9234 17.8912
1264 2 -0.459451 17.9106 20.0411 20.0096
1265 2 -0.472781 20.0078 17.8794 19.988
1266 2 -0.461106 20.072 20.0251 17.9682
1267 2 -0.480648 17.9253 22.1142 22.1939
1268 2 -0.403513 20.0257 22.1453 24.2713
1269 2 -0.505961 20.0141 24.2036 22.1871
1270 2 -0.502837 17.9347 24.2638 24.2757
1271 2 -0.462185 22.0938 17.9011 22.1055
1272 2 -0.446523 22.1249 20.0613 24.2849
1273 2 -0.478715 24.2811 20.0676 22.1515
1274 2 -0.473485 24.2276 17.8882 24.2217
1275 2 -0.477766 22.1125 22.1693 17.9396
1276 2 -0.428927 22.1509 24.2391 20.092
1277 2 -0.487258 24.3089 22.1478 20.0191
1278 2 -0.498816 24.3008 24.2197 17.9581
1279 2 -0.479199 17.911 17.8917 26.3557
1280 2 -0.540856 17.9239 20.0799 28.4487
1281 2 -0.47003 20.085 17.8714 28.481
1282 2 -0.539901 20.0879 20.0893 26.3092
1283 2 -0.458738 17.9131 22.1954 30.6413
1284 2 -0.464607 17.9259 24.2851 32.6655
1285 2 -0.489352 20.014 24.2073 30.6236
1286 2 -0.477848 22.1517 17.9544 30.6367
1287 2 -0.466454 24.2344 17.9796 32.6687
1288 2 -0.491131 24.202 20.0382 30.5674
1289 2 -0.481042 22.1577 22.0984 26.3464
1290 2 -0.474908 22.1846 24.2472 28.5236
1291 2 -0.486565 24.2444 22.123 28.4318
1292 2 -0.484056 24.212 24.2235 26.3996
1293 2 -0.48222 17.8904 26.3352 1.08399
1294 2 -0.428483 17.8687 28.5167 3.20826
1295 2 -0.460965 20.0091 26.3728 3.21319
1296 2 -0.480322 20.0697 28.5335 1.02862
1297 2 -0.51744 17.9465 30.6389 5.25437
1298 2 -0.460883 20.0695 30.5291 7.35408
1299 2 -0.498084 22.1968 26.3778 5.27298
1300 2 -0.451587 22.1414 28.5324 7.32241
1301 2 -0.469 24.2806 28.4611 5.22535
1302 2 -0.529495 24.3003 26.3667 7.37748
1303 2 -0.476132 22.1332 30.5607 1.03614
1304 2 -0.45266 19.9812 30.6293 32.6658
1305 2 -0.477932 22.1544 28.4968 32.7422
1306 2 -0.458171 24.2708 32.7182 1.06579
1307 2 -0.43237 24.2318 30.568 3.2109
1308 2 -0.469322 17.9624 26.3409 9.49879
1309 2 -0.492314 17.9361 28.4706 11.6066
1310 2 -0.467524 19.9806 26.3488 11.6139
1311 2 -0.516187 20.0517 28.4573 9.48542
1312 2 -0.452623 17.985 30.575 13.6967
1313 2 -0.494509 20.055 30.5961 15.8695
1314 2 -0.476844 22.1173 26.317 13.6928
1315 2 -0.50009 22.1835 28.4164 15.8735
1316 2 -0.462676 24.2621 28.469 13.736
1317 2 -0.475982 24.2669 26.3749 15.7859
1318 2 -0.54346 22.1504 30.6129 9.52477
1319 2 -0.468868 24.2798 32.7203 9.47701
1320 2 -0.553377 24.2536 30.61 11.5474
1321 2 -0.471851 17.9741 26.3893 17.9722
1322 2 -0.466949 17.8839 28.525 20.0102
1323 2 -0.46329 20.014 26.3739 20.0476
1324 2 -0.448969 20.0189 28.4947 17.9287
1325 2 -0.491928 17.9104 30.6371 22.1504
1326 2 -0.493267 20.069 30.6058 24.2777
1327 2 -0.439873 22.1311 26.3399 22.1725
1328 2 -0.538453 22.1988 28.5053 24.225
1329 2 -0.604667 24.2769 28.5002 22.0981
1330 2 -0.522371 24.2269 26.3538 24.2587
1331 2 -0.444198 22.119 30.6147 17.9041
1332 2 -0.472402 24.2716 32.6861 17.931
1333 2 -0.466693 24.2612 30.5543 20.0926
1334 2 -0.495867 17.9031 26.3503 26.3575
1335 2 -0.467143 17.9253 28.5014 28.4526
1336 2 -0.467693 20.0475 26.3509 28.4579
1337 2 -0.517846 20.0322 28.4885 26.3726
1338 2 -0.462191 17.9392 30.5391 30.6098
1339 2 -0.463138 22.1322 26.3603 30.5378
1340 2 -0.473117 24.3053 26.3814 32.6789
1341 2 -0.465441 24.2577 28.5278 30.5316
1342 2 -0.487185 22.1906 30.6005 26.3891
1343 2 -0.49459 24.2168 32.6668 26.3234
1344 2 -0.46931 24.2703 30.6196 28.5324
1345 2 -0.459031 26.3617 1.09488 1.0279
1346 2 -0.47393 26.3435 32.654 32.64
1347 2 -0.506349 26.4209 3.12631 3.16019
1348 2 -0.473309 28.4759 1.03079 3.10789
1349 2 -0.468168 28.5063 3.16438 1.05322
1350 2 -0.58105 26.4225 5.30582 5.26375
1351 2 -0.482188 28.415 5.24636 7.39798
1352 2 -0.477038 28.4327 7.41859 5.25442
1353 2 -0.482839 26.3929 7.36483 7.38473
1354 2 -0.485903 30.6366 1.04256 5.2319
1355 2 -0.460735 28.4605 32.6767 5.27591
1356 2 -0.479837 30.5777 32.6446 3.18477
1357 2 -0.455535 30.6135 3.12345 7.41739
1358 2 -0.442118 30.6175 5.21956 1.11268
1359 2 -0.487429 28.4543 5.32076 32.7503
1360 2 -0.447863 30.5837 3.10637 32.7406
1361 2 -0.452645 30.5921 7.33072 3.16729
1362 2 -0.471646 26.4188 1.08343 9.53319
1363 2 -0.458402 26.3961 32.7155 7.40604
1364 2 -0.44328 26.319 3.13485 11.5702
1365 2 -0.476171 28.5078 1.06725 11.6519
1366 2 -0.47296 28.5194 3.12183 9.45723
1367 2 -0.491919 26.3582 5.26192 13.7318
1368 2 -0.467933 28.4453 5.32819 15.8698
1369 2 -0.47593 28.4382 7.39962 13.6769
1370 2 -0.479021 26.3571 7.36104 15.7626
1371 2 -0.450795 30.6441 1.02854 13.6583
1372 2 -0.463684 28.4293 32.6514 13.6542
1373 2 -0.461287 30.5803 32.7262 11.5778
1374 2 -0.497193 30.6333 3.14105 15.8213
1375 2 -0.469571 30.6294 5.30326 9.48393
1376 2 -0.512909 30.5573 7.38135 11.6181
1377 2 -0.378009 26.4131 1.09764 17.9643
1378 2 -0.494607 26.3642 32.6644 15.8095
1379 2 -0.528557 26.3718 3.16438 20.016
1380 2 -0.519112 28.5062 1.10622 20.0174
1381 2 -0.566165 28.5289 3.12344 17.9554
1382 2 -0.487941 26.3298 5.27653 22.1788
1383 2 -0.460911 28.4306 5.30316 24.2178
1384 2 -0.479882 28.429 7.3726 22.1438
1385 2 -0.483361 26.367 7.3451 24.2578
1386 2 -0.483774 30.6409 1.01678 22.1566
1387 2 -0.474562 28.4629 32.6583 22.1644
1388 2 -0.481675 30.604 32.7397 20.0652
1389 2 -0.47247 30.5732 3.12605 24.2182
1390 2 -0.460609 30.5938 5.27528 17.9804
1391 2 -0.48071 30.6434 7.33895 20.0495
1392 2 -0.46281 26.4053 1.10088 26.4244
1393 2 -0.440074 26.3215 32.6823 24.2004
1394 2 -0.502051 26.4051 3.17067 28.4478
1395 2 -0.46275 28.5052 1.0978 28.4966
1396 2 -0.45074 28.4232 3.17687 26.3059
1397 2 -0.448294 26.3204 5.27478 30.6384
1398 2 -0.45882 26.409 7.37842 32.7415
1399 2 -0.467688 28.4998 7.42805 30.6183
1400 2 -0.465911 30.5315 1.02237 30.5513
1401 2 -0.474026 28.4412 32.6925 30.6358
1402 2 -0.473185 30.5898 32.7011 28.4821
1403 2 -0.464362 30.5684 5.32673 26.3648
1404 2 -0.468005 30.5943 7.43192 28.5019
1405 2 -0.483825 26.4234 9.47871 1.01247
1406 2 -0.449509 26.319 11.5869 3.11254
1407 2 -0.53072 28.5317 9.45435 3.16184
1408 2 -0.477538 28.4749 11.6066 1.03962
1409 2 -0.450845 26.3766 13.7648 5.22429
1410 2 -0.512208 28.4711 13.6664 7.39856
1411 2 -0.502318 28.4436 15.8249 5.33037
1412 2 -0.458197 26.3216 15.7974 7.39608
1413 2 -0.459067 30.5965 9.49574 5.23682
1414 2 -0.450723 30.5705 11.6347 7.34394
1415 2 -0.464773 30.5957 13.6727 1.10575
1416 2 -0.514369 28.5273 13.7394 32.712
1417 2 -0.485971 30.6179 11.5413 32.647
1418 2 -0.480087 30.6263 15.8723 3.12989
1419 2 -0.500531 26.4193 9.54568 9.54909
1420 2 -0.454489 26.3597 11.6525 11.6535
1421 2 -0.53052 28.4686 9.52902 11.6184
1422 2 -0.437037 28.4591 11.6419 9.5224
1423 2 -0.472469 26.3309 13.6783 13.6921
1424 2 -0.577135 28.5122 13.7539 15.8239
1425 2 -0.470795 28.5199 15.7851 13.6545
1426 2 -0.459743 26.346 15.8509 15.814
1427 2 -0.495524 30.5443 9.45558 13.745
1428 2 -0.605816 30.5927 11.5519 15.8015
1429 2 -0.436849 30.5366 13.7542 9.51685
1430 2 -0.450068 30.6054 15.861 11.5917
1431 2 -0.485145 26.4193 9.51611 17.9105
1432 2 -0.500634 26.4235 11.585 20.0271
1433 2 -0.478129 28.4179 9.53377 20.0499
1434 2 -0.449027 28.4482 11.6103 17.9409
1435 2 -0.489512 26.3652 13.6701 22.1235
1436 2 -0.456683 28.4568 13.6536 24.2563
1437 2 -0.471204 28.4232 15.7902 22.1789
1438 2 -0.466622 26.3487 15.8552 24.3116
1439 2 -0.468108 30.5935 9.49634 22.1524
1440 2 -0.481051 30.6026 11.552 24.2309
1441 2 -0.506305 30.5904 13.7631 17.9261
1442 2 -0.524394 30.5321 15.8273 20.0637
1443 2 -0.496479 26.3897 9.44429 26.4246
1444 2 -0.479129 26.4176 11.5937 28.4657
1445 2 -0.474729 28.4227 9.50864 28.493
1446 2 -0.471683 28.4377 11.6544 26.3166
1447 2 -0.480082 26.4107 13.7288 30.6045
1448 2 -0.439578 26.3579 15.815 32.6526
1449 2 -0.431615 28.438 15.865 30.5425
1450 2 -0.450908 30.6339 9.44237 30.6304
1451 2 -0.47168 30.5652 13.6961 26.3336
1452 2 -0.509348 30.5941 15.8664 28.4319
1453 2 -0.470444 26.3953 17.9712 1.09762
1454 2 -0.444728 26.4104 20.058 3.21894
1455 2 -0.474978 28.4238 17.8886 3.14534
1456 2 -0.467441 28.4576 20.0623 1.00385
1457 2 -0.443722 26.4034 22.1267 5.21811
1458 2 -0.492851 28.4257 22.1101 7.43013
1459 2 -0.46007 28.45 24.1989 5.23109
1460 2 -0.520925 26.4015 24.2698 7.40307
1461 2 -0.502497 30.6236 17.9068 5.22548
1462 2 -0.505918 30.6282 19.9902 7.39577
1463 2 -0.44531 30.5566 22.1652 1.00942
1464 2 -0.479406 28.4317 22.1932 32.7112
1465 2 -0.466237 30.6235 19.9998 32.6613
1466 2 -0.472751 30.5919 24.2333 3.17031
1467 2 -0.481522 26.3058 17.9251 9.52961
1468 2 -0.50288 26.3274 20.0449 11.6007
1469 2 -0.461903 28.4762 17.8844 11.5681
1470 2 -0.454984 28.4853 20.0037 9.48771
1471 2 -0.469869 26.307 22.088 13.7264
1472 2 -0.484845 28.4879 22.1534 15.7865
1473 2 -0.467792 28.4569 24.2265 13.759
1474 2 -0.502916 26.3164 24.2206 15.775
1475 2 -0.476587 30.6221 17.8785 13.7553
1476 2 -0.464242 30.545 20.0908 15.8721
1477 2 -0.486607 30.5785 22.1265 9.50085
1478 2 -0.465816 30.6333 24.2384 11.6373
1479 2 -0.463624 26.412 17.8892 17.8767
1480 2 -0.518991 26.3619 20.0556 20.018
1481 2 -0.464394 28.47 17.9306 20.0652
1482 2 -0.505254 28.5029 20.0429 17.9016
1483 2 -0.440996 26.4249 22.2035 22.1928
1484 2 -0.485933 28.5205 22.1701 24.29
1485 2 -0.534 28.449 24.197 22.1409
1486 2 -0.562998 26.3924 24.2939 24.2913
1487 2 -0.44688 30.6422 17.8832 22.1302
1488 2 -0.474114 30.5833 19.978 24.207
1489 2 -0.497463 30.5498 22.1332 17.9352
1490 2 -0.460835 30.628 24.2958 20.0066
1491 2 -0.505241 26.3674 17.92 26.3226
1492 2 -0.457871 26.3404 20.0954 28.4703
1493 2 -0.520903 28.534 17.8893 28.4358
1494 2 -0.469423 28.5276 20.0193 26.3551
1495 2 -0.434762 26.3724 22.1641 30.5751
1496 2 -0.474105 26.3346 24.2557 32.6939
1497 2 -0.481417 28.5236 24.2908 30.5312
1498 2 -0.501851 30.5552 17.9475 30.5443
1499 2 -0.480617 30.5425 22.1625 26.3942
1500 2 -0.445394 30.6135 24.2832 28.4539
1501 2 -0.439432 26.3315 26.3308 1.03326
1502 2 -0.56061 26.3082 28.436 3.22306
1503 2 -0.478966 28.4519 26.3768 3.21573
1504 2 -0.476276 28.4407 28.4974 1.01104
1505 2 -0.541465 26.3964 30.5796 5.31852
1506 2 -0.485232 28.4944 30.6381 7.35296
1507 2 -0.519417 30.5555 26.3636 5.28065
1508 2 -0.495079 30.608 28.5299 7.42718
1509 2 -0.472317 30.5409 30.5855 1.05983
1510 2 -0.487846 28.5212 30.6298 32.7038
1511 2 -0.498589 30.6133 28.4858 32.7218
1512 2 -0.467707 26.3882 26.3803 9.54004
1513 2 -0.497312 26.3229 28.4813 11.5642
1514 2 -0.452031 28.5291 26.3956 11.5451
1515 2 -0.582708 28.4445 28.4445 9.43278
1516 2 -0.475375 26.4041 30.6116 13.6862
1517 2 -0.489669 28.4206 30.5559 15.8402
1518 2 -0.469478 30.6093 26.345 13.6621
1519 2 -0.460869 30.5243 28.4462 15.8742
1520 2 -0.482157 30.6014 30.5981 9.43238
1521 2 -0.463915 26.4087 26.3073 17.879
1522 2 -0.514815 26.3897 28.4405 19.9807
1523 2 -0.510191 28.4895 26.3528 20.035
1524 2 -0.45663 28.5251 28.4486 17.9081
1525 2 -0.486357 26.3066 30.5517 22.1196
1526 2 -0.470456 28.4663 30.6408 24.2049
1527 2 -0.456303 30.5883 26.3093 22.1097
1528 2 -0.474856 30.6226 28.4437 24.2029
1529 2 -0.462384 30.608 30.6186 17.957
1530 2 -0.458252 26.3184 26.3388 26.3095
1531 2 -0.514125 26.3752 28.5314 28.5295
1532 2 -0.528179 28.4937 26.3106 28.5306
1533 2 -0.454731 28.4741 28.4969 26.3924
1534 2 -0.47461 26.3569 30.6068 30.6349
1535 2 -0.527286 30.5484 26.3465 30.5701
1536 2 -0.436998 30.5591 30.611 26.3805
1537 2 -0.662658 17.0256 10.4758 31.9041
1538 2 -0.630135 2.95641 9.6653 0.143403
1539 2 -0.577471 16.2244 15.6213 2.99193
1540 2 -0.572654 7.53048 32.3286 12.2051
1541 2 -0.573728 29.8909 28.7033 29.2102
1542 2 -0.599501 26.0537 10.6544 5.27628
1543 2 -0.554725 29.3488 9.83243 10.565
1544 2 -0.565307 6.10299 24.6333 8.09166
1545 2 -0.632008 28.7497 26.3574 9.48617
1546 2 -0.568187 22.5739 20.339 12.3855
1547 2 -0.554144 17.3606 17.1648 28.1959
1548 2 -0.652353 0.317103 0.668577 5.67838
1549 2 -0.510073 3.72304 19.7486 28.034
1550 2 -0.609255 9.41432 20.109 24.5844
1551 2 -0.541867 27.4766 25.1992 23.5023
1552 2 -0.592086 11.3655 22.4616 2.93355
1553 2 -0.586111 4.94841 4.96368 15.6067
1554 2 -0.543818 26.5226 23.8613 26.3244
1555 2 -0.604074 26.7979 19.928 5.32418
1556 2 -0.560132 27.1824 29.5361 3.44676
1557 2 -0.540116 1.71072 3.94904 9.33267
1558 2 -0.573654 23.2571 10.4005 21.5111
1559 2 -0.794976 26.8072 2.60082 17.8629
1560 2 -0.587663 11.8962 18.1613 23.0556
1561 2 -0.55545 28.1331 4.92663 3.38377
1562 2 -0.568766 32.852 24.1889 5.63243
1563 2 -0.560834 29.1154 16.3818 18.3287
1564 2 -0.538714 14.4106 32.382 4.386
1565 2 -0.567322 16.1827 27.6845 25.7388
1566 2 -0.577873 15.1264 17.5265 11.3262
1567 2 -0.57653 20.3343 18.0133 33.183
1568 2 -0.560359 17.3013 22.9636 10.0053
1569 2 -0.566114 14.7985 25.3458 6.2037
1570 2 -0.598217 6.93746 12.3342 6.758
1571 2 -0.643017 23.5819 28.6841 11.4693
1572 2 -0.561155 3.42235 3.12707 14.6253
1573 2 -0.587236 17.9105 12.2144 33.6335
1574 2 -0.574074 15.6851 14.2576 6.65087
1575 2 -0.543933 13.6195 5.39888 15.0286
1576 2 -0.551702 0.15791 23.1905 33.0347
1577 2 -0.580238 27.1113 22.7406 20.8557
1578 2 -0.580652 10.7644 25.1434 2.61268
1579 2 -0.565948 8.07756 30.561 7.25615
1580 2 -0.713299 30.957 12.439 14.2859
1581 2 -0.582556 21.2792 7.95612 24.7575
1582 2 -0.567139 23.5908 21.5111 5.60445
1583 2 -0.582718 15.4397 14.0714 30.7583
1584 2 -0.579538 0.516771 2.43286 4.71656
1585 2 -0.622795 16.2689 31.4584 9.99116
1586 2 -0.683771 24.8775 10.3956 22.4965
1587 2 -0.572912 18.378 20.9079 16.149
1588 2 -0.568436 22.3894 7.12166 16.0035
1589 2 -0.561784 24.4666 23.8368 5.79963
1590 2 -0.603174 5.53174 25.7935 24.2018
1591 2 -0.582425 13.8739 24.8538 13.5115
1592 2 -0.575224 31.0066 14.7483 8.03558
1593 2 -0.561826 0.113229 24.8556 31.1601
1594 2 -0.578136 24.2644 26.7926 21.4963
1595 2 -0.549393 8.67966 25.0656 31.5785
1596 2 -0.627481 17.8116 29.9237 26.6718
1597 2 -0.561496 8.77139 10.5044 27.3008
1598 2 -0.584463 1.52824 31.8841 30.0598
1599 2 -0.541638 28.9908 6.80369 2.71848
1600 2 -0.593356 3.3255 11.7593 16.2072
1601 2 -0.599231 5.42032 9.31932 32.4769
1602 2 -0.611822 8.01302 5.6485 31.065
1603 2 -0.568749 1.07557 31.3895 1.6134
1604 2 -0.561629 17.1557 31.5854 33.5538
1605 2 -0.596374 28.92 12.3393 14.6503
1606 2 -0.571604 10.4676 1.82193 5.29506
1607 2 -0.576429 13.9876 8.28258 8.69304
1608 2 -0.575412 20.5699 25.8544 25.1663
1609 2 -0.589787 33.6333 18.4146 30.911
1610 2 -0.565699 24.5945 22.4466 14.8833
1611 2 -0.579296 20.978 6.66235 9.54216
1612 2 -0.582137 18.642 2.50155 13.9053
1613 2 -0.58222 33.6383 18.6668 26.037
1614 2 -0.536629 18.8425 21.8975 25.2068
1615 2 -0.559008 7.64543 33.6793 14.1039
1616 2 -0.577659 2.52536 26.1676 7.60999
1617 2 -0.591424 11.4394 12.4098 30.0875
1618 2 -0.552916 3.55852 30.3827 27.5772
1619 2 -0.56715 8.87503 22.7239 24.6505
1620 2 -0.574245 12.7652 12.5491 19.7648
1621 2 -0.558863 27.1454 16.4929 29.1132
1622 2 -0.576219 24.6938 29.8068 24.6005
1623 2 -0.60704 25.1588 8.48757 3.85205
1624 2 -0.575087 23.1685 31.0093 12.3869
1625 2 -0.556268 15.2376 7.29342 29.0309
1626 2 -0.687951 2.17954 27.2954 20.4132
1627 2 -0.789575 16.1038 32.8828 7.67359
1628 2 -0.633183 0.822697 11.7315 18.6395
1629 2 -0.531788 33.3101 19.3086 8.22269
1630 2 -0.524126 21.0712 2.05475 29.1604
1631 2 -0.567938 31.9454 14.0604 29.7402
1632 2 -0.569853 12.2301 7.51358 24.5042
1633 3 0.385217 17.4225 10.2595 31.0572
1634 3 0.463535 16.7532 9.62896 32.2651
1635 3 0.441552 2.32061 8.99284 0.398655
1636 3 0.42518 2.64922 10.464 0.578469
1637 3 0.380925 16.3986 15.1741 2.16051
1638 3 0.386699 17.0944 15.8349 3.33686
1639 3 0.463326 7.46588 31.5907 11.5945
1640 3 0.380944 8.36648 32.1939 12.6574
1641 3 0.375732 30.1835 28.7531 30.1231
1642 3 0.400024 29.3771 27.8935 29.1662
1643 3 0.426218 25.1056 10.6284 5.12779
1644 3 0.383016 26.1523 10.5282 6.22282
1645 3 0.373924 30.1847 9.48688 10.8866
1646 3 0.414858 28.7427 9.09037 10.6254
1647 3 0.348543 5.52136 25.3729 7.90144
1648 3 0.362643 5.70527 24.2043 8.85285
1649 3 0.373543 29.2214 25.7827 8.87898
1650 3 0.431554 29.0754 27.238 9.28582
1651 3 0.422061 22.9824 20.7816 13.133
1652 3 0.404037 23.0237 19.4926 12.3322
1653 3 0.373642 17.2139 18.0691 28.4826
1654 3 0.406174 16.661 16.9977 27.5601
1655 3 0.438423 33.5735 0.859983 6.48043
1656 3 0.410547 33.421 0.764375 4.97301
1657 3 0.32439 2.96207 19.3199 27.6356
1658 3 0.392998 4.48016 19.3097 27.6393
1659 3 0.338296 9.33682 19.6041 23.7716
1660 3 0.362465 8.59808 19.9304 25.0571
1661 3 0.363117 26.7365 25.7771 23.7017
1662 3 0.360593 27.2233 24.756 22.6893
1663 3 0.36849 10.8549 21.7999 2.46131
1664 3 0.358455 11.5774 23.1212 2.26893
1665 3 0.39176 5.62673 4.8924 16.2823
1666 3 0.450175 4.19488 5.34629 16.0621
1667 3 0.433546 26.8278 23.3404 25.578
1668 3 0.38041 25.6809 24.2226 26.0372
1669 3 0.371433 26.2265 19.4176 5.90262
1670 3 0.383312 27.6179 19.4296 5.29558
1671 3 0.442845 27.2748 28.5853 3.35195
1672 3 0.385739 27.3185 29.6987 4.38306
1673 3 0.372564 1.98455 3.03213 9.4094
1674 3 0.377481 1.79199 4.14665 8.39675
1675 3 0.393104 22.9905 9.8696 20.757
1676 3 0.368976 23.7362 9.79078 22.077
1677 3 0.429859 25.9526 2.92248 17.5667
1678 3 0.412087 27.3106 3.39588 18.0527
1679 3 0.354412 11.1319 18.7307 23.1707
1680 3 0.374016 11.9055 17.6099 23.8414
1681 3 0.371197 27.4301 5.10914 2.75598
1682 3 0.40821 27.6762 4.69971 4.197
1683 3 0.393889 32.7707 25.1305 5.46386
1684 3 0.365925 32.1488 23.9949 6.25651
1685 3 0.391276 28.8504 15.5929 18.8072
1686 3 0.387117 30.0488 16.2505 18.1469
1687 3 0.353965 13.4599 32.4876 4.46782
1688 3 0.356851 14.5516 31.4333 4.42868
1689 3 0.396062 16.9322 28.2792 25.6604
1690 3 0.378804 15.5462 28.0144 25.1003
1691 3 0.410886 14.6651 16.827 10.8577
1692 3 0.385563 16.0569 17.3216 11.2086
1693 3 0.406773 20.1714 18.6499 0.134886
1694 3 0.374516 19.9867 17.1862 33.5247
1695 3 0.426593 17.0117 22.7036 10.8829
1696 3 0.391562 17.5421 23.8885 10.0958
1697 3 0.375107 13.998 25.2123 6.71646
1698 3 0.440193 15.5112 25.2301 6.83629
1699 3 0.390411 7.68117 12.9386 6.70175
1700 3 0.385417 6.31625 12.6556 6.10042
1701 3 0.39141 24.225 28.3607 10.8342
1702 3 0.365006 22.8161 28.9163 10.939
1703 3 0.401173 2.749 3.80373 14.5237
1704 3 0.367471 3.09245 2.3816 14.1183
1705 3 0.3603 17.3881 12.2393 0.690493
1706 3 0.452728 17.5341 11.4924 33.1249
1707 3 0.385748 15.4028 13.9066 7.4986
1708 3 0.388235 15.1691 13.7699 6.00481
1709 3 0.4102 13.6896 4.54098 14.6035
1710 3 0.371721 13.3166 5.20237 15.9181
1711 3 0.393385 0.672003 22.9807 32.2516
1712 3 0.44103 0.697883 23.8229 33.5145
1713 3 0.374723 27.9689 22.3937 21.1123
1714 3 0.353847 26.9618 22.3857 19.9763
1715 3 0.343174 10.3576 24.2816 2.49704
1716 3 0.377252 10.0271 25.7382 2.76852
1717 3 0.3919 8.08763 31.5208 7.23828
1718 3 0.384004 7.45976 30.3142 6.56405
1719 3 0.427748 31.2924 12.5718 15.1756
1720 3 0.39914 30.4476 11.6271 14.3398
1721 3 0.366833 21.7376 8.4704 25.4261
1722 3 0.377679 20.4505 7.7062 25.1728
1723 3 0.409821 23.1583 20.6977 5.8746
1724 3 0.320881 23.8485 21.9313 6.4282
1725 3 0.389959 15.0243 13.6894 29.9817
1726 3 0.366992 14.7338 14.1247 31.4068
1727 3 0.302306 0.812831 3.34232 4.63389
1728 3 0.404734 1.13742 2.03287 5.33008
1729 3 0.37185 15.4932 31.7347 9.49761
1730 3 0.358968 16.6666 30.7727 9.44962
1731 3 0.369777 25.0483 9.53267 22.881
1732 3 0.393854 25.7243 10.6708 22.1378
1733 3 0.381487 17.7219 21.1841 15.5049
1734 3 0.372081 17.8833 20.7993 16.9646
1735 3 0.383185 22.1836 8.05864 16.0397
1736 3 0.383257 23.3465 7.08817 15.9369
1737 3 0.380483 24.009 24.5491 6.25219
1738 3 0.334334 24.614 23.1755 6.4797
1739 3 0.368243 5.74269 24.8571 24.2137
1740 3 0.399026 5.89154 26.1315 25.0252
1741 3 0.31772 13.3588 25.5579 13.1109
1742 3 0.408694 13.3442 24.5629 14.2574
1743 3 0.36667 31.6078 15.1535 7.40633
1744 3 0.372678 30.3333 15.4153 8.18859
1745 3 0.402276 0.333538 25.75 31.4304
1746 3 0.408417 33.1246 24.6086 31.724
1747 3 0.449547 24.7291 27.5427 21.8746
1748 3 0.339146 24.8439 26.0445 21.6578
1749 3 0.518896 9.36801 24.8758 32.2201
1750 3 0.400549 8.49927 26.002 31.6894
1751 3 0.374649 18.1956 30.7236 26.3054
1752 3 0.396876 17.3164 30.2236 27.4375
1753 3 0.433084 8.82358 11.4294 27.0496
1754 3 0.390914 9.31156 10.4392 28.0917
1755 3 0.415839 0.687903 32.0073 30.5073
1756 3 0.469984 1.84074 31.0297 30.3662
1757 3 0.381859 29.2069 7.60583 2.23735
1758 3 0.367692 28.1606 7.00288 3.15736
1759 3 0.435198 2.92888 12.0171 17.0425
1760 3 0.307061 4.00736 12.4169 16.0517
1761 3 0.427837 4.96956 9.2172 33.3184
1762 3 0.32289 5.51456 10.2685 32.3684
1763 3 0.380167 7.96951 6.60386 30.9814
1764 3 0.372264 7.25269 5.41957 31.6045
1765 3 0.382248 1.83849 31.7866 1.18699
1766 3 0.380881 0.815775 32.0265 2.28301
1767 3 0.405906 16.7823 32.2042 0.437606
1768 3 0.375309 17.1137 30.7348 0.248955
1769 3 0.446585 28.7392 12.691 15.525
1770 3 0.491562 29.8617 12.4781 14.5253
1771 3 0.394415 10.0759 1.60853 4.44499
1772 3 0.389276 10.6141 0.970113 5.71285
1773 3 0.367788 13.1177 7.89622 8.56781
1774 3 0.373766 13.8274 9.07052 9.21752
1775 3 0.3783 20.2185 26.5331 25.7472
1776 3 0.375518 20.4419 26.2051 24.2819
1777 3 0.390447 0.686534 18.9429 30.9325
1778 3 0.363693 33.4501 18.2936 29.9765
1779 3 0.375989 24.1315 21.6074 14.8284
1780 3 0.377625 25.3679 22.2598 15.4204
1781 3 0.373341 20.5538 7.47764 9.26473
1782 3 0.3641 20.3835 6.2938 10.1997
1783 3 0.394728 18.4842 1.82975 13.2379
1784 3 0.374563 18.4565 2.06142 14.738
1785 3 0.407353 0.108182 18.616 26.9706
1786 3 0.381419 0.199606 19.534 25.7649
1787 3 0.371428 19.6361 21.4584 25.5212
1788 3 0.369371 18.2386 21.8656 25.9524
1789 3 0.36774 7.99321 32.8243 14.3678
1790 3 0.434953 7.06688 0.188596 14.8254
1791 3 0.355899 2.58342 25.4241 8.21444
1792 3 0.362354 3.1606 26.8028 7.94856
1793 3 0.39634 10.833 11.8044 29.6547
1794 3 0.353748 12.2257 11.8847 30.2535
1795 3 0.387382 4.41629 30.3268 28.0046
1796 3 0.390784 3.76083 30.5383 26.6517
1797 3 0.363783 8.52752 22.0466 24.0656
1798 3 0.361429 8.10928 23.2515 24.889
1799 3 0.390588 12.5079 13.4665 19.8819
1800 3 0.407158 13.5659 12.5896 19.2367
1801 3 0.39682 27.4482 16.7129 28.2292
1802 3 0.381315 26.6826 15.6584 29.0079
1803 3 0.379248 24.2602 29.0252 24.2504
1804 3 0.403099 24.0013 30.2745 25.0732
1805 3 0.375093 24.3433 8.8584 3.50704
1806 3 0.362944 24.9727 8.31799 4.77845
1807 3 0.358108 22.4019 30.4356 12.4554
1808 3 0.472419 23.9198 30.4171 12.4668
1809 3 0.356938 15.5619 6.88069 28.2271
1810 3 0.586432 14.2869 7.34521 28.9077
1811 3 0.325663 2.56983 28.1262 20.1322
1812 3 0.437204 1.77606 27.494 21.2614
1813 3 0.353802 16.7632 32.3356 8.10664
1814 3 0.42758 15.9513 32.4523 6.82914
1815 3 0.386115 0.424048 11.3066 17.8765
1816 3 0.345084 1.60037 12.1727 18.29
1817 3 0.399422 0.198704 18.6508 7.93352
1818 3 0.368309 33.4949 20.0775 7.67835
1819 3 0.393183 20.7324 2.1923 28.2727
1820 3 0.354308 21.9158 1.61736 29.0302
1821 3 0.358614 31.9941 13.3996 30.435
1822 3 0.361216 31.6744 14.8635 30.1909
1823 3 0.387329 12.5078 7.24998 25.3845
1824 3 0.373537 11.2779 7.61503 24.5728
ITEM: TIMESTEP
99
ITEM: NUMBER OF ATOMS
1824
ITEM: BOX BOUNDS pp pp pp
0.0000000000000000e+00 3.3747999999999998e+01
0.0000000000000000e+00 3.3747999999999998e+01
0.0000000000000000e+00 3.3747999999999998e+01
ITEM: ATOMS id type q x y z
1 1 0.930733 33.7487 0.0996566 0.0828521
2 1 0.910695 2.18181 2.17442 2.04155
3 1 0.91569 33.6957 4.18824 4.3261
4 1 0.916326 1.92151 6.46389 6.26249
5 1 1.01832 4.20583 0.0562734 4.20901
6 1 0.928579 6.33463 2.13811 6.28628
7 1 0.888388 4.27609 4.27094 33.7017
8 1 1.00418 6.33258 6.35716 2.12506
9 1 0.935168 0.0854109 33.6871 8.61387
10 1 0.981032 2.02722 2.2316 10.5116
11 1 0.94776 33.7111 4.25171 12.7245
12 1 0.927522 2.07736 6.35209 14.7534
13 1 1.07968 4.13833 0.071701 12.6942
14 1 0.934349 6.2828 2.12038 14.8456
15 1 0.92794 4.43593 4.09635 8.62664
16 1 1.1204 6.41412 6.35193 10.6226
17 1 0.962224 33.7358 33.7584 16.8808
18 1 0.897023 2.09671 2.08076 19.0088
19 1 0.962877 33.769 4.20656 21.1163
20 1 0.96158 2.10921 6.32323 23.2308
21 1 0.969322 4.20889 0.00691135 21.1317
22 1 1.03078 6.34228 2.13921 23.2028
23 1 0.889071 4.21894 4.15611 16.8474
24 1 0.959333 6.39334 6.38155 19.1082
25 1 1.03825 33.7358 0.00499797 25.329
26 1 0.964294 2.12486 2.10725 27.431
27 1 1.02855 33.7409 4.23126 29.5238
28 1 0.951044 2.10578 6.34996 31.6302
29 1 0.942682 4.30935 0.0509137 29.5356
30 1 0.960122 6.39645 2.14418 31.6414
31 1 0.973799 4.22457 4.2076 25.3175
32 1 0.988137 6.35357 6.29877 27.3499
33 1 1.01117 33.67 8.37134 0.0170586
34 1 0.946397 2.12755 10.4935 2.16811
35 1 1.05601 -0.0196268 12.6001 4.23092
36 1 0.982005 2.11059 14.6692 6.27569
37 1 0.826768 4.21873 8.48547 4.28432
38 1 0.951314 6.37553 10.6657 6.36278
39 1 0.910377 4.08656 12.9023 0.146821
40 1 0.906424 6.31415 14.8443 2.18335
41 1 0.963083 33.6738 8.4897 8.46598
42 1 0.991692 2.14018 10.4965 10.5568
43 1 1.01868 0.150538 12.5933 12.6835
44 1 0.922236 2.17839 14.792 14.8114
45 1 0.961349 4.25259 8.44846 12.7045
46 1 0.900257 6.37486 10.5928 14.8059
47 1 0.961772 4.16964 12.6032 8.44865
48 1 0.960894 6.29074 14.7454 10.5373
49 1 0.969112 -0.0311333 8.35039 16.8861
50 1 0.897408 2.06039 10.6424 19.239
51 1 1.03831 -0.0336794 12.6693 21.2612
52 1 0.966723 2.08823 14.8117 23.266
53 1 0.975201 4.22266 8.4423 21.1653
54 1 0.970402 6.36935 10.537 23.1976
55 1 0.937955 4.40764 12.7187 16.9619
56 1 0.961992 6.35871 14.7834 18.9893
57 1 0.961116 33.7435 8.41766 25.3277
58 1 0.958778 2.08065 10.5901 27.397
59 1 0.941002 33.6877 12.818 29.4352
60 1 0.967411 2.03144 14.8052 31.6399
61 1 0.960668 4.18952 8.37963 29.3931
62 1 0.859027 6.28071 10.2113 31.5957
63 1 0.956004 4.24207 12.6544 25.3104
64 1 0.971032 6.3401 14.7318 27.4359
65 1 1.08292 33.7191 16.8683 0.0734545
66 1 0.956241 2.1415 18.9922 2.12586
67 1 0.875946 0.0832721 21.1151 4.2197
68 1 0.929127 2.21616 23.1803 6.33984
69 1 0.895353 4.20913 16.8859 4.25697
70 1 0.961948 6.33677 18.9584 6.35559
71 1 0.898333 4.24222 21.0925 0.0168672
72 1 0.974656 6.31574 23.1714 2.1049
73 1 0.982239 33.6027 16.6137 8.27844
74 1 0.853924 2.22082 19.1505 10.6561
75 1 0.968493 0.00121398 21.1257 12.6969
76 1 0.968095 2.11888 23.1989 14.8028
77 1 1.04437 4.23389 16.8899 12.6797
78 1 0.983717 6.33303 18.9624 14.7952
79 1 0.966778 4.29658 21.1221 8.48062
80 1 1.02163 6.32059 23.1628 10.6851
81 1 0.955605 33.7647 16.8742 16.9053
82 1 1.03683 2.13445 18.9845 18.9727
83 1 0.981 33.7719 21.0986 21.0677
84 1 1.03742 2.12351 23.2108 23.1419
85 1 0.90837 4.19521 16.8388 21.0772
86 1 0.931782 6.29187 18.9242 23.1989
87 1 0.899982 4.23311 21.0803 16.8734
88 1 0.99331 6.37028 23.1455 18.9573
89 1 0.912906 33.6974 16.9934 25.2986
90 1 0.665973 2.31181 19.0616 27.5712
91 1 0.974608 0.0483553 21.1717 29.5407
92 1 0.864358 2.20006 23.185 31.66
93 1 0.959059 4.23187 16.7704 29.5911
94 1 0.979513 6.3064 18.9493 31.6671
95 1 1.01954 4.1757 21.0643 25.2147
96 1 0.902765 6.22784 23.0439 27.4861
97 1 0.930241 0.0613149 25.2523 0.0527311
98 1 0.959058 2.12707 27.4594 2.15169
99 1 0.953188 0.011884 29.572 4.28317
100 1 0.97589 2.13953 31.6708 6.3942
101 1 0.964075 4.26037 25.3215 4.20124
102 1 0.925102 6.29701 27.5641 6.27877
103 1 0.967988 4.17245 29.6513 33.7628
104 1 0.980134 6.32525 31.705 2.10972
105 1 0.913826 33.6979 25.3656 8.53708
106 1 0.930993 2.07052 27.4193 10.6319
107 1 1.03311 33.7283 29.5631 12.7209
108 1 0.9019 2.11146 31.6433 14.8175
109 1 0.972151 4.20599 25.3002 12.7144
110 1 0.919916 6.34698 27.3331 14.8424
111 1 0.971247 4.18705 29.5463 8.44501
112 1 0.898454 6.40153 31.9129 10.5731
113 1 0.958723 0.0300635 25.3281 16.8627
114 1 0.807865 2.30646 27.1487 18.9592
115 1 1.02572 33.635 29.7775 21.2217
116 1 0.983219 2.09507 31.7014 23.2502
117 1 1.01056 4.37036 25.2551 21.0652
118 1 0.828189 6.26919 27.4671 23.2715
119 1 1.01917 4.26116 29.4757 16.9187
120 1 1.02882 6.3167 31.5979 19.0757
121 1 0.919126 33.7272 25.2769 25.2318
122 1 0.884611 2.0552 27.3049 27.3292
123 1 0.866916 33.5339 29.2835 29.3664
124 1 0.965265 2.1507 31.9501 31.6695
125 1 0.953005 4.19856 25.3059 29.4986
126 1 0.987751 6.22608 27.5614 31.6543
127 1 0.910219 4.1284 29.5844 25.382
128 1 1.00112 6.40928 31.6262 27.3698
129 1 0.976585 8.44743 33.7772 33.7735
130 1 1.01134 10.5726 2.16417 2.08808
131 1 0.962365 8.44096 4.24626 4.21221
132 1 0.961694 10.5427 6.34902 6.34053
133 1 0.976785 12.8007 33.7625 4.27987
134 1 1.06394 14.7481 2.31813 6.30746
135 1 1.03566 12.7106 4.20335 33.7132
136 1 0.932113 14.7492 6.2526 2.1597
137 1 1.00965 8.4054 0.0994572 8.36765
138 1 0.947068 10.5493 2.11679 10.5581
139 1 0.977699 8.43958 4.18889 12.6971
140 1 0.959322 10.455 6.33652 14.7851
141 1 1.02056 12.6627 33.65 12.6589
142 1 1.02949 14.8399 2.01198 14.7099
143 1 0.970211 12.6364 4.27702 8.44925
144 1 0.924977 14.771 6.35054 10.5457
145 1 0.839442 8.41709 33.7767 17.0629
146 1 0.89846 10.5828 2.16417 19.0496
147 1 0.973834 8.50664 4.25119 21.1541
148 1 0.975775 10.6992 6.35723 23.1926
149 1 0.898448 12.6685 33.7633 21.1081
150 1 0.985014 14.766 2.09553 23.1802
151 1 0.830488 12.7461 4.39093 16.8222
152 1 0.917483 14.808 6.3329 18.9959
153 1 1.03611 8.46738 0.0434572 25.329
154 1 0.897005 10.5363 2.16958 27.4689
155 1 0.99145 8.4246 4.30713 29.5666
156 1 0.938658 10.6282 6.33461 31.6124
157 1 1.11128 12.6258 0.00927312 29.5321
158 1 0.968563 14.7913 2.0061 31.6407
159 1 0.914944 12.742 4.17945 25.3798
160 1 0.791456 14.8395 6.38096 27.4522
161 1 0.954949 8.53703 8.3576 33.7494
162 1 1.11056 10.611 10.5218 2.08989
163 1 0.837708 8.4585 12.6466 4.12372
164 1 0.881849 10.5084 14.7116 6.33559
165 1 0.979098 12.6705 8.419 4.23492
166 1 0.886213 14.8002 10.5091 6.33933
167 1 0.874451 12.7121 12.6679 33.7781
168 1 0.919148 14.8212 14.7546 2.18503
169 1 0.970857 8.46574 8.47086 8.46183
170 1 0.966099 10.565 10.5614 10.5558
171 1 1.0437 8.4323 12.6579 12.6375
172 1 0.972902 10.495 14.7535 14.7636
173 1 0.936943 12.627 8.41367 12.6546
174 1 0.904477 14.7542 10.5054 14.7456
175 1 0.932919 12.6649 12.6082 8.39887
176 1 0.99165 14.8338 14.6739 10.4958
177 1 0.976528 8.40304 8.44795 16.8867
178 1 1.03324 10.5485 10.5103 18.933
179 1 1.03508 8.44054 12.6329 21.0497
180 1 0.943243 10.509 14.742 23.1925
181 1 0.910543 12.6861 8.42507 21.0172
182 1 1.02102 14.7246 10.5435 23.1934
183 1 0.931858 12.6172 12.5999 16.7883
184 1 0.855976 14.8163 14.8642 19.1053
185 1 0.967229 8.46236 8.28964 25.2067
186 1 0.808884 10.2607 10.4391 27.2226
187 1 0.909197 8.31526 12.6835 29.727
188 1 0.89526 10.5232 14.7741 31.7343
189 1 0.865282 12.5447 8.49572 29.4567
190 1 0.905158 14.8896 10.5224 31.611
191 1 0.865302 12.5346 12.6303 25.3068
192 1 1.00428 14.6778 14.8202 27.3253
193 1 1.11535 8.41654 16.8973 0.0446656
194 1 0.951506 10.5292 18.9752 2.15159
195 1 0.895538 8.39255 21.0752 4.22119
196 1 0.954138 10.458 23.2071 6.32841
197 1 1.02619 12.6316 16.8284 4.2211
198 1 0.961735 14.7441 18.9561 6.31921
199 1 0.932759 12.6853 21.0495 0.0310607
200 1 0.86486 14.7354 23.2902 2.14384
201 1 0.951661 8.42139 16.8381 8.45479
202 1 0.971285 10.4998 18.9689 10.5716
203 1 1.06495 8.40638 21.0408 12.708
204 1 0.882826 10.465 23.111 14.802
205 1 0.875291 12.5538 16.9029 12.7247
206 1 0.912184 14.6934 18.9433 14.8266
207 1 1.02928 12.5881 21.0555 8.38614
208 1 0.892353 14.6661 23.105 10.4635
209 1 0.967954 8.44902 16.8793 16.8954
210 1 0.96089 10.5483 18.9727 19.0063
211 1 0.929954 8.3891 21.0487 21.0747
212 1 1.01616 10.4387 23.1574 23.3728
213 1 0.930894 12.6092 16.9524 21.2035
214 1 1.09674 14.8183 19.009 23.1942
215 1 0.955094 12.6568 21.0923 16.9166
216 1 0.88533 14.7736 23.2106 19.0122
217 1 0.981919 8.43549 16.8709 25.34
218 1 0.877669 10.5618 18.9964 27.4393
219 1 1.0281 8.44425 21.0304 29.5719
220 1 0.937531 10.6785 23.0716 31.6483
221 1 1.0746 12.6329 16.8609 29.5443
222 1 0.897973 14.7764 18.9984 31.6388
223 1 1.022 12.7107 21.1275 25.3439
224 1 0.958654 14.8052 23.2522 27.4357
225 1 0.778699 8.33256 25.1581 33.5865
226 1 0.87005 10.6716 27.7462 2.14246
227 1 0.946708 8.46716 29.6598 4.19033
228 1 0.958638 10.5675 31.6001 6.36602
229 1 0.975386 12.3615 25.3607 4.02313
230 1 0.933594 14.6666 27.2661 6.24208
231 1 0.938193 12.6192 29.6222 33.6214
232 1 0.990483 14.5354 31.8673 1.87816
233 1 0.890708 8.33075 25.2524 8.37771
234 1 0.961278 10.5497 27.2042 10.5021
235 1 0.852812 8.59691 29.2134 12.8345
236 1 0.935984 10.6587 31.4867 14.7963
237 1 0.818501 12.6028 24.9151 12.4859
238 1 1.02055 15.0806 27.7049 15.0037
239 1 0.901308 12.6631 29.3901 8.45742
240 1 0.834997 14.7702 31.4507 10.6009
241 1 1.0554 8.44522 25.2723 16.8966
242 1 0.964179 10.5307 27.3859 19.0159
243 1 0.90129 8.42636 29.4932 21.156
244 1 1.0352 10.5367 31.6494 23.2179
245 1 0.965136 12.5891 25.252 21.0929
246 1 1.00449 14.6728 27.4489 23.0924
247 1 1.06414 12.7208 29.551 17.0005
248 1 0.911056 14.7883 31.6775 19.0188
249 1 0.90478 8.68526 25.5855 25.2482
250 1 0.980099 10.6467 27.5208 27.4904
251 1 0.822605 8.44016 29.5522 29.5423
252 1 0.989146 10.497 31.6776 31.6216
253 1 0.960214 12.6872 25.3159 29.5669
254 1 0.900143 14.7532 27.4264 31.6797
255 1 1.0464 12.6809 29.555 25.2831
256 1 0.884841 14.7299 31.6873 27.3763
257 1 0.853738 16.9468 33.6356 33.6795
258 1 0.883012 18.9589 2.06316 2.06985
259 1 0.916846 16.9024 4.22123 4.19371
260 1 0.949563 19.0108 6.27517 6.32994
261 1 0.967062 21.1348 33.7133 4.1207
262 1 0.903815 23.1766 2.04069 6.28714
263 1 0.969997 21.0552 4.17144 -0.0233255
264 1 0.932012 23.1702 6.28752 2.08295
265 1 0.966938 16.6303 0.322631 8.25544
266 1 1.02914 18.9108 2.17919 10.4849
267 1 0.948152 16.84 4.23335 12.6364
268 1 0.90426 18.9448 6.32105 14.7667
269 1 0.904346 21.0356 0.0972723 12.6172
270 1 1.08729 23.1838 2.11562 14.7756
271 1 0.880767 21.1168 4.12976 8.39066
272 1 0.907985 23.1103 6.36131 10.512
273 1 1.02414 16.9126 33.7345 16.8778
274 1 0.898028 18.9851 2.09432 19.0097
275 1 1.04971 16.8658 4.20356 21.111
276 1 0.901683 18.9215 6.25528 23.2237
277 1 0.96226 21.0954 0.00122377 21.1038
278 1 0.828416 23.176 2.09354 23.2178
279 1 0.966776 21.0492 4.20826 16.891
280 1 0.841471 23.1599 6.27419 19.0181
281 1 0.975001 16.8144 33.7071 25.2426
282 1 1.01963 18.8719 2.03908 27.301
283 1 0.877992 16.8286 4.08787 29.4728
284 1 1.0062 18.935 6.27873 31.611
285 1 0.954256 21.1381 0.131832 29.5004
286 1 0.95299 23.2662 2.02709 31.7184
287 1 0.938209 21.0661 4.17638 25.3207
288 1 0.862888 23.1794 6.26017 27.4754
289 1 0.985101 16.8497 8.24283 0.130482
290 1 0.850342 18.9983 10.4558 2.09987
291 1 0.981161 16.8826 12.568 4.18867
292 1 0.873468 18.9853 14.7203 6.2945
293 1 0.960957 21.0644 8.37698 4.22886
294 1 1.0346 23.068 10.5055 6.36351
295 1 0.937459 21.1223 12.6206 0.0133907
296 1 0.955564 23.233 14.7407 2.12324
297 1 0.924926 16.9324 8.41795 8.4358
298 1 0.88478 18.9914 10.5505 10.5547
299 1 1.01896 16.8943 12.6157 12.6889
300 1 0.826844 18.9899 14.746 14.7933
301 1 1.07428 21.1027 8.46385 12.7338
302 1 0.992685 23.2234 10.594 14.8022
303 1 0.900738 21.0648 12.6668 8.46678
304 1 1.02784 23.2003 14.7683 10.5723
305 1 1.04442 16.8558 8.43173 16.8668
306 1 1.01044 18.9581 10.5242 18.9846
307 1 0.890514 16.8903 12.6719 21.1089
308 1 0.975235 19.0195 14.7484 23.1755
309 1 0.849324 20.9556 8.27273 21.0785
310 1 0.871207 23.4069 10.5469 23.0393
311 1 0.874349 21.0985 12.6808 16.8987
312 1 0.977749 23.1879 14.8145 19.0006
313 1 0.940193 16.8591 8.44502 25.2747
314 1 0.909234 18.9342 10.5771 27.4264
315 1 0.946183 16.789 12.7598 29.5467
316 1 0.896125 19.0669 14.7526 31.6199
317 1 0.99421 21.0535 8.41923 29.5239
318 1 1.03372 23.2146 10.5518 31.6123
319 1 0.933653 21.1344 12.6251 25.2717
320 1 0.879975 23.2388 14.7579 27.4027
321 1 0.969432 16.9209 16.8945 33.6797
322 1 0.771613 18.912 18.9305 2.18041
323 1 0.945353 16.8353 21.1311 4.25561
324 1 0.952578 19.0132 23.2323 6.31462
325 1 0.97993 21.0798 16.8329 4.21694
326 1 0.875653 23.1771 18.9163 6.34185
327 1 0.877729 21.161 21.1301 33.6836
328 1 0.966043 23.2273 23.2287 2.09302
329 1 0.921344 16.9245 16.8535 8.38498
330 1 1.038 18.9543 18.9495 10.5618
331 1 0.99827 16.7975 20.9673 12.7073
332 1 0.932286 19.0851 23.2733 14.8657
333 1 0.923929 21.05 16.8476 12.654
334 1 0.905464 23.1751 18.9833 14.8798
335 1 1.02518 21.0791 21.0429 8.46434
336 1 0.970682 23.219 23.2185 10.5298
337 1 1.03422 16.8632 16.8535 16.906
338 1 1.02907 18.983 18.9893 18.9966
339 1 0.968508 16.9182 21.1254 21.1038
340 1 0.935704 18.8917 23.1907 23.3416
341 1 1.04366 21.0924 16.9254 21.1092
342 1 0.830756 23.1962 19.0252 23.2027
343 1 0.884425 21.1172 21.1222 16.9596
344 1 0.977605 23.1661 23.2706 19.0648
345 1 0.877154 16.8526 16.8158 25.2166
346 1 0.893004 19.0212 18.7863 27.4533
347 1 0.920597 16.8449 21.122 29.5624
348 1 1.03627 18.9764 23.2187 31.6761
349 1 0.98505 21.1792 16.831 29.54
350 1 1.02468 23.2784 18.9791 31.6407
351 1 0.861728 21.0366 21.0597 25.3579
352 1 0.968467 23.1078 23.1512 27.5267
353 1 0.968904 16.8601 25.3448 0.0278639
354 1 0.888955 18.9952 27.4214 2.10553
355 1 0.820955 16.9477 29.3781 4.28893
356 1 0.896281 19.2153 31.4614 6.13568
357 1 0.964329 21.1052 25.3547 4.20575
358 1 0.869633 23.1971 27.4403 6.32492
359 1 0.947463 21.1261 29.5562 33.7522
360 1 0.926518 23.2292 31.6089 2.10688
361 1 0.881344 17.0242 25.4303 8.43548
362 1 1.03008 19.0462 27.4492 10.628
363 1 0.960225 16.9493 29.527 12.8437
364 1 0.960345 19.0528 31.6646 14.789
365 1 0.979525 21.155 25.3447 12.6951
366 1 1.03353 23.2596 27.3885 14.8524
367 1 0.954431 21.1706 29.5025 8.48612
368 1 0.952849 23.2011 31.6747 10.6578
369 1 0.967887 16.9495 25.3182 16.9686
370 1 0.973806 18.9863 27.4503 19.0354
371 1 0.973175 16.8629 29.5578 21.1059
372 1 1.00802 19.0131 31.6093 23.2179
373 1 0.896575 20.9719 25.2881 21.1722
374 1 0.902023 23.2092 27.2805 23.1628
375 1 1.03406 21.1212 29.5142 16.9094
376 1 0.913983 23.1903 31.6266 19.0119
377 1 0.873742 16.8487 25.4818 25.4084
378 1 0.903935 19.1086 27.3867 27.5063
379 1 1.00717 16.9925 29.4735 29.6368
380 1 0.957787 19.1351 31.7128 31.5704
381 1 0.99099 21.1169 25.288 29.6226
382 1 0.898548 23.2128 27.4344 31.6504
383 1 0.817885 21.1653 29.4498 25.2831
384 1 0.991549 23.2159 31.674 27.4216
385 1 0.996832 25.3389 33.6898 0.0265045
386 1 1.02338 27.4023 2.0786 2.07337
387 1 0.890909 25.2421 4.16633 4.19895
388 1 0.904168 27.3701 6.34808 6.38494
389 1 0.967911 29.4778 0.00881872 4.22982
390 1 0.909681 31.4371 2.23619 6.3137
391 1 0.955901 29.531 4.18357 33.7326
392 1 0.993714 31.6846 6.25188 2.13092
393 1 0.969008 25.2634 0.01392 8.50118
394 1 0.959862 27.3661 2.12575 10.602
395 1 0.883756 25.25 4.26091 12.6392
396 1 1.01659 27.3937 6.27724 14.8617
397 1 1.02628 29.5015 33.7377 12.6904
398 1 0.967008 31.6195 2.10964 14.7857
399 1 0.972939 29.4463 4.26276 8.50802
400 1 0.959986 31.6089 6.35165 10.5984
401 1 1.03559 25.2835 33.6646 16.8887
402 1 0.829276 27.3578 2.05504 18.9454
403 1 1.06547 25.2916 4.17402 21.111
404 1 1.02886 27.3892 6.3201 23.2394
405 1 0.964957 29.5144 33.7875 21.0822
406 1 0.959822 31.64 2.11642 23.2131
407 1 0.869653 29.5837 4.24955 16.911
408 1 0.972015 31.6474 6.3208 19.04
409 1 0.962211 25.3137 0.0289574 25.3221
410 1 1.03202 27.4313 2.12872 27.4135
411 1 0.949811 25.3064 4.16689 29.5737
412 1 0.96107 27.4051 6.31348 31.658
413 1 0.960454 29.5042 33.7379 29.5432
414 1 0.896314 31.6395 2.09415 31.6445
415 1 0.899231 29.5228 4.22041 25.3126
416 1 0.957658 31.6115 6.33024 27.4389
417 1 0.951626 25.2926 8.4295 33.723
418 1 0.889774 27.3684 10.6784 1.97431
419 1 0.91006 25.3725 12.6564 4.20684
420 1 0.882741 27.4005 14.8382 6.3053
421 1 0.934349 29.6612 8.4017 4.15849
422 1 0.906852 31.6105 10.555 6.3523
423 1 0.977155 29.5289 12.6781 0.027302
424 1 0.973764 31.6196 14.7613 2.18304
425 1 0.852572 25.2755 8.46184 8.46326
426 1 0.848835 27.5318 10.5847 10.4887
427 1 0.924792 25.375 12.6776 12.6742
428 1 0.926867 27.407 14.8862 14.7864
429 1 1.01243 29.5888 8.35246 12.8765
430 1 0.910043 31.8395 10.5218 14.7635
431 1 0.95334 29.6116 12.8207 8.36559
432 1 0.925244 31.6433 14.6696 10.6343
433 1 0.827761 25.3153 8.46618 16.9179
434 1 1.01109 27.418 10.5792 19.0907
435 1 1.02152 25.3664 12.8283 21.1138
436 1 0.910783 27.4383 14.8349 23.2388
437 1 0.894425 29.5153 8.42518 21.1469
438 1 0.900666 31.5986 10.5048 23.2697
439 1 0.891164 29.4931 12.6893 16.9671
440 1 0.845394 31.6717 14.7754 19.0493
441 1 0.899912 25.3158 8.39702 25.4472
442 1 1.02978 27.4123 10.5627 27.4543
443 1 0.947536 25.3311 12.6842 29.5505
444 1 0.959441 27.4739 14.756 31.7045
445 1 0.981116 29.5005 8.4225 29.5471
446 1 1.03521 31.5565 10.4741 31.7182
447 1 1.02453 29.5123 12.6639 25.2989
448 1 0.901756 31.6333 14.858 27.2962
449 1 0.893862 25.3547 16.8619 0.0383672
450 1 1.00035 27.4905 18.997 2.14511
451 1 0.856252 25.3591 21.002 4.37553
452 1 0.925326 27.4818 23.1754 6.3427
453 1 0.883651 29.5655 16.9346 4.28362
454 1 1.0114 31.7441 19.03 6.46615
455 1 0.954923 29.5749 21.0926 33.7128
456 1 1.01732 31.6232 23.1878 2.16067
457 1 0.942906 25.3198 16.8824 8.46467
458 1 0.973934 27.4536 18.957 10.5534
459 1 0.911093 25.4574 21.2101 12.5749
460 1 1.0224 27.4932 23.1917 14.7768
461 1 0.969327 29.5736 16.8895 12.6945
462 1 0.977334 31.6704 18.9869 14.8083
463 1 0.96976 29.5278 21.0799 8.5038
464 1 0.951956 31.6333 23.2056 10.5929
465 1 0.977051 25.3038 16.9038 16.9302
466 1 0.897222 27.4779 18.9806 18.9804
467 1 1.01685 25.5242 21.3505 20.9889
468 1 0.933475 27.3187 23.1999 23.3425
469 1 1.02516 29.5224 16.9086 21.1262
470 1 0.958697 31.6404 19.0192 23.1241
471 1 1.04363 29.5615 21.0914 16.8813
472 1 0.994217 31.7189 23.1807 18.899
473 1 1.00383 25.3152 16.9346 25.3239
474 1 0.931597 27.4252 19.1323 27.3402
475 1 0.893756 25.3226 21.1233 29.53
476 1 0.960851 27.4153 23.2147 31.6472
477 1 0.974106 29.4477 16.8612 29.494
478 1 0.908647 31.7416 18.9625 31.5973
479 1 0.894117 29.5466 21.1486 25.2791
480 1 0.968378 31.6646 23.2315 27.3927
481 1 0.957835 25.3173 25.3469 -0.00995733
482 1 0.886774 27.436 27.3704 2.12262
483 1 0.967686 25.3042 29.4905 4.19464
484 1 1.08335 27.4109 31.6615 6.40346
485 1 0.95882 29.529 25.3191 4.25691
486 1 0.909826 31.6127 27.4658 6.3543
487 1 0.876477 29.5497 29.4706 0.018204
488 1 0.904208 31.6125 31.6475 2.15045
489 1 0.905635 25.3191 25.2997 8.49837
490 1 0.964595 27.4489 27.3367 10.5485
491 1 0.788384 25.2001 29.4688 12.6972
492 1 0.895692 27.3725 31.5802 14.7533
493 1 0.97095 29.5442 25.3171 12.7189
494 1 0.904116 31.6333 27.4349 14.7939
495 1 0.933322 29.5699 29.5934 8.4653
496 1 0.987565 31.6392 31.6575 10.6195
497 1 0.896776 25.3288 25.2651 16.9219
498 1 0.891612 27.4314 27.427 18.9397
499 1 0.976823 25.379 29.5735 21.0533
500 1 0.972511 27.4232 31.6823 23.1848
501 1 0.907357 29.6815 25.3626 20.8254
502 1 1.02276 31.6201 27.4339 23.1535
503 1 0.95885 29.5231 29.5577 16.8827
504 1 0.906906 31.6025 31.7024 18.9728
505 1 0.903548 25.2052 25.3145 25.4934
506 1 0.806085 27.365 27.5137 27.3872
507 1 0.975334 25.2983 29.5471 29.5337
508 1 1.0321 27.4326 31.5855 31.664
509 1 0.990438 29.5411 25.2866 29.538
510 1 0.831977 31.5979 27.3244 31.6788
511 1 0.895718 29.497 29.5608 25.2738
512 1 0.967439 31.5828 31.6397 27.3979
513 2 -0.499124 1.1315 1.19047 1.23636
514 2 -0.514283 1.30007 32.711 32.8652
515 2 -0.466364 32.6943 1.02348 32.9018
516 2 -0.542144 32.896 32.7949 1.0975
517 2 -0.515002 1.20176 3.25742 3.0108
518 2 -0.519964 3.17879 1.05456 3.29896
519 2 -0.467549 3.36918 3.22197 0.834895
520 2 -0.469637 0.768931 5.38932 5.12327
521 2 -0.499728 32.3032 3.27187 5.34938
522 2 -0.45449 32.6965 5.29956 3.04802
523 2 -0.575078 2.92457 5.13443 7.60976
524 2 -0.458732 3.04382 7.3217 5.36934
525 2 -0.493614 0.947592 7.44246 7.15851
526 2 -0.490519 5.11257 1.09847 5.15913
527 2 -0.483177 3.24634 32.9043 5.2755
528 2 -0.493942 5.37099 32.6004 3.13127
529 2 -0.491957 5.30692 3.26734 7.49856
530 2 -0.475094 7.24131 3.05856 5.25362
531 2 -0.491303 7.49376 1.00833 7.31299
532 2 -0.491547 5.30972 5.37586 1.20601
533 2 -0.4731 3.06559 5.44614 32.6615
534 2 -0.504193 5.52517 3.21113 32.589
535 2 -0.457082 5.33969 7.43124 3.03504
536 2 -0.492403 7.48602 5.28684 3.33238
537 2 -0.506123 7.26785 7.25808 1.06047
538 2 -0.508541 0.997332 0.883583 9.61589
539 2 -0.486561 1.25775 32.5419 7.52579
540 2 -0.54787 32.764 1.05195 7.32609
541 2 -0.490431 32.852 32.7021 9.49238
542 2 -0.493756 0.981919 3.21067 11.8711
543 2 -0.508527 3.2451 1.15033 11.7692
544 2 -0.480937 3.55615 3.11293 9.62228
545 2 -0.532843 1.20934 5.28709 13.8331
546 2 -0.48972 32.7965 3.30633 13.7412
547 2 -0.489403 32.6463 5.43695 11.5103
548 2 -0.567674 3.01477 5.42135 15.7653
549 2 -0.516568 3.36171 7.40585 13.6604
550 2 -0.493684 0.941092 7.35509 15.9995
551 2 -0.513891 5.16804 0.934317 13.7604
552 2 -0.48069 3.10752 32.8082 13.5974
553 2 -0.438489 5.05953 32.7792 11.7027
554 2 -0.471402 5.30342 2.90513 15.9201
555 2 -0.483823 7.50626 3.17271 13.6401
556 2 -0.540358 7.20401 1.07474 15.7793
557 2 -0.51299 5.44613 5.40349 9.6627
558 2 -0.498433 5.46226 7.41963 11.5496
559 2 -0.51089 7.27186 5.36123 11.6627
560 2 -0.492022 7.45703 7.24382 9.60851
561 2 -0.466345 0.873079 0.952587 17.9445
562 2 -0.474597 1.21273 32.679 15.7399
563 2 -0.480356 32.5409 1.20341 15.8409
564 2 -0.476769 32.8028 32.715 17.785
565 2 -0.469011 1.15454 2.96048 20.0513
566 2 -0.468935 3.20729 0.87345 20.1007
567 2 -0.455279 3.23522 3.29916 17.915
568 2 -0.481086 1.16576 5.43289 22.1777
569 2 -0.483576 32.7488 3.35745 22.1285
570 2 -0.482215 32.8211 5.10042 20.0775
571 2 -0.48757 3.15721 5.11455 24.4117
572 2 -0.485828 3.30101 7.52527 22.2073
573 2 -0.481916 1.05757 7.26656 24.1213
574 2 -0.484449 5.39822 1.19735 22.173
575 2 -0.489139 3.22903 32.9172 22.1786
576 2 -0.488862 5.30648 32.486 20.086
577 2 -0.498095 5.14931 3.31554 24.2675
578 2 -0.48347 7.29945 3.068 22.1769
579 2 -0.504116 7.36044 1.14271 24.0944
580 2 -0.493701 5.38504 5.19022 18.0141
581 2 -0.491819 5.30103 7.27709 19.9931
582 2 -0.485596 7.62628 5.31407 20.2355
583 2 -0.518466 7.18612 7.33917 18.0065
584 2 -0.494834 0.995904 1.03516 26.2064
585 2 -0.50843 1.08334 32.5416 24.248
586 2 -0.492282 32.7092 0.899132 24.3455
587 2 -0.491533 32.7898 32.8299 26.3757
588 2 -0.480118 0.942831 3.31125 28.4766
589 2 -0.477811 3.03111 1.10408 28.4207
590 2 -0.489283 3.19166 3.00655 26.5166
591 2 -0.483989 1.04747 5.15826 30.4481
592 2 -0.477965 32.8682 3.20651 30.5454
593 2 -0.493398 32.5008 5.3791 28.4806
594 2 -0.524675 1.00996 7.56037 32.7676
595 2 -0.486412 3.13899 7.28388 30.6988
596 2 -0.476722 5.2874 1.09442 30.3793
597 2 -0.480498 3.51702 32.9124 30.6904
598 2 -0.559228 5.29033 32.4304 28.3614
599 2 -0.48968 7.50935 0.912373 32.7214
600 2 -0.516893 7.43836 3.08137 30.7572
601 2 -0.491629 5.44968 5.38743 26.3069
602 2 -0.482291 5.08617 7.41169 28.3844
603 2 -0.472636 7.56762 5.148 28.388
604 2 -0.49547 7.33211 7.28314 26.4485
605 2 -0.543808 0.84411 9.31087 1.08487
606 2 -0.489433 32.7772 7.2862 0.907701
607 2 -0.519453 32.5106 9.59282 32.7617
608 2 -0.484214 1.13157 11.5161 3.03419
609 2 -0.462096 3.05846 9.67414 3.296
610 2 -0.539015 3.11081 11.876 1.02802
611 2 -0.501881 0.88946 13.6004 5.19396
612 2 -0.485019 32.8396 11.6263 5.26008
613 2 -0.48792 32.6626 13.5763 3.36951
614 2 -0.500857 3.1171 13.7675 7.24627
615 2 -0.481321 3.09174 15.6003 5.28062
616 2 -0.51091 0.966524 15.7858 7.36518
617 2 -0.437963 5.41332 9.57343 5.42651
618 2 -0.478351 4.99658 11.5278 7.48321
619 2 -0.512624 7.53965 11.5707 4.97441
620 2 -0.464481 7.30908 9.58638 7.26575
621 2 -0.475515 4.99037 13.8894 1.11177
622 2 -0.502735 2.87789 13.8408 32.6757
623 2 -0.517183 5.45767 11.8273 32.7821
624 2 -0.480023 5.25327 16.0484 3.29767
625 2 -0.482596 7.18678 13.8177 3.15375
626 2 -0.495011 7.55893 15.8906 1.09849
627 2 -0.494193 1.19115 9.5542 9.56312
628 2 -0.495029 32.66 7.52644 9.38788
629 2 -0.481682 32.6929 9.51797 7.60336
630 2 -0.503903 1.14451 11.7029 11.7031
631 2 -0.489387 3.04807 9.47927 11.5137
632 2 -0.487053 3.21806 11.719 9.4688
633 2 -0.514502 1.17172 13.5273 13.6745
634 2 -0.475176 33.1681 11.4279 13.6669
635 2 -0.482165 32.7191 13.6942 11.4713
636 2 -0.525772 3.32288 13.6961 16.0099
637 2 -0.4891 3.11661 15.8322 13.9172
638 2 -0.479416 1.09647 15.7374 15.6861
639 2 -0.479254 5.13156 9.43326 13.741
640 2 -0.45868 5.65088 11.6367 15.8592
641 2 -0.484132 7.38602 11.7262 13.5744
642 2 -0.483593 7.5577 9.5038 15.9139
643 2 -0.477666 5.38989 13.7618 9.52274
644 2 -0.493164 5.0857 15.8853 11.6274
645 2 -0.488878 7.51779 13.6016 11.5894
646 2 -0.482473 7.17614 15.7407 9.53068
647 2 -0.51567 1.08866 9.53888 17.9564
648 2 -0.487173 32.6696 7.45714 17.8125
649 2 -0.505275 32.7817 9.49675 15.6546
650 2 -0.479169 0.997812 11.5787 20.5248
651 2 -0.479926 3.05835 9.57482 20.0341
652 2 -0.517677 3.18571 11.8402 18.1643
653 2 -0.488417 0.954695 13.5707 22.2697
654 2 -0.485 32.6823 11.7708 22.2278
655 2 -0.468553 32.6748 13.8429 19.9938
656 2 -0.478562 3.11025 13.9245 24.2506
657 2 -0.472737 3.01162 15.6879 22.1731
658 2 -0.45683 0.859675 15.9922 24.3053
659 2 -0.493154 5.27908 9.35798 22.0523
660 2 -0.478119 5.41445 11.4321 24.2511
661 2 -0.48063 7.47805 11.7613 22.1189
662 2 -0.469443 7.4103 9.57546 24.0779
663 2 -0.50127 5.33696 13.8525 17.9549
664 2 -0.476106 5.39668 15.6745 20.0124
665 2 -0.492282 7.41179 13.5353 20.0742
666 2 -0.487669 7.42077 16.0042 17.8614
667 2 -0.48267 1.1448 9.66863 26.3721
668 2 -0.481342 32.8549 7.38952 26.2989
669 2 -0.47704 32.6694 9.30273 24.4086
670 2 -0.457673 0.943104 11.7265 28.5868
671 2 -0.484122 2.95727 9.51929 28.3371
672 2 -0.474122 3.32918 11.6852 26.3171
673 2 -0.50744 1.12287 13.8098 30.6243
674 2 -0.514672 32.7075 11.5757 30.707
675 2 -0.443458 32.9559 13.7278 28.212
676 2 -0.515717 0.86161 15.9544 32.717
677 2 -0.491372 3.32077 15.7653 30.5308
678 2 -0.481904 5.26512 9.37276 30.1678
679 2 -0.439975 7.69281 9.39797 32.7605
680 2 -0.481056 7.39162 11.5037 30.4675
681 2 -0.475393 5.19577 13.5344 26.3584
682 2 -0.493696 5.45277 15.7413 28.4108
683 2 -0.499812 7.31592 13.7572 28.3833
684 2 -0.489315 7.42385 15.844 26.2056
685 2 -0.497567 1.04372 17.7594 1.05011
686 2 -0.499137 32.8014 15.7901 0.999663
687 2 -0.491263 32.6747 17.9106 32.9624
688 2 -0.47861 1.11492 19.9061 3.07118
689 2 -0.470483 3.12629 18.117 3.1534
690 2 -0.498257 3.19402 20.1947 0.928411
691 2 -0.489955 1.25464 22.1379 5.44938
692 2 -0.518195 32.9396 20.1062 5.17041
693 2 -0.487031 32.5729 22.1393 3.07641
694 2 -0.494017 3.28176 21.9986 7.49964
695 2 -0.483312 3.15783 24.061 5.28423
696 2 -0.533344 1.20639 24.4368 7.55966
697 2 -0.471814 5.31241 17.9698 5.47122
698 2 -0.482807 5.15751 20.0925 7.48589
699 2 -0.472268 7.26234 19.8553 5.29308
700 2 -0.483377 7.5163 17.7454 7.38728
701 2 -0.477771 5.27983 22.2368 1.21399
702 2 -0.48824 3.20619 22.3108 32.6428
703 2 -0.478992 5.39971 20.0048 32.5796
704 2 -0.468933 5.28286 24.3488 3.31443
705 2 -0.479336 7.29653 22.1443 2.98562
706 2 -0.476424 7.48357 24.2322 0.931829
707 2 -0.57127 0.911936 18.1317 9.33304
708 2 -0.57376 32.619 15.5697 9.13559
709 2 -0.508358 32.6006 17.4907 7.31032
710 2 -0.486151 0.949775 20.2264 11.6716
711 2 -0.481773 3.23492 17.8931 11.777
712 2 -0.493941 3.19485 20.1187 9.76478
713 2 -0.489942 1.04219 21.9948 13.6536
714 2 -0.488115 32.5723 19.9071 13.7496
715 2 -0.484226 32.6729 22.3425 11.5692
716 2 -0.478804 3.18486 22.2647 15.6918
717 2 -0.485034 3.02053 24.232 13.8707
718 2 -0.485666 1.06841 24.3785 15.9914
719 2 -0.501582 5.29533 17.8251 13.5611
720 2 -0.481889 5.33959 19.8371 15.813
721 2 -0.503896 7.39868 20.1677 13.7064
722 2 -0.489987 7.38756 18.0759 15.7269
723 2 -0.531268 5.43802 22.3171 9.55817
724 2 -0.507286 5.07623 24.2859 11.7369
725 2 -0.506643 7.27924 22.0939 11.5271
726 2 -0.529371 7.31178 24.175 9.78016
727 2 -0.493051 1.16782 17.9254 18.1062
728 2 -0.487922 32.7041 15.9439 17.8294
729 2 -0.484645 32.8589 17.9327 15.9892
730 2 -0.495609 1.12411 19.8575 19.983
731 2 -0.48122 3.17688 18.059 19.922
732 2 -0.486403 3.17769 20.1879 17.775
733 2 -0.494823 1.14774 22.1811 22.256
734 2 -0.495443 32.7984 20.2222 22.0936
735 2 -0.493329 32.7639 22.0615 20.1659
736 2 -0.523815 3.32605 22.1532 24.2739
737 2 -0.506694 3.06612 24.1612 22.1257
738 2 -0.484347 1.09894 24.2179 24.0233
739 2 -0.48037 5.06835 17.7855 22.0952
740 2 -0.526472 5.42261 19.9443 24.1767
741 2 -0.569209 7.35397 19.894 22.3553
742 2 -0.545166 7.50212 17.8868 24.352
743 2 -0.483039 5.34276 22.1463 18.1036
744 2 -0.507674 5.36848 24.2433 20.2107
745 2 -0.492134 7.37121 22.1805 19.8437
746 2 -0.49783 7.49629 24.2107 17.755
747 2 -0.440342 1.34281 17.81 26.4264
748 2 -0.466689 32.5301 15.7968 26.2646
749 2 -0.481284 32.6395 17.9919 23.9759
750 2 -0.531913 1.06167 19.8981 28.4632
751 2 -0.483803 3.1531 17.5949 28.6499
752 2 -0.50195 3.10236 20.1178 26.0621
753 2 -0.505358 1.18182 22.0223 30.4843
754 2 -0.534952 32.7398 20.3367 30.5524
755 2 -0.485014 32.8999 22.1772 28.525
756 2 -0.480455 1.54943 24.6245 32.7262
757 2 -0.440323 2.98292 24.2107 30.572
758 2 -0.488394 5.25935 17.9937 30.7829
759 2 -0.498078 7.32841 17.8031 32.8724
760 2 -0.4897 7.50346 19.9779 30.4736
761 2 -0.526141 5.10461 21.8941 26.322
762 2 -0.468873 5.38443 24.1496 28.3901
763 2 -0.501466 7.29905 22.1913 28.4268
764 2 -0.605247 7.48614 24.0831 26.1136
765 2 -0.454905 0.922779 26.359 1.04657
766 2 -0.499573 32.6738 24.2412 1.38737
767 2 -0.520109 32.8906 26.2005 32.7461
768 2 -0.471226 1.03219 28.5587 3.41536
769 2 -0.477331 3.14843 26.4344 2.98951
770 2 -0.476719 3.11049 28.3827 1.15211
771 2 -0.480041 1.08804 30.7131 5.50561
772 2 -0.482512 32.8545 28.5953 5.28466
773 2 -0.499733 32.5498 30.6157 3.07141
774 2 -0.487529 3.32347 30.5015 7.40147
775 2 -0.485381 5.27468 26.3265 5.07881
776 2 -0.498036 5.13909 28.5638 7.49193
777 2 -0.537896 7.3051 28.6405 5.47698
778 2 -0.516387 7.2425 26.6619 7.325
779 2 -0.486508 5.1714 30.6514 0.884273
780 2 -0.504755 3.17459 30.607 32.8327
781 2 -0.489343 5.29358 28.6456 32.5252
782 2 -0.484874 7.25519 32.7498 1.21507
783 2 -0.496907 7.54444 30.6902 3.27689
784 2 -0.525093 0.867607 26.2478 9.61194
785 2 -0.506328 32.7325 24.2841 9.37092
786 2 -0.559032 32.5609 26.4143 7.23546
787 2 -0.484679 1.00807 28.686 11.7258
788 2 -0.48636 3.13646 26.524 11.5654
789 2 -0.545633 3.00229 28.2277 9.47464
790 2 -0.48273 0.909693 30.471 13.7915
791 2 -0.486718 32.7962 28.4871 13.6182
792 2 -0.497382 32.5476 30.7638 11.6835
793 2 -0.471278 3.2576 30.5524 16.0243
794 2 -0.480138 5.28661 26.1563 13.6501
795 2 -0.483293 5.21633 28.5879 15.867
796 2 -0.472706 7.68076 28.3147 13.8531
797 2 -0.492441 7.24157 26.4375 15.8789
798 2 -0.411598 5.22356 30.6124 9.54174
799 2 -0.478647 7.31132 32.9022 9.18519
800 2 -0.502227 7.21077 30.2114 11.7394
801 2 -0.447578 1.00291 26.3506 17.8323
802 2 -0.488263 32.7003 24.0526 17.8979
803 2 -0.474182 32.6249 26.544 15.7734
804 2 -0.605102 0.947565 29.0782 20.2769
805 2 -0.462159 3.64002 26.2663 19.9156
806 2 -0.494634 3.32742 28.3671 17.7486
807 2 -0.507711 1.12493 30.8587 22.2198
808 2 -0.511932 32.6419 28.4423 22.3009
809 2 -0.499824 32.6498 30.6885 20.2611
810 2 -0.493254 3.1924 30.4578 24.3271
811 2 -0.506153 5.34938 26.2637 21.9885
812 2 -0.412895 5.25598 28.6725 24.4524
813 2 -0.453228 7.39454 28.6564 22.1597
814 2 -0.535817 7.66593 26.5664 24.4194
815 2 -0.497179 5.35534 30.5425 18.1785
816 2 -0.484458 7.44684 32.7363 17.9048
817 2 -0.480187 7.36224 30.6582 20.0016
818 2 -0.466154 1.17014 26.2576 26.429
819 2 -0.477181 32.7544 24.2765 26.1122
820 2 -0.469896 32.6102 26.5171 24.1816
821 2 -0.489794 0.738841 28.2737 28.4513
822 2 -0.471768 3.30096 26.2994 28.4956
823 2 -0.482114 3.14762 28.3807 26.0622
824 2 -0.615516 1.20238 30.3572 30.5621
825 2 -0.521288 32.4894 28.4066 30.3248
826 2 -0.502894 32.5594 30.5945 28.2426
827 2 -0.467376 5.08358 26.3367 30.5776
828 2 -0.502407 7.18553 26.6819 32.7428
829 2 -0.501787 7.32547 28.3761 30.6569
830 2 -0.522272 5.51905 30.7035 26.2775
831 2 -0.499396 7.49636 32.905 26.3461
832 2 -0.481529 7.27869 30.5778 28.3643
833 2 -0.49697 9.52108 1.24447 1.15387
834 2 -0.485693 9.43164 32.759 32.8964
835 2 -0.51825 9.62991 3.21955 2.98768
836 2 -0.54448 11.439 1.21448 3.21828
837 2 -0.503016 11.7889 3.18953 0.927034
838 2 -0.477888 9.33924 5.1798 5.26937
839 2 -0.499799 11.5934 5.43822 7.2571
840 2 -0.487349 11.5042 7.22 5.30251
841 2 -0.485478 9.52599 7.55986 7.54562
842 2 -0.492869 13.8004 1.35885 5.31197
843 2 -0.570692 11.5702 32.9233 5.26048
844 2 -0.478655 13.4797 32.757 2.7486
845 2 -0.495628 13.5582 3.29078 7.49669
846 2 -0.499845 15.6801 3.29792 5.34885
847 2 -0.525764 15.8428 1.51558 7.37713
848 2 -0.486347 13.6643 5.20527 0.913247
849 2 -0.499437 11.6729 5.39997 32.5154
850 2 -0.483185 13.761 3.23895 32.8162
851 2 -0.478991 13.6042 7.49759 3.20975
852 2 -0.477428 15.679 5.22426 3.04372
853 2 -0.495811 15.9812 7.26784 1.16253
854 2 -0.486485 9.28723 1.10987 9.41684
855 2 -0.583736 9.46526 32.472 7.30177
856 2 -0.485994 9.6809 3.0946 11.5958
857 2 -0.490082 11.6964 0.853897 11.6095
858 2 -0.48182 11.4396 3.16685 9.60466
859 2 -0.489429 9.32249 5.13685 13.7277
860 2 -0.523255 11.296 5.36796 15.8438
861 2 -0.502969 11.5238 7.19028 13.8083
862 2 -0.48695 9.27952 7.50791 15.8395
863 2 -0.501852 13.8552 0.971238 13.8336
864 2 -0.500705 11.6431 32.7062 13.5811
865 2 -0.466632 13.5282 32.5401 11.7326
866 2 -0.503654 13.7016 3.04548 15.7882
867 2 -0.543511 15.6647 3.0968 13.742
868 2 -0.53782 15.9299 1.17654 15.67
869 2 -0.515539 13.6645 5.26847 9.30982
870 2 -0.514068 13.57 7.53211 11.5861
871 2 -0.488342 15.6464 5.3694 11.5548
872 2 -0.507115 15.8178 7.33136 9.68249
873 2 -0.465818 9.66721 1.09783 18.1886
874 2 -0.505593 9.46388 32.6131 15.8755
875 2 -0.471625 9.37726 3.29552 20.1043
876 2 -0.46182 11.7741 1.0793 20.2087
877 2 -0.389394 11.5417 3.33528 17.8232
878 2 -0.470357 9.71889 5.29162 22.3228
879 2 -0.508708 11.5884 5.28612 24.2275
880 2 -0.468564 11.7581 7.35908 21.8573
881 2 -0.532255 9.3604 7.29271 24.2645
882 2 -0.477235 13.836 1.17202 22.156
883 2 -0.485396 11.4576 32.7026 22.271
884 2 -0.471042 13.7829 32.674 19.8782
885 2 -0.483358 13.7633 2.96996 24.1745
886 2 -0.493941 15.7963 3.29654 22.0179
887 2 -0.489815 15.903 0.865224 24.2018
888 2 -0.468778 13.6122 5.17082 18.0037
889 2 -0.484686 13.9016 7.38468 19.8773
890 2 -0.489307 16.0039 5.21114 20.0872
891 2 -0.481739 15.9393 7.36957 17.7852
892 2 -0.477266 9.49139 0.950417 26.3312
893 2 -0.493155 9.41354 32.7111 24.4537
894 2 -0.460898 9.5045 3.07248 28.4559
895 2 -0.487877 11.7328 1.11048 28.5877
896 2 -0.462596 11.6458 3.30975 26.296
897 2 -0.524711 9.60594 5.19665 30.4077
898 2 -0.534908 9.36695 7.33453 32.7297
899 2 -0.492558 11.4331 7.4205 30.6532
900 2 -0.493159 13.614 0.864638 30.5996
901 2 -0.497801 11.5451 32.8197 30.425
902 2 -0.488421 13.549 32.7144 28.5693
903 2 -0.439408 15.774 0.924592 32.5141
904 2 -0.47324 15.7412 2.87141 30.5812
905 2 -0.454369 13.6913 5.14329 26.4475
906 2 -0.513813 13.4543 7.4353 28.4664
907 2 -0.509028 15.8289 4.90395 28.4091
908 2 -0.470591 15.6556 7.22391 26.275
909 2 -0.496511 9.75632 9.44669 1.10447
910 2 -0.483438 9.56033 11.5575 2.92381
911 2 -0.493177 11.5331 9.62184 3.18765
912 2 -0.48379 11.6653 11.4443 1.13334
913 2 -0.516938 9.49532 13.7065 5.46344
914 2 -0.473043 11.748 13.5829 7.3822
915 2 -0.474489 11.5481 15.9005 5.14214
916 2 -0.480109 9.41386 15.8109 7.56773
917 2 -0.474593 13.7143 9.35716 5.13119
918 2 -0.506867 13.9003 11.4958 7.31267
919 2 -0.529702 15.9052 11.7559 5.29669
920 2 -0.481446 16.0417 9.45762 7.46765
921 2 -0.457328 13.8964 13.8238 1.12745
922 2 -0.47347 11.6502 13.6457 32.9438
923 2 -0.471198 13.8157 11.5919 32.5309
924 2 -0.460852 13.5123 15.761 3.23067
925 2 -0.490429 15.7993 13.4319 3.23158
926 2 -0.522985 15.963 15.8262 0.845231
927 2 -0.492497 9.36445 9.39085 9.51022
928 2 -0.486858 9.6799 11.5313 11.5816
929 2 -0.499349 11.5881 9.66074 11.5214
930 2 -0.48625 11.6213 11.7009 9.32785
931 2 -0.492095 9.27341 13.6998 13.6397
932 2 -0.487853 11.4177 13.6846 15.6331
933 2 -0.481742 11.7083 15.8808 13.6894
934 2 -0.492178 9.61458 15.6687 15.8416
935 2 -0.476418 13.6856 9.30144 13.5899
936 2 -0.475525 13.671 11.6662 15.893
937 2 -0.475359 15.9891 11.6326 13.7148
938 2 -0.478388 15.6443 9.57837 15.7804
939 2 -0.53244 13.9404 13.7232 9.4351
940 2 -0.514499 13.6953 15.8762 11.5033
941 2 -0.511556 15.6986 13.7434 11.5841
942 2 -0.56355 15.8848 15.7159 9.65749
943 2 -0.491547 9.64038 9.47917 17.9902
944 2 -0.500003 9.49186 11.4437 19.8573
945 2 -0.477007 11.4445 9.5103 19.9589
946 2 -0.510048 11.6997 11.5594 17.6978
947 2 -0.497018 9.40636 13.6895 21.9324
948 2 -0.472286 11.3729 13.6861 24.1497
949 2 -0.51468 11.6047 15.6261 22.2743
950 2 -0.506956 9.471 15.9791 24.3498
951 2 -0.469579 13.719 9.62906 22.199
952 2 -0.457399 13.6895 11.4231 24.2388
953 2 -0.475564 15.6274 11.6102 22.2353
954 2 -0.479635 15.9557 9.37963 24.2259
955 2 -0.512255 13.7345 13.6222 18.0464
956 2 -0.481048 13.5342 15.9217 20.2308
957 2 -0.47374 16.0376 13.6837 20.1139
958 2 -0.477889 15.7372 15.8534 18.1681
959 2 -0.515643 9.62525 8.98817 26.1534
960 2 -0.611074 9.43773 11.8034 28.8236
961 2 -0.494649 11.5677 9.45242 28.4486
962 2 -0.418003 11.4744 11.6973 26.3767
963 2 -0.47832 9.43776 13.8261 30.921
964 2 -0.488388 9.40187 15.9872 32.7453
965 2 -0.483452 11.6197 15.8323 30.4685
966 2 -0.500786 13.7033 9.6653 30.593
967 2 -0.533281 15.7465 9.10756 32.924
968 2 -0.486462 15.5176 11.5943 30.4524
969 2 -0.477375 13.6721 13.8971 26.3137
970 2 -0.540647 13.6689 15.8854 28.6217
971 2 -0.533252 15.6117 13.7939 28.2511
972 2 -0.521614 15.7241 15.8262 26.4569
973 2 -0.503966 9.37784 17.9587 0.927219
974 2 -0.5199 9.65354 19.993 3.14213
975 2 -0.485694 11.7142 17.773 3.18425
976 2 -0.555421 11.4521 20.0426 1.27488
977 2 -0.482451 9.23031 22.1156 5.19146
978 2 -0.497169 11.5346 21.988 7.44648
979 2 -0.478474 11.4603 24.2094 5.46893
980 2 -0.466567 9.58001 24.2074 7.33647
981 2 -0.478005 13.8343 18.0412 5.26084
982 2 -0.495688 13.4815 20.0467 7.37846
983 2 -0.484721 15.7134 20.004 5.45035
984 2 -0.477551 15.882 17.7366 7.41164
985 2 -0.544885 13.4678 22.1483 1.06008
986 2 -0.499892 11.6926 22.1205 32.5319
987 2 -0.476282 13.7674 20.1214 32.9177
988 2 -0.490362 13.7393 24.3237 2.97394
989 2 -0.466552 15.8019 22.0353 3.2748
990 2 -0.46448 15.9485 24.3188 0.981691
991 2 -0.485058 9.48598 18.0791 9.58961
992 2 -0.498912 9.42729 20.0377 11.8286
993 2 -0.482965 11.3706 17.9098 11.5164
994 2 -0.486949 11.7106 20.1013 9.46609
995 2 -0.496156 9.27135 22.0537 13.7046
996 2 -0.498862 11.7702 22.05 15.8629
997 2 -0.505511 11.2746 24.0615 13.7329
998 2 -0.493787 9.47895 24.3673 15.9324
999 2 -0.473764 13.6263 18.0836 13.9016
1000 2 -0.475736 13.6852 20.1631 15.9896
1001 2 -0.483273 15.7163 20.0982 13.6383
1002 2 -0.477383 15.8363 17.7077 15.8795
1003 2 -0.511841 13.8109 22.2107 9.38062
1004 2 -0.477723 13.5022 24.1377 11.2524
1005 2 -0.550358 15.9507 21.9805 11.6408
1006 2 -0.530476 15.9026 24.3102 9.5078
1007 2 -0.482576 9.38613 17.781 17.9437
1008 2 -0.483039 9.48346 20.1413 20.2116
1009 2 -0.471026 11.5789 17.9882 19.8957
1010 2 -0.478037 11.4825 19.8754 17.9611
1011 2 -0.528201 9.25317 22.1178 22.0168
1012 2 -0.469513 11.759 22.1736 24.4295
1013 2 -0.44489 11.6382 24.1831 22.0403
1014 2 -0.479318 9.80322 24.5353 24.067
1015 2 -0.491164 13.959 17.9733 22.1596
1016 2 -0.511449 13.7606 20.0048 24.1124
1017 2 -0.494031 15.8742 19.9547 22.288
1018 2 -0.507248 15.7047 18.0429 24.2444
1019 2 -0.47789 13.7351 22.2982 18.0892
1020 2 -0.466174 13.6658 24.3839 20.1516
1021 2 -0.483218 15.957 22.0243 20.0725
1022 2 -0.480985 15.8816 24.3259 17.8118
1023 2 -0.548191 9.50442 18.1524 26.4653
1024 2 -0.491435 9.49071 20.0849 28.6555
1025 2 -0.491146 11.6743 17.7673 28.4777
1026 2 -0.49616 11.787 20.1621 26.3931
1027 2 -0.474825 9.40537 21.9394 30.6275
1028 2 -0.526844 9.83059 24.0008 32.7333
1029 2 -0.503249 11.692 24.3795 30.5472
1030 2 -0.492076 13.5505 17.8594 30.5957
1031 2 -0.489137 15.8247 18.0503 32.4773
1032 2 -0.500202 15.8827 20.0634 30.4128
1033 2 -0.482531 13.7569 22.1057 26.2289
1034 2 -0.477257 13.7834 24.2223 28.318
1035 2 -0.491358 15.8338 22.0277 28.598
1036 2 -0.479815 15.8659 24.2055 26.5078
1037 2 -0.549334 9.56007 26.2069 1.18872
1038 2 -0.485855 9.36997 28.743 3.17168
1039 2 -0.440439 11.9305 26.7536 3.22586
1040 2 -0.494724 11.4521 28.6636 1.04232
1041 2 -0.538789 9.70889 30.62 5.33228
1042 2 -0.507886 11.5884 30.6756 7.35989
1043 2 -0.390673 13.2957 26.5486 4.97259
1044 2 -0.486254 13.8103 28.3136 7.24988
1045 2 -0.472061 15.6752 28.3102 5.38785
1046 2 -0.529499 16.0406 26.4393 7.5353
1047 2 -0.494947 13.7246 30.8432 0.849002
1048 2 -0.492883 11.5114 30.648 32.4243
1049 2 -0.477216 13.5245 28.5198 32.7684
1050 2 -0.492352 15.4394 32.9918 1.06987
1051 2 -0.585758 15.6724 30.7677 3.31421
1052 2 -0.460031 9.30414 26.2355 9.30257
1053 2 -0.480044 9.6708 28.1898 11.5117
1054 2 -0.477122 11.3879 26.1348 11.4663
1055 2 -0.478578 11.7741 28.3734 9.44489
1056 2 -0.501085 9.65513 30.5282 13.8594
1057 2 -0.503582 11.5266 30.5256 15.8047
1058 2 -0.545036 14.1619 26.9572 13.9447
1059 2 -0.512687 13.745 28.6781 16.0464
1060 2 -0.541299 16.1288 28.6266 14.0345
1061 2 -0.502294 16.0446 26.3143 16.0108
1062 2 -0.500947 13.7028 30.2663 9.55068
1063 2 -0.48784 15.6184 33.2808 9.79057
1064 2 -0.407172 15.8046 30.4693 12.0266
1065 2 -0.488494 9.33751 26.2279 17.9566
1066 2 -0.471124 9.59578 28.2828 20.0886
1067 2 -0.475373 11.4442 26.3186 19.9051
1068 2 -0.491912 11.7937 28.4872 17.9291
1069 2 -0.47545 9.59578 30.6943 22.1834
1070 2 -0.505117 11.5684 30.6437 24.0615
1071 2 -0.48267 13.6672 26.5344 22.1159
1072 2 -0.533901 13.6486 28.5164 24.3809
1073 2 -0.503679 15.7439 28.3986 22.225
1074 2 -0.524805 15.6291 26.436 24.0379
1075 2 -0.502702 13.6216 30.5019 18.0292
1076 2 -0.485851 15.8758 32.7436 17.764
1077 2 -0.488236 15.9132 30.6078 20.2338
1078 2 -0.499392 9.55318 26.4017 26.3728
1079 2 -0.476138 9.63547 28.5136 28.3766
1080 2 -0.490789 11.5341 26.57 28.55
1081 2 -0.498956 11.8079 28.65 26.3849
1082 2 -0.479389 9.45895 30.735 30.7242
1083 2 -0.479059 13.6935 26.1799 30.5748
1084 2 -0.476941 15.6658 26.5343 32.7273
1085 2 -0.476949 15.9254 28.6135 30.6289
1086 2 -0.502742 13.7219 30.5239 26.1674
1087 2 -0.505036 15.6263 32.716 26.4647
1088 2 -0.518141 16.0181 30.5994 28.3503
1089 2 -0.475151 17.8425 0.811793 0.997067
1090 2 -0.457938 18.2679 32.8486 32.4377
1091 2 -0.469286 17.8198 3.1381 3.31036
1092 2 -0.480068 20.0315 1.15912 2.94881
1093 2 -0.468574 20.0069 3.27574 0.922864
1094 2 -0.479016 18.048 5.41083 5.28061
1095 2 -0.50385 20.1902 5.18143 7.50959
1096 2 -0.488644 20.1231 7.48673 5.26686
1097 2 -0.496896 18.0313 7.17679 7.3428
1098 2 -0.470673 22.0272 0.856601 5.21722
1099 2 -0.495912 20.0686 32.4008 5.08797
1100 2 -0.481122 22.2016 32.8281 3.21504
1101 2 -0.467288 22.1531 2.9949 7.15104
1102 2 -0.47083 24.1852 3.23022 5.08542
1103 2 -0.473126 24.3324 1.02899 7.55241
1104 2 -0.476631 21.9492 5.12204 1.01751
1105 2 -0.482856 19.9548 5.37944 32.6105
1106 2 -0.470975 22.1778 2.96323 32.5915
1107 2 -0.527737 22.3223 7.30936 3.09401
1108 2 -0.50064 24.3839 5.20001 3.21012
1109 2 -0.49759 24.0672 7.31552 1.09846
1110 2 -0.478216 17.9984 1.27493 9.42467
1111 2 -0.596051 18.0934 32.7121 7.43255
1112 2 -0.546451 17.7887 3.20631 11.7378
1113 2 -0.507251 19.8044 1.18014 11.5096
1114 2 -0.503445 19.9234 3.17017 9.59997
1115 2 -0.486751 17.8514 5.2254 13.5335
1116 2 -0.468934 19.8499 5.29157 15.6968
1117 2 -0.494347 20.0178 7.48502 13.6019
1118 2 -0.485033 17.9189 7.50796 15.9499
1119 2 -0.482159 22.1935 1.09504 13.8597
1120 2 -0.47382 19.9419 32.5976 13.7058
1121 2 -0.451732 21.987 33.035 11.5506
1122 2 -0.487045 22.2863 3.15047 15.7836
1123 2 -0.479025 24.1007 3.06591 13.6904
1124 2 -0.482757 24.2138 1.17656 15.7822
1125 2 -0.460534 22.3433 5.10974 9.56891
1126 2 -0.475099 22.1684 7.4477 11.9029
1127 2 -0.440091 24.3101 5.32022 11.6811
1128 2 -0.451418 24.3412 7.41643 9.38651
1129 2 -0.495261 17.9109 0.850048 17.9235
1130 2 -0.503426 17.8412 32.7975 15.8536
1131 2 -0.483405 17.8297 3.15782 20.2039
1132 2 -0.467976 19.9841 1.23064 20.0079
1133 2 -0.474536 20.128 3.1555 17.7987
1134 2 -0.488246 17.8963 5.31613 22.3573
1135 2 -0.477548 19.994 5.07653 24.4055
1136 2 -0.463611 19.9636 7.27935 21.9292
1137 2 -0.49355 17.8892 7.51476 24.3398
1138 2 -0.465568 22.0376 0.891445 22.1644
1139 2 -0.488241 20.0797 32.8308 22.0502
1140 2 -0.477264 22.2982 32.6715 19.9301
1141 2 -0.465952 22.0018 3.27702 24.26
1142 2 -0.47378 24.2403 3.16991 21.9905
1143 2 -0.479632 24.3552 1.06671 24.4242
1144 2 -0.483521 21.9525 5.10477 17.9839
1145 2 -0.498706 22.2635 7.25002 20.0101
1146 2 -0.506656 24.4053 5.16481 20.0571
1147 2 -0.549059 24.2617 7.4394 17.7429
1148 2 -0.504999 17.703 1.01938 26.1198
1149 2 -0.520226 18.0289 32.4918 24.2554
1150 2 -0.482035 18.0256 3.01547 28.3839
1151 2 -0.524909 19.817 0.954084 28.163
1152 2 -0.527546 19.991 2.96423 26.4543
1153 2 -0.48546 17.897 5.33835 30.6041
1154 2 -0.52167 17.9514 7.25641 32.5721
1155 2 -0.499338 19.9907 7.50557 30.4769
1156 2 -0.482831 22.4222 0.917005 30.8102
1157 2 -0.476333 20.2731 32.7621 30.3791
1158 2 -0.500166 22.088 32.9522 28.4782
1159 2 -0.490088 24.3119 0.932256 32.9436
1160 2 -0.512521 24.3588 3.10328 30.4468
1161 2 -0.482892 22.2944 5.31242 26.4303
1162 2 -0.495939 21.9391 7.3461 28.5558
1163 2 -0.482119 24.2449 5.06187 28.638
1164 2 -0.479557 24.3018 7.5037 26.4279
1165 2 -0.50961 17.7997 9.3628 0.978755
1166 2 -0.517178 17.9848 11.4676 2.91801
1167 2 -0.474877 20.0533 9.3664 3.35835
1168 2 -0.48983 20.1816 11.652 1.03728
1169 2 -0.514376 17.8312 13.6594 5.0804
1170 2 -0.469325 20.2031 13.6681 7.46744
1171 2 -0.492621 19.874 15.6512 5.26203
1172 2 -0.475583 17.9461 15.9674 7.40456
1173 2 -0.523485 22.2057 9.43783 5.38894
1174 2 -0.490447 22.0419 11.4283 7.33949
1175 2 -0.534431 23.9926 11.5132 5.27537
1176 2 -0.538707 24.1839 9.57853 7.26605
1177 2 -0.470499 22.0201 13.5917 1.0429
1178 2 -0.480161 20.0837 13.8209 32.539
1179 2 -0.48772 22.2981 11.4323 32.7119
1180 2 -0.478521 22.1552 15.9627 3.25418
1181 2 -0.457942 24.1587 13.7711 3.15142
1182 2 -0.465021 24.2538 15.6213 1.12552
1183 2 -0.493749 17.9747 9.37167 9.3351
1184 2 -0.486913 17.8046 11.5817 11.7314
1185 2 -0.48522 20.2113 9.46029 11.6346
1186 2 -0.475689 19.8539 11.6151 9.62769
1187 2 -0.467394 17.9419 13.5257 13.6733
1188 2 -0.455563 20.2126 13.7048 15.9389
1189 2 -0.466395 20.0276 15.8903 13.5704
1190 2 -0.472647 17.7943 15.7957 15.959
1191 2 -0.52902 21.9905 9.43451 13.8031
1192 2 -0.488075 22.292 11.662 15.7205
1193 2 -0.481215 24.3084 11.459 13.8148
1194 2 -0.533108 24.0945 9.61445 15.8684
1195 2 -0.475804 22.3273 13.7567 9.53296
1196 2 -0.485778 21.9451 15.8624 11.6485
1197 2 -0.474154 24.1404 13.8331 11.62
1198 2 -0.486295 24.2495 15.7274 9.66804
1199 2 -0.500972 17.7507 9.36847 17.9338
1200 2 -0.476775 18.0879 11.5734 19.9906
1201 2 -0.498108 19.9695 9.57413 19.9429
1202 2 -0.488783 19.9373 11.4422 17.9387
1203 2 -0.476528 18.0929 13.8316 22.1345
1204 2 -0.467609 20.2103 13.5638 24.2428
1205 2 -0.486947 20.1899 15.9702 22.1535
1206 2 -0.482899 17.9553 15.6076 24.1091
1207 2 -0.449719 22.0455 9.23741 22.3185
1208 2 -0.423954 22.3178 11.464 24.1379
1209 2 -0.485154 24.4209 12.0292 22.2307
1210 2 -0.50862 24.3688 9.50199 24.5102
1211 2 -0.484013 22.229 13.7574 18.1135
1212 2 -0.493265 22.12 15.9633 20.208
1213 2 -0.496849 24.4427 13.7585 20.0594
1214 2 -0.493194 24.0842 15.7317 17.9522
1215 2 -0.486245 18.0458 9.63318 26.3568
1216 2 -0.482618 17.7119 11.6358 28.6274
1217 2 -0.506192 20.0994 9.34415 28.4591
1218 2 -0.468747 19.9078 11.6024 26.4898
1219 2 -0.446355 18.0001 13.5588 30.4622
1220 2 -0.527177 18.068 16.012 32.819
1221 2 -0.469844 20.1714 15.8222 30.4104
1222 2 -0.495145 22.1545 9.6411 30.6607
1223 2 -0.488793 24.2256 9.52826 32.4732
1224 2 -0.486923 24.2671 11.7893 30.473
1225 2 -0.46386 22.0493 13.6849 26.1984
1226 2 -0.473041 22.3618 15.7077 28.4299
1227 2 -0.497755 24.4549 13.7222 28.5672
1228 2 -0.489859 24.3571 15.995 26.3692
1229 2 -0.558323 17.8286 17.739 1.05445
1230 2 -0.462207 17.8389 20.2047 3.29049
1231 2 -0.4861 20.135 17.7735 3.19084
1232 2 -0.490299 20.0473 19.8597 0.93221
1233 2 -0.472616 17.9695 22.3672 5.32155
1234 2 -0.484158 20.0785 21.9638 7.44305
1235 2 -0.478596 20.2349 24.3129 5.18351
1236 2 -0.506242 18.0382 24.2659 7.19001
1237 2 -0.458296 22.0332 17.9517 5.26633
1238 2 -0.511503 22.0012 19.9523 7.5599
1239 2 -0.538149 24.3788 19.3507 5.24841
1240 2 -0.501539 24.2441 18.1254 7.34443
1241 2 -0.467617 22.2058 22.2846 1.16909
1242 2 -0.490076 20.0973 22.0134 32.7858
1243 2 -0.487332 22.2794 20.0638 32.4658
1244 2 -0.47014 22.0355 24.4403 3.15618
1245 2 -0.386958 24.447 22.0605 3.05006
1246 2 -0.477468 24.1622 24.123 1.04657
1247 2 -0.510156 18.0075 18.074 9.48404
1248 2 -0.509413 17.7892 19.962 11.7996
1249 2 -0.495413 19.8908 17.8766 11.456
1250 2 -0.483674 19.9686 19.9722 9.69256
1251 2 -0.52349 17.9293 22.0069 13.9275
1252 2 -0.50512 20.0773 22.3513 15.8358
1253 2 -0.479672 20.192 24.4923 13.7426
1254 2 -0.49905 18.0758 24.1182 15.8831
1255 2 -0.550291 22.2376 18.1287 13.746
1256 2 -0.503238 22.1967 19.9888 15.7583
1257 2 -0.581056 24.2227 20.2655 13.8034
1258 2 -0.489034 24.4112 17.8661 15.9424
1259 2 -0.492995 22.1458 22.0545 9.30346
1260 2 -0.482754 22.2036 24.1298 11.4926
1261 2 -0.51206 24.2979 22.4098 11.5034
1262 2 -0.498779 24.2628 24.4192 9.41762
1263 2 -0.495465 17.8737 17.8854 17.7671
1264 2 -0.497008 18.0724 20.0553 19.9282
1265 2 -0.499265 19.8595 17.9758 19.9943
1266 2 -0.500588 20.058 19.9486 18.1323
1267 2 -0.460995 17.8805 22.162 22.03
1268 2 -0.4348 20.4306 22.2857 24.0765
1269 2 -0.450203 19.7401 24.1896 22.2587
1270 2 -0.454947 17.8076 24.5168 24.3494
1271 2 -0.462038 22.0517 17.9869 22.0186
1272 2 -0.436896 21.9261 20.0702 24.3179
1273 2 -0.384148 24.3562 20.0553 22.072
1274 2 -0.469099 24.2888 17.8088 24.2999
1275 2 -0.466025 21.9956 22.1367 17.9178
1276 2 -0.455204 22.0204 24.3425 20.2926
1277 2 -0.469411 24.1058 22.3192 20.0327
1278 2 -0.475992 24.2063 24.2464 18.1927
1279 2 -0.534747 17.8401 17.7633 26.1375
1280 2 -0.52056 17.8987 19.9322 28.3556
1281 2 -0.472498 20.2754 17.8455 28.5855
1282 2 -0.475175 20.0814 19.8155 26.5421
1283 2 -0.491191 17.9067 22.3124 30.753
1284 2 -0.485358 18.0796 24.2843 32.6267
1285 2 -0.502063 19.9056 24.1294 30.6323
1286 2 -0.479818 22.3757 17.9687 30.6372
1287 2 -0.47986 24.3851 17.8832 32.905
1288 2 -0.486004 24.2385 19.883 30.5926
1289 2 -0.475304 21.8923 22.0661 26.3684
1290 2 -0.488115 22.13 24.2931 28.7766
1291 2 -0.522198 24.2254 22.2235 28.3192
1292 2 -0.527142 24.0363 24.2015 26.6695
1293 2 -0.475295 17.7668 26.2905 1.06311
1294 2 -0.481236 17.8511 28.5481 3.20557
1295 2 -0.469729 19.8719 26.4799 3.13625
1296 2 -0.492692 20.0707 28.6079 0.902392
1297 2 -0.521243 18.09 30.5643 5.32656
1298 2 -0.499982 20.1995 30.4228 7.523
1299 2 -0.487006 22.3141 26.5018 5.29319
1300 2 -0.480116 22.0276 28.5511 7.43076
1301 2 -0.459235 24.3145 28.6232 5.27397
1302 2 -0.552372 24.328 26.1617 7.42845
1303 2 -0.483451 22.1824 30.721 1.19932
1304 2 -0.499326 20.069 30.8154 32.6315
1305 2 -0.482598 22.1311 28.5413 32.8862
1306 2 -0.486245 24.4588 32.713 1.03733
1307 2 -0.462769 24.2313 30.3846 3.24716
1308 2 -0.502648 17.9389 26.2865 9.51855
1309 2 -0.498098 18.0464 28.4584 11.5493
1310 2 -0.494217 19.9649 26.517 11.6759
1311 2 -0.510117 20.0728 28.3181 9.62132
1312 2 -0.491454 18.1208 30.7192 13.8029
1313 2 -0.499466 20.2575 30.5023 15.8582
1314 2 -0.49484 22.0954 26.3628 13.6165
1315 2 -0.503977 22.3588 28.3583 15.8847
1316 2 -0.492628 24.3336 28.3826 14.0022
1317 2 -0.477218 24.1773 26.326 15.7672
1318 2 -0.529851 22.3277 30.5847 9.717
1319 2 -0.462778 24.2198 32.7951 9.39155
1320 2 -0.520058 24.5065 30.6848 11.17
1321 2 -0.49511 18.0597 26.3866 18.1787
1322 2 -0.491782 17.7609 28.6122 20.0736
1323 2 -0.481748 19.9971 26.5328 19.9942
1324 2 -0.491954 20.0432 28.5786 17.7989
1325 2 -0.498183 18.0371 30.5815 22.3165
1326 2 -0.506295 19.94 30.6285 24.2547
1327 2 -0.497136 21.9555 26.3943 22.4559
1328 2 -0.537867 22.3778 28.3848 24.1272
1329 2 -0.569818 24.4419 28.6046 22.1244
1330 2 -0.516127 24.2458 26.1449 24.3694
1331 2 -0.489385 21.9735 30.4925 17.973
1332 2 -0.48886 24.2773 32.6625 17.7707
1333 2 -0.486922 24.3293 30.5725 20.2132
1334 2 -0.498464 18.2246 26.3732 26.5173
1335 2 -0.502803 17.9643 28.417 28.7831
1336 2 -0.488249 20.1148 26.4144 28.3811
1337 2 -0.533719 20.2855 28.3711 26.2101
1338 2 -0.495081 17.987 30.4199 30.5979
1339 2 -0.482449 22.0153 26.244 30.6526
1340 2 -0.47281 24.2372 26.4621 32.5099
1341 2 -0.473847 24.2812 28.5444 30.4061
1342 2 -0.539944 22.4164 30.5738 26.3827
1343 2 -0.506844 24.1518 32.5694 26.3646
1344 2 -0.490416 24.2535 30.7731 28.3818
1345 2 -0.488401 26.4915 1.12927 1.05208
1346 2 -0.491571 26.4125 32.5921 32.5349
1347 2 -0.522423 26.3232 3.00114 3.00968
1348 2 -0.493888 28.3361 1.05095 3.007
1349 2 -0.5049 28.4938 3.23823 0.889375
1350 2 -0.563001 26.5019 5.29743 5.37535
1351 2 -0.481224 28.4288 5.24757 7.64003
1352 2 -0.520465 28.4676 7.44694 5.08937
1353 2 -0.49286 26.3132 7.33215 7.22966
1354 2 -0.512518 30.4621 0.999883 5.12865
1355 2 -0.508981 28.2953 32.6183 5.32187
1356 2 -0.49342 30.5022 32.7482 3.3728
1357 2 -0.486166 30.4222 3.13216 7.25746
1358 2 -0.470922 30.4923 5.05349 1.04504
1359 2 -0.484942 28.341 5.37589 32.6772
1360 2 -0.475723 30.7369 3.04737 32.6409
1361 2 -0.463269 30.9552 7.3122 3.18202
1362 2 -0.473011 26.4036 1.0829 9.71905
1363 2 -0.493024 26.4842 32.6589 7.41474
1364 2 -0.469113 26.3351 3.14267 11.4408
1365 2 -0.486863 28.4775 1.04001 11.8438
1366 2 -0.482399 28.5006 3.21129 9.39198
1367 2 -0.478477 26.4686 5.26345 13.8421
1368 2 -0.515675 28.2733 5.29212 15.9146
1369 2 -0.501274 28.6883 7.35075 13.8661
1370 2 -0.494131 26.3432 7.26061 15.744
1371 2 -0.491104 30.4795 0.885219 13.724
1372 2 -0.478727 28.5938 32.6722 13.6429
1373 2 -0.495126 30.6507 32.6889 11.4708
1374 2 -0.475999 30.6083 3.06669 15.6915
1375 2 -0.486387 30.6854 5.30541 9.67811
1376 2 -0.532969 30.4249 7.44246 11.7468
1377 2 -0.460511 26.3097 0.692311 17.9798
1378 2 -0.483135 26.1792 32.6917 15.8463
1379 2 -0.501186 26.3424 3.16402 20.1659
1380 2 -0.455692 28.5479 1.0512 20.1644
1381 2 -0.518776 28.6492 3.32035 17.9127
1382 2 -0.492312 26.2147 5.1218 22.1852
1383 2 -0.482291 28.4487 5.44861 24.2144
1384 2 -0.487305 28.3003 7.29885 22.203
1385 2 -0.503909 26.4463 7.35585 24.189
1386 2 -0.476867 30.7461 1.15668 22.1758
1387 2 -0.47789 28.389 32.5683 22.1611
1388 2 -0.47413 30.4013 32.871 20.0089
1389 2 -0.476136 30.5888 2.98798 24.1833
1390 2 -0.475323 30.5993 5.43584 18.1089
1391 2 -0.473269 30.7571 7.2936 20.0736
1392 2 -0.496404 26.4279 1.09126 26.5556
1393 2 -0.478304 26.2903 32.9205 24.2786
1394 2 -0.495607 26.4744 3.13722 28.3615
1395 2 -0.4915 28.4639 1.22757 28.3907
1396 2 -0.48093 28.4798 3.28428 26.188
1397 2 -0.483588 26.3778 5.31674 30.8014
1398 2 -0.484233 26.3056 7.42699 32.8602
1399 2 -0.488499 28.5921 7.3597 30.449
1400 2 -0.476146 30.4428 0.898049 30.5945
1401 2 -0.482265 28.3034 32.5626 30.5942
1402 2 -0.482374 30.5403 32.7855 28.6444
1403 2 -0.476277 30.6378 5.29302 26.5514
1404 2 -0.481992 30.4569 7.54052 28.5
1405 2 -0.5025 26.311 9.37676 0.911763
1406 2 -0.456437 26.4354 11.7393 2.83641
1407 2 -0.482799 28.6014 9.65535 3.06981
1408 2 -0.483687 28.5423 11.6478 0.857656
1409 2 -0.459736 26.2742 13.7881 5.05226
1410 2 -0.467767 28.4263 13.6543 7.47206
1411 2 -0.487391 28.4169 15.8667 5.49628
1412 2 -0.484781 26.2972 15.8994 7.52994
1413 2 -0.458259 30.4864 9.34402 5.27431
1414 2 -0.474644 30.6044 11.5089 7.27381
1415 2 -0.489695 30.6032 13.7965 1.2815
1416 2 -0.495542 28.4964 13.6376 32.9161
1417 2 -0.53286 30.5995 11.566 32.5485
1418 2 -0.467989 30.6695 15.8274 3.06105
1419 2 -0.44802 26.3981 9.70145 9.57821
1420 2 -0.452646 26.4362 11.7885 11.6254
1421 2 -0.52521 28.4202 9.35704 11.8956
1422 2 -0.449516 28.53 11.9047 9.36893
1423 2 -0.51264 26.3485 13.5752 13.716
1424 2 -0.547385 28.4217 14.0647 15.825
1425 2 -0.492168 28.6051 15.8736 13.58
1426 2 -0.483829 26.4575 15.8918 15.7001
1427 2 -0.501313 30.6696 9.42572 13.6963
1428 2 -0.464702 30.8802 11.5649 16.1631
1429 2 -0.524391 30.605 13.7046 9.80906
1430 2 -0.488153 30.6123 15.9266 11.8059
1431 2 -0.488782 26.4316 9.55004 18.1699
1432 2 -0.525482 26.4597 11.5199 20.109
1433 2 -0.481343 28.3468 9.61655 20.1141
1434 2 -0.489575 28.5863 11.7867 18.0561
1435 2 -0.506542 26.3754 13.8292 21.9793
1436 2 -0.492602 28.55 13.5739 24.259
1437 2 -0.492505 28.4272 15.829 22.3803
1438 2 -0.485123 26.2302 15.8729 24.4027
1439 2 -0.473903 30.371 9.4005 22.1747
1440 2 -0.486103 30.661 11.4068 24.2793
1441 2 -0.471958 30.567 13.6506 17.8787
1442 2 -0.558028 30.3981 15.9469 20.0444
1443 2 -0.497286 26.4994 9.47657 26.56
1444 2 -0.494873 26.3478 11.4894 28.3647
1445 2 -0.491193 28.3563 9.66164 28.5115
1446 2 -0.504021 28.4682 11.7734 26.2775
1447 2 -0.495009 26.5723 13.7737 30.6695
1448 2 -0.478104 26.4375 15.7638 32.5525
1449 2 -0.447098 28.815 15.8229 30.7252
1450 2 -0.502088 30.6757 9.44136 30.7375
1451 2 -0.480235 30.3981 13.7298 26.2575
1452 2 -0.467274 30.5557 15.9982 28.5422
1453 2 -0.472895 26.5037 17.9322 1.24317
1454 2 -0.502681 26.5057 19.9564 3.1126
1455 2 -0.511106 28.3756 18.107 3.25991
1456 2 -0.472062 28.67 20.1857 1.04282
1457 2 -0.491183 26.4874 22.3147 5.29655
1458 2 -0.496142 28.5624 22.0955 7.61982
1459 2 -0.505223 28.6113 24.422 5.31375
1460 2 -0.568848 26.4022 24.0824 7.23559
1461 2 -0.462258 30.5642 17.9282 5.16352
1462 2 -0.478314 30.5887 19.9179 7.28868
1463 2 -0.487049 30.5399 22.1221 0.868609
1464 2 -0.472484 28.3345 22.1671 32.5811
1465 2 -0.453881 30.7053 19.8678 32.5944
1466 2 -0.480525 30.5812 24.075 3.13636
1467 2 -0.484327 26.3705 17.7687 9.41392
1468 2 -0.493968 26.2865 20.1069 11.6622
1469 2 -0.481421 28.4715 17.9809 11.4499
1470 2 -0.49124 28.3926 19.8676 9.54136
1471 2 -0.535834 26.5014 22.0734 13.5301
1472 2 -0.519952 28.3535 22.197 15.7993
1473 2 -0.496105 28.5068 24.2243 13.9525
1474 2 -0.536409 26.3573 24.0153 15.7141
1475 2 -0.482678 30.6662 17.9814 13.9373
1476 2 -0.502624 30.6169 20.1892 15.9509
1477 2 -0.501047 30.4339 22.0121 9.54817
1478 2 -0.488326 30.7374 24.2443 11.5397
1479 2 -0.482929 26.1786 17.9137 17.9272
1480 2 -0.524112 26.6604 19.9656 19.984
1481 2 -0.50474 28.514 17.9032 20.2322
1482 2 -0.516135 28.6592 20.0612 17.846
1483 2 -0.495807 26.2546 22.0793 22.3323
1484 2 -0.505807 28.2819 22.3151 24.3618
1485 2 -0.590899 28.4938 23.8216 21.6873
1486 2 -0.574609 26.1226 23.9266 24.3099
1487 2 -0.491274 30.5799 17.9037 21.9382
1488 2 -0.477179 30.6166 19.9145 24.1174
1489 2 -0.515998 30.4576 22.0643 17.8957
1490 2 -0.503446 30.8105 24.2971 19.6771
1491 2 -0.532181 26.4926 18.0443 26.4881
1492 2 -0.492231 26.3443 20.2092 28.615
1493 2 -0.516095 28.4754 18.1864 28.2173
1494 2 -0.476436 28.5128 20.2078 26.1281
1495 2 -0.476189 26.3657 22.2753 30.7478
1496 2 -0.473976 26.3751 24.4328 32.8237
1497 2 -0.486619 28.5197 24.2803 30.3995
1498 2 -0.433589 30.5007 17.9754 30.5398
1499 2 -0.482685 30.6415 22.226 26.5364
1500 2 -0.483694 30.7427 24.2605 28.3255
1501 2 -0.453483 26.2293 26.3998 0.957915
1502 2 -0.459485 25.9912 28.0154 3.18958
1503 2 -0.494805 28.347 26.4869 3.18226
1504 2 -0.488899 28.4259 28.1911 1.04569
1505 2 -0.53176 26.461 30.544 5.52694
1506 2 -0.50993 28.5095 30.7709 7.30414
1507 2 -0.527122 30.5479 26.2589 5.20361
1508 2 -0.534562 30.6246 28.314 7.40248
1509 2 -0.464299 30.5934 30.6499 1.22983
1510 2 -0.480392 28.6335 30.5055 32.8506
1511 2 -0.484562 30.7023 28.405 32.5603
1512 2 -0.504263 26.2904 26.503 9.70545
1513 2 -0.485517 26.334 28.3451 11.4258
1514 2 -0.467932 28.4694 26.3072 11.8888
1515 2 -0.530717 28.5389 28.6681 9.41261
1516 2 -0.444027 26.2767 30.4203 13.5708
1517 2 -0.472044 28.2607 30.6234 15.7687
1518 2 -0.473929 30.5803 26.261 13.6217
1519 2 -0.473053 30.4034 28.5291 15.9019
1520 2 -0.4836 30.5731 30.4393 9.48605
1521 2 -0.479861 26.3507 26.2617 17.7538
1522 2 -0.52191 26.4228 28.2922 19.9376
1523 2 -0.526624 28.5616 26.324 20.0752
1524 2 -0.470406 28.6286 28.6077 17.9174
1525 2 -0.48788 26.4141 30.4947 21.9938
1526 2 -0.475577 28.4627 30.7333 24.0908
1527 2 -0.484279 30.5892 26.2305 21.9229
1528 2 -0.477492 30.6465 28.3524 24.2017
1529 2 -0.476516 30.7405 30.6419 18.0333
1530 2 -0.463473 26.1261 26.4967 26.2556
1531 2 -0.466426 26.2902 28.5684 28.6196
1532 2 -0.515448 28.614 26.4816 28.6026
1533 2 -0.462525 28.4294 28.6703 26.1852
1534 2 -0.484827 26.4331 30.5695 30.7745
1535 2 -0.529674 30.3851 26.2119 30.6379
1536 2 -0.476266 30.5693 30.7661 26.4074
1537 2 -0.633541 17.1264 10.462 31.5695
1538 2 -0.610765 3.168 9.53032 0.519649
1539 2 -0.592894 16.3958 15.9161 3.22943
1540 2 -0.577277 7.22627 32.867 11.4933
1541 2 -0.561866 29.6736 28.788 29.4208
1542 2 -0.575479 26.3213 11.0446 5.36693
1543 2 -0.567575 29.2438 9.53597 9.70654
1544 2 -0.56541 6.47969 24.4319 7.56352
1545 2 -0.601977 28.8585 26.2622 9.23865
1546 2 -0.557878 22.2453 20.2437 12.2334
1547 2 -0.56537 17.5296 17.5895 28.5079
1548 2 -0.640795 0.22033 0.373973 5.17734
1549 2 -0.548335 4.23908 19.9477 28.459
1550 2 -0.647389 9.47924 19.6725 24.148
1551 2 -0.608586 27.7357 25.3544 23.3982
1552 2 -0.658564 11.2919 22.3437 2.514
1553 2 -0.570018 5.40632 5.53146 15.6477
1554 2 -0.579203 26.4572 23.983 26.6689
1555 2 -0.588873 26.6856 19.8087 5.58083
1556 2 -0.550713 27.1295 30.0637 3.31336
1557 2 -0.579459 1.42 3.23231 9.39315
1558 2 -0.571735 23.385 10.3596 20.8055
1559 2 -0.584835 26.3069 3.14851 17.4198
1560 2 -0.620092 11.5079 18.1049 22.7555
1561 2 -0.56751 28.4136 4.69268 3.67166
1562 2 -0.57574 32.6646 24.2794 5.54861
1563 2 -0.569904 29.1451 16.3239 17.8782
1564 2 -0.571114 13.8431 32.6466 4.8693
1565 2 -0.58555 16.0312 27.3607 26.1801
1566 2 -0.556622 15.3825 17.8353 11.1546
1567 2 -0.564303 20.3582 17.618 33.3277
1568 2 -0.547785 17.9409 22.9812 10.3494
1569 2 -0.600341 14.671 25.0666 6.17179
1570 2 -0.597191 7.17876 12.5816 7.05904
1571 2 -0.596869 23.9445 28.3637 11.3504
1572 2 -0.588467 2.68109 2.8051 14.4513
1573 2 -0.592913 17.2625 12.4848 0.148075
1574 2 -0.584479 15.1633 14.2566 6.63289
1575 2 -0.550149 14.0504 5.38286 15.376
1576 2 -0.598493 33.4003 23.3129 33.0484
1577 2 -0.586999 26.5865 22.2573 20.1541
1578 2 -0.554784 10.694 24.8597 3.29803
1579 2 -0.564734 7.6381 30.5383 7.39093
1580 2 -0.591039 31.1012 12.4033 13.9556
1581 2 -0.574476 21.2332 8.03031 24.9744
1582 2 -0.554331 23.6235 21.6106 5.33697
1583 2 -0.589945 15.4804 14.1657 30.6579
1584 2 -0.592474 1.18917 2.81238 5.33304
1585 2 -0.563539 16.1316 30.8602 10.0089
1586 2 -0.590987 25.2666 9.64614 22.3221
1587 2 -0.569943 17.6295 20.5067 16.0631
1588 2 -0.571969 22.5074 7.18574 15.7938
1589 2 -0.619815 24.1069 23.972 6.10886
1590 2 -0.578745 5.34577 25.9414 24.5087
1591 2 -0.546578 13.5375 24.1598 13.5644
1592 2 -0.595031 30.7701 14.4868 7.50166
1593 2 -0.578955 33.4648 25.0586 30.5225
1594 2 -0.580211 24.3375 26.271 21.6251
1595 2 -0.561457 8.36741 25.2087 31.352
1596 2 -0.636878 17.4813 29.9751 26.26
1597 2 -0.514818 8.97199 11.1768 26.5693
1598 2 -0.523114 1.14653 32.724 30.67
1599 2 -0.569591 28.4804 7.29776 2.68398
1600 2 -0.584688 3.24273 11.3585 15.7334
1601 2 -0.57998 5.62638 9.07373 32.453
1602 2 -0.601071 7.30735 5.68082 30.8338
1603 2 -0.58911 1.56231 31.6274 1.84473
1604 2 -0.555889 16.8615 31.396 33.5662
1605 2 -0.624178 28.6221 11.8368 15.1391
1606 2 -0.556069 10.3861 1.49187 5.50547
1607 2 -0.589712 13.108 8.55528 8.53383
1608 2 -0.571123 20.7349 25.818 25.0725
1609 2 -0.60946 33.4461 18.045 30.5638
1610 2 -0.567997 24.228 22.398 15.3693
1611 2 -0.60561 21.2077 7.19778 9.67873
1612 2 -0.588313 18.8894 2.11265 14.2922
1613 2 -0.591884 32.9874 18.8077 26.2847
1614 2 -0.568334 18.2572 21.8468 24.8973
1615 2 -0.642784 7.72265 33.0318 14.0493
1616 2 -0.584994 3.15166 26.2124 7.7201
1617 2 -0.601432 12.0983 12.2693 29.9204
1618 2 -0.578991 3.44685 30.5492 27.9225
1619 2 -0.570989 9.29211 22.4494 24.2835
1620 2 -0.568333 12.8754 12.6927 20.2372
1621 2 -0.610344 27.4207 16.1641 28.916
1622 2 -0.570196 24.6178 29.8247 24.9035
1623 2 -0.6331 25.0541 8.56282 4.01281
1624 2 -0.560242 22.6906 30.9901 12.5867
1625 2 -0.567988 15.8131 7.66055 28.8956
1626 2 -0.517578 1.55363 26.5644 20.2628
1627 2 -0.582758 15.7704 33.0352 7.34737
1628 2 -0.573516 0.785224 11.9087 18.0081
1629 2 -0.568553 32.8101 19.7563 7.437
1630 2 -0.595933 21.4281 2.30842 29.2046
1631 2 -0.581419 31.8602 13.7458 30.198
1632 2 -0.595876 11.8114 7.64768 24.5533
1633 3 0.388451 17.3025 10.3466 30.6034
1634 3 0.366531 16.9317 9.46391 31.9497
1635 3 0.392379 2.2121 9.09959 0.261187
1636 3 0.353001 3.16739 10.5252 0.121405
1637 3 0.388835 16.7164 16.1474 2.21608
1638 3 0.386844 17.2366 15.72 3.71921
1639 3 0.300195 7.6937 30.8662 11.1815
1640 3 0.459679 7.70432 32.9403 12.3857
1641 3 0.406895 30.4403 28.6303 29.9902
1642 3 0.422495 29.3088 27.8591 29.1539
1643 3 0.374753 25.2717 10.6456 5.31952
1644 3 0.383347 26.5575 10.8773 6.30966
1645 3 0.363809 29.9978 10.0996 10.04
1646 3 0.379915 29.073 8.84822 10.6004
1647 3 0.383616 6.17294 25.4671 7.47929
1648 3 0.394558 6.21066 24.1214 8.53305
1649 3 0.367704 29.4512 25.6754 8.71208
1650 3 0.380158 29.1642 27.2683 8.95507
1651 3 0.402815 22.9742 20.7012 12.7588
1652 3 0.411776 22.2241 19.2818 12.6027
1653 3 0.391782 17.1072 18.5603 28.7172
1654 3 0.39819 17.1443 17.2935 27.5673
1655 3 0.382972 33.392 0.577662 6.24145
1656 3 0.362734 33.2744 0.56441 4.5432
1657 3 0.307176 3.42745 19.5758 28.0859
1658 3 0.371353 4.98608 19.6334 27.8983
1659 3 0.400867 8.72968 19.515 23.5209
1660 3 0.39858 9.14678 19.4113 25.0353
1661 3 0.345563 26.8364 25.5758 23.7968
1662 3 0.343194 27.6405 25.5618 22.4183
1663 3 0.43515 10.9989 21.4052 2.32431
1664 3 0.407872 12.2035 22.4586 2.03413
1665 3 0.398944 5.79131 5.8471 16.6175
1666 3 0.394655 4.49743 6.06024 15.4831
1667 3 0.407239 26.7572 23.496 25.7636
1668 3 0.410266 25.5861 23.5054 26.981
1669 3 0.407486 25.8522 19.1425 5.84098
1670 3 0.409206 27.1442 19.3799 4.77858
1671 3 0.284612 27.3713 28.9477 2.81279
1672 3 0.387124 27.558 30.1316 4.23036
1673 3 0.381516 1.2566 2.96143 8.47142
1674 3 0.373235 2.18039 4.79991 8.13704
1675 3 0.368727 22.9516 10.3759 19.927
1676 3 0.377706 23.0947 9.36118 21.1833
1677 3 0.375972 25.7518 3.73717 17.9914
1678 3 0.393537 27.2681 3.69705 17.2612
1679 3 0.407255 10.9955 18.8354 23.2269
1680 3 0.371083 11.7081 17.4929 23.5087
1681 3 0.38626 27.9014 4.56429 2.86567
1682 3 0.39197 27.7283 4.84872 4.42595
1683 3 0.405971 32.6148 25.2264 5.79406
1684 3 0.36631 32.1792 23.8336 6.23938
1685 3 0.389187 28.8005 15.8392 18.6343
1686 3 0.398832 30.0568 16.4749 18.1623
1687 3 0.383187 13.3197 31.8888 5.224
1688 3 0.368695 15.2867 31.2195 4.08004
1689 3 0.395922 16.795 28.0233 26.0901
1690 3 0.390905 15.4666 27.4828 25.2765
1691 3 0.405899 14.6017 17.1427 11.242
1692 3 0.400079 16.0817 17.3568 10.6782
1693 3 0.416004 20.2689 18.5528 0.042731
1694 3 0.41519 19.4853 17.1793 33.3685
1695 3 0.40805 17.3085 22.3668 10.8794
1696 3 0.404382 17.3208 23.7117 9.97802
1697 3 0.36839 14.0009 24.8186 6.86346
1698 3 0.378206 15.5924 25.1222 6.70054
1699 3 0.392455 8.00283 12.6209 6.45021
1700 3 0.359431 6.54973 13.2098 6.58778
1701 3 0.422126 24.8706 28.0067 10.882
1702 3 0.386417 23.7072 29.2539 10.8238
1703 3 0.410689 2.53068 3.7581 14.5097
1704 3 0.404565 2.66686 2.60368 13.5172
1705 3 0.397448 17.4881 12.1197 1.01076
1706 3 0.412926 17.442 11.7752 33.2782
1707 3 0.396705 15.0283 13.9634 7.5389
1708 3 0.413588 15.3918 13.4576 6.1288
1709 3 0.392085 14.0269 4.41999 14.95
1710 3 0.337864 13.0303 5.66498 15.6025
1711 3 0.264064 0.699742 23.1701 32.4308
1712 3 0.371651 -0.192626 22.8561 0.151416
1713 3 0.394805 28.0181 23.3845 20.9515
1714 3 0.399501 27.2114 21.5828 19.7172
1715 3 0.42865 10.8143 23.938 3.01249
1716 3 0.407117 9.72828 25.4887 1.86174
1717 3 0.418527 8.29646 31.319 7.2987
1718 3 0.415798 7.68412 29.9656 6.58295
1719 3 0.360199 30.9376 12.6095 15.0874
1720 3 0.372627 30.2311 12.0872 13.6497
1721 3 0.392536 21.6933 8.4846 25.6666
1722 3 0.382022 20.3871 7.81684 25.3464
1723 3 0.284409 23.3331 20.555 5.91301
1724 3 0.412273 23.9251 22.2692 6.03581
1725 3 0.398492 15.0209 14.2997 29.7089
1726 3 0.392758 14.7404 13.8782 31.2613
1727 3 0.387357 1.78316 2.82339 4.45866
1728 3 0.380823 0.872222 1.61645 5.26227
1729 3 0.323189 14.9928 32.6151 9.39342
1730 3 0.39563 15.9919 30.0018 9.58047
1731 3 0.382164 25.4943 9.43018 23.3494
1732 3 0.392113 25.8577 10.4186 22.0699
1733 3 0.414818 17.7498 21.1063 15.2067
1734 3 0.382869 17.8992 21.0279 16.8128
1735 3 0.400819 22.3907 8.11888 15.5855
1736 3 0.40849 23.2717 7.13759 16.4773
1737 3 0.428276 23.9063 24.918 6.45957
1738 3 0.407592 25.1196 23.8375 6.29465
1739 3 0.361465 5.4062 25.1617 23.8826
1740 3 0.387592 6.26594 25.9138 25.0467
1741 3 0.326048 13.5443 26.2298 13.3303
1742 3 0.41573 12.9043 23.8173 14.2717
1743 3 0.411431 31.6888 14.7409 7.96853
1744 3 0.37706 30.1733 15.2125 7.83724
1745 3 0.403503 0.321373 25.5839 31.057
1746 3 0.400292 32.9167 24.6845 31.22
1747 3 0.371602 24.8191 27.2688 21.4242
1748 3 0.342255 24.9779 25.773 22.1873
1749 3 0.37401 9.38801 25.0399 31.5474
1750 3 0.379347 8.16036 26.2362 31.5324
1751 3 0.396434 18.0647 30.6899 25.9976
1752 3 0.406637 16.9666 30.2936 27.1251
1753 3 0.411541 8.54753 11.7364 27.2741
1754 3 0.234578 9.33623 10.4709 28.7282
1755 3 0.404547 0.545136 32.0497 30.2683
1756 3 0.37445 1.98409 30.057 30.0891
1757 3 0.388998 28.1493 8.30039 2.40528
1758 3 0.38694 27.9729 7.03129 3.58101
1759 3 0.340056 2.56294 11.3127 16.4813
1760 3 0.370406 2.83202 12.0783 15.0877
1761 3 0.423804 5.17209 8.97121 33.3064
1762 3 0.276061 4.96729 11.126 32.2515
1763 3 0.382523 8.0919 6.22983 31.1688
1764 3 0.382953 7.10998 5.07373 31.6051
1765 3 0.409523 1.79241 31.7834 0.919113
1766 3 0.403883 0.618953 31.8824 1.90456
1767 3 0.287594 17.015 32.1007 0.647592
1768 3 0.373979 17.4021 30.6098 0.0357169
1769 3 0.377295 27.6639 11.81 15.3879
1770 3 0.336522 28.7017 12.8708 14.783
1771 3 0.42305 10.6219 1.68525 4.51138
1772 3 0.417247 10.7516 0.565123 5.68093
1773 3 0.385879 12.9234 7.649 8.74949
1774 3 0.385795 13.6608 8.82475 9.26024
1775 3 0.41645 20.4043 26.6042 25.5581
1776 3 0.414282 20.9725 26.1119 24.1789
1777 3 0.359679 0.40914 18.6217 30.962
1778 3 0.372965 33.3934 18.5008 29.6795
1779 3 0.410774 24.1991 21.5051 14.8611
1780 3 0.40944 25.1267 22.8011 15.2579
1781 3 0.375547 20.5522 7.59332 9.06025
1782 3 0.360393 20.6235 6.50446 10.0695
1783 3 0.405497 18.6894 2.18888 13.351
1784 3 0.393163 18.076 1.8078 14.6859
1785 3 0.382224 33.8032 18.7639 26.9611
1786 3 0.369628 33.2971 19.4903 25.6129
1787 3 0.282965 19.3713 21.4506 25.1646
1788 3 0.379405 17.9491 22.2385 25.7443
1789 3 0.414645 8.52101 32.7449 14.6752
1790 3 0.423531 7.20263 -0.0104544 14.5812
1791 3 0.414204 2.3368 25.5795 7.776
1792 3 0.41633 3.01014 26.9867 8.36538
1793 3 0.418954 11.2187 12.0339 29.6025
1794 3 0.405011 12.4738 11.4604 30.2798
1795 3 0.411893 4.17559 31.2193 28.1697
1796 3 0.314979 3.70518 30.1765 26.9731
1797 3 0.388578 8.6831 22.0047 23.5761
1798 3 0.377635 7.89107 23.338 25.6341
1799 3 0.390113 12.4285 13.5318 20.3378
1800 3 0.408934 13.3538 12.7447 19.304
1801 3 0.39458 27.3776 16.9675 28.2176
1802 3 0.387079 26.6322 15.5859 28.7553
1803 3 0.411338 24.1601 29.2959 24.2255
1804 3 0.424465 23.9036 30.2344 25.4648
1805 3 0.394029 24.2227 8.42293 3.5609
1806 3 0.369079 24.8769 8.23942 4.88845
1807 3 0.364165 22.0317 30.2998 12.4026
1808 3 0.275345 23.7416 30.3336 12.7609
1809 3 0.322162 15.9835 6.60345 28.6731
1810 3 0.379959 14.8486 7.71028 29.3049
1811 3 0.312393 1.67696 28.6122 19.6331
1812 3 0.387303 1.52796 27.2114 21.0092
1813 3 0.368157 18.0239 32.0781 8.15266
1814 3 0.39461 16.3578 32.6592 6.65372
1815 3 0.372213 0.606153 10.9409 17.4811
1816 3 0.366965 1.66102 12.3306 17.6395
1817 3 0.393364 0.47448 18.8752 8.89148
1818 3 0.404399 33.3937 20.2961 6.78689
1819 3 0.386835 21.0253 2.12169 28.2493
1820 3 0.380498 22.4169 2.22528 29.1917
1821 3 0.380511 31.8985 12.8536 30.9096
1822 3 0.377141 32.1842 14.5314 30.6845
1823 3 0.390806 12.1386 6.81181 25.0544
1824 3 0.415445 11.0044 7.99716 25.0777
