LAMMPS data file via write_data, version 29 Aug 2024, timestep = 99, units = real

1824 atoms
3 atom types

0 33.748 xlo xhi
0 33.748 ylo yhi
0 33.748 zlo zhi

Masses

1 28.0855
2 15.9994
3 1.008

Atoms # charge

2 1 0.9106945982478772 2.18181051389094 2.1744209279226 2.0415500835278637 0 0 0
1708 3 0.4135876124004941 15.391772548250776 13.457551317143325 6.128800462306551 0 0 0
4 1 0.9163256629069719 1.9215141934399755 6.463892228185141 6.262491036120167 0 0 0
5 1 1.018318520032305 4.205826602689937 0.05627336526882391 4.209009244771538 0 0 0
6 1 0.9285785402176217 6.334633336715655 2.13811109265752 6.286278714378489 0 0 0
8 1 1.00417701562287 6.3325829627820625 6.357157794070523 2.1250551885420763 0 0 0
1574 2 -0.5844789323673408 15.163261182879477 14.25663913328138 6.632894682335047 0 0 0
131 1 0.9623652531611728 8.440963136307944 4.246263703843024 4.2122105769607465 0 0 0
1539 2 -0.5928943153571443 16.395837846188943 15.916116485082693 3.229425111486273 0 0 0
513 2 -0.499123968925156 1.1315029582682143 1.1904692510494357 1.2363593550188277 0 0 0
517 2 -0.5150016796210795 1.2017609847264357 3.2574180891316784 3.0107963530994093 0 0 0
518 2 -0.5199642750408151 3.178787581254281 1.0545589899519119 3.298962606569937 0 0 0
519 2 -0.4675493678064024 3.3691762714524116 3.2219731753672103 0.8348946936872047 0 0 0
520 2 -0.4696366339541943 0.7689312465219406 5.389323701935495 5.123274215762062 0 0 0
523 2 -0.5750783859107177 2.924565257129788 5.134432882082027 7.609762726871967 0 0 0
524 2 -0.4587316519693362 3.043822538741076 7.321696016809592 5.369339330655437 0 0 0
525 2 -0.4936136720638561 0.9475922236868038 7.442458755755685 7.158511972695472 0 0 0
526 2 -0.490518582737604 5.1125716077742345 1.0984682984840448 5.159125316350578 0 0 0
529 2 -0.4919568621192366 5.30692475774609 3.2673415335504212 7.498564115842768 0 0 0
530 2 -0.4750937734727478 7.241307637405214 3.0585562162303526 5.253622148301205 0 0 0
531 2 -0.4913029153344 7.493760321401863 1.0083253439214472 7.3129870810497675 0 0 0
532 2 -0.4915472460002303 5.309720419355402 5.37586053975381 1.2060081219444114 0 0 0
535 2 -0.457082024720592 5.3396936789037595 7.431239314327568 3.0350444426995615 0 0 0
536 2 -0.4924031820647238 7.486016175868619 5.286839546142445 3.332376641594855 0 0 0
537 2 -0.5061231018897705 7.2678510351182535 7.258083164230051 1.0604707766828696 0 0 0
1548 2 -0.6407950531215553 0.2203302747175578 0.3739732390835253 5.177338832977365 0 0 0
1584 2 -0.5924740866045393 1.1891677204362148 2.812384768634146 5.333043782280383 0 0 0
1674 3 0.3732346912871372 2.1803886921193296 4.7999133984993945 8.137036224781422 0 0 0
1727 3 0.3873571177740841 1.783164299944289 2.8233899987004025 4.458661828320455 0 0 0
1728 3 0.38082337180655 0.8722215731222569 1.616445322424759 5.262269384436725 0 0 0
130 1 1.011336622899329 10.572583162464845 2.164165834621422 2.0880772343918577 0 0 0
132 1 0.9616936781086008 10.542668758560724 6.349020738380301 6.340532297597093 0 0 0
39 1 0.9103772336584233 4.086556354907446 12.902332990749754 0.14682144519796853 0 0 1
134 1 1.063936360545235 14.748139974369808 2.318126894683696 6.30745905287141 0 0 0
136 1 0.9321128325694679 14.749211862867483 6.2525974474215875 2.1597018496566305 0 0 0
926 2 -0.5229846254811555 15.963047430582062 15.826186225529458 0.8452314634333066 0 0 0
133 1 0.9767846566061289 12.800694272399967 0.014455851661395513 4.2798672254365355 0 0 0
165 1 0.9790983895383425 12.67047738371958 8.418995320410097 4.234915881308908 0 0 0
1707 3 0.3967047993651474 15.028265894844658 13.96340303680536 7.538901339553811 0 0 0
289 1 0.9851007285650527 16.849704566185256 8.242833195735358 0.13048181218386617 0 0 0
833 2 -0.4969698615835403 9.521075434535227 1.2444668453320027 1.1538677441026817 0 0 0
835 2 -0.5182502960076821 9.629908554238584 3.2195491979150805 2.987676035944668 0 0 0
836 2 -0.5444802424750717 11.439027268568623 1.2144842790665575 3.2182783115403075 0 0 0
837 2 -0.5030158498610882 11.788896749232643 3.189527544548233 0.9270340594801775 0 0 0
838 2 -0.4778876644966476 9.339235050837695 5.179803575461923 5.269371172014662 0 0 0
839 2 -0.499798833250792 11.593371410253265 5.438219328051695 7.257098765246352 0 0 0
840 2 -0.4873492901414296 11.504150426825005 7.220002957797921 5.3025090446916066 0 0 0
841 2 -0.4854778727469666 9.525986506396004 7.559858153021378 7.545622560002432 0 0 0
842 2 -0.4928688826316236 13.800374641196564 1.3588545357299298 5.311970947622216 0 0 0
845 2 -0.4956284573608101 13.558164550539802 3.290776881444031 7.4966897708573015 0 0 0
846 2 -0.4998452609573755 15.680142691563706 3.2979243129121074 5.3488484611808715 0 0 0
847 2 -0.5257638181457411 15.842832000536273 1.5155790879024498 7.377128903527604 0 0 0
848 2 -0.4863465845718475 13.664285406673413 5.205273899221309 0.9132472619067574 0 0 0
851 2 -0.4789913188894038 13.604248590157413 7.4975931300590855 3.2097466648278803 0 0 0
852 2 -0.4774283186447995 15.67895147828923 5.224262861169918 3.0437242984449253 0 0 0
853 2 -0.4958107806937571 15.981172212089007 7.267838712958635 1.1625349017852626 0 0 0
1606 2 -0.5560689689318064 10.386112961722192 1.4918699098376855 5.505469108213679 0 0 0
1771 3 0.4230504181099746 10.621945291203012 1.6852456949675387 4.511375382089936 0 0 0
1772 3 0.4172470040011271 10.751626075264648 0.5651230975692484 5.680925006453844 0 0 0
34 1 0.9463966953115321 2.127551375389053 10.49350002285553 2.1681090876696247 0 0 0
36 1 0.9820045259596518 2.110592193439104 14.669232245240286 6.275687612951799 0 0 0
37 1 0.8267678504228625 4.2187325480863125 8.485469090481272 4.2843206801964095 0 0 0
38 1 0.9513137324948544 6.3755324808121285 10.665678554121437 6.362780280865735 0 0 0
40 1 0.9064237580134339 6.314151388355852 14.84432443509289 2.183351330183526 0 0 0
265 1 0.966937682486784 16.63025994930815 0.3226313397644488 8.255441577577876 0 1 0
1 1 0.9307334084504826 0.0006595080145430643 0.09965658592475382 0.08285214812785333 1 0 1
1637 3 0.3888353675073103 16.71644655560469 16.147394109193428 2.2160781736912902 0 0 0
925 2 -0.4904294314640356 15.799259062146891 13.431901547300702 3.231582205328845 0 0 0
163 1 0.8377075351709258 8.458497033082477 12.646556722783734 4.1237175265993695 0 0 0
175 1 0.9329191755161836 12.664932346845461 12.608234029218497 8.398871838704697 0 0 0
605 2 -0.543807912768086 0.8441103866051431 9.310874618694628 1.0848703062636877 0 0 0
608 2 -0.484213982381287 1.1315745053908246 11.516111744064942 3.0341904139511064 0 0 0
609 2 -0.4620956639472804 3.0584553264093524 9.67414402779827 3.295998847908712 0 0 0
610 2 -0.5390148356136497 3.110813920228236 11.876026326831015 1.0280189905345893 0 0 0
611 2 -0.5018808680201804 0.8894595793193635 13.60036288685187 5.193955329869622 0 0 0
614 2 -0.5008571346604763 3.117096693379484 13.767529784163234 7.246274163163231 0 0 0
615 2 -0.481320601931861 3.09173949258915 15.600344138269095 5.2806213699384505 0 0 0
616 2 -0.5109100207940847 0.9665240835764134 15.78584026845516 7.365175300691086 0 0 0
617 2 -0.4379634090835596 5.413319057373485 9.573428502973838 5.426505243715762 0 0 0
618 2 -0.4783514047172913 4.996578936076206 11.52779519280657 7.48321428620734 0 0 0
619 2 -0.512623720087551 7.539647639257195 11.570725259926192 4.9744058553284125 0 0 0
620 2 -0.4644810834867616 7.309079008772808 9.586383292163376 7.265748072814034 0 0 0
621 2 -0.4755148389912072 4.990365764307058 13.88939222684859 1.1117658260787857 0 0 0
624 2 -0.4800226629287829 5.253268110818784 16.048388109500568 3.2976710809521643 0 0 0
625 2 -0.4825962349493659 7.186782192745711 13.817670585643894 3.153753690456652 0 0 0
626 2 -0.4950110077897832 7.558934931080073 15.890584354228984 1.0984918152120984 0 0 0
1538 2 -0.6107652873296558 3.16800456882542 9.530320630132328 0.5196489545031702 0 0 0
1570 2 -0.5971906386982274 7.178755288683194 12.581582752409107 7.059042405868691 0 0 0
1635 3 0.3923785938501166 2.212097572164838 9.09958574211748 0.2611873392785155 0 0 0
1636 3 0.3530014015268087 3.1673907962697045 10.525242278916668 0.12140532855343651 0 0 0
1699 3 0.3924554208747056 8.002825974520078 12.62088036574896 6.450208699520503 0 0 0
1700 3 0.3594309312638952 6.549727208246777 13.209766766212354 6.587777730866544 0 0 0
162 1 1.110562105719918 10.610989050681514 10.521792406811594 2.0898920574243696 0 0 0
164 1 0.8818485073946734 10.508409698808135 14.711607741419078 6.335586445153155 0 0 0
166 1 0.8862131249527243 14.800198729249221 10.50910555315916 6.339328484242266 0 0 0
168 1 0.9191477987435263 14.821219462587852 14.754620607848855 2.185028708629309 0 0 0
197 1 1.026191970391214 12.63163252060313 16.82841645789231 4.221099267306561 0 0 0
909 2 -0.4965113080160513 9.756316491691717 9.446691587527967 1.1044729979578434 0 0 0
910 2 -0.4834380718633508 9.560332986520903 11.557498116489235 2.923807454861743 0 0 0
911 2 -0.4931765832570777 11.533057467329176 9.621836724251288 3.187654864572568 0 0 0
912 2 -0.48378986221398 11.66527909350552 11.44429786726999 1.1333413578520415 0 0 0
913 2 -0.5169384790290535 9.49531863538581 13.706493098886408 5.463443484795866 0 0 0
914 2 -0.4730429215376875 11.747990652553254 13.58290900628302 7.382199585471089 0 0 0
915 2 -0.4744892955734469 11.548072628913028 15.900476574850323 5.1421439389462416 0 0 0
916 2 -0.4801093563028447 9.413863851487488 15.810930929942861 7.567726723518115 0 0 0
917 2 -0.4745933680529848 13.714263153616718 9.357157970759275 5.131193822819637 0 0 0
918 2 -0.5068667463059534 13.900340862578602 11.495757767499015 7.312670177917279 0 0 0
919 2 -0.529702030942037 15.905175271180681 11.755941320482956 5.296685109406624 0 0 0
920 2 -0.4814462532697397 16.041681766569965 9.457619342819022 7.467654619442465 0 0 0
921 2 -0.4573277925891902 13.896401806192411 13.823780006947729 1.1274523727892005 0 0 0
924 2 -0.4608524089548531 13.512300950709331 15.76102426771933 3.2306680650755477 0 0 0
137 1 1.009646694926202 8.40540001846423 0.09945718902200862 8.367654037254333 0 0 0
129 1 0.9765847315030638 8.447431730636913 0.029220273390258455 0.025519089386257576 0 0 1
167 1 0.8744509863942589 12.712149429281352 12.667894856239213 0.030107873817314612 0 0 1
161 1 0.9549488000993136 8.537031068728572 8.357597271332297 0.001447042076087257 0 0 0
43 1 1.018678141477924 0.1505383989265182 12.593309374622176 12.683461033945688 1 0 0
10 1 0.9810316990812848 2.0272246837107426 2.2316016631823907 10.511606410134965 0 0 0
1774 3 0.3857953174799904 13.66077883965445 8.824753786364667 9.260242977073334 0 0 0
12 1 0.9275224450396882 2.0773563508073107 6.352086344794282 14.753396935702177 0 0 0
13 1 1.079677092349544 4.13833383995623 0.07170098241827268 12.69424020172416 0 0 0
14 1 0.9343491397527295 6.2827976242084285 2.120377669955482 14.845583939767135 0 0 0
16 1 1.120397351656895 6.414124626440139 6.3519253440539 10.62258793422587 0 0 0
139 1 0.977699119759094 8.439581512872232 4.188890973347104 12.697082568455231 0 0 0
538 2 -0.5085411127675743 0.9973319993692277 0.8835832921262369 9.615892408649646 0 0 0
542 2 -0.4937559819977185 0.981918937991453 3.21067065030508 11.871082746919154 0 0 0
543 2 -0.5085272569145138 3.245098530609438 1.1503345949929105 11.769193182825683 0 0 0
544 2 -0.4809365871594874 3.5561486680330656 3.1129319799964796 9.62227764700702 0 0 0
545 2 -0.5328425828675029 1.2093436016505286 5.287085352475778 13.83309156886127 0 0 0
548 2 -0.5676736011492188 3.014768635461558 5.421353598574548 15.765329728781506 0 0 0
549 2 -0.5165677844327747 3.361709726261935 7.405847539052112 13.66042134429212 0 0 0
550 2 -0.4936844658577893 0.9410917250585206 7.355085059810905 15.999522534227314 0 0 0
551 2 -0.5138907031698536 5.168042396512576 0.9343170837757433 13.760448356970814 0 0 0
554 2 -0.4714020444142911 5.303419872688697 2.905131694738561 15.920141302224511 0 0 0
555 2 -0.4838225671716453 7.506260627385844 3.172708111330149 13.64006545228926 0 0 0
556 2 -0.54035828009917 7.204013100783959 1.074742024929156 15.77929443989357 0 0 0
557 2 -0.5129904749522441 5.446130406825923 5.40349271358438 9.662695327578142 0 0 0
558 2 -0.4984328100254038 5.46226197607436 7.419629861676114 11.549634011438911 0 0 0
559 2 -0.5108902381210972 7.2718552345292835 5.361225435940685 11.662704475793312 0 0 0
560 2 -0.4920224268746342 7.457034930564767 7.243818723498468 9.608509608287415 0 0 0
1553 2 -0.5700179947229606 5.406321396717752 5.531463236738592 15.647672196846383 0 0 0
1557 2 -0.5794591554169365 1.4199953713859688 3.232310042007122 9.393149365581602 0 0 0
1572 2 -0.5884674603536809 2.6810907100356767 2.805104555239037 14.451275583517189 0 0 0
1665 3 0.3989436075952444 5.791312295648415 5.847096850006466 16.617454874474674 0 0 0
1666 3 0.3946548458558874 4.4974255849779015 6.060237777044053 15.483126696590288 0 0 0
1673 3 0.3815158294719069 1.256603450349416 2.961430381716343 8.471418781315272 0 0 0
1703 3 0.41068915252371 2.5306817748950388 3.7580958416074215 14.509707026877889 0 0 0
1704 3 0.4045645508067037 2.666863892856105 2.603676907204338 13.51721887151459 0 0 0
201 1 0.9516611191758569 8.421385512249545 16.838132267922717 8.454791662509448 0 0 0
138 1 0.9470682316732756 10.549266690694408 2.116793200431007 10.55808130723477 0 0 0
140 1 0.9593221006496169 10.455021692350176 6.336524049870692 14.785100834026162 0 0 0
142 1 1.02948933414398 14.839915158906468 2.0119757723887663 14.709869989247384 0 0 0
144 1 0.9249770493689528 14.770971690147027 6.350535337873989 10.5457245410314 0 0 0
854 2 -0.4864846113701381 9.28722948821062 1.1098721704276309 9.416837983593654 0 0 0
856 2 -0.4859935177676911 9.680903309023613 3.094597552723633 11.595750440226867 0 0 0
857 2 -0.4900818943227749 11.696430777406107 0.8538971006652996 11.609458882020586 0 0 0
858 2 -0.4818199666321187 11.4395685944892 3.1668491502182508 9.604658870597714 0 0 0
859 2 -0.4894291975214284 9.32248505054185 5.1368465500571165 13.72767373589048 0 0 0
860 2 -0.5232554964652812 11.296022146818292 5.36796391112167 15.843773560184676 0 0 0
861 2 -0.5029687583882179 11.523818795103674 7.190284859468908 13.808339842205967 0 0 0
862 2 -0.4869503108244084 9.279520548760953 7.507911102192499 15.83948728046069 0 0 0
863 2 -0.5018520573958725 13.855214104896106 0.971237950024906 13.833573133777657 0 0 0
866 2 -0.5036537014242981 13.701572505897124 3.045477435532323 15.788211167310584 0 0 0
867 2 -0.5435106337758225 15.664723675002142 3.0967955229720623 13.741955200972559 0 0 0
868 2 -0.5378200011810015 15.929919524627795 1.1765444310917528 15.669972180045496 0 0 0
869 2 -0.5155386205903155 13.664507779960033 5.268472978433554 9.309817792493439 0 0 0
870 2 -0.5140680356011318 13.5699831666881 7.532114298515823 11.586079504095746 0 0 0
871 2 -0.4883422483522281 15.646381607913714 5.369395095274169 11.554788943986281 0 0 0
872 2 -0.5071151105178783 15.817824219405887 7.33136189212909 9.682494315730665 0 0 0
1575 2 -0.5501492345544705 14.050377548041459 5.382859451186789 15.376044036988011 0 0 0
1607 2 -0.589711670452029 13.10796631795777 8.555277319230193 8.53382645387303 0 0 0
1709 3 0.3920845375627687 14.026874762447443 4.419994814460152 14.950015303315157 0 0 0
1710 3 0.3378635745356876 13.030280056621773 5.664975949637361 15.602474768900437 0 0 0
1773 3 0.3858789624382775 12.923449908335932 7.64900327069018 8.749485033824675 0 0 0
42 1 0.9916919237325705 2.140180510005864 10.49652199758522 10.556825654692103 0 0 0
44 1 0.9222356083605133 2.178386064167056 14.791974038384453 14.811439366883477 0 0 0
45 1 0.9613488685416909 4.252589584608668 8.448460240986815 12.704533469213807 0 0 0
46 1 0.9002570467298531 6.374856267126065 10.592769791085987 14.805857201973286 0 0 0
48 1 0.9608936066788926 6.2907420490340575 14.745411589869098 10.537286963276038 0 0 0
169 1 0.9708574777920834 8.465742753146827 8.470861097029045 8.461829549107552 0 0 0
171 1 1.043700054494948 8.432295805171012 12.657938929878977 12.637457598720596 0 0 0
627 2 -0.4941928932922843 1.1911468431363523 9.554197259051556 9.563123804589674 0 0 0
630 2 -0.5039033252544454 1.1445099063564403 11.702863607694796 11.703093663658452 0 0 0
631 2 -0.4893866346608859 3.0480694392855 9.47927348389635 11.513749216299331 0 0 0
632 2 -0.4870525033618095 3.218064198487548 11.719030727575566 9.468800206923428 0 0 0
633 2 -0.514501647899982 1.1717166607283664 13.52730663136058 13.674455214921451 0 0 0
636 2 -0.5257716321309016 3.3228808335410283 13.696058670242909 16.009923892390486 0 0 0
637 2 -0.4890997195288604 3.116611853741417 15.832233267380008 13.917155452638768 0 0 0
638 2 -0.4794164182024797 1.096471163807637 15.737395709933052 15.686065067556143 0 0 0
639 2 -0.4792536717041049 5.131561476171389 9.433257464126958 13.74097156483325 0 0 0
640 2 -0.4586798201405555 5.650882163203796 11.636747666415587 15.859205408077488 0 0 0
641 2 -0.4841315336365505 7.3860243700252 11.726239650920217 13.574368247997867 0 0 0
642 2 -0.4835926852625584 7.557696606324496 9.503796783267692 15.913872719898999 0 0 0
643 2 -0.4776655953018854 5.389885970618243 13.761758897512184 9.522736428107455 0 0 0
644 2 -0.493163806466913 5.085701264873864 15.885286217860989 11.627384376961235 0 0 0
645 2 -0.4888780324137039 7.517788803007111 13.6016051765912 11.589443438328027 0 0 0
646 2 -0.4824730235148921 7.176137463622104 15.740720137311492 9.530678493130946 0 0 0
1600 2 -0.5846882929095308 3.2427282228626013 11.358475911386678 15.733389197530776 0 0 0
1760 3 0.3704056684604923 2.8320200061901217 12.078347334880764 15.087726694961438 0 0 0
170 1 0.966099377236712 10.564986759824308 10.561361894884993 10.555824042269986 0 0 0
172 1 0.9729019401304106 10.495013240176636 14.753536548028038 14.763571878806582 0 0 0
173 1 0.9369428422983347 12.627011682615647 8.41367082389124 12.65455453309982 0 0 0
174 1 0.9044771411320893 14.754200851817869 10.505357829580374 14.745625323917011 0 0 0
267 1 0.9481516297970568 16.84003943433877 4.2333466286684835 12.636423643503594 0 0 0
176 1 0.9916496955135182 14.833824844122804 14.673864679326574 10.495820444556298 0 0 0
942 2 -0.5635498145571238 15.884809046156809 15.715933752572338 9.657493651441856 0 0 0
183 1 0.9318580506829162 12.617210866116736 12.59985825041515 16.78830012299225 0 0 0
941 2 -0.5115558235338974 15.698644299785222 13.743407224583544 11.58409443052378 0 0 0
927 2 -0.4924971747551491 9.364448468027087 9.390846526364902 9.510215139218165 0 0 0
928 2 -0.4868582338434245 9.679904438980186 11.531311842272348 11.581602998638573 0 0 0
929 2 -0.4993488466094514 11.588131946971258 9.660743282248745 11.521361283448078 0 0 0
930 2 -0.4862502424339759 11.621271199035574 11.700871933468793 9.327850388076039 0 0 0
931 2 -0.4920947924185511 9.27341015825621 13.69982963338198 13.639743573444155 0 0 0
932 2 -0.487852907820259 11.417664572556614 13.684649265745184 15.633067375577607 0 0 0
933 2 -0.4817423802653263 11.708255668287395 15.880807149053645 13.689364814042438 0 0 0
934 2 -0.4921776489081188 9.61458453889161 15.668725351077404 15.841560282992495 0 0 0
935 2 -0.4764180578052698 13.685588071405755 9.301444993345067 13.589941528133323 0 0 0
936 2 -0.4755246312189949 13.671001336387482 11.666171433824525 15.89304678591742 0 0 0
937 2 -0.4753588269064248 15.989054014830081 11.632597684609523 13.714825417895613 0 0 0
938 2 -0.4783878945966601 15.64427558953714 9.578370258819959 15.780370010355025 0 0 0
939 2 -0.5324403745919658 13.940438813789937 13.723152396226732 9.435100657366428 0 0 0
940 2 -0.514498631066638 13.695316238022828 15.87624562317844 11.50329488587579 0 0 0
151 1 0.8304876347929933 12.746066126468145 4.390932159798848 16.82223211396323 0 0 0
1759 3 0.3400557931324426 2.562942309647406 11.31269318254147 16.48131865066937 0 0 0
15 1 0.9279400283246733 4.435932348907168 4.096349662978437 8.626636141561137 0 0 0
23 1 0.8890708898818729 4.2189408499469945 4.156108516373466 16.84740269446384 0 0 0
305 1 1.044419982676845 16.855786329288872 8.431729277321905 16.866805529043123 0 0 0
143 1 0.9702111376903521 12.636387626799571 4.277017104050245 8.44924799593853 0 0 0
47 1 0.9617724701577338 4.169639359495346 12.60319940274144 8.44865324796239 0 0 0
1800 3 0.4089343356573475 13.353838867863217 12.744692889339309 19.30396425045956 0 0 0
18 1 0.8970227675511917 2.096710897768048 2.080755999067125 19.00879626242086 0 0 0
20 1 0.9615799426060996 2.109210904540491 6.323232626726314 23.230767939831573 0 0 0
21 1 0.9693224077895136 4.208891309994954 0.0069113546917940055 21.13166725368107 0 0 0
22 1 1.030784886552987 6.3422847305662575 2.1392093830469787 23.202814260191737 0 0 0
337 1 1.034223389397599 16.86318424401219 16.85349795019558 16.90599731395141 0 0 0
24 1 0.9593329980936631 6.393335186202446 6.381554505592811 19.108230124373303 0 0 0
1799 3 0.3901130145742415 12.428472467064072 13.531763353872325 20.337771006964836 0 0 0
956 2 -0.4810478141520885 13.53418467796988 15.92173015904763 20.23076575645423 0 0 0
958 2 -0.4778891261712366 15.737207985351327 15.853436958529311 18.168073123013258 0 0 0
149 1 0.8984479751687837 12.668530352253308 0.015295459444594428 21.10806791627496 0 1 0
185 1 0.9672288020463724 8.46236464263409 8.289643591113272 25.206742330460838 0 0 0
561 2 -0.4663451876161636 0.8730787300109534 0.9525869998662911 17.944533172577984 0 0 0
565 2 -0.4690114259243927 1.1545377765532527 2.9604842874931 20.051297633882086 0 0 0
566 2 -0.4689352940319075 3.2072881310837023 0.8734500285210619 20.10066299267834 0 0 0
567 2 -0.4552790013904512 3.23521901013589 3.2991584798743006 17.914989346145898 0 0 0
568 2 -0.481086328391649 1.1657550352020176 5.432894781236324 22.17768474709235 0 0 0
571 2 -0.4875697609583449 3.1572148518302328 5.114546111846026 24.41173405254838 0 0 0
572 2 -0.4858283241425064 3.301011928232963 7.525265139242062 22.20732282232134 0 0 0
573 2 -0.4819158420195839 1.0575721083691678 7.266563550674495 24.12128776164093 0 0 0
574 2 -0.4844488071808821 5.398215014902753 1.1973463696594477 22.172973719788896 0 0 0
577 2 -0.4980946366427546 5.149311457431931 3.3155361477415117 24.26752349659873 0 0 0
578 2 -0.4834695114037372 7.299448576333056 3.067996603417539 22.17689864671258 0 0 0
579 2 -0.50411595926553 7.360444195512156 1.142710594413158 24.094366531019975 0 0 0
580 2 -0.4937009262615359 5.38503551665992 5.190218836412287 18.014053465827367 0 0 0
581 2 -0.4918193299814616 5.3010321873012956 7.277094465495666 19.99311714647657 0 0 0
582 2 -0.4855958715630845 7.626281507358772 5.3140692365282955 20.235488163752308 0 0 0
583 2 -0.5184662876773076 7.186117058564967 7.339174138432817 18.00653777033675 0 0 0
146 1 0.8984604151867854 10.58284301818748 2.164171749607944 19.049566030111706 0 0 0
147 1 0.973833860573514 8.506640490747891 4.25118513614418 21.15411626719974 0 0 0
148 1 0.9757745568024555 10.699203288820602 6.357233387221632 23.19258300487187 0 0 0
150 1 0.9850137808316096 14.766040488597458 2.09553121755599 23.180179155824707 0 0 0
955 2 -0.5122545401970524 13.734461884229958 13.62217164563638 18.046388819671627 0 0 0
152 1 0.9174833555915971 14.807951564213912 6.3328995111185336 18.99586407587445 0 0 0
181 1 0.9105426756035234 12.686097950150575 8.425067451125273 21.017156815133042 0 0 0
275 1 1.049705659712976 16.865775263001645 4.203558292652468 21.11100433661766 0 0 0
145 1 0.839442409351285 8.41709406965887 0.028718555663907352 17.06286304448495 0 0 0
313 1 0.9401928734353867 16.859067475843517 8.445017719810277 25.274710125391387 0 0 0
873 2 -0.4658180188226305 9.667212043580896 1.0978306958150672 18.1885782346374 0 0 0
875 2 -0.4716250703133397 9.377264260182827 3.2955225957296372 20.104271042487095 0 0 0
876 2 -0.4618201118062413 11.77409055818071 1.0793028110410252 20.208728551242494 0 0 0
877 2 -0.3893941081162658 11.54170406464817 3.335281896222238 17.82323093506932 0 0 0
878 2 -0.4703572537943911 9.718885569403517 5.2916226897564425 22.322802697088367 0 0 0
879 2 -0.508707682786863 11.588438791844757 5.286119461015442 24.227517542584813 0 0 0
880 2 -0.4685636761846912 11.758102166005601 7.359082327018931 21.857267137076615 0 0 0
881 2 -0.5322547666871847 9.360399126905094 7.292710599911652 24.264508198329775 0 0 0
882 2 -0.4772352347511049 13.836033352908466 1.1720188100805649 22.15602388230184 0 0 0
885 2 -0.4833583187144534 13.763313956554496 2.969955207065898 24.17447777953263 0 0 0
886 2 -0.4939411964550396 15.79627228604396 3.296539387220056 22.017912855185436 0 0 0
887 2 -0.4898148052853825 15.903038705667164 0.865223731982172 24.201786046250017 0 0 0
888 2 -0.4687784489778858 13.612198685325502 5.170818920688379 18.003745805911866 0 0 0
889 2 -0.4846855026737462 13.901601035196997 7.384679750508634 19.87734671550937 0 0 0
890 2 -0.4893071913636693 16.003855992262302 5.211135048874429 20.08723950920886 0 0 0
891 2 -0.481739487955051 15.939317097651656 7.369574167036495 17.785223261236872 0 0 0
1632 2 -0.5958759089640244 11.811376563098761 7.647679920971211 24.55328914161731 0 0 0
1824 3 0.4154452848298075 11.00435004081901 7.997159892016405 25.07772294389191 0 0 0
50 1 0.8974075177726667 2.060388771252725 10.642445663939164 19.238998248578373 0 0 0
177 1 0.9765276855047704 8.403039505477908 8.447950109324646 16.8866603417698 0 0 0
52 1 0.9667225834231638 2.088227925092138 14.81169815593839 23.26597566042519 0 0 0
53 1 0.9752011322456503 4.222656165760713 8.442300040767087 21.16528177894205 0 0 0
54 1 0.9704019836126774 6.36934667673173 10.536960217730078 23.19764093083341 0 0 0
56 1 0.9619923114178168 6.3587107682495185 14.78340320970446 18.98930868644474 0 0 0
179 1 1.035082996196549 8.440541065631056 12.63289752446391 21.04969410556608 0 0 0
954 2 -0.479635147057674 15.955727709461543 9.379628691205747 24.225948131715175 0 0 0
647 2 -0.5156700141174949 1.0886642079144575 9.538876880842071 17.956409185118755 0 0 0
650 2 -0.4791689129328452 0.9978122666328093 11.578678337183572 20.524759253547316 0 0 0
651 2 -0.4799256000430606 3.0583479828054925 9.5748183824375 20.03412705407648 0 0 0
652 2 -0.51767720546138 3.1857123129392773 11.84021007300314 18.16434501236727 0 0 0
653 2 -0.4884165224278903 0.9546947295082813 13.57067099303798 22.269691574004437 0 0 0
656 2 -0.4785622652421782 3.1102455868881207 13.924509502442026 24.25061736583763 0 0 0
657 2 -0.4727374678935496 3.0116173322762836 15.687858452111506 22.173117467731014 0 0 0
658 2 -0.4568301224080882 0.859674837375035 15.992191597522613 24.305263225326588 0 0 0
659 2 -0.4931535300052592 5.279084625200904 9.357977799352796 22.05229956723769 0 0 0
660 2 -0.4781186641734569 5.414452496921566 11.432137020937045 24.25112860740301 0 0 0
661 2 -0.4806297494981387 7.478050094898016 11.761307009308672 22.118878013663217 0 0 0
662 2 -0.4694430620051008 7.410295673176769 9.57545848855018 24.077914203491286 0 0 0
663 2 -0.501269526019368 5.3369554364311504 13.852517289592052 17.954866042114627 0 0 0
664 2 -0.476105617846436 5.396677371076159 15.674546023969194 20.012396403562928 0 0 0
665 2 -0.4922824539333459 7.411793250846939 13.535340648798151 20.07416044565729 0 0 0
666 2 -0.4876687902762656 7.420765904268941 16.004196126492097 17.86144220055488 0 0 0
1628 2 -0.5735159939263481 0.7852243472881424 11.90870698538216 18.00813820403057 0 0 0
953 2 -0.4755639218292225 15.627390883494684 11.610190372185825 22.235268098377006 0 0 0
1815 3 0.3722128273520655 0.6061528506503474 10.94088990728018 17.481137221127817 0 0 0
1816 3 0.3669652544031675 1.6610226419143606 12.330586632231526 17.63949884526446 0 0 0
178 1 1.03323893097894 10.548484287531984 10.510325523993037 18.93303497567107 0 0 0
180 1 0.9432432997859007 10.508990761315472 14.742034191707978 23.192535869527973 0 0 0
182 1 1.021022890887606 14.72464338073866 10.543494728119027 23.193363813849707 0 0 0
184 1 0.8559757775288008 14.816337901269042 14.864162647344038 19.10526397167338 0 0 0
957 2 -0.4737398345071084 16.037633698745786 13.683731149194006 20.113868711495453 0 0 0
1620 2 -0.5683331052458556 12.875438213433513 12.692719886945909 20.237179976708703 0 0 0
943 2 -0.4915467806886739 9.6403752272946 9.479171809800162 17.99019180124908 0 0 0
944 2 -0.5000032491496919 9.491859744255294 11.443683273164316 19.857300873685094 0 0 0
945 2 -0.4770070310481855 11.444548194580367 9.510296342061052 19.958904028419557 0 0 0
946 2 -0.5100480232395208 11.699705551458123 11.5594446489188 17.69784076334056 0 0 0
947 2 -0.4970184552331635 9.406364811479706 13.689473031732689 21.932374264456644 0 0 0
948 2 -0.4722856977727005 11.372938628791703 13.686091340662708 24.149695146500864 0 0 0
949 2 -0.5146804656735061 11.604684759437468 15.626067004409792 22.274303552773898 0 0 0
950 2 -0.5069563061177642 9.470995497715403 15.979148769630582 24.34978399402258 0 0 0
951 2 -0.4695788581150193 13.718976517631795 9.629060179041511 22.198986453472365 0 0 0
952 2 -0.4573992506483098 13.68946599623828 11.423096933910985 24.23882750664354 0 0 0
1823 3 0.3908055932099265 12.138602925223939 6.811812525318117 25.054442308361082 0 0 0
191 1 0.8653020274745613 12.534614844969422 12.63029738069525 25.30679220459643 0 0 0
55 1 0.9379554254870038 4.40763892076698 12.718734238984782 16.961922652593305 0 0 0
19 1 0.9628767058625294 0.020961445850510074 4.206558917879113 21.116302758551193 1 0 0
345 1 0.8771535460652783 16.852572886640417 16.815849250738253 25.21663571821953 0 0 0
85 1 0.9083700639863154 4.195210384399927 16.838768882112017 21.077217977646992 0 0 0
63 1 0.9560041898428099 4.242065718065212 12.654433787415392 25.310382442241067 0 0 0
7 1 0.8883877340251226 4.276085743334678 4.270940120899798 33.70173910287858 0 0 0
26 1 0.9642938499780261 2.1248635423299964 2.107245495534894 27.43096611365767 0 0 0
28 1 0.9510442700263048 2.105777079968649 6.349956011630273 31.630229602930463 0 0 0
29 1 0.9426818635724189 4.309353366309674 0.05091372497058165 29.53556821664037 0 0 0
30 1 0.9601221488347687 6.396451169615343 2.1441758069343027 31.641354173290203 0 0 0
32 1 0.9881367291894557 6.353569438044931 6.29877401079626 27.34986553451932 0 0 0
315 1 0.9461825381754867 16.788993302568 12.759766361348337 29.54665579198226 0 0 0
533 2 -0.4730997297094884 3.0655902604070238 5.446136140013531 32.66152425997584 0 0 0
534 2 -0.5041930012879849 5.525167175651151 3.2111345187468063 32.58899143907536 0 0 0
584 2 -0.4948335002413641 0.9959038499242059 1.0351589813752369 26.206436885843843 0 0 0
588 2 -0.480118446615285 0.9428312216068264 3.311254219211451 28.476634571391887 0 0 0
589 2 -0.4778106935744873 3.0311093649192196 1.104078674680602 28.42066978693367 0 0 0
590 2 -0.4892829529101764 3.1916555304744287 3.0065526436017254 26.516642037437766 0 0 0
591 2 -0.4839890213763453 1.047472060396873 5.158260736252132 30.44809158723572 0 0 0
594 2 -0.5246750082403979 1.0099568003123756 7.560369923692824 32.76761696653945 0 0 0
595 2 -0.4864121080788726 3.1389879646586256 7.283877439652627 30.698784423059134 0 0 0
596 2 -0.4767220149544543 5.287401699555471 1.0944154012814553 30.37927553040926 0 0 0
599 2 -0.4896803523725791 7.509348126526965 0.912372661455455 32.72140279539161 0 0 0
600 2 -0.5168926316049791 7.438363301987539 3.081366146353441 30.757243506767512 0 0 0
601 2 -0.4916288104557358 5.449678980972059 5.387430001370917 26.306852358281795 0 0 0
602 2 -0.4822907075167305 5.086170460047778 7.411689061202714 28.384395347997334 0 0 0
603 2 -0.4726355814217856 7.567619611607457 5.148003607994801 28.388024535180715 0 0 0
604 2 -0.4954702101482988 7.332108745606356 7.283141089064676 26.448451752552927 0 0 0
1602 2 -0.6010713067222575 7.307350444346196 5.680822496694636 30.833821608031805 0 0 0
1763 3 0.3825233465079425 8.091897172970846 6.22982637463684 31.168793462946695 0 0 0
1764 3 0.3829530230652446 7.109982667604121 5.0737262525649 31.605060978394267 0 0 0
135 1 1.035663330322388 12.710561156319773 4.2033455098901324 33.71322461649388 0 0 0
154 1 0.8970048775761224 10.536271778999817 2.169582534457954 27.468944127817153 0 0 0
155 1 0.9914504776917348 8.424602250377996 4.307130245733258 29.566563174801622 0 0 0
156 1 0.9386579003916435 10.628191847734936 6.334607179141418 31.612378549391146 0 0 0
157 1 1.111277350532291 12.625847043888218 0.009273118837917413 29.5320789703253 0 0 0
158 1 0.9685625889457066 14.791282452797669 2.0060984832885618 31.640745152014453 0 0 0
159 1 0.9149438077030255 12.7419609226279 4.179451000248943 25.379836785148363 0 0 0
160 1 0.7914558511905676 14.839517615148349 6.380962332522522 27.452182043654908 0 0 0
283 1 0.8779921314250618 16.828634077955467 4.087869568497122 29.472775059999485 0 0 0
849 2 -0.4994372744390407 11.672922629492437 5.399965140466278 32.51539286174403 0 0 0
850 2 -0.4831854845547856 13.76099626972674 3.238947910820817 32.81618484787229 0 0 0
892 2 -0.4772662836758161 9.491386576722407 0.9504170183683573 26.331160516453288 0 0 0
894 2 -0.4608982460915015 9.504497381521418 3.072476315796045 28.455940742153178 0 0 0
895 2 -0.4878769747853699 11.732814783282773 1.1104776455994345 28.587710400199562 0 0 0
896 2 -0.4625957117148516 11.645772340371982 3.30974738132453 26.29599425149248 0 0 0
897 2 -0.5247112136591865 9.605944545138595 5.196647131353577 30.40769728620444 0 0 0
898 2 -0.5349079906754139 9.366945144321642 7.33453198875494 32.729741616399366 0 0 0
899 2 -0.4925576787780579 11.433086643780861 7.4205035685079705 30.653237002019505 0 0 0
900 2 -0.4931591049149616 13.614015868392341 0.8646380258604303 30.599597127247907 0 0 0
903 2 -0.4394084660695721 15.774005944225404 0.9245922071507674 32.514063222781964 0 0 0
904 2 -0.4732396103979656 15.741206789229324 2.8714054672499705 30.581226798503284 0 0 0
905 2 -0.4543689043970406 13.691320124138267 5.1432872008764825 26.44748408448786 0 0 0
906 2 -0.5138134383253763 13.454281536256035 7.435304784649141 28.466440314663785 0 0 0
907 2 -0.5090282381019111 15.828912092266378 4.90395181338307 28.409104740364718 0 0 0
908 2 -0.4705911413988774 15.655634935335383 7.223910044742556 26.27496343565981 0 0 0
1625 2 -0.5679883375756458 15.813148133337616 7.660545902681429 28.895645818071564 0 0 0
1809 3 0.3221615463983361 15.98353600571187 6.603450373398525 28.673078933636756 0 0 0
1810 3 0.3799587686683884 14.848644457221358 7.710281557579906 29.304908174265776 0 0 0
221 1 1.074598024997899 12.63290248401789 16.860917685766278 29.544255633294462 0 0 0
1754 3 0.2345775015083163 9.336232941210728 10.470922449576888 28.728204128356403 0 0 0
58 1 0.9587781492766859 2.0806491530890123 10.590063014256371 27.396959287864902 0 0 0
60 1 0.9674111685565496 2.031442991302733 14.805211486704474 31.639862061508772 0 0 0
61 1 0.9606682356582059 4.189519293201276 8.37962935373837 29.393068861398508 0 0 0
62 1 0.8590272787319257 6.280707413556255 10.2113159143042 31.595658239799437 0 0 0
217 1 0.9819191905533539 8.435490139477453 16.87093487481015 25.340034448275798 0 0 0
64 1 0.9710322978054537 6.340102650004664 14.731751292839604 27.43587279875945 0 0 0
93 1 0.9590588154007436 4.2318708263542755 16.77042955921199 29.591083220962823 0 0 0
187 1 0.9091967080532465 8.315260814550806 12.683454823280869 29.727024767605066 0 0 0
622 2 -0.5027354741320305 2.8778856173362346 13.84083903891708 32.675700723589415 0 0 0
623 2 -0.5171829808157645 5.457671658432536 11.827260280293064 32.78214765041049 0 0 0
667 2 -0.482669965353496 1.1448042363132707 9.668629596307468 26.372077772345182 0 0 0
670 2 -0.4576728201391848 0.9431037263600142 11.726483476660578 28.586784971900645 0 0 0
671 2 -0.484121553545111 2.9572696366488005 9.519293572068957 28.337115750927882 0 0 0
672 2 -0.474122084294158 3.32918443336685 11.68517876810404 26.317064259054877 0 0 0
673 2 -0.5074402534234268 1.1228666185549059 13.809784880695736 30.62427932295902 0 0 0
676 2 -0.5157174849605413 0.8616103813940967 15.954352798384965 32.71704668256119 0 0 0
677 2 -0.4913716626062963 3.320767958519942 15.765349397238204 30.530846713677853 0 0 0
678 2 -0.4819037522304879 5.265118223668431 9.372757028146346 30.16779231626653 0 0 0
679 2 -0.4399746163630759 7.692805954436552 9.3979682270885 32.76054426206674 0 0 0
680 2 -0.4810558415114011 7.391616846087455 11.503654479468068 30.4674642211216 0 0 0
681 2 -0.4753933790489541 5.195772581488284 13.534399222256509 26.358409753269605 0 0 0
682 2 -0.4936960293638387 5.45277485466247 15.741254068576058 28.41077938068345 0 0 0
683 2 -0.4998117034106505 7.315916156795258 13.757178914233442 28.38334747586423 0 0 0
684 2 -0.4893145506087692 7.423850104733574 15.843963284135906 26.205642428686094 0 0 0
1601 2 -0.5799800933959961 5.626375937481892 9.073730219015328 32.452960207369166 0 0 0
1761 3 0.4238036790785415 5.17209106416184 8.971210581017807 33.30639181538511 0 0 0
1762 3 0.2760607230943318 4.967288090432176 11.126024490216157 32.25153206574874 0 0 0
31 1 0.9737992827712925 4.224571936324023 4.207598631543816 25.31753113375028 0 0 0
186 1 0.8088841755575827 10.260727163131559 10.439078728453929 27.222552264854986 0 0 0
188 1 0.8952599302907653 10.523183466291188 14.774076775620925 31.734300133748075 0 0 0
189 1 0.8652817763417239 12.54466454762274 8.49572475235141 29.4567240275569 0 0 0
190 1 0.9051580415484134 14.889629646188345 10.522438358650247 31.61096327091455 0 0 0
1753 3 0.411541233391864 8.547527760867327 11.736424569871781 27.274100636601613 0 0 0
192 1 1.004277883786062 14.677812568505049 14.82023500895753 27.32529535480093 0 0 0
1794 3 0.4050105538149996 12.473833942270625 11.46041868674546 30.27978955111679 0 0 0
922 2 -0.4734704400650525 11.650243770572283 13.64567825160845 32.94381916683411 0 0 0
923 2 -0.4711976092881176 13.815682867264941 11.591877243803028 32.530907381926895 0 0 0
959 2 -0.5156434447619458 9.625248078709435 8.988167341653288 26.153380516972568 0 0 0
960 2 -0.6110741973212784 9.437726685174441 11.803411304150586 28.823557955426132 0 0 0
961 2 -0.4946492220282983 11.567672546965463 9.452421843720343 28.448602803892772 0 0 0
962 2 -0.4180031997454864 11.474413085133719 11.697250720063487 26.376745264228386 0 0 0
963 2 -0.4783196829925198 9.437760232526598 13.8260625904062 30.921043566617318 0 0 0
964 2 -0.4883875383861493 9.401870084234453 15.987193544722196 32.745256986269986 0 0 0
965 2 -0.4834524610869158 11.619708256496608 15.832252288419832 30.468524554104746 0 0 0
966 2 -0.500785773950588 13.703266859321099 9.665302605006321 30.593009843702955 0 0 0
967 2 -0.5332813640178995 15.746492763055622 9.107555903093154 32.923991820324396 0 0 0
968 2 -0.4864615537912728 15.517622022092107 11.594277525022965 30.452419344079292 0 0 0
969 2 -0.477374961419112 13.672143248284653 13.897130029344 26.313697451533603 0 0 0
970 2 -0.540646658774262 13.66891275650762 15.885426671274793 28.62165877054197 0 0 0
971 2 -0.5332522201367459 15.611682913827691 13.793851094509455 28.251057438333014 0 0 0
972 2 -0.5216142807268831 15.72407868843605 15.826153886512987 26.45694101352913 0 0 0
1583 2 -0.5899449093350903 15.480383709930388 14.165679170287186 30.657933900929354 0 0 0
1597 2 -0.5148178452926523 8.971985666105704 11.176838825260994 26.569263793843888 0 0 0
1617 2 -0.6014318017245716 12.09829339838101 12.269336274343383 29.9203783805849 0 0 0
1793 3 0.4189539056657695 11.218700955440687 12.033919957411642 29.60251485777785 0 0 0
1725 3 0.3984920534726293 15.020859019087565 14.299677903763376 29.708938033547668 0 0 0
1726 3 0.3927577419195813 14.740376448697155 13.87820376229455 31.261301386650114 0 0 0
153 1 1.036112831808994 8.467375978361867 0.04345722473643694 25.329010028644205 0 0 0
1814 3 0.3946104320522308 16.35781402126392 32.65919677600392 6.653723553836483 0 0 0
66 1 0.9562408652057868 2.141501087004948 18.992157136932683 2.1258630995653522 0 0 0
68 1 0.9291271475018208 2.216162657065686 23.180341974813015 6.339840295357802 0 0 0
70 1 0.9619478151494368 6.336767792984823 18.9583791586649 6.355591206440936 0 0 0
71 1 0.898332855511901 4.242218645969636 21.09252960324683 0.016867238676819305 0 0 0
72 1 0.9746558990467546 6.315735497777535 23.171401842525533 2.1049035085040764 0 0 0
193 1 1.115351256891675 8.416537780901631 16.897287097724668 0.04466563398071399 0 0 0
101 1 0.9640745103702044 4.26036679044672 25.321458906497792 4.201242596910072 0 0 0
233 1 0.890708055331663 8.330750977818846 25.25242372473258 8.377708609202807 0 0 0
685 2 -0.4975673121792074 1.0437220543006653 17.759354337049025 1.0501092097749534 0 0 0
688 2 -0.4786097255942335 1.114917358830729 19.906149434164664 3.0711822995470537 0 0 0
689 2 -0.470482700881559 3.1262885300195697 18.117003741811974 3.153401618156394 0 0 0
690 2 -0.4982567095802343 3.1940182320994026 20.194716842354218 0.9284110128728743 0 0 0
691 2 -0.4899545592656205 1.2546444073776175 22.13788668770242 5.449375109939096 0 0 0
694 2 -0.4940169798232698 3.281759395080125 21.998637500172123 7.499635213267513 0 0 0
695 2 -0.483312284726937 3.1578256367767255 24.061029858295143 5.2842299425778 0 0 0
696 2 -0.5333437864033101 1.206392126982116 24.43683701388772 7.559661028103517 0 0 0
697 2 -0.4718142436378049 5.31241162149826 17.969756276381236 5.47122276424874 0 0 0
698 2 -0.4828068163572755 5.157506204567858 20.092509640386222 7.485886554987488 0 0 0
699 2 -0.4722679341786251 7.262339792131493 19.855298576659187 5.293076011991962 0 0 0
700 2 -0.4833773774550141 7.516300572378749 17.745373592723464 7.387279436720889 0 0 0
701 2 -0.4777708835288372 5.279831359731752 22.236815147394747 1.2139865010955102 0 0 0
704 2 -0.4689326232444314 5.282862357108088 24.348786545943156 3.314433952733213 0 0 0
705 2 -0.4793361295350753 7.2965285265890065 22.14430990392204 2.9856193108426514 0 0 0
706 2 -0.4764240157284733 7.483570803032091 24.232227507964684 0.9318290031681483 0 0 0
1544 2 -0.5654099088951916 6.4796912399487745 24.43190292200233 7.56351661934801 0 0 0
69 1 0.8953530119020303 4.209125924436203 16.885851108268245 4.2569743585855315 0 0 0
194 1 0.9515056851790065 10.529163022205301 18.975207549235567 2.1515893721182877 0 0 0
195 1 0.895538000200792 8.392545876528278 21.075242288073664 4.2211856687344 0 0 0
196 1 0.9541380925528851 10.457971683992868 23.207134994433126 6.328414196897401 0 0 0
198 1 0.9617349083044259 14.744149867497464 18.956083871336784 6.319207687965874 0 0 0
200 1 0.8648595556352032 14.735446924095081 23.290183270259732 2.1438388716948085 0 0 0
99 1 0.9531878725321848 0.011883975294588676 29.572017383137343 4.283171892873521 1 0 0
229 1 0.9753863635186065 12.36147025615748 25.36070579616193 4.023134582025933 0 0 0
323 1 0.9453534502925358 16.835278005389558 21.131126873961296 4.255611881715269 0 0 0
1716 3 0.4071166086300533 9.728281822060083 25.488661787987198 1.8617448219033241 0 0 0
973 2 -0.5039658982920083 9.37784219724222 17.958701669747985 0.9272190761661104 0 0 0
974 2 -0.5199004149644161 9.653543335992666 19.992967664796637 3.1421342503273118 0 0 0
975 2 -0.4856937821267826 11.714235505378394 17.77295827574667 3.184250587720402 0 0 0
976 2 -0.5554209462078024 11.452087267522584 20.042633236527365 1.2748798425924048 0 0 0
977 2 -0.4824510777198928 9.230311040503453 22.115616901101557 5.191462740143943 0 0 0
978 2 -0.4971691361620502 11.53461132337591 21.987996410915674 7.4464803375116695 0 0 0
979 2 -0.4784737229495818 11.460276938812946 24.20939035095713 5.468927702121891 0 0 0
980 2 -0.4665667609012178 9.58001382074636 24.207440086192474 7.336471792428758 0 0 0
981 2 -0.4780045273180482 13.83429464773179 18.04121267016473 5.260842758740385 0 0 0
982 2 -0.4956884179545877 13.481490189164314 20.046704156029953 7.378455115243244 0 0 0
983 2 -0.4847211551752448 15.713410030185097 20.00400180730389 5.450350624630097 0 0 0
984 2 -0.4775507812533224 15.8820350838057 17.736595197474113 7.411642904921414 0 0 0
985 2 -0.5448849523264828 13.467823985394258 22.148327510320872 1.060084833138446 0 0 0
988 2 -0.4903622497007389 13.739328877986072 24.323740860721607 2.973943238321961 0 0 0
989 2 -0.4665522079419666 15.801914371465838 22.035328799178938 3.27480355446668 0 0 0
990 2 -0.464480024890139 15.948509500785828 24.31883155111505 0.9816906953542835 0 0 0
1552 2 -0.6585637660592935 11.291944606602538 22.343697098055067 2.5139983021053616 0 0 0
1578 2 -0.5547835246769073 10.694004522863203 24.859677519527857 3.2980254229670005 0 0 0
1663 3 0.4351495488340895 10.998924149443225 21.405243115704423 2.324308033745592 0 0 0
1664 3 0.4078717038635385 12.203511283391432 22.458557256246266 2.034126125223095 0 0 0
1697 3 0.3683903308133451 14.00092639152264 24.818587642432803 6.86345776694952 0 0 0
1698 3 0.3782062178593302 15.592374181954732 25.12224409075714 6.700542486396998 0 0 0
1715 3 0.4286503236038238 10.81432317495985 23.938025449632637 3.0124923071499836 0 0 0
98 1 0.9590581833283607 2.1270721459752866 27.459367869758637 2.1516853908784426 0 0 0
100 1 0.9758898799283292 2.1395281719927595 31.670789377858785 6.394195849654614 0 0 0
102 1 0.9251021401407672 6.297007522541037 27.56408253846375 6.27876814839716 0 0 0
97 1 0.9302407335291153 0.061314924836244455 25.252331756819423 0.05273113296878953 0 0 1
104 1 0.9801336006266388 6.325249638664496 31.705012530668764 2.109724701984924 0 0 0
353 1 0.9689038064564923 16.860088130748945 25.344760232870147 0.027863944239604307 0 0 0
527 2 -0.4831773180288801 3.24634490293644 32.90425406521741 5.275495361003182 0 0 0
528 2 -0.4939415809867341 5.370988149328937 32.600374243456855 3.1312744739652456 0 0 0
539 2 -0.4865608074661384 1.257754984168712 32.54185252097254 7.525786508897958 0 0 0
765 2 -0.4549047212003525 0.9227790654471932 26.359005178060464 1.0465660621472053 0 0 0
768 2 -0.471225701774281 1.0321885121099932 28.558699701462437 3.4153637106648786 0 0 0
769 2 -0.4773311070082437 3.1484287354275056 26.43440938159009 2.989508550459666 0 0 0
770 2 -0.4767192658266886 3.1104853591331034 28.382668914040572 1.1521110630102114 0 0 0
771 2 -0.4800408287583719 1.0880438331815676 30.713090745112584 5.505610012617673 0 0 0
774 2 -0.4875292630830668 3.3234694236472753 30.50151055095724 7.4014747832159475 0 0 0
775 2 -0.4853806555554183 5.274684888324917 26.326490255495848 5.078812013210486 0 0 0
776 2 -0.4980357362016004 5.139085849020055 28.563772132708937 7.49192589550417 0 0 0
777 2 -0.5378956276017596 7.305104849710756 28.64045558198819 5.476984846952891 0 0 0
778 2 -0.5163869590678213 7.242504577892895 26.661912037407127 7.324999482877511 0 0 0
779 2 -0.4865080694465942 5.171395330782138 30.651401722770338 0.8842730762898434 0 0 0
782 2 -0.4848743332345415 7.255188063511237 32.74984721034261 1.2150677823160352 0 0 0
783 2 -0.4969072605859649 7.5444447662743075 30.690154802251765 3.2768930989828564 0 0 0
1579 2 -0.5647337770763071 7.6381006002960055 30.53826320578395 7.390930747024909 0 0 0
1603 2 -0.5891104265879445 1.5623054692351894 31.62738863203261 1.8447321055679577 0 0 0
1616 2 -0.5849939410001517 3.1516639316071586 26.21237313024218 7.7201025720488765 0 0 0
1647 3 0.3836160840503807 6.172943149063422 25.46706626687163 7.479291230018764 0 0 0
1717 3 0.4185272346651779 8.296458240470256 31.319028740482356 7.298700029010331 0 0 0
1718 3 0.4157979180054385 7.684122581400201 29.965597435569983 6.582945233347534 0 0 0
1765 3 0.4095226182224125 1.7924110992132452 31.783350614756145 0.9191131696996151 0 0 0
1766 3 0.4038828736552068 0.6189528704954814 31.88240210296358 1.9045601612969425 0 0 0
1791 3 0.4142044038884444 2.3368015621117575 25.579468483943593 7.7759993044522515 0 0 0
1792 3 0.4163296029748577 3.0101422744261406 26.98669217106623 8.365377358119675 0 0 0
226 1 0.8700497860119674 10.67157084694193 27.746191808322102 2.142460884047158 0 0 0
227 1 0.946708215215778 8.467159894606839 29.659761960813764 4.190326392655727 0 0 0
228 1 0.958638481100513 10.567526433105714 31.600108607564305 6.366015895906621 0 0 0
230 1 0.9335942940847817 14.666595582921909 27.2661383456192 6.242076102979495 0 0 0
232 1 0.9904826599290774 14.535402811574487 31.86733474827145 1.8781592480232165 0 0 0
199 1 0.9327586891944256 12.68525904995212 21.04946417370422 0.031060698721415394 0 0 1
843 2 -0.5706921504969789 11.57021577068028 32.92329944475822 5.260475761928514 0 0 0
844 2 -0.47865540647571 13.4796581462301 32.75696592260167 2.7486044144854342 0 0 0
855 2 -0.5837358549883477 9.465260041692668 32.47201443224158 7.301771089603684 0 0 0
1037 2 -0.5493338238614749 9.560065836940904 26.206865373488075 1.18872412713951 0 0 0
1038 2 -0.4858552828947775 9.369970521776352 28.74300019924734 3.171676637108892 0 0 0
1039 2 -0.4404391670559514 11.930502890959508 26.753576265386986 3.2258604743541106 0 0 0
1040 2 -0.4947238148272996 11.452110503564143 28.66362140192934 1.0423196272320534 0 0 0
1041 2 -0.5387889174142158 9.708890073417999 30.61995133888114 5.332283867126866 0 0 0
1042 2 -0.5078855984614594 11.58842033161195 30.675629861794366 7.359888613296429 0 0 0
1043 2 -0.3906725713610669 13.295681698547604 26.548606265082835 4.972586946802601 0 0 0
1044 2 -0.4862535402798577 13.810333868371659 28.31358979392158 7.249881388790735 0 0 0
1045 2 -0.4720613056062217 15.675233939821263 28.310188857901878 5.387848490772446 0 0 0
1046 2 -0.5294993172193615 16.040557849894718 26.43931774025955 7.53530065500745 0 0 0
1047 2 -0.4949474708049662 13.724608751550702 30.84322665361598 0.8490023853914646 0 0 0
1050 2 -0.4923524514224883 15.439393186417593 32.99182489810104 1.0698694185056286 0 0 0
1051 2 -0.5857578097540161 15.672398194300136 30.76772467331557 3.314214894159238 0 0 0
1564 2 -0.571113769443052 13.843147275372043 32.646553631815905 4.869304330112139 0 0 0
1569 2 -0.6003408209635556 14.670955492924291 25.066554541580636 6.171790833941534 0 0 0
1627 2 -0.5827578568368914 15.770362733747346 33.03520079742463 7.347367117475034 0 0 0
1687 3 0.3831873576748471 13.319652378880658 31.888823405365265 5.224000286960304 0 0 0
1688 3 0.3686951710955357 15.286694027858106 31.219538577381957 4.080042722955435 0 0 0
67 1 0.8759457154837151 0.08327207452136477 21.115094924832402 4.219700335333879 1 0 0
207 1 1.029282665520467 12.588064762779602 21.05545529616023 8.386142094142091 0 0 0
103 1 0.9679883796174408 4.172449537638755 29.651288109757264 0.014778822501931188 0 0 0
74 1 0.8539242858058166 2.220822600721127 19.150456574350244 10.656097867634482 0 0 0
75 1 0.9684932846021865 0.0012139755239572035 21.125714040730813 12.696881669365268 0 0 0
76 1 0.9680948825805553 2.1188790901519736 23.19891283654112 14.802844193915748 0 0 0
1691 3 0.4058986651337224 14.601740073345038 17.14269868436768 11.241967095751283 0 0 0
78 1 0.9837170212093789 6.33302654407454 18.962402150841108 14.795200384203001 0 0 0
80 1 1.021634324827222 6.320586941493362 23.16282799401993 10.685089055887303 0 0 0
9 1 0.9351678960724474 0.08541090966372049 33.687129620552334 8.613869885515573 0 -1 0
707 2 -0.5712699977095695 0.9119355743628926 18.131667393936585 9.33303755686845 0 0 0
710 2 -0.486150532266829 0.9497752638372601 20.22641268366504 11.671596722888973 0 0 0
711 2 -0.4817725912786283 3.2349190284606237 17.893083395624217 11.776997960003952 0 0 0
712 2 -0.493940829506726 3.194848395586959 20.118706170464367 9.76478473198911 0 0 0
713 2 -0.489942383482746 1.0421918630765694 21.99477301436395 13.653606383521781 0 0 0
716 2 -0.47880351746519 3.1848643906264944 22.264682521540763 15.691783459679666 0 0 0
717 2 -0.4850335018030265 3.020528818093413 24.23195917889245 13.870709472341028 0 0 0
718 2 -0.4856657469457314 1.068409495965514 24.378487012852162 15.99139324798574 0 0 0
719 2 -0.5015822893631638 5.2953313975584315 17.825144029509108 13.56105204276889 0 0 0
720 2 -0.4818893853764579 5.339589142879652 19.837141962082956 15.813044195285691 0 0 0
721 2 -0.5038963414269558 7.398684247594694 20.167688441871018 13.706360121348906 0 0 0
722 2 -0.4899868448975178 7.38755874772477 18.075929870544755 15.726879874075069 0 0 0
723 2 -0.531268191517226 5.438016529873835 22.317100345503587 9.558167913953143 0 0 0
724 2 -0.507285860784316 5.076232507162656 24.285870818539927 11.73686468448686 0 0 0
725 2 -0.5066431492246078 7.279242480492454 22.093915611579785 11.52706497009778 0 0 0
726 2 -0.5293712493946122 7.311783424291391 24.175012076447818 9.78015766096877 0 0 0
1648 3 0.3945580968972267 6.210661893278127 24.121410794320965 8.53304568005347 0 0 0
202 1 0.9712849076134576 10.499764942943822 18.96886624297235 10.571647061267802 0 0 0
203 1 1.064949458510417 8.406379775589203 21.04078392777147 12.707951879270588 0 0 0
204 1 0.8828259935138331 10.46495449147817 23.111023640659553 14.801987412377612 0 0 0
205 1 0.8752913048848145 12.553844218649079 16.9028944785029 12.724699228135282 0 0 0
206 1 0.9121841726657252 14.69340634394547 18.943291033876047 14.826620680395653 0 0 0
331 1 0.9982701108902351 16.79754871748017 20.96730846920461 12.707325330973067 0 0 0
208 1 0.8923533640508833 14.66607416810377 23.105044901308514 10.463498829433235 0 0 0
1585 2 -0.5635391808156736 16.131636694271414 30.86018926081297 10.008902933709285 0 0 0
237 1 0.8185006002717259 12.602776830261535 24.915113098724305 12.485874810640476 0 0 0
991 2 -0.4850579587086205 9.485979625686191 18.079146864420647 9.58960794724982 0 0 0
992 2 -0.4989120159523439 9.427287063728206 20.037723695695735 11.828641281722838 0 0 0
993 2 -0.482964610054804 11.370607569625394 17.909816528414613 11.51636587232096 0 0 0
994 2 -0.4869490435399813 11.710617038127383 20.10130464716156 9.466087914731641 0 0 0
995 2 -0.4961561505800973 9.271346137510582 22.053746599290104 13.704614140698942 0 0 0
996 2 -0.4988615886902682 11.770247010871904 22.049987243539547 15.862896049358104 0 0 0
997 2 -0.5055112257311385 11.27455433949514 24.06149413146183 13.732905012277097 0 0 0
998 2 -0.4937872796073295 9.47895271779177 24.36734714405394 15.93243281130068 0 0 0
999 2 -0.4737641333466867 13.626333653490814 18.083562504379607 13.90159425981844 0 0 0
1000 2 -0.4757359524217675 13.685227624510173 20.163136069611262 15.989589371964595 0 0 0
1001 2 -0.4832734961883282 15.716305346920553 20.098187623903897 13.638305429743077 0 0 0
1002 2 -0.4773834830868864 15.836307488151395 17.70773671039771 15.879482117933195 0 0 0
1003 2 -0.511840839234069 13.81089465495553 22.210712226222096 9.380617268197183 0 0 0
1004 2 -0.4777225462490077 13.502198536940973 24.137664934667523 11.252371493689157 0 0 0
1005 2 -0.5503575919687994 15.950682246665636 21.980487171400284 11.640805745722698 0 0 0
1006 2 -0.530475574899245 15.902625820769206 24.310157272465162 9.50779593590197 0 0 0
1566 2 -0.5566219983457517 15.38252095827527 17.835342020597214 11.154592812139153 0 0 0
1591 2 -0.5465781822225715 13.537482065534924 24.159803098909453 13.564422603729946 0 0 0
1692 3 0.4000790279511801 16.08171918231798 17.35684201057441 10.678218656073156 0 0 0
1742 3 0.4157298339761267 12.904335674836268 23.817258182788258 14.271688418230845 0 0 0
1741 3 0.3260482339384582 13.544257244528396 26.229788588046492 13.330324776541717 0 0 0
106 1 0.93099260949567 2.0705226353271553 27.419304473691234 10.631861948739267 0 0 0
108 1 0.9018999966490701 2.1114582869417364 31.643311101294938 14.817456872218095 0 0 0
109 1 0.9721510476453613 4.20598979623207 25.300210763193707 12.714430183488165 0 0 0
110 1 0.9199164462057056 6.346980077074998 27.3330743441592 14.842437635025359 0 0 0
112 1 0.8984540566680187 6.401525786888878 31.912862512458055 10.573061859097807 0 0 0
552 2 -0.4806897046423706 3.107522055649706 32.80824772062267 13.597413764104667 0 0 0
553 2 -0.4384885923586379 5.059527964069277 32.7791501319842 11.702702163991596 0 0 0
562 2 -0.4745968710334931 1.2127320514355207 32.679043498384026 15.739850803659241 0 0 0
784 2 -0.5250933071370774 0.8676071834770404 26.2477661745229 9.611939681344605 0 0 0
787 2 -0.4846790707140445 1.0080743082563688 28.686009068785083 11.725821370109815 0 0 0
788 2 -0.4863600296301824 3.1364580361182495 26.524046862635505 11.565352833357197 0 0 0
789 2 -0.545632638919982 3.0022892525408467 28.227724450371333 9.474638946192512 0 0 0
790 2 -0.4827303602499186 0.9096932727025102 30.47099524139758 13.791486616868779 0 0 0
793 2 -0.4712784048466553 3.257602551580446 30.552416744423414 16.024278675010965 0 0 0
794 2 -0.4801383982479366 5.2866092119525945 26.15628713094224 13.650102613378753 0 0 0
795 2 -0.4832928763620648 5.216332473894897 28.587853216271135 15.866969053918504 0 0 0
796 2 -0.4727058125983945 7.68075609400331 28.314744586347363 13.853095239108784 0 0 0
797 2 -0.4924414262864362 7.241572518666043 26.437495971747207 15.87891842064398 0 0 0
798 2 -0.4115979186016769 5.223563755257834 30.61235526150818 9.541744463371085 0 0 0
799 2 -0.4786468261815774 7.311317050019565 32.90220511193826 9.18519342175651 0 0 0
800 2 -0.502227318310718 7.210768093370232 30.211379792413354 11.739394064053103 0 0 0
1540 2 -0.5772767198501475 7.22627201832143 32.866977723249796 11.493276013412137 0 0 0
1615 2 -0.6427844635715264 7.722653123250356 33.03183995700508 14.049303354717019 0 0 0
1639 3 0.3001946708240892 7.693704165594858 30.866212363317093 11.181526274931963 0 0 0
1640 3 0.4596794677105571 7.704315392909325 32.940316142892044 12.385651086022992 0 0 0
1789 3 0.414644978338146 8.521012500724137 32.744928644787706 14.675206066443222 0 0 0
141 1 1.020560716797864 12.662670867827655 33.649973985477644 12.6589241854655 0 0 0
234 1 0.9612781479789669 10.549698928787986 27.204219434263663 10.502076879735892 0 0 0
235 1 0.8528119009116196 8.596908573383166 29.213373695186306 12.834534182438368 0 0 0
236 1 0.9359835411862019 10.658726771438078 31.486674734028952 14.796253187621796 0 0 0
238 1 1.020551685225158 15.080603052530678 27.704898788770507 15.003711132261415 0 0 0
239 1 0.9013081926569732 12.663064351147383 29.390088714054343 8.45741513951207 0 0 0
240 1 0.8349970110622753 14.770158181305924 31.45065269338777 10.600875191608774 0 0 0
1730 3 0.3956303067020722 15.991948731718539 30.001817363157677 9.58047224128557 0 0 0
1729 3 0.3231890039508716 14.992815712620928 32.61513813945819 9.393419318352473 0 0 0
864 2 -0.5007053479974192 11.64312429119746 32.706200301729695 13.581132206170297 0 0 0
865 2 -0.4666319848193635 13.528155640524577 32.54005521908348 11.732623058509281 0 0 0
874 2 -0.5055925015587898 9.463880732913118 32.61310339663886 15.875525360460687 0 0 0
1052 2 -0.4600309241658241 9.304140733196492 26.235476481472794 9.30256862718163 0 0 0
1053 2 -0.4800442331354551 9.670803931475541 28.189750136611046 11.51165996135458 0 0 0
1054 2 -0.4771223263651257 11.387938262025841 26.13479005737371 11.466252303805005 0 0 0
1055 2 -0.4785775207854643 11.774091834473461 28.37338584292899 9.444893903840297 0 0 0
1056 2 -0.5010850321373583 9.65513074981402 30.528158796380932 13.859374084577087 0 0 0
1057 2 -0.5035824963192672 11.526613996998845 30.525617575291964 15.804653934581815 0 0 0
1058 2 -0.54503634874773 14.161872028693203 26.95722203936731 13.944736549697165 0 0 0
1059 2 -0.5126871983655159 13.745023870763092 28.67807462461189 16.046390546923565 0 0 0
1060 2 -0.5412985198997321 16.128837157242682 28.62662056168009 14.034455805106692 0 0 0
1061 2 -0.502294186521403 16.044641983239913 26.314330869587447 16.010813435820157 0 0 0
1062 2 -0.5009474157872011 13.702831874266556 30.26632638650004 9.550684051030927 0 0 0
1063 2 -0.4878403529393289 15.618400360381251 33.280832370711295 9.79057024099545 0 0 0
1064 2 -0.4071720250137735 15.80456247743429 30.4693051158992 12.026593961905196 0 0 0
79 1 0.9667779432465893 4.296576777665074 21.122093691248214 8.480624217802797 0 0 0
111 1 0.9712470023856989 4.187052538061136 29.546337508714334 8.445008949785553 0 0 0
1790 3 0.4235309712495807 7.202626008747316 33.73754562810421 14.581163655477503 0 -1 0
77 1 1.044372160590801 4.233892441154717 16.889911395205274 12.679718441993987 0 0 0
87 1 0.8999816444892652 4.233111548492579 21.080292680185593 16.87341409365896 0 0 0
113 1 0.9587230312766225 0.030063474840629476 25.328142127853983 16.862660871684973 0 0 0
1817 3 0.3933639856663162 0.47447997445345724 18.87518613757256 8.891479962116733 0 0 0
82 1 1.036831009643354 2.1344485130823396 18.98453294807765 18.97271911671312 0 0 0
1690 3 0.3909051311315875 15.466564346438464 27.482789403550647 25.276521303280603 0 0 0
84 1 1.037420134306118 2.1235145179102104 23.210827512804503 23.141889445203418 0 0 0
83 1 0.9810000863971509 0.023912735067369795 21.098585602843542 21.06765530675424 0 0 0
86 1 0.9317818598129072 6.29186571429991 18.924175941404833 23.198861825088155 0 0 0
81 1 0.9556052451333792 0.016710775141142165 16.87418962024943 16.90530781676433 1 0 0
88 1 0.9933098719860107 6.370283627289376 23.145502657756754 18.957330109271897 0 0 0
95 1 1.019536458708244 4.175704082927214 21.06428779865347 25.21474672250548 0 0 0
117 1 1.010555178672933 4.370357763107784 25.25507581078172 21.065194812470324 0 0 0
727 2 -0.4930511399500209 1.1678206959050899 17.925391355042844 18.106156868528434 0 0 0
730 2 -0.4956092315195124 1.1241122204088472 19.85748942039003 19.98301913530396 0 0 0
731 2 -0.4812202762824715 3.1768835593577105 18.05899427622774 19.921995369111933 0 0 0
732 2 -0.4864026047564747 3.1776893989993678 20.18791876376921 17.77498723959122 0 0 0
733 2 -0.4948228819364012 1.147744973566039 22.18111969646428 22.25598313741779 0 0 0
736 2 -0.5238149638171035 3.3260537193132795 22.153193787073494 24.27390961879391 0 0 0
737 2 -0.5066942915760448 3.0661157112685746 24.161186050259793 22.12571392519339 0 0 0
738 2 -0.4843471323513765 1.0989443118831264 24.21791449592101 24.023333482421126 0 0 0
739 2 -0.480370263274047 5.0683501133587825 17.78549431968816 22.095235982135005 0 0 0
740 2 -0.5264724236765648 5.422605309283532 19.944295574614667 24.17674207044974 0 0 0
741 2 -0.5692086480901234 7.353972662091804 19.89402748852424 22.355296812307852 0 0 0
742 2 -0.5451655298220852 7.502121279191196 17.886793115901302 24.35200437722719 0 0 0
743 2 -0.4830393901190073 5.342761635302709 22.14629153163691 18.103575599515903 0 0 0
744 2 -0.5076737646912709 5.368479361454596 24.24327005167614 20.210657022365126 0 0 0
745 2 -0.4921339433575369 7.371213641228704 22.180469161260955 19.84373456297259 0 0 0
746 2 -0.4978296707426595 7.496285198153182 24.210728227249735 17.755005722713147 0 0 0
1739 3 0.3614650261168486 5.40619716316722 25.161688064134154 23.882636696966717 0 0 0
255 1 1.046403903678039 12.680869444122228 29.554950026767248 25.283087695116297 0 0 0
210 1 0.9608896725677807 10.548274478051171 18.972728369262413 19.006304945493326 0 0 0
211 1 0.9299535525281928 8.389103568507199 21.048657856980718 21.074733425196087 0 0 0
212 1 1.016164437285486 10.43870999060523 23.1574157936246 23.372779836884394 0 0 0
213 1 0.9308936969068679 12.609237074013132 16.952391914084924 21.20345026555276 0 0 0
214 1 1.096742970424072 14.818250443664185 19.009048623278193 23.194175910884514 0 0 0
216 1 0.8853301836497633 14.773594206834867 23.210565180606007 19.012164599604482 0 0 0
209 1 0.9679535194237581 8.449017629325786 16.87926687349266 16.895361364364142 0 0 0
245 1 0.965135696052245 12.589140116020241 25.25196691893179 21.092903441167575 0 0 0
1077 2 -0.4882355873241927 15.913180614489077 30.60778766370111 20.233810025343093 0 0 0
1007 2 -0.4825759239648504 9.386133893995762 17.781006591115645 17.943729543663704 0 0 0
1008 2 -0.4830388005987598 9.48346476751577 20.141323681453876 20.211598732490966 0 0 0
1009 2 -0.4710262591814017 11.578949950057744 17.988228970620778 19.89569242012381 0 0 0
1010 2 -0.4780369645251075 11.482476825419115 19.875413698357395 17.961111748503743 0 0 0
1011 2 -0.5282008432897475 9.253168475281806 22.11776491747517 22.01675623193739 0 0 0
1012 2 -0.4695133590107925 11.758966600998763 22.17357833338162 24.42953085118579 0 0 0
1013 2 -0.4448901318481486 11.638215425624006 24.18309808337452 22.040255783933137 0 0 0
1014 2 -0.4793176118119387 9.803221411427057 24.535264031537043 24.06701315887571 0 0 0
1015 2 -0.4911644536133575 13.958962082888123 17.973299887675434 22.15963798318434 0 0 0
1016 2 -0.5114492048895249 13.760623748531168 20.004826411737795 24.112433325344877 0 0 0
1017 2 -0.4940310719999834 15.874231000684876 19.95473213950532 22.28797366267203 0 0 0
1018 2 -0.5072478779550513 15.70470850919427 18.042946627951277 24.24442960925629 0 0 0
1019 2 -0.4778901851183572 13.735106539881226 22.298151565296685 18.089196846171646 0 0 0
1020 2 -0.4661739672433934 13.665822144422892 24.38391432034051 20.151589307918435 0 0 0
1021 2 -0.4832175985409352 15.956981739434276 22.024317650126722 20.07249576839371 0 0 0
1022 2 -0.4809849221974554 15.881629519845925 24.325936711568094 17.811755837723272 0 0 0
1550 2 -0.6473892176714972 9.479244309149184 19.672481311846703 24.14804508824691 0 0 0
1560 2 -0.6200917100091045 11.507899300461956 18.10487818440861 22.755516131897966 0 0 0
1619 2 -0.5709892413609791 9.29211180993036 22.449375478260833 24.28349462912958 0 0 0
1659 3 0.4008674518811962 8.729676721188929 19.514967673177992 23.520938423240406 0 0 0
1660 3 0.398580238521513 9.146775097206355 19.411314157732562 25.035277447841466 0 0 0
1679 3 0.4072550101511088 10.995535013150496 18.8353623690585 23.226863188719296 0 0 0
1680 3 0.3710828704740832 11.708068412507359 17.492908593248117 23.508676031823136 0 0 0
1797 3 0.3885784317722482 8.683102669359926 22.0046541149766 23.576144991751253 0 0 0
114 1 0.8078645361893528 2.306460080240463 27.148742545458713 18.959200521833786 0 0 0
1076 2 -0.4858514995652177 15.875764906736359 32.743560591985066 17.76402187984937 0 0 0
116 1 0.9832189497873424 2.095072266108549 31.701419459651284 23.250195014308517 0 0 0
118 1 0.8281890854447659 6.269194561782106 27.46710373081541 23.27152342235527 0 0 0
119 1 1.019172443974631 4.261155622145105 29.475663609703957 16.918731022024406 0 0 0
120 1 1.028815178552784 6.3167010356668 31.597941703763357 19.07567138367004 0 0 0
215 1 0.9550939736216933 12.656774105085319 21.092343669040847 16.916609410624552 0 0 0
243 1 0.9012901526054884 8.426359686550217 29.493176168769324 21.15604497259583 0 0 0
249 1 0.9047804024888315 8.68526312629955 25.585531993717048 25.248166829793206 0 0 0
575 2 -0.4891392375546921 3.2290274464717235 32.91722428739748 22.17864786536422 0 0 0
576 2 -0.4888618899158815 5.306479449822095 32.48597898524902 20.08604504666646 0 0 0
585 2 -0.5084300459029083 1.0833360790445457 32.54161666109119 24.248033823919354 0 0 0
801 2 -0.4475775964208285 1.0029109987550937 26.350617168572395 17.832310986168427 0 0 0
804 2 -0.605102043417414 0.9475649531519429 29.078220331162356 20.276930538834783 0 0 0
805 2 -0.4621591800541657 3.6400176399982502 26.266306024009946 19.915607212878363 0 0 0
806 2 -0.4946335069493267 3.3274216916891306 28.367110278847207 17.748643079368573 0 0 0
807 2 -0.5077107099171037 1.124934412830001 30.85874843206974 22.21983955053887 0 0 0
810 2 -0.4932539470936433 3.192400697490208 30.457770621989756 24.327109892176523 0 0 0
811 2 -0.5061528422746485 5.3493760674419155 26.263682102166346 21.988546295212 0 0 0
812 2 -0.4128953763078086 5.255980033659587 28.6724829244538 24.452395691656275 0 0 0
813 2 -0.453227572602822 7.3945425770150255 28.656432708545235 22.15968557572179 0 0 0
814 2 -0.5358171699650889 7.665925676704453 26.566440045215206 24.4193786996625 0 0 0
815 2 -0.4971785108033766 5.3553431080487215 30.54251843195242 18.178494434322808 0 0 0
816 2 -0.4844580810411551 7.446844428948379 32.73632569210256 17.90477114313103 0 0 0
817 2 -0.4801873615580601 7.3622370713909335 30.658168027742004 20.001619647176646 0 0 0
1590 2 -0.5787446297681171 5.3457668071470135 25.941388639888135 24.508717889090313 0 0 0
1626 2 -0.5175784701145599 1.5536336696706061 26.56436215589967 20.26277701821317 0 0 0
1740 3 0.3875923617398652 6.265944040315663 25.913785726440327 25.046727220779342 0 0 0
1811 3 0.3123930240577409 1.6769636115553024 28.612167103496514 19.63307403676131 0 0 0
1812 3 0.3873034759448042 1.5279628618727705 27.211409564193236 21.00920210418906 0 0 0
281 1 0.9750006054268661 16.81435289360994 33.707058427045595 25.242594448135545 0 0 0
241 1 1.055395525760791 8.445216175516078 25.27233806874365 16.89663521572583 0 0 0
242 1 0.9641788628325879 10.530670460609453 27.385851749138908 19.01590279162635 0 0 0
244 1 1.035195611563021 10.536700633688017 31.649449480452162 23.21791934143224 0 0 0
246 1 1.004489551515614 14.67276362699383 27.448912009417377 23.092423568819402 0 0 0
247 1 1.064138448844953 12.720841110055007 29.55103927396408 17.00045906374042 0 0 0
248 1 0.9110563587564285 14.788306369124392 31.677493668632327 19.018801664863133 0 0 0
883 2 -0.485396117724147 11.4575968485684 32.70257703107333 22.27104764611834 0 0 0
884 2 -0.4710420310909987 13.782946365973274 32.67395816593444 19.878154103971347 0 0 0
893 2 -0.4931545363738318 9.413541643538085 32.71109706152853 24.453692171537533 0 0 0
1065 2 -0.4884935187191589 9.337511560324995 26.227868352772166 17.956607932563937 0 0 0
1066 2 -0.4711240517499075 9.595778654286612 28.28279460679391 20.088587288729638 0 0 0
1067 2 -0.4753732749309614 11.444189220866273 26.31862055581524 19.90505720120445 0 0 0
1068 2 -0.4919124383630807 11.79367516963134 28.487155950393273 17.929107398669302 0 0 0
1069 2 -0.4754495896292044 9.595779879786907 30.69430594548524 22.183413779339396 0 0 0
1070 2 -0.5051169346397716 11.56838938632301 30.643659664487576 24.061544601909688 0 0 0
1071 2 -0.4826695021485979 13.667169587171108 26.534359150524615 22.115864065094485 0 0 0
1072 2 -0.5339005324898578 13.648599597114124 28.5164244088188 24.380851243168518 0 0 0
1073 2 -0.5036788264120469 15.743858624681025 28.398568524186725 22.22498281911691 0 0 0
1074 2 -0.5248050230535611 15.629139696531212 26.435991164850638 24.037850263242493 0 0 0
1075 2 -0.5027018035619025 13.621626439606056 30.501900625550608 18.029249737506987 0 0 0
371 1 0.9731752746465544 16.862884956555547 29.55784750319804 21.105919067387372 0 0 0
90 1 0.6659731795527043 2.311805113608033 19.061646952549683 27.57115786252076 0 0 0
91 1 0.9746079159130349 0.04835532541810574 21.171708639853644 29.540701579879514 0 0 0
92 1 0.8643581761580397 2.2000647919332064 23.185021257394137 31.65997336026262 0 0 0
94 1 0.9795128242316442 6.306400908310518 18.949263110629694 31.667119756144366 0 0 0
96 1 0.9027647362370866 6.227842577883613 23.043913869962285 27.48608248994804 0 0 0
1689 3 0.3959217616238634 16.795000007218402 28.023305247280554 26.09009441811917 0 0 0
125 1 0.9530046643048297 4.198562252226066 25.305886289130747 29.498579593229582 0 0 0
702 2 -0.4882395718490528 3.206185934645688 22.310840998831946 32.642819420937805 0 0 0
703 2 -0.4789919514442219 5.3997068334185645 20.004810795466202 32.579560935014484 0 0 0
747 2 -0.4403423575796576 1.342807796200528 17.81004293642465 26.426362670623366 0 0 0
750 2 -0.5319130621148769 1.0616654760724038 19.898145719745585 28.463181586353723 0 0 0
751 2 -0.4838026312781854 3.1531022763871803 17.594886203079806 28.64985929454896 0 0 0
752 2 -0.5019504064936574 3.1023644258655234 20.11780240046815 26.062091242757088 0 0 0
753 2 -0.5053577625457851 1.1818203620568113 22.022283687527672 30.484290646146796 0 0 0
756 2 -0.4804552380493473 1.5494311613443585 24.624505463720173 32.726164476989545 0 0 0
757 2 -0.4403229502954402 2.9829165825324058 24.210660475958846 30.57199072493987 0 0 0
758 2 -0.4883939557936517 5.2593521622975645 17.993699613233492 30.782941064974334 0 0 0
759 2 -0.498078153662995 7.328406432597904 17.80312241121927 32.8724412837523 0 0 0
760 2 -0.4896999599714533 7.50346262371538 19.97787793486038 30.473622853880265 0 0 0
761 2 -0.5261410954558191 5.104612760855572 21.89407284865789 26.322029227204606 0 0 0
762 2 -0.4688726535631669 5.384434787417849 24.149633899845266 28.3901236105509 0 0 0
763 2 -0.5014662796144744 7.2990464362605465 22.191318271167038 28.42678684690099 0 0 0
764 2 -0.6052473647651073 7.486138670630186 24.083130243425455 26.1135560743314 0 0 0
1549 2 -0.5483353086829433 4.239077850587422 19.947662689472978 28.459034219207687 0 0 0
1750 3 0.3793473233355745 8.160357150825643 26.236234434684327 31.532369224336684 0 0 0
1565 2 -0.5855497798572198 16.03118702018284 27.360700900650865 26.180068940347198 0 0 0
1657 3 0.3071760648830976 3.4274456967956204 19.575840013920214 28.085902554441397 0 0 0
1658 3 0.371353271752791 4.986075344741242 19.63339584628155 27.898309653919604 0 0 0
1711 3 0.2640641169318831 0.6997419467615724 23.170109310160466 32.43084515835846 0 0 0
1082 2 -0.4793886908537801 9.458950609500175 30.734978580421984 30.724242229035752 0 0 0
1777 3 0.3596790700795183 0.40913963176562435 18.621724729907694 30.961958783254474 0 0 0
1088 2 -0.5181407666289993 16.018106639768522 30.59941644736393 28.350334939540023 0 0 0
1087 2 -0.5050360674556741 15.62631015171339 32.716029555591625 26.46468032816762 0 0 0
1081 2 -0.4989559824622496 11.807914947585024 28.650038707814655 26.38488561085291 0 0 0
218 1 0.8776693705186243 10.561763243307432 18.996362029226947 27.4393356774892 0 0 0
219 1 1.028095978284372 8.444254474779012 21.030433645247072 29.57194221545438 0 0 0
220 1 0.9375309075697524 10.678487141073653 23.071645027940463 31.64828948700385 0 0 0
1604 2 -0.5558894118416896 16.86146971882295 31.395973460054712 33.56623763010272 0 0 0
222 1 0.8979727866033351 14.776360851842586 18.998449048435845 31.638792200474626 0 0 0
224 1 0.9586537518667727 14.80517494269956 23.252158718773046 27.435681453944476 0 0 0
347 1 0.9205972245176809 16.844854603822697 21.121984005500742 29.562435115856662 0 0 0
986 2 -0.49989183611934 11.692641713383656 22.1205141743513 32.5318913640193 0 0 0
987 2 -0.4762824183540545 13.76744261442941 20.12144597507201 32.91770155742686 0 0 0
1023 2 -0.5481907092481437 9.504424702645382 18.152408473360502 26.4653486478376 0 0 0
1024 2 -0.4914348910907506 9.490707700560316 20.08488781209216 28.655548112848543 0 0 0
1025 2 -0.4911460486725875 11.674266232369833 17.76733092111122 28.477688082209504 0 0 0
1026 2 -0.4961601169947007 11.786998998393878 20.16210352169159 26.393136908537084 0 0 0
1027 2 -0.4748248093008912 9.405368982523257 21.9393852442124 30.627507364811652 0 0 0
1028 2 -0.5268436966757498 9.830592474465522 24.000756816158027 32.733252220446786 0 0 0
1029 2 -0.5032494833865518 11.692015301531901 24.379547867568036 30.547169216471552 0 0 0
1030 2 -0.4920757402744069 13.55045705484462 17.85940127039461 30.595662380394163 0 0 0
1031 2 -0.4891368988657712 15.824718674619232 18.0503322414153 32.477345091842245 0 0 0
1032 2 -0.5002019332600779 15.882720027639433 20.063421833816292 30.41284030446985 0 0 0
1033 2 -0.4825313253933874 13.756890623816368 22.105686953564554 26.22893683738706 0 0 0
1034 2 -0.4772570511441162 13.783356241544912 24.222285166265504 28.31798193362763 0 0 0
1035 2 -0.4913577775755822 15.833760533201355 22.027661821222473 28.598039197454582 0 0 0
1036 2 -0.4798154002631807 15.865853851162493 24.205465859788266 26.50777710455198 0 0 0
1595 2 -0.5614568973038307 8.367406877228813 25.208732246631033 31.351983502880504 0 0 0
1086 2 -0.5027419482965236 13.721893888050607 30.52387205657573 26.167378701173806 0 0 0
1749 3 0.3740098824664483 9.388010198715667 25.039930048000056 31.54735381440005 0 0 0
1085 2 -0.4769494758814443 15.92539104302037 28.613481676018466 30.628942570237996 0 0 0
122 1 0.8846110551619204 2.055196630313844 27.304932445352534 27.329240462146682 0 0 0
1084 2 -0.4769410643929252 15.665760809639186 26.534310845398963 32.72734942711932 0 0 0
124 1 0.9652650950251628 2.150695135186585 31.950141097054157 31.669546303872213 0 0 0
126 1 0.9877510146426164 6.226077861154332 27.561419593295334 31.654267605304003 0 0 0
128 1 1.00111506171392 6.409282201255977 31.626244077122433 27.369762133042688 0 0 0
225 1 0.77869905436141 8.332556737369016 25.158094223467817 33.5865225679997 0 0 0
514 2 -0.5142833375084567 1.3000721866167984 32.71100278861672 32.86516818084183 0 0 0
597 2 -0.4804975536493095 3.5170185683551995 32.9124489012021 30.690401247800374 0 0 0
598 2 -0.5592277239681626 5.290328163270163 32.43042558879353 28.36135655053846 0 0 0
780 2 -0.5047554819522317 3.17459223657781 30.60699405878818 32.83266321619249 0 0 0
781 2 -0.4893429718408155 5.2935836716901425 28.645611412501445 32.52517549861034 0 0 0
818 2 -0.4661540307982536 1.1701449855493733 26.257585858913174 26.428983587948366 0 0 0
821 2 -0.4897937575123257 0.738841261145884 28.273672331171067 28.451280255356714 0 0 0
822 2 -0.47176817908039 3.300958034425215 26.299360773974595 28.495615083807824 0 0 0
823 2 -0.4821135891029096 3.147619528339743 28.38072221310906 26.062212625690186 0 0 0
824 2 -0.6155158167097092 1.202383146208267 30.3572450642624 30.56207338975469 0 0 0
827 2 -0.4673762424139712 5.083583040651293 26.336653420493032 30.57756506154833 0 0 0
828 2 -0.5024070977415154 7.185534167590916 26.681947700133215 32.742832241644834 0 0 0
829 2 -0.5017869803223368 7.325471434443222 28.37606942121474 30.65686844872959 0 0 0
830 2 -0.5222718469592224 5.519053832026342 30.703476708219153 26.277534370028057 0 0 0
831 2 -0.4993957097810027 7.4963588845790685 32.90498956665001 26.346143108709796 0 0 0
832 2 -0.4815292741737869 7.278687936364384 30.577767114731138 28.364271052903753 0 0 0
1598 2 -0.5231139628876819 1.1465284857115379 32.724019525003364 30.67002303691455 0 0 0
1618 2 -0.5789911107529466 3.446846375856405 30.549208460684508 27.922493347384503 0 0 0
1745 3 0.4035031753056311 0.32137339833692374 25.58390026785721 31.057021711821818 0 0 0
1755 3 0.4045466061154759 0.545135720487465 32.04970788684769 30.26829287504351 0 0 0
1756 3 0.3744497539647144 1.9840914785923767 30.056963864565443 30.089076483304705 0 0 0
1795 3 0.4118930493012416 4.175587474208486 31.21926834417452 28.16973453121323 0 0 0
1796 3 0.3149790654139926 3.7051819302864675 30.176547326669496 26.973119140489313 0 0 0
231 1 0.9381931387011795 12.619188902881419 29.622196573037158 33.62136511289663 0 0 0
250 1 0.9800992914655045 10.646710956334893 27.52077196353575 27.49043844123351 0 0 0
251 1 0.8226050036775515 8.440162608087 29.55215227930502 29.542322267702517 0 0 0
252 1 0.9891460007112138 10.496956767680519 31.677605599054665 31.621581515576818 0 0 0
253 1 0.9602144067442215 12.687240958790383 25.315911254387157 29.566909919639638 0 0 0
254 1 0.9001431456307214 14.753216353587925 27.426404324331525 31.679748985087897 0 0 0
1080 2 -0.4907885260213795 11.534121969336464 26.569985524589146 28.550017448644667 0 0 0
256 1 0.8848409813425733 14.729885174206837 31.687330963627403 27.376271431059184 0 0 0
1083 2 -0.4790592500711037 13.693480254574016 26.179885699586727 30.574756862084165 0 0 0
834 2 -0.4856928125300536 9.431638149347513 32.759001384126506 32.89644435143769 0 0 0
901 2 -0.4978014147162071 11.545131246574623 32.81973579368996 30.424997447658637 0 0 0
902 2 -0.4884210876691861 13.549012565478845 32.71441604781222 28.5692828957156 0 0 0
1048 2 -0.4928834875013726 11.511427414897787 30.64800344562984 32.424271724108266 0 0 0
1049 2 -0.4772162184165151 13.524455879635982 28.519770449995036 32.768395373077304 0 0 0
1078 2 -0.4993919774245142 9.553181472363867 26.401729384565943 26.37284280881932 0 0 0
1079 2 -0.4761376770853386 9.635469603761075 28.513599961469502 28.376613572282682 0 0 0
1785 3 0.3822237140855032 0.05519597364223472 18.763924070649214 26.96110390068149 0 0 0
223 1 1.021996470550305 12.710670544773777 21.127451871276705 25.343949271408036 0 0 0
127 1 0.9102191522024377 4.128399681606548 29.584376679383404 25.38204487211486 0 0 0
377 1 0.8737420361320529 16.848744762500374 25.481801813759024 25.408367428947557 0 0 0
1798 3 0.3776346719780879 7.891065275854344 23.337965401329196 25.634052454771812 0 0 0
258 1 0.8830120909245691 18.95889883006222 2.063161200057939 2.0698484658417557 0 0 0
260 1 0.9495632536393871 19.01082789329451 6.275170045519187 6.329943502905103 0 0 0
73 1 0.9822387034204781 33.60266941967777 16.61371935474628 8.27844313004481 -1 0 0
262 1 0.9038152482565949 23.17658741414927 2.040694333722988 6.287141736354287 0 0 0
449 1 0.8938621366014087 25.35465802633472 16.86193066919237 0.038367231249791425 0 0 1
264 1 0.9320121823100842 23.170200411852388 6.287517299432708 2.082951043322002 0 0 0
387 1 0.8909086048485146 25.24207896005642 4.166330934229592 4.198948126439378 0 0 0
1089 2 -0.4751513624604974 17.842519046726647 0.8117933373385149 0.9970672892291929 0 0 0
1091 2 -0.4692860489502477 17.819751756953703 3.138101614560006 3.3103617487030084 0 0 0
1092 2 -0.4800684602716332 20.031467991218342 1.1591241073094891 2.948809807012388 0 0 0
1093 2 -0.4685738435692577 20.006916318254838 3.2757437105956946 0.9228639733737699 0 0 0
1094 2 -0.4790163038325317 18.047968233695823 5.410832509430413 5.2806114932138435 0 0 0
1095 2 -0.5038495569377177 20.190175648559364 5.1814251226457655 7.5095871680249715 0 0 0
1096 2 -0.4886443052163538 20.123143249458675 7.486729084790583 5.266855543376436 0 0 0
1097 2 -0.4968960241636194 18.03130403154668 7.176791062587302 7.342798482083986 0 0 0
1098 2 -0.4706734621137287 22.027237771910613 0.8566014501355401 5.217221981668864 0 0 0
1101 2 -0.4672882177329617 22.153098207465128 2.994895656232762 7.151037331087108 0 0 0
1102 2 -0.4708298856047808 24.1851868226129 3.2302184073919826 5.085424273390578 0 0 0
1103 2 -0.4731261144432677 24.332384542209034 1.028992438325505 7.552407924107632 0 0 0
1104 2 -0.4766311861552835 21.949150813529442 5.122036805607549 1.0175120855724469 0 0 0
1107 2 -0.5277366414554669 22.322284569063935 7.309363169793504 3.094011048526366 0 0 0
1108 2 -0.5006398162896341 24.383881647236564 5.200012834661 3.2101188882826612 0 0 0
1109 2 -0.4975898917450383 24.06717130026132 7.315518575551274 1.0984617950782694 0 0 0
1806 3 0.3690794563280487 24.876909506238597 8.239422412735207 4.888449791629323 0 0 0
386 1 1.023383250676326 27.402333081552722 2.0785982733141237 2.0733710929172275 0 0 0
388 1 0.904167963907426 27.37006673680615 6.348080931136149 6.384939029342731 0 0 0
390 1 0.9096811379764086 31.437149810249213 2.236190066913046 6.313699656334094 0 0 0
65 1 1.082917500705637 33.71914544114155 16.86826211207309 0.07345445341740361 -1 0 0
392 1 0.9937144561848906 31.68455472629388 6.251880253752038 2.130919135657869 0 0 0
389 1 0.9679114653222777 29.477805013856056 0.008818719555111706 4.22981741189873 0 1 0
3 1 0.9156895720525354 33.695709846852665 4.188243146028944 4.326104445477739 -1 0 0
521 2 -0.4997276100934231 32.303150817273846 3.2718678572391906 5.349383127880149 0 0 0
522 2 -0.4544900908599214 32.69646128859305 5.299555995368233 3.048020578276092 0 0 0
540 2 -0.5478695196825871 32.76395114347065 1.051950238461126 7.326090649819114 0 0 0
606 2 -0.4894331053726881 32.777186574900554 7.2861961217750935 0.9077011146755909 0 0 0
1345 2 -0.4884005269995381 26.491508672403793 1.1292703244319564 1.0520836580617159 0 0 0
1347 2 -0.5224227691059303 26.32317698515551 3.0011352366115487 3.0096848513042187 0 0 0
1348 2 -0.4938881496886197 28.336146141358217 1.0509546430251135 3.007003868757387 0 0 0
1349 2 -0.5048995385127314 28.49378192822599 3.238227937119795 0.8893748859513009 0 0 0
1350 2 -0.5630006281597735 26.501867394340994 5.297432372910189 5.375346368444429 0 0 0
1351 2 -0.4812240898710743 28.428839127282828 5.247572873195342 7.640029513081977 0 0 0
1352 2 -0.5204645435065517 28.46756611721493 7.446940691829035 5.089371053624847 0 0 0
1353 2 -0.4928603809456452 26.313184105894685 7.332148990763333 7.229658408561604 0 0 0
1354 2 -0.5125176480308967 30.462116088138337 0.9998834336881387 5.128647821868683 0 0 0
1357 2 -0.4861661268118576 30.422196898343476 3.1321618671097093 7.25746471862473 0 0 0
1358 2 -0.4709217121158145 30.49229903972514 5.053490691735879 1.0450389026152749 0 0 0
1361 2 -0.4632694851184656 30.955177545721668 7.312196656009911 3.1820221560876885 0 0 0
1561 2 -0.567510490053117 28.413613120113748 4.692675514690223 3.671660711681014 0 0 0
1599 2 -0.5695905210998216 28.480444355743927 7.297762384949097 2.683984529913584 0 0 0
1655 3 0.3829718809162448 33.39198549042745 0.5776621396673511 6.24144736298851 0 0 0
1656 3 0.3627344254546336 33.27440835821991 0.5644102187309054 4.543197882707726 0 0 0
1681 3 0.3862601083373551 27.901437189568806 4.564288600293747 2.8656735148024084 0 0 0
1682 3 0.3919698181733663 27.728265315231653 4.848717471381006 4.425954226810477 0 0 0
1757 3 0.3889975034068584 28.149269310946615 8.300392940011664 2.405275209631541 0 0 0
1758 3 0.3869403877914781 27.972903049361374 7.031285381847497 3.5810085355383325 0 0 0
290 1 0.8503416033295206 18.998288867884252 10.455757082549999 2.099872575139725 0 0 0
1744 3 0.3770600573648906 30.173306798341947 15.212466224512061 7.837237416374485 0 0 0
292 1 0.8734682367460659 18.985285084642904 14.720299496837567 6.294501009100074 0 0 0
293 1 0.9609567672060257 21.06440106292232 8.376980249788373 4.228859939292287 0 0 0
294 1 1.034600618337304 23.06802997005942 10.505487020288415 6.363512476643136 0 0 0
296 1 0.9555636811812985 23.23297112903497 14.740688324333757 2.1232437873089602 0 0 0
325 1 0.9799296931502274 21.079751415556203 16.832886454965152 4.216935432304467 0 0 0
1165 2 -0.5096097184351825 17.799683379999426 9.36280426555479 0.9787552563166672 0 0 0
1166 2 -0.5171775466106422 17.984831336417933 11.467574930512814 2.9180123473711443 0 0 0
1167 2 -0.4748769180969024 20.053318021347543 9.366403563516641 3.3583494521645947 0 0 0
1168 2 -0.4898297311730168 20.181600056705847 11.652045055760652 1.0372808548727848 0 0 0
1169 2 -0.5143758857928232 17.831163329221525 13.659420426558473 5.080398702220743 0 0 0
1170 2 -0.4693250323197778 20.203099691167086 13.668094543580363 7.4674382359705085 0 0 0
1171 2 -0.4926207956719845 19.87399572213842 15.651172247405697 5.262026063221738 0 0 0
1172 2 -0.4755832934925607 17.94608412973366 15.967356462607464 7.404557210189219 0 0 0
1173 2 -0.523484635896946 22.205723605969258 9.437832990608973 5.388943454637673 0 0 0
1174 2 -0.4904472639686386 22.041895560167777 11.428334852870412 7.339493912915271 0 0 0
1175 2 -0.5344313263959584 23.992641100613604 11.513219645443026 5.275373105894193 0 0 0
1176 2 -0.538707218856416 24.183895510771496 9.578526039812438 7.266050898812752 0 0 0
1177 2 -0.4704992295312757 22.020053845821245 13.591687752914865 1.0428966921552894 0 0 0
1180 2 -0.4785206647945549 22.155247927420163 15.962681308693034 3.2541815478402714 0 0 0
1181 2 -0.4579422296952878 24.158690863201652 13.77112617096992 3.1514207615082603 0 0 0
1182 2 -0.4650208361672411 24.25379350073084 15.621331540140455 1.1255231054921648 0 0 0
1623 2 -0.6331000725468352 25.054104479883403 8.562823970428681 4.012807234413678 0 0 0
1638 3 0.3868444285662131 17.236575475599732 15.719987059400085 3.7192120202938073 0 0 0
1643 3 0.374753198165939 25.271748841478658 10.64558173790855 5.319523351193939 0 0 0
1705 3 0.3974479213282726 17.48811311579588 12.119743077273604 1.0107634891996344 0 0 0
1805 3 0.3940286452584729 24.222707036648814 8.422929793989807 3.5609035714599866 0 0 0
1743 3 0.4114307853005316 31.68880520986453 14.740858671169796 7.968526925905614 0 0 0
418 1 0.8897736529095456 27.368352795739863 10.678350163750975 1.974313529590698 0 0 0
419 1 0.9100604880012179 25.372540098065542 12.656416292211878 4.206842167865155 0 0 0
420 1 0.882740931938865 27.400461544323875 14.838171663002855 6.305295070063037 0 0 0
421 1 0.9343488345736947 29.661229694388627 8.401703977509907 4.158490514540168 0 0 0
422 1 0.9068519406876341 31.610518664289007 10.555047962570352 6.352295731151097 0 0 0
424 1 0.9737637891239661 31.61955633191892 14.761253120651517 2.1830360810015055 0 0 0
431 1 0.9533401081200004 29.611600463178917 12.820651978725062 8.365587624380169 0 0 0
259 1 0.9168455744659431 16.90236602727651 4.221229466284538 4.193707415930078 0 0 0
612 2 -0.4850191964615852 32.83956477033162 11.62628260486794 5.260082696845249 0 0 0
613 2 -0.4879202738562176 32.662617646534606 13.576307792087535 3.369509921562018 0 0 0
629 2 -0.4816818132190893 32.69287219477381 9.517974297281128 7.6033644610266915 0 0 0
686 2 -0.4991367157347913 32.80136622366028 15.790142258985012 0.9996630324583742 0 0 0
1405 2 -0.5024996739868324 26.311018667508733 9.376755137484714 0.9117629750295401 0 0 0
1406 2 -0.4564374626079307 26.43541519028039 11.739280493951412 2.8364091157797335 0 0 0
1407 2 -0.4827991215496937 28.601438888720125 9.655352885044813 3.069813123349858 0 0 0
1408 2 -0.4836870329297093 28.54233842583913 11.647767827065362 0.8576557010730582 0 0 0
1409 2 -0.4597358156909501 26.27422309888715 13.788149434798619 5.052263377483965 0 0 0
1410 2 -0.4677668579878475 28.42632000125519 13.654314166868406 7.472063773413689 0 0 0
1411 2 -0.487390888910401 28.416865756837183 15.866691312895359 5.496277824581646 0 0 0
1412 2 -0.4847813562184614 26.297213435582492 15.899436312237784 7.529935724861374 0 0 0
1413 2 -0.458258582841916 30.486387623414906 9.344022882231046 5.27431178604004 0 0 0
1414 2 -0.4746437502020652 30.6043865848647 11.50888967663956 7.273814673268869 0 0 0
1415 2 -0.489695153593602 30.603226941587042 13.796473356296646 1.2815044376760005 0 0 0
1418 2 -0.4679890821004162 30.669491452996038 15.82743200690989 3.0610472744942636 0 0 0
1542 2 -0.5754788617018884 26.321325646327306 11.044589291899378 5.36693007092037 0 0 0
1592 2 -0.5950314606480032 30.77013491303159 14.486830014111774 7.501661606435871 0 0 0
1644 3 0.3833467316226764 26.5574921276807 10.877293480945553 6.309657207158031 0 0 0
271 1 0.8807669018592371 21.11681331352636 4.1297600147430105 8.390660928473045 0 0 0
297 1 0.9249260168984617 16.932381600173205 8.417947615429894 8.435801064368118 0 0 0
423 1 0.9771552887403471 29.528943317281627 12.678118417747102 0.027302020611552635 0 0 1
295 1 0.9374593621706319 21.122283790349744 12.620582107089374 0.013390675206743708 0 0 1
1573 2 -0.5929128733060622 17.262478355492092 12.484822723737702 0.14807529465614594 0 0 1
33 1 1.011171134930799 33.669963156267784 8.371335942488708 0.017058591934333924 0 0 1
35 1 1.056009839087919 33.72837323908107 12.600098363963278 4.230915209618506 0 0 0
291 1 0.9811605890273674 16.88264670163903 12.568004392543454 4.188668072213513 0 0 0
329 1 0.9213437784951928 16.92453180452319 16.853463139494586 8.384976520445342 0 0 0
266 1 1.029136583072296 18.910756019702003 2.1791897787236496 10.484879447097862 0 0 0
1770 3 0.336522465220592 28.701679833837694 12.870843713296864 14.782993704203687 0 0 0
268 1 0.9042602645002978 18.944784426702324 6.321053252281227 14.766731485997843 0 0 0
269 1 0.9043455741588314 21.0356258561608 0.09727234183878397 12.61720566549884 0 0 0
270 1 1.087288693610707 23.183841342583563 2.11562267689439 14.775592548530582 0 0 0
399 1 0.9729385279435722 29.4462831841341 4.2627567712673775 8.508022349053718 0 0 0
272 1 0.9079847306999027 23.110307672762783 6.361308431317708 10.512019120385725 0 0 0
301 1 1.074278764054642 21.102730251153492 8.463847238779874 12.733848538725644 0 0 0
393 1 0.9690080527398685 25.263371762792833 0.013919960668085842 8.501180309403031 0 0 0
395 1 0.8837561290846789 25.249975660310426 4.2609120860106815 12.639157438673049 0 0 0
425 1 0.8525718801116141 25.275517828104114 8.461840701498925 8.463260191092042 0 0 0
11 1 0.9477602606134138 33.71105711304138 4.251705254617674 12.72452007078242 -1 0 0
1110 2 -0.4782155389746623 17.998449904548696 1.2749335180536558 9.424670607532668 0 0 0
1112 2 -0.5464507530862507 17.788711700446814 3.2063075696048524 11.73775698176174 0 0 0
1113 2 -0.5072509587030705 19.804411932976826 1.1801417995490102 11.509564681214894 0 0 0
1114 2 -0.5034448899897467 19.923362923814185 3.1701698461758085 9.59996999464563 0 0 0
1115 2 -0.4867505082953768 17.851365337906465 5.225396656698777 13.533513518281216 0 0 0
1116 2 -0.4689336702552899 19.849903174055353 5.291570940390476 15.696848218185716 0 0 0
1117 2 -0.4943474119852981 20.017759191339593 7.485017359430369 13.601851791484656 0 0 0
1118 2 -0.4850334952066119 17.91885952957535 7.507961503184208 15.949940089696625 0 0 0
1119 2 -0.4821589386812737 22.193481557737044 1.0950370200216395 13.859692193879543 0 0 0
1122 2 -0.4870453728041917 22.286284303207893 3.1504741959209173 15.783576844897947 0 0 0
1123 2 -0.4790253570088033 24.10072738991952 3.0659053619820646 13.69044343781799 0 0 0
1124 2 -0.4827574485423748 24.213761579477175 1.1765629303450655 15.782223500299963 0 0 0
1125 2 -0.4605338944284756 22.34332422305095 5.10974345669876 9.568912234720202 0 0 0
1126 2 -0.4750990210243441 22.16838542639994 7.447698820889029 11.90286843084568 0 0 0
1127 2 -0.4400914075461572 24.31011926047446 5.320220009972161 11.681075319762662 0 0 0
1128 2 -0.4514176646432678 24.341154124501326 7.416425437678103 9.386510139393783 0 0 0
1588 2 -0.5719686934117855 22.507433219260186 7.185736863622154 15.793769470008487 0 0 0
1611 2 -0.6056097038881066 21.20765739030738 7.197777757418783 9.678730723178472 0 0 0
1612 2 -0.5883128659258338 18.889404870518852 2.112652000147013 14.29219979809662 0 0 0
1735 3 0.4008191404434306 22.390655298965346 8.118882723073277 15.585472170926316 0 0 0
1736 3 0.4084895579241394 23.271700242764332 7.137585691829197 16.47728897004948 0 0 0
1781 3 0.3755470619421843 20.552228575381754 7.593321412567518 9.060246529053352 0 0 0
1782 3 0.3603931608626182 20.623529207649074 6.504461915612107 10.069538049576344 0 0 0
1783 3 0.4054973006308277 18.689395899474405 2.1888778128240896 13.351009196599861 0 0 0
1784 3 0.3931631317082775 18.076048636643975 1.8078011413119761 14.685930355226366 0 0 0
1769 3 0.3772949681373519 27.663922182396604 11.809990623574215 15.387945725716131 0 0 0
394 1 0.9598620092648142 27.366053638207898 2.1257523318967877 10.601981810181119 0 0 0
396 1 1.016592149631416 27.39368199540549 6.277242175018065 14.861742942620388 0 0 0
398 1 0.9670079864968637 31.61950479265901 2.109638976509667 14.785714111511572 0 0 0
400 1 0.9599863136068727 31.608873810318677 6.351645452378798 10.598367875280061 0 0 0
1719 3 0.3601985674849313 30.937567801035122 12.60951808747532 15.087417082801753 0 0 0
429 1 1.012432915930573 29.58877553647038 8.35246473965941 12.876530503371233 0 0 0
546 2 -0.4897202635385757 32.796462175413254 3.3063277938490696 13.741160974958495 0 0 0
547 2 -0.4894029299666725 32.6462888855721 5.436951498468874 11.510263014419074 0 0 0
563 2 -0.4803557730074552 32.54085121931398 1.203407396606982 15.840936825762528 0 0 0
628 2 -0.4950288256190061 32.66000874117986 7.526442549779576 9.38788147871271 0 0 0
1362 2 -0.4730106229778961 26.40363191388169 1.0828966369984119 9.719045727766527 0 0 0
1364 2 -0.4691128757101607 26.33505539157912 3.1426723059689134 11.440804470287707 0 0 0
1365 2 -0.4868630323016816 28.477493198985382 1.0400131840618874 11.843768807249537 0 0 0
1366 2 -0.4823985350413039 28.500576318617288 3.211289528028235 9.391983854740817 0 0 0
1367 2 -0.4784766643601588 26.46856228796224 5.26345428210773 13.842109063850929 0 0 0
1368 2 -0.5156753935240135 28.27333338088801 5.292118073045101 15.914566439792852 0 0 0
1369 2 -0.5012742315043452 28.688278854027676 7.350746217617225 13.86611967532973 0 0 0
1370 2 -0.4941308967422258 26.343243115026496 7.2606090673660475 15.744040834628594 0 0 0
1371 2 -0.4911040748300142 30.479465753113427 0.8852189662672029 13.72403152403517 0 0 0
1374 2 -0.4759991517584876 30.60833634346461 3.066691098244094 15.691544128965319 0 0 0
1375 2 -0.4863867362235894 30.685412838477582 5.3054052825786275 9.678114912515422 0 0 0
1376 2 -0.5329685524775197 30.424905408077116 7.44245844051278 11.746771055390754 0 0 0
298 1 0.8847796325341857 18.99139828064353 10.550473431611366 10.554714081873067 0 0 0
299 1 1.018962815286667 16.89429964484215 12.615722776970928 12.688922635885664 0 0 0
300 1 0.8268435578958202 18.989915189749947 14.746002309937442 14.793337393105842 0 0 0
302 1 0.99268486742232 23.22339829179981 10.594013482727004 14.802243605258875 0 0 0
303 1 0.9007380174626637 21.064793308236027 12.66675565944695 8.46677802111909 0 0 0
304 1 1.027838813720019 23.20033233403909 14.768337815955373 10.572266712602556 0 0 0
333 1 0.9239287601964322 21.050019991169048 16.847552590851873 12.653999859449986 0 0 0
427 1 0.9247922643529937 25.375036631027694 12.677550355432922 12.674204209863017 0 0 0
1183 2 -0.4937486213702822 17.974692187794567 9.371674919507022 9.335098438075075 0 0 0
1184 2 -0.4869130156214382 17.804639608928387 11.58171476769747 11.731355659490244 0 0 0
1185 2 -0.4852199434146764 20.21132117312573 9.460293455630593 11.634556314750325 0 0 0
1186 2 -0.4756892708063948 19.853869412076097 11.615135151136272 9.62768630555344 0 0 0
1187 2 -0.4673939607106687 17.94193000610508 13.525745285498674 13.673297278980353 0 0 0
1188 2 -0.4555634662304977 20.2125648125335 13.704834094982987 15.938911428814158 0 0 0
1189 2 -0.4663945850500709 20.02762091826219 15.89030594648253 13.570390717658789 0 0 0
1190 2 -0.4726474988167368 17.794318726462116 15.795721763166735 15.958998211104308 0 0 0
1191 2 -0.5290197087068103 21.99045070136866 9.434509414276338 13.803112775748271 0 0 0
1192 2 -0.4880750766297945 22.292045905225244 11.661962250520823 15.720513310210615 0 0 0
1193 2 -0.4812151621126836 24.30842543888216 11.458983873555264 13.814753742234844 0 0 0
1194 2 -0.5331083001036975 24.094489071689196 9.6144544598535 15.868384323208463 0 0 0
1195 2 -0.4758042620769603 22.32728487957993 13.756692858596715 9.532960831588445 0 0 0
1196 2 -0.4857784418215741 21.945053359594795 15.862375264495057 11.648515486309503 0 0 0
1197 2 -0.4741539548549366 24.140444567739845 13.833116124731141 11.61996825803109 0 0 0
1198 2 -0.4862950532663972 24.249498038149582 15.727426680166506 9.668040286776455 0 0 0
41 1 0.9630827344892713 33.67381223021975 8.489696800658281 8.465981126037 0 0 0
1720 3 0.3726271797312907 30.23105672586421 12.087208757149341 13.649701242448376 0 0 0
426 1 0.8488345267654775 27.53183116802964 10.584723663167463 10.488713293913838 0 0 0
428 1 0.9268668749406122 27.40696928818902 14.88621907290336 14.786427979283207 0 0 0
430 1 0.9100429905844402 31.83954171482029 10.521780991429628 14.763455801787527 0 0 0
432 1 0.9252443480781534 31.64329607910892 14.669620008629852 10.634336941450133 0 0 0
634 2 -0.475175794574382 33.168084046465054 11.427931663556326 13.666923752208747 0 0 0
635 2 -0.4821654028452897 32.7191331642459 13.69416940085998 11.471329643050423 0 0 0
649 2 -0.5052749684659741 32.78172960157701 9.496745625110039 15.65461585504035 0 0 0
708 2 -0.5737595113949557 32.61900594565235 15.569690152796476 9.135586389417266 0 0 0
1419 2 -0.4480196559282474 26.398121837924666 9.701447584385352 9.578205654936555 0 0 0
1420 2 -0.4526463106888683 26.436158650157367 11.788493029304265 11.62539748689593 0 0 0
1421 2 -0.5252096025869045 28.420154545033277 9.357038501059856 11.89555505653883 0 0 0
1422 2 -0.4495163950216767 28.529976472543787 11.90474255954875 9.36892541707489 0 0 0
1423 2 -0.5126397685347786 26.348539392347682 13.575166978883496 13.715991282217685 0 0 0
1424 2 -0.5473849137666054 28.421702638183483 14.064707131849955 15.824961011676695 0 0 0
1425 2 -0.4921684582378826 28.60506436828334 15.873556463264242 13.579972678495473 0 0 0
1426 2 -0.4838291922149016 26.45745916528063 15.891837802588084 15.700081078596957 0 0 0
1427 2 -0.5013133573702115 30.669581803806718 9.425717031524082 13.696297142642901 0 0 0
1428 2 -0.4647015425613825 30.8802120585915 11.564933150510539 16.163092705320093 0 0 0
1429 2 -0.5243905049522298 30.605013006162867 13.704575542510334 9.809060451625312 0 0 0
1430 2 -0.4881528275405211 30.612251688388344 15.92660784170434 11.805944270010665 0 0 0
1543 2 -0.5675748939779067 29.24376563328105 9.535966731652552 9.706543485093873 0 0 0
1580 2 -0.5910393647803631 31.10119547158502 12.403271186256058 13.955567124776923 0 0 0
1605 2 -0.624178418957885 28.622100106815306 11.836849311768866 15.139062479975964 0 0 0
1645 3 0.3638092034101745 29.99784669683957 10.099600291720323 10.03996766565236 0 0 0
1646 3 0.3799147569518205 29.072950899455975 8.848223527931987 10.60036831632368 0 0 0
274 1 0.8980281867951113 18.98505228676175 2.0943230264573214 19.009735000716663 0 0 0
276 1 0.9016827860005213 18.92149954511122 6.255283429705502 23.223656979822472 0 0 0
278 1 0.8284159639305515 23.175990661923233 2.093537170710232 23.21784137225053 0 0 0
279 1 0.9667759216464313 21.049232208100726 4.208255708292418 16.89101797091301 0 0 0
280 1 0.8414707255712693 23.159882080231498 6.2741944923469335 19.018142222719614 0 0 0
309 1 0.849323655904677 20.955587274719086 8.272733525626457 21.078478803564533 0 0 0
403 1 1.065468281083117 25.291572739686668 4.1740171416562575 21.110973462681233 0 0 0
1129 2 -0.4952611791430893 17.910856599129318 0.8500478992457376 17.923526542492898 0 0 0
1131 2 -0.4834054891632477 17.829719323804987 3.1578236758307923 20.203878990689294 0 0 0
1132 2 -0.4679764926955039 19.984116794378945 1.2306416201817276 20.007861748726217 0 0 0
1133 2 -0.47453590690618 20.12800878861971 3.1554970122564527 17.79867415685109 0 0 0
1134 2 -0.4882459694831491 17.896284441253798 5.316129689791448 22.357252880895704 0 0 0
1135 2 -0.4775481618293814 19.994015770163305 5.076534003897809 24.40545317913044 0 0 0
1136 2 -0.463610762650601 19.96359541309615 7.279353976107395 21.92924334091442 0 0 0
1137 2 -0.4935504649209607 17.88922212782067 7.514760529204877 24.33984315339896 0 0 0
1138 2 -0.4655683495325782 22.037612136845915 0.891444556458906 22.164358205420786 0 0 0
1141 2 -0.4659516605734036 22.001754474310044 3.277023609067026 24.259971484526655 0 0 0
1142 2 -0.473779712220146 24.24025382979954 3.1699093387505943 21.990547688950386 0 0 0
1143 2 -0.479632019930426 24.355229220528496 1.0667061445437016 24.424229589644586 0 0 0
1144 2 -0.483520778389292 21.952528880427796 5.1047680862032685 17.98386863614698 0 0 0
1145 2 -0.4987057652462714 22.263500672397935 7.250021289286121 20.01006685698769 0 0 0
1146 2 -0.5066555117240084 24.40532411119961 5.1648097316749455 20.05712002401157 0 0 0
1147 2 -0.5490590948450569 24.261730244656103 7.439400528932521 17.74293104858024 0 0 0
1581 2 -0.5744756260621878 21.233234590222157 8.030314592834774 24.974359491881152 0 0 0
17 1 0.9622237496342888 33.73577444654971 0.010392776748588517 16.880778701140176 -1 0 0
407 1 0.8696530266372011 29.583663446499422 4.249548073918322 16.910980830684778 0 0 0
402 1 0.8292755272469177 27.357804113988948 2.0550405733297357 18.94540237988388 0 0 0
404 1 1.02885572256048 27.389195364620996 6.320099416597663 23.239378830232592 0 0 0
307 1 0.8905137817871123 16.890251473652786 12.67191000769344 21.10888586661462 0 0 0
406 1 0.9598223765177626 31.63999039727689 2.116415879079876 23.21308035655077 0 0 0
408 1 0.9720151440195333 31.647432648653716 6.320796570576221 19.040013034052357 0 0 0
277 1 0.9622599971976097 21.095374850242088 0.001223766521089898 21.103791703771453 0 1 0
1685 3 0.389186620952383 28.80053416873969 15.839190299011493 18.634338214746432 0 0 0
569 2 -0.4835755906978562 32.74878396363497 3.3574536049359733 22.128517336265958 0 0 0
570 2 -0.4822153793879334 32.82111441752566 5.100424367966413 20.07751630005708 0 0 0
586 2 -0.4922823931236087 32.70920274071947 0.8991319324323414 24.345534773615906 0 0 0
648 2 -0.4871732937785337 32.6695801052795 7.457136496485522 17.81245709747149 0 0 0
1377 2 -0.4605108365131168 26.309705978794895 0.692311418046948 17.979762551401137 0 0 0
1379 2 -0.5011857375093762 26.342357910789932 3.164018461324195 20.165878397626063 0 0 0
1380 2 -0.4556924211653595 28.547946596879317 1.0511954314479606 20.164366312558695 0 0 0
1381 2 -0.5187755206321487 28.64916525548207 3.32034998826647 17.9127282819497 0 0 0
1382 2 -0.4923124455588417 26.214691397043644 5.121795681614731 22.185167200053407 0 0 0
1383 2 -0.48229149801501 28.44865743672868 5.448614263735773 24.214421168717813 0 0 0
1384 2 -0.4873052467969083 28.300347182306034 7.298847261504731 22.203027748743708 0 0 0
1385 2 -0.5039094111084652 26.446317891810157 7.355851068719922 24.189037095081165 0 0 0
1386 2 -0.4768666292936643 30.74610802548311 1.1566765632673455 22.17584723038524 0 0 0
1389 2 -0.4761361408446795 30.588813602020565 2.9879774243055444 24.183299904074488 0 0 0
1390 2 -0.4753232311737274 30.59932519769672 5.435844875630964 18.108913191788357 0 0 0
1391 2 -0.4732692498995472 30.757106311037134 7.293602286526132 20.07360577946992 0 0 0
1559 2 -0.5848348922083241 26.306886931847764 3.1485077689437344 17.41984281858581 0 0 0
1677 3 0.3759715234510864 25.75183352738173 3.7371675224692704 17.991386479565016 0 0 0
1678 3 0.3935374743076002 27.26812801205619 3.697052898742552 17.261245006666602 0 0 0
306 1 1.010442454623623 18.95808296131659 10.524241967401865 18.984576204084078 0 0 0
308 1 0.9752345448813154 19.019455416653425 14.74840518982172 23.175512107556788 0 0 0
310 1 0.8712065041702266 23.406925557336123 10.54692128805716 23.039294229554606 0 0 0
311 1 0.874349086068664 21.098462035289607 12.680841222149184 16.898675383138723 0 0 0
312 1 0.9777485563167549 23.187866044172655 14.814539137763683 19.00063757246933 0 0 0
1563 2 -0.5699040714120753 29.145148691472535 16.323891379698736 17.8781530990569 0 0 0
433 1 0.8277612558369206 25.315262735953986 8.466180192195788 16.917933626093422 0 0 0
435 1 1.021520404846519 25.36639782224797 12.828283995331239 21.113778614752444 0 0 0
1199 2 -0.5009720190489211 17.75065676945994 9.368466904981897 17.93381323529709 0 0 0
1200 2 -0.4767749603324732 18.08793009919031 11.573369870427658 19.99058722601625 0 0 0
1201 2 -0.4981081440164978 19.96953870834161 9.574129172150162 19.942935454879894 0 0 0
1202 2 -0.4887827232828605 19.937317842005374 11.44217436920609 17.93872941760912 0 0 0
1203 2 -0.4765275935911817 18.09287036011528 13.831588596362641 22.134469188268092 0 0 0
1204 2 -0.467609340263878 20.210337813116126 13.5638296062966 24.242802650893964 0 0 0
1205 2 -0.4869470240891635 20.189902647454186 15.970154075026862 22.153450443997244 0 0 0
1206 2 -0.4828989237862966 17.95531985860156 15.607623819190444 24.109142915897685 0 0 0
1207 2 -0.4497187257540398 22.045472736236434 9.237413056569101 22.318520635413716 0 0 0
1208 2 -0.4239535521916293 22.317829615438477 11.464023392596562 24.137915354727358 0 0 0
1209 2 -0.485154204135907 24.420913860385358 12.029223204358003 22.23074732040334 0 0 0
1210 2 -0.5086197954669778 24.368805492817835 9.501991077081255 24.51023291467465 0 0 0
1211 2 -0.484012901834898 22.228953960461045 13.757407712854073 18.11353028219416 0 0 0
1212 2 -0.4932649505894913 22.120039942727576 15.963286449229328 20.20804460406875 0 0 0
1213 2 -0.4968486548574658 24.442746086901128 13.75851438227925 20.059440355651734 0 0 0
1214 2 -0.4931940197769349 24.084172766595625 15.731693006855657 17.95220361108937 0 0 0
1558 2 -0.571735350728419 23.384968771887063 10.35962367957045 20.80554033056556 0 0 0
1586 2 -0.5909869430057004 25.2666409908138 9.646140105508929 22.32211387048843 0 0 0
1675 3 0.3687265544409377 22.951600578619168 10.375914782153986 19.92703225345562 0 0 0
1676 3 0.3777062578794533 23.094744391497283 9.361178359665702 21.183316565047527 0 0 0
1731 3 0.382164002293943 25.494270800283697 9.43018239840318 23.349406480018942 0 0 0
1732 3 0.392112926849788 25.85772655045477 10.418600702725799 22.069901111568527 0 0 0
434 1 1.011087333321928 27.417993590496366 10.579169736371647 19.090690423098927 0 0 0
436 1 0.9107827893790637 27.438288902478817 14.834877739664593 23.238752760475062 0 0 0
437 1 0.8944247855824872 29.51526288034588 8.425178575744216 21.146915562890673 0 0 0
438 1 0.9006656971554599 31.59857695577264 10.504799431579226 23.26968107434337 0 0 0
439 1 0.8911644970837641 29.493113563106085 12.689260225035786 16.96709189838246 0 0 0
440 1 0.8453938597330664 31.67171676928567 14.775434876975607 19.049322351631567 0 0 0
447 1 1.024529868221524 29.512295937609398 12.663928018302444 25.298937417339896 0 0 0
1686 3 0.3988315145096493 30.05680693741093 16.47485072787013 18.16231844034322 0 0 0
654 2 -0.4850004710336701 32.68229465351815 11.77075094602198 22.227806552479816 0 0 0
655 2 -0.4685528338639723 32.6748139424601 13.842862340365347 19.99378634284473 0 0 0
669 2 -0.4770402190366507 32.66936552776496 9.302733281807333 24.408550023297575 0 0 0
728 2 -0.4879216673478717 32.70406156132378 15.9439309925655 17.829398127785762 0 0 0
1431 2 -0.4887820474955322 26.431643542592063 9.550039595097171 18.16992307571272 0 0 0
1432 2 -0.5254819227353713 26.459727425840857 11.519890779152314 20.108964426276376 0 0 0
1433 2 -0.4813433640983327 28.34684715938091 9.616547344463607 20.114136375527625 0 0 0
1434 2 -0.4895746562202182 28.586285547047012 11.786660967874978 18.056060596419673 0 0 0
1435 2 -0.506542036909489 26.375384767802508 13.829200499400345 21.97931566854674 0 0 0
1436 2 -0.4926023359935581 28.550020416846206 13.573895520260278 24.25904868199672 0 0 0
1437 2 -0.4925050119237309 28.42719154106676 15.828964505151678 22.380328746659895 0 0 0
1438 2 -0.4851233658107658 26.23023259475244 15.872946791195028 24.402658353011184 0 0 0
1439 2 -0.4739032698806234 30.371032624090805 9.400502646856411 22.17465896072063 0 0 0
1440 2 -0.4861025600269253 30.66096072393052 11.406764838279926 24.279310382708037 0 0 0
1441 2 -0.4719576030806472 30.566966111075754 13.650582723361389 17.87871516765141 0 0 0
1442 2 -0.5580279379951202 30.398099744585092 15.946919946482234 20.044358119085462 0 0 0
405 1 0.9649565313336688 29.514364016995533 0.03945105778595348 21.082237576257754 0 0 0
51 1 1.03830793591318 33.71432058675877 12.669269291389021 21.26119906356327 -1 0 0
49 1 0.9691123083720167 33.71686673854029 8.350385780321902 16.88613131132004 0 0 0
319 1 0.9336534655857073 21.134368872977873 12.62507617355379 25.27171846795934 0 0 0
282 1 1.019630375624564 18.871876150830822 2.039078776212955 27.30099418884774 0 0 0
284 1 1.006202883628137 18.935012088310554 6.278730859253019 31.610993441870672 0 0 0
286 1 0.9529903081624118 23.26615650809292 2.0270899714008186 31.718443433579534 0 0 0
285 1 0.9542564005853045 21.138140436430398 0.1318315890548408 29.500385769658052 0 1 0
288 1 0.8628881979329659 23.17935036757613 6.26017403789726 27.47536382868155 0 0 0
1634 3 0.3665306692278196 16.9316907085004 9.463908957532757 31.949725264612756 0 0 0
411 1 0.9498110377691975 25.306399307440053 4.1668945407578795 29.573651038588505 0 0 0
1105 2 -0.4828559714878948 19.95481005010553 5.379441957549269 32.610547702925096 0 0 0
1106 2 -0.4709749907986324 22.17777059686385 2.9632298949306355 32.591476427546176 0 0 0
1148 2 -0.5049987758414872 17.702998010859236 1.019382876124384 26.119766352272187 0 0 0
1150 2 -0.482034630264183 18.02563240687869 3.0154706484220215 28.383940714361163 0 0 0
1151 2 -0.5249085395234538 19.816957490740183 0.9540838512002228 28.162958324687384 0 0 0
1152 2 -0.5275459293242641 19.99098676044375 2.9642309368198685 26.454252663180423 0 0 0
1153 2 -0.485459970011868 17.89695484144083 5.338354461556889 30.60407847956347 0 0 0
1154 2 -0.5216699222219179 17.951357004093758 7.2564052054344845 32.57212521665816 0 0 0
1155 2 -0.4993381431291412 19.99068511854156 7.505571381948753 30.476888805826267 0 0 0
1156 2 -0.4828308871460923 22.422207063689157 0.9170045313596414 30.810207851015274 0 0 0
1159 2 -0.4900877774144542 24.3119477073066 0.9322558421937848 32.943610378579486 0 0 0
1160 2 -0.5125214719707036 24.35880753498355 3.103284147422325 30.44683339933329 0 0 0
1161 2 -0.4828921326495949 22.294384922032865 5.312423658749925 26.430322249139106 0 0 0
1162 2 -0.4959394841249699 21.939137789177526 7.346103152334001 28.55577793085647 0 0 0
1163 2 -0.4821185270473341 24.244901457368748 5.061867202623748 28.63795234419397 0 0 0
1164 2 -0.4795565431098007 24.301762844863088 7.503701690772553 26.427898307702097 0 0 0
1630 2 -0.5959329037944281 21.428130618167945 2.308422059088432 29.204627564048717 0 0 0
1819 3 0.3868351436410087 21.02532835826735 2.121692717102404 28.24925988635851 0 0 0
1820 3 0.3804982573433986 22.416926374872155 2.225278571096583 29.191740070040492 0 0 0
477 1 0.974106253911561 29.44767422282023 16.861236680218056 29.493982875565628 0 0 0
27 1 1.028547581184949 33.74093772508552 4.231259405899602 29.52380440056615 0 0 0
410 1 1.032018632724559 27.431268271014396 2.128724127186525 27.413546164199587 0 0 0
412 1 0.9610703181111285 27.405104624988283 6.313476717019895 31.657971083398568 0 0 0
414 1 0.8963142387586452 31.639501793274977 2.0941462837823863 31.644478502167555 0 0 0
416 1 0.957657911965463 31.61146201879523 6.33023712779823 27.43890579923133 0 0 0
515 2 -0.466363660494255 32.69431834135056 1.0234784702030655 32.901802887151135 0 0 0
592 2 -0.4779645175644966 32.868243753142664 3.206507520789856 30.545355797039463 0 0 0
593 2 -0.493397678710671 32.50082749709955 5.37910096669355 28.480619740174212 0 0 0
668 2 -0.4813420773770865 32.85486073089084 7.389521599888153 26.298946927001584 0 0 0
1359 2 -0.4849419026506859 28.34100634979865 5.375887292967916 32.677204931381155 0 0 0
1360 2 -0.4757233395907191 30.736930838482838 3.0473663088308003 32.64089427643477 0 0 0
1392 2 -0.4964035171149024 26.427897494580503 1.0912561522850284 26.555559911377966 0 0 0
1394 2 -0.4956070643799119 26.474383817033065 3.137219097109973 28.361486393678014 0 0 0
1395 2 -0.491500483458067 28.463859711252887 1.2275713511920636 28.39069943209421 0 0 0
1396 2 -0.4809297216135946 28.479800998141037 3.284280036813192 26.18797645720651 0 0 0
1397 2 -0.4835881324140632 26.3778404246255 5.316743618239904 30.801422960419274 0 0 0
1398 2 -0.484233467959792 26.305562368565916 7.426989874689039 32.86022879175632 0 0 0
1399 2 -0.488498961151984 28.592118313696627 7.359698479190993 30.449021829282408 0 0 0
1400 2 -0.4761459766053705 30.442845717406307 0.8980488841843463 30.594519849895168 0 0 0
1403 2 -0.4762766962183764 30.637826518663292 5.293018501476123 26.55141812084709 0 0 0
1404 2 -0.4819918572399826 30.456917360332945 7.540516642208382 28.500018237407414 0 0 0
349 1 0.9850496803601825 21.17916159362138 16.83102235309367 29.53995907524233 0 0 0
314 1 0.9092337541853638 18.934187590896155 10.577130594011084 27.42635422535042 0 0 0
1822 3 0.377141392690609 32.18418302348351 14.531354630324172 30.684482955391882 0 0 0
316 1 0.8961253960079947 19.06688008733039 14.75260237423778 31.619906614453352 0 0 0
317 1 0.9942095143846528 21.053481249519834 8.41923065057201 29.523927763897383 0 0 0
318 1 1.033719319546905 23.214565109101095 10.551791509774008 31.612260396105597 0 0 0
415 1 0.8992310998445254 29.522845221595727 4.2204132069547535 25.31261889077455 0 0 0
320 1 0.8799750546751569 23.23880008711536 14.757895789325875 27.40273187489771 0 0 0
443 1 0.9475361186513949 25.331105526247775 12.684211595343157 29.5505145992581 0 0 0
1178 2 -0.480161038472444 20.08371758300096 13.820944315967338 32.538973785802206 0 0 0
1179 2 -0.4877195396896846 22.298137885778505 11.432263430597551 32.71185195629365 0 0 0
1215 2 -0.4862451122869048 18.045788835133123 9.633176268868352 26.356829469942788 0 0 0
1216 2 -0.4826178332919533 17.711896638723147 11.635756913966611 28.62739965471806 0 0 0
1217 2 -0.5061923605053982 20.099381286262314 9.344148994501237 28.459075739349583 0 0 0
1218 2 -0.4687472948443062 19.9078322779868 11.602400891429731 26.489835184594927 0 0 0
1219 2 -0.4463554464564367 18.00009636215174 13.558752438067495 30.462203795925788 0 0 0
1220 2 -0.5271769993089891 18.06796530131788 16.01202196089499 32.81898721741461 0 0 0
1221 2 -0.4698443423496191 20.171377312866273 15.822190159176335 30.41043041471755 0 0 0
1222 2 -0.495144626468299 22.154495228958115 9.641102681921266 30.660650394559358 0 0 0
1223 2 -0.4887926505617936 24.225596611067743 9.528258608777154 32.473171170420024 0 0 0
1224 2 -0.4869226475046579 24.26713841495599 11.789314338238666 30.473031149348913 0 0 0
1225 2 -0.4638604386721636 22.04934625641399 13.684921840740012 26.198441889197642 0 0 0
1226 2 -0.4730410674038737 22.36182544659573 15.707685114735627 28.429868918933902 0 0 0
1227 2 -0.4977545851973809 24.454862030155855 13.722212786415277 28.567222968120053 0 0 0
1228 2 -0.4898588540026031 24.35711565351579 15.995048979845787 26.36916851991685 0 0 0
1537 2 -0.6335405694294883 17.126390014747557 10.462040378766138 31.569473263051687 0 0 0
1821 3 0.3805110907812188 31.898511012778624 12.853607347253343 30.909605261144524 0 0 0
1633 3 0.3884506502717672 17.30245850491383 10.346631174623022 30.60344268639116 0 0 0
1706 3 0.412925660053608 17.44204127658098 11.77522812007159 33.27821064751566 0 0 0
1721 3 0.3925358490489348 21.693283158502197 8.484600982730225 25.66661030221372 0 0 0
1802 3 0.3870790753863009 26.632165408592634 15.585878338572215 28.755297602893606 0 0 0
57 1 0.9611164410983235 33.74353428025608 8.417656269957524 25.327749446063724 0 0 0
59 1 0.9410018883913253 33.6877206205179 12.818042366600691 29.43519514055315 0 0 0
25 1 1.038245291050185 33.7357952458536 0.004997973893555883 25.328959891129898 -1 0 0
441 1 0.8999116371894783 25.315811320273323 8.397023629593168 25.447168002639113 0 0 0
442 1 1.029783900359915 27.41227730670143 10.562692611055681 27.454305164881465 0 0 0
444 1 0.9594409901538032 27.473853791275086 14.756012513695895 31.704468033774816 0 0 0
445 1 0.9811161473347657 29.50050965364435 8.422503771464346 29.547089380713956 0 0 0
446 1 1.035211545635152 31.556539084864017 10.474084943207592 31.71824535351194 0 0 0
448 1 0.9017562871459234 31.633269346850323 14.858032792031622 27.296199367323798 0 0 0
607 2 -0.5194533853663231 32.51063876809588 9.592823334595682 32.7616572200427 0 0 0
674 2 -0.5146723073265962 32.7074744282063 11.57569715730869 30.707019932695644 0 0 0
675 2 -0.4434583860374706 32.955914200479135 13.727792966181285 28.2119989172064 0 0 0
748 2 -0.4666890023570502 32.5300979433002 15.79683029399781 26.264610774620632 0 0 0
1416 2 -0.4955423868173511 28.496441037907672 13.637642860621995 32.91605684763054 0 0 0
1417 2 -0.5328597199721046 30.599526276106758 11.565952082237722 32.548486782921124 0 0 0
1443 2 -0.4972863596068898 26.49935107805978 9.476574078405287 26.56000880918588 0 0 0
1444 2 -0.4948733318472123 26.347802046448734 11.4893673583329 28.364717563824115 0 0 0
1445 2 -0.4911932948975275 28.356316621002644 9.661644566660685 28.511538602611044 0 0 0
1446 2 -0.5040210732336035 28.468247876123925 11.773404569139178 26.277521439040306 0 0 0
1447 2 -0.495008911560285 26.572333762773365 13.773668982845955 30.669462457083387 0 0 0
1448 2 -0.4781036817724595 26.437465704587073 15.76380139893691 32.55249039132362 0 0 0
1449 2 -0.4470976589159719 28.815010269150413 15.822895846966496 30.725218482861344 0 0 0
1450 2 -0.5020876427420169 30.67573012707319 9.441361287257978 30.73752406831008 0 0 0
1451 2 -0.4802352655767363 30.398114671004382 13.729794325791591 26.25746577927355 0 0 0
1452 2 -0.4672738706174322 30.555743269797805 15.998248649971542 28.542190816257158 0 0 0
1621 2 -0.6103437036228639 27.420670682521997 16.164108100835936 28.915994836413017 0 0 0
1631 2 -0.581419301271018 31.860151768577772 13.745795402929174 30.197972257374747 0 0 0
391 1 0.955900768172865 29.531040146362976 4.1835692335706005 33.7325905271875 0 0 -1
417 1 0.9516262693046689 25.29264999285219 8.42950434829983 33.723032995258464 0 0 -1
409 1 0.9622113021883869 25.313702406207828 0.02895737091327567 25.32212177127497 0 0 0
263 1 0.9699972319444519 21.055164614149955 4.171439231820248 33.724674474041485 0 0 -1
1722 3 0.3820222755234857 20.387132926171763 7.816844793620183 25.346389958746784 0 0 0
287 1 0.9382093324961676 21.066055394528483 4.176381274882569 25.320652167131165 0 0 0
322 1 0.771613289157892 18.9120207147004 18.930491082720344 2.1804106531269567 0 0 0
324 1 0.952577958982185 19.013194292816507 23.2322734862497 6.31461776292515 0 0 0
326 1 0.8756527060889071 23.177060575801605 18.916251638422853 6.34185340462326 0 0 0
328 1 0.9660429906556613 23.22727985407044 23.228665262887294 2.093018151422367 0 0 0
453 1 0.8836512876071984 29.565514277990825 16.934560662487996 4.283618556152917 0 0 0
357 1 0.9643291927440064 21.105172903267086 25.354693654536746 4.205747541107553 0 0 0
451 1 0.8562517955365152 25.359105268014584 21.001987170892132 4.3755343805691 0 0 0
487 1 0.8764768442404485 29.54974195758236 29.470621460544525 0.018203996869580425 0 0 1
1229 2 -0.5583233578149139 17.82863138402016 17.739044923656497 1.054451394074883 0 0 0
1230 2 -0.4622066378209867 17.838878004637806 20.204680289349113 3.2904896882651817 0 0 0
1231 2 -0.4860997261774632 20.134961355177985 17.773500835373945 3.1908417376443543 0 0 0
1232 2 -0.4902988931331848 20.047346312797767 19.85965126013678 0.9322097617575467 0 0 0
1233 2 -0.4726159937668187 17.9695291308814 22.367248585573385 5.321554493044309 0 0 0
1234 2 -0.4841582451562063 20.078544772802225 21.963760586082934 7.443047438868912 0 0 0
1235 2 -0.4785959211967845 20.234927183083254 24.31290737555449 5.183514192578679 0 0 0
1236 2 -0.5062420299726346 18.03819578641464 24.265909388450336 7.190005436408135 0 0 0
1237 2 -0.4582963555243704 22.03319921339645 17.95173920939986 5.2663334754855775 0 0 0
1238 2 -0.5115033091550831 22.00124486825407 19.952259763133657 7.5599017692719945 0 0 0
1239 2 -0.5381494464332057 24.37877338565533 19.350675928175548 5.248412374342465 0 0 0
1240 2 -0.5015386488032294 24.244105590821707 18.12544038428812 7.344426256986974 0 0 0
1241 2 -0.4676165398154814 22.205813883486254 22.28458908567481 1.1690855079509404 0 0 0
1244 2 -0.4701403202363917 22.035511475039186 24.44031317604069 3.1561785670819944 0 0 0
1245 2 -0.3869584900965023 24.446964723133036 22.060480409657252 3.050060806575565 0 0 0
1246 2 -0.4774679711682085 24.16215466328773 24.122958102632335 1.0465706571102238 0 0 0
1582 2 -0.5543305978794312 23.62350314033408 21.610638446902236 5.336967919247446 0 0 0
1589 2 -0.6198153724100691 24.106886562856648 23.972027539338203 6.108864546225179 0 0 0
1693 3 0.4160036450545962 20.268857644450254 18.552750413012117 0.04273102802117657 0 0 0
1723 3 0.2844088157428468 23.333121847752672 20.555003889203988 5.91300989680615 0 0 0
1724 3 0.4122728275572918 23.92508370660407 22.26918316010951 6.035809982549701 0 0 0
1737 3 0.4282761556502583 23.90626606224164 24.917961680141424 6.459568479786497 0 0 0
1738 3 0.4075917799692619 25.11963478664609 23.837531137219724 6.294651881007439 0 0 0
1672 3 0.3871242474945302 27.55797912141297 30.131639392098112 4.2303613772529465 0 0 0
450 1 1.000351007891019 27.49049248263306 18.99696981079172 2.145108169171166 0 0 0
452 1 0.9253257105557046 27.481765531316736 23.175388321514315 6.342704013883215 0 0 0
454 1 1.011400986102518 31.744147916718894 19.03002342221311 6.466149417312262 0 0 0
456 1 1.017319121884625 31.623217509065388 23.18783159402317 2.16067150598218 0 0 0
261 1 0.9670617123715843 21.134821820164444 33.71331672956307 4.120701357639103 0 -1 0
485 1 0.9588197938943858 29.529027186698855 25.319143073369364 4.256907573811075 0 0 0
692 2 -0.5181950158283073 32.939604049909214 20.10621624331219 5.170407160713922 0 0 0
693 2 -0.4870313455004521 32.57293642336283 22.139276827895046 3.0764061390135096 0 0 0
709 2 -0.5083579710452013 32.60055830070791 17.49071271556133 7.310321312383373 0 0 0
766 2 -0.4995726977203245 32.67378168493965 24.241220765887693 1.387368226645418 0 0 0
1453 2 -0.4728949554250172 26.503656061524243 17.932193407610143 1.2431706694248523 0 0 0
1454 2 -0.5026806363073694 26.505687972368012 19.95639465103643 3.1126016677391752 0 0 0
1455 2 -0.5111060878205687 28.375614059716796 18.107038354089138 3.2599066600439675 0 0 0
1456 2 -0.4720617199424951 28.6700266733154 20.18566248327115 1.0428156363144945 0 0 0
1457 2 -0.4911826596731058 26.48744121237555 22.31471785415868 5.296550401260871 0 0 0
1458 2 -0.4961423224069924 28.562415306093214 22.095458018764006 7.619824725213522 0 0 0
1459 2 -0.5052229591769779 28.61126102324872 24.42203234159449 5.313752481010649 0 0 0
1460 2 -0.5688478670807328 26.402212825747057 24.082441125419535 7.235591165579372 0 0 0
1461 2 -0.462258399421771 30.564243986934148 17.928238193975364 5.163517169262907 0 0 0
1462 2 -0.4783137089072772 30.58865130827165 19.917915171319414 7.28868269567491 0 0 0
1463 2 -0.4870485615238587 30.539949842595814 22.122073263643422 0.868608565634603 0 0 0
1466 2 -0.480524892051359 30.58117390944683 24.07502170091389 3.136356194618046 0 0 0
1555 2 -0.5888725808196499 26.68560092718566 19.808680688208053 5.580825268900415 0 0 0
1562 2 -0.5757395842651989 32.66460798424333 24.279416145344907 5.548608307603556 0 0 0
1629 2 -0.5685526007863847 32.81010717047974 19.75627082056081 7.437000773425929 0 0 0
1669 3 0.4074860623376486 25.85221823168181 19.142549913289297 5.840980031609518 0 0 0
1670 3 0.4092056448880202 27.144204728570706 19.379905640962438 4.778579588211759 0 0 0
1683 3 0.4059710255340913 32.614811998418205 25.226381353426795 5.794056056442418 0 0 0
1684 3 0.3663097051306207 32.17921909250984 23.833625848118444 6.239384479803878 0 0 0
1818 3 0.4043986168412041 33.39366574328946 20.296148560251854 6.786889451252585 0 0 0
1671 3 0.2846116698394997 27.37127775635498 28.94769750098431 2.812788256142619 0 0 0
354 1 0.8889547723407831 18.995217910777143 27.421368280829657 2.1055285874551344 0 0 0
356 1 0.8962809645795798 19.215346135299324 31.46136706702725 6.135675225201444 0 0 0
358 1 0.8696331417976025 23.19711783534642 27.440349172631347 6.324920126945333 0 0 0
360 1 0.9265177492393365 23.229196850656184 31.608925125303593 2.1068777388310753 0 0 0
1712 3 0.3716512634741331 33.55537360933243 22.856084183631037 0.15141575152980716 -1 0 1
1099 2 -0.4959115761846048 20.0686120984035 32.400796488428156 5.087965459150366 0 0 0
1100 2 -0.481121528535427 22.20162576156207 32.828129574178774 3.2150401940003452 0 0 0
1111 2 -0.5960512438876276 18.09344824520025 32.71206882529016 7.432550188669891 0 0 0
1293 2 -0.4752946129098647 17.766829992177897 26.290518140178417 1.0631145059495093 0 0 0
1294 2 -0.4812364357482963 17.851128454658006 28.548120672145657 3.2055730483084632 0 0 0
1295 2 -0.4697289829628873 19.871866657764745 26.47990224358741 3.1362520102083833 0 0 0
1296 2 -0.4926921939578833 20.070670111982928 28.60794936269625 0.9023922700497807 0 0 0
1297 2 -0.5212433361410721 18.089977368611894 30.56433900937341 5.326563806221519 0 0 0
1298 2 -0.4999817345972962 20.1994659654328 30.42281176934024 7.52300411170826 0 0 0
1299 2 -0.4870057324850617 22.314094637381 26.50175713529792 5.293191202945155 0 0 0
1300 2 -0.4801155968874116 22.02761941276759 28.551122959233773 7.430761061438072 0 0 0
1301 2 -0.4592345170613841 24.31452315914299 28.62322831093822 5.273970312358977 0 0 0
1302 2 -0.5523716990408313 24.327960907859097 26.161744420631692 7.428453953725293 0 0 0
1303 2 -0.4834508906504018 22.182361298034266 30.721023835977167 1.199322903444848 0 0 0
1306 2 -0.4862447505851139 24.458808697954026 32.71304730983302 1.0373336981770598 0 0 0
1307 2 -0.4627687938364784 24.231255149368067 30.384609655401782 3.247163176576373 0 0 0
1768 3 0.3739790195558548 17.40209359821154 30.60981838675703 0.035716933881521286 0 0 0
1556 2 -0.5507134279974891 27.12945536991138 30.063670719819733 3.3133560876202806 0 0 0
1767 3 0.2875935343518783 17.01503668176271 32.100691386080726 0.6475919774137476 0 0 0
482 1 0.8867744876354295 27.435997765702396 27.37044945376107 2.122622356953745 0 0 0
483 1 0.9676861315914407 25.304219638487226 29.490548803325638 4.194637878375956 0 0 0
484 1 1.083353919049852 27.41091195990292 31.661542663883196 6.403455021632128 0 0 0
486 1 0.9098264876595979 31.612711296625122 27.46579141462422 6.354304191491071 0 0 0
488 1 0.9042082847614702 31.612542958586996 31.647538058523875 2.150452195722334 0 0 0
1813 3 0.3681568264141781 18.023878657921163 32.07805085804341 8.152659000854852 0 0 0
516 2 -0.5421442781340835 32.89604521911225 32.79490962138638 1.0975005250619598 0 0 0
772 2 -0.4825118732378127 32.85449582084117 28.59533111412533 5.284663335305476 0 0 0
773 2 -0.4997330786325838 32.549819462724955 30.61565513822853 3.0714094985140385 0 0 0
786 2 -0.5590317431051858 32.56090694786557 26.414334724364302 7.235460837168212 0 0 0
1355 2 -0.5089810072001301 28.295257302889674 32.6182930198105 5.321871510767772 0 0 0
1356 2 -0.4934195006209791 30.502212252638707 32.74818745435287 3.3727993634012727 0 0 0
1363 2 -0.493024088052491 26.484175123114998 32.658891733681514 7.414738086920881 0 0 0
1501 2 -0.4534830951455767 26.229282171024394 26.399823058735596 0.957915324128186 0 0 0
1502 2 -0.4594852632688372 25.991175596524503 28.015354745458232 3.1895775323455404 0 0 0
1503 2 -0.4948046764553078 28.34697251080768 26.486865003483835 3.1822586029099678 0 0 0
1504 2 -0.4888988214819265 28.42594682895848 28.191101336348456 1.0456854981857304 0 0 0
1505 2 -0.531760484315708 26.460976096271185 30.54399032999484 5.526936604043088 0 0 0
1506 2 -0.5099297644490868 28.509498105408404 30.770945066569933 7.304143267587369 0 0 0
1507 2 -0.5271219502747345 30.547908389350198 26.258864831200167 5.203607593748204 0 0 0
1508 2 -0.5345619398044558 30.624637071588367 28.314039364869142 7.402479762377083 0 0 0
1509 2 -0.4642986064618176 30.593435905809923 30.64988699022233 1.229826907622041 0 0 0
385 1 0.9968321505804851 25.338947535628552 33.68979346838319 0.02650453732423145 0 -1 1
355 1 0.8209551608736325 16.947687817628353 29.378141561228926 4.2889331056219 0 0 0
361 1 0.881344129883102 17.0241687209371 25.43027514648059 8.435477507888043 0 0 0
359 1 0.9474631281948674 21.126078238313735 29.5562103970511 0.004184576302804999 0 0 1
330 1 1.038004573466756 18.954322974973298 18.949533677410656 10.56184019522094 0 0 0
1650 3 0.3801575514050982 29.164169499230916 27.268317568632334 8.955067519274092 0 0 0
332 1 0.9322863652666775 19.085050260442518 23.273253803288597 14.865678521867366 0 0 0
334 1 0.9054637325667859 23.175084827307458 18.983326148011358 14.879804820848056 0 0 0
336 1 0.9706819084603939 23.21902693739923 23.218534480174473 10.5298342461338 0 0 0
1649 3 0.3677042399161313 29.451238090901587 25.675428321889527 8.712075759977093 0 0 0
365 1 0.9795250126301804 21.15498641533568 25.344746935483236 12.695052033809633 0 0 0
105 1 0.9138259222638618 33.69785149951982 25.365563525795203 8.53708168903864 -1 0 0
459 1 0.9110925370617853 25.45738821759889 21.210065207398472 12.574936906962083 0 0 0
1520 2 -0.4835999281263693 30.573125564485448 30.43928429867739 9.486051549697766 0 0 0
1247 2 -0.5101562380533451 18.00753318431217 18.074043379871274 9.484041726294066 0 0 0
1248 2 -0.5094131035098932 17.78922032575972 19.962015795205925 11.799563854444582 0 0 0
1249 2 -0.4954132048405063 19.890810148025263 17.876616240054954 11.456028470540769 0 0 0
1250 2 -0.4836743776840048 19.968582616466122 19.97223185734848 9.69255741976475 0 0 0
1251 2 -0.5234896647296293 17.929254718393956 22.006889012259514 13.927481794303796 0 0 0
1252 2 -0.5051198415546441 20.07725833064199 22.351258449650157 15.835820720896526 0 0 0
1253 2 -0.4796719434974981 20.191958592239995 24.49230967531705 13.742562620425943 0 0 0
1254 2 -0.499050380177281 18.0758465587447 24.118239642788865 15.883076970829535 0 0 0
1255 2 -0.5502905928409474 22.237556753814285 18.128713654970742 13.746002369101637 0 0 0
1256 2 -0.5032383344856289 22.19671860615624 19.988821903585773 15.758310479722097 0 0 0
1257 2 -0.5810563644118978 24.222719203680143 20.265458407622763 13.803445846977983 0 0 0
1258 2 -0.489034196066336 24.41124703864957 17.866109660759328 15.94241659248316 0 0 0
1259 2 -0.4929948306974323 22.145803884556354 22.054496451914062 9.303461935782602 0 0 0
1260 2 -0.4827540066843464 22.203602874579303 24.129817741312525 11.492574863693964 0 0 0
1261 2 -0.5120601623069307 24.29788507022299 22.4097674249218 11.503404099080386 0 0 0
1262 2 -0.4987792475405246 24.262793563265234 24.419248426634663 9.41761659743783 0 0 0
1546 2 -0.5578781537323727 22.245303776345313 20.24374354900622 12.23342513205743 0 0 0
1568 2 -0.5477846583973111 17.94089879215648 22.98116389544712 10.349439513663246 0 0 0
1587 2 -0.5699429754479272 17.629486805760926 20.506749120940686 16.06310867610229 0 0 0
1610 2 -0.5679966719841565 24.227992667969037 22.39797239484429 15.369267731067273 0 0 0
1651 3 0.4028148228111117 22.974232835634517 20.70122437030678 12.75879694565685 0 0 0
1652 3 0.4117763183910584 22.224101726639773 19.281847505208464 12.60267369882047 0 0 0
1695 3 0.4080500904363282 17.308483785228603 22.366821368357325 10.879353323729186 0 0 0
1696 3 0.4043816813610418 17.32082740411601 23.71167415455835 9.978015039321495 0 0 0
1733 3 0.4148176041289129 17.7498102408735 21.106267135701795 15.206704851844508 0 0 0
1779 3 0.4107742037519107 24.199113672703458 21.505135812035274 14.86107076514519 0 0 0
363 1 0.9602251328284205 16.94930749390738 29.526958862824547 12.843673965482285 0 0 0
458 1 0.9739340579174915 27.453612242368617 18.957035672047297 10.553404522409561 0 0 0
460 1 1.022402690683081 27.493195568866653 23.191711457658144 14.77677859925698 0 0 0
1519 2 -0.473052615167201 30.403390337349055 28.529143702540264 15.90185172032609 0 0 0
462 1 0.9773343054613275 31.670413545229813 18.98689801153188 14.808261951007307 0 0 0
464 1 0.9519555963999189 31.633267975890384 23.205589005349864 10.592865735122555 0 0 0
493 1 0.9709497320973673 29.54417684862837 25.317136226901493 12.718851391807867 0 0 0
714 2 -0.4881150423945428 32.57234190212585 19.907145848477242 13.74961315905551 0 0 0
715 2 -0.4842259138341682 32.67289951889292 22.342509899366956 11.569245928325012 0 0 0
729 2 -0.4846452862626498 32.858949732561705 17.93271842742247 15.989212455395558 0 0 0
785 2 -0.5063279791361026 32.73252273765701 24.284100429406287 9.370918368215126 0 0 0
1467 2 -0.484327302628398 26.370470239246995 17.768690808065823 9.413924088091942 0 0 0
1468 2 -0.4939678703230364 26.286498019723325 20.106902018605204 11.662166345030347 0 0 0
1469 2 -0.4814208563498771 28.471533111575383 17.980856790423594 11.449877300598352 0 0 0
1470 2 -0.4912396251940461 28.39260615835617 19.86758825675104 9.541360908649226 0 0 0
1471 2 -0.5358342714746097 26.50144780062694 22.07339221869835 13.5301037614483 0 0 0
1472 2 -0.5199519419570821 28.35351296450661 22.197007645927147 15.799316003338134 0 0 0
1473 2 -0.4961045468388745 28.50684462508345 24.22434280353972 13.95252151892353 0 0 0
1474 2 -0.5364091527191186 26.35730931479303 24.01527249507874 15.714147486473019 0 0 0
1475 2 -0.4826784896794853 30.666177882414487 17.981357715280183 13.937258534937616 0 0 0
1476 2 -0.5026240199515356 30.61694400583128 20.189231804780604 15.950853886154917 0 0 0
1477 2 -0.5010472713098646 30.433919575076583 22.012148246934412 9.548174232427035 0 0 0
1478 2 -0.4883264324418098 30.737384704439904 24.24433910910992 11.539674440685566 0 0 0
1780 3 0.4094399230664789 25.12673632158994 22.801079527124454 15.257920557475519 0 0 0
1545 2 -0.6019769024707077 28.858546419511352 26.26215676729072 9.23865364664412 0 0 0
362 1 1.030082951445441 19.046181886497145 27.449153366739566 10.627990649175171 0 0 0
364 1 0.9603452661125387 19.052785360320915 31.664625637695575 14.789036797436385 0 0 0
366 1 1.033533626566671 23.259576772305063 27.388503208257063 14.8523800733253 0 0 0
367 1 0.9544305387788268 21.17059159854892 29.50247488960469 8.486120018041683 0 0 0
368 1 0.9528489728891023 23.201148864884924 31.674706882479665 10.657772373511259 0 0 0
1518 2 -0.4739291306128425 30.580280183180708 26.26099408162036 13.621698315703892 0 0 0
1120 2 -0.4738196081688397 19.94187499618591 32.59759188529357 13.705849300853256 0 0 0
1121 2 -0.4517319121154197 21.987028929914523 33.034989886921316 11.550606268835331 0 0 0
1130 2 -0.5034261372453864 17.841159590770335 32.797476873605625 15.85359470279649 0 0 0
1308 2 -0.5026479759939824 17.938877676702454 26.286519952044017 9.518550564335685 0 0 0
1309 2 -0.4980976976629012 18.0464093803252 28.45839342794229 11.5493023934062 0 0 0
1310 2 -0.4942169247493085 19.96487372963921 26.516966060771953 11.675934040939104 0 0 0
1311 2 -0.510116549888327 20.072793247863967 28.31809974825908 9.621317322423192 0 0 0
1312 2 -0.4914539593570232 18.120796263768344 30.71923254962106 13.802858891092287 0 0 0
1313 2 -0.499466148422689 20.257506215180562 30.502282165076316 15.85821952023946 0 0 0
1314 2 -0.4948402127839965 22.09538001806713 26.362810338821866 13.616519510730859 0 0 0
1315 2 -0.5039772926392408 22.35880851209482 28.358315235156244 15.884740818213109 0 0 0
1316 2 -0.4926280037617568 24.333649382396157 28.382574456619036 14.002170514497417 0 0 0
1317 2 -0.4772183927581617 24.177286804812503 26.326002297896807 15.767235598577987 0 0 0
1318 2 -0.5298507796950623 22.327695166205775 30.584685655197916 9.717000504323632 0 0 0
1319 2 -0.4627779874421239 24.219812717855902 32.795050734633506 9.391545199772764 0 0 0
1320 2 -0.5200575210078 24.506456518336694 30.68479399641269 11.170007465624012 0 0 0
1571 2 -0.5968686355784271 23.944546802256806 28.36366170199479 11.35035064434724 0 0 0
1624 2 -0.5602419214316172 22.690577789113316 30.990146938332675 12.586668341653475 0 0 0
1701 3 0.4221263522023874 24.87063042719778 28.00669484025335 10.881997932391977 0 0 0
1702 3 0.3864169401936633 23.70716015493696 29.253917614375656 10.823804026657895 0 0 0
1807 3 0.3641645741432624 22.031707606968222 30.299807777749145 12.40261468040876 0 0 0
1808 3 0.2753448341691059 23.741610411081318 30.33362012484177 12.760879057972497 0 0 0
107 1 1.033110476990049 33.72831336174512 29.56314112634924 12.720890285088172 0 0 0
397 1 1.026277321715315 29.501457849011828 33.737711461302524 12.690403916120198 0 0 0
1517 2 -0.4720440805898695 28.26065753971582 30.62336108404792 15.76871413847316 0 0 0
490 1 0.9645952051974642 27.448925273360313 27.336670331368317 10.54847766989723 0 0 0
491 1 0.7883837125741555 25.200117727189053 29.468812632566408 12.697188834930136 0 0 0
492 1 0.8956922614309598 27.372515697740774 31.580156771316094 14.75334626002364 0 0 0
494 1 0.9041162433259995 31.633255370522395 27.434883972319852 14.793906989801027 0 0 0
495 1 0.933322255134859 29.569928100026647 29.593425458018487 8.465303275398535 0 0 0
496 1 0.9875649633099565 31.639241982054994 31.657469082463294 10.61948792125771 0 0 0
1516 2 -0.4440271300431529 26.276674978631657 30.42032136979924 13.570822519993472 0 0 0
541 2 -0.490430778621125 32.85203508993299 32.7021014902976 9.492377173182943 0 0 0
791 2 -0.4867180623097506 32.796176582127295 28.4871229483424 13.61821283313644 0 0 0
792 2 -0.4973819280797648 32.54757078331365 30.763829167414464 11.683529755382441 0 0 0
803 2 -0.4741820495923281 32.62494567154163 26.54396353278402 15.773408675671883 0 0 0
1372 2 -0.4787265903376758 28.593766264435487 32.67222116573982 13.642862830464985 0 0 0
1373 2 -0.4951259848741729 30.650723461555927 32.688884586431904 11.470835775982053 0 0 0
1378 2 -0.4831351898197786 26.17915089200198 32.691700148992524 15.846265484519055 0 0 0
1512 2 -0.5042633090590509 26.290435329320953 26.50304538348011 9.705451325153144 0 0 0
1513 2 -0.4855167031167043 26.333975779147092 28.34507297452982 11.425797903120895 0 0 0
1514 2 -0.4679315483666653 28.469393319865453 26.30720320153544 11.888831081442202 0 0 0
1515 2 -0.5307174602559206 28.538863660041248 28.66813278302122 9.412611345143265 0 0 0
335 1 1.025176458164442 21.07911082272714 21.04285348130025 8.464335397116814 0 0 0
463 1 0.9697601244451762 29.527761827997303 21.079914025590277 8.503801378224114 0 0 0
461 1 0.9693267011099518 29.573564882983717 16.889451728300607 12.694494927926899 0 0 0
489 1 0.9056348871922513 25.319116098540142 25.299711945767857 8.498369928468222 0 0 0
1734 3 0.3828689947767441 17.89921906472398 21.02790237272733 16.812789039405075 0 0 0
457 1 0.9429055106876817 25.319756604379208 16.882365857431893 8.464666257209675 0 0 0
338 1 1.029065310000858 18.98297699431595 18.989266295706482 18.996615183226037 0 0 0
340 1 0.9357035015704691 18.89171157698706 23.19066760222998 23.34156878580808 0 0 0
342 1 0.8307557401650709 23.196159529921566 19.025211451104607 23.202727444083614 0 0 0
343 1 0.8844249940664771 21.117167719363945 21.122157575451634 16.95955117882063 0 0 0
344 1 0.9776051169030815 23.166067341544487 23.27059237276064 19.064786396537247 0 0 0
373 1 0.8965747527369402 20.97186396664558 25.28811920196028 21.172209993473757 0 0 0
273 1 1.024144515028875 16.91259053909699 33.73447496343057 16.877848068117626 0 0 0
1263 2 -0.4954653754648056 17.873655503980803 17.88536217742978 17.76705945092015 0 0 0
1264 2 -0.4970075774066753 18.07236333541321 20.055278047418035 19.92821804059702 0 0 0
1265 2 -0.4992652878745359 19.8594717861261 17.97579562107136 19.994267442013296 0 0 0
1266 2 -0.5005876182438472 20.058042704204635 19.948598759917555 18.13228795367655 0 0 0
1267 2 -0.4609953999314507 17.8805168840145 22.162031316898716 22.030035164910153 0 0 0
1268 2 -0.4347999450359359 20.430627050044972 22.285738995664282 24.07653667884827 0 0 0
1269 2 -0.45020343784339 19.74013459062049 24.189644937748024 22.258684707120015 0 0 0
1270 2 -0.454947251018038 17.807614533254114 24.516810417843015 24.349409142804465 0 0 0
1271 2 -0.4620383754268164 22.051672493257094 17.986944772004943 22.01864207001689 0 0 0
1272 2 -0.4368959426839899 21.92611151803627 20.07017326591043 24.31786304764013 0 0 0
1273 2 -0.3841478615240186 24.3561614954946 20.0553294259099 22.07202300855142 0 0 0
1274 2 -0.4690986667152613 24.28884413034494 17.808805658978983 24.29990281192335 0 0 0
1275 2 -0.4660249445261682 21.99561568366129 22.136672657206795 17.91782719770136 0 0 0
1276 2 -0.455204078741128 22.020426593469793 24.342537873878566 20.292584243176062 0 0 0
1277 2 -0.4694106210905619 24.105790014223683 22.31923921483303 20.03265909596265 0 0 0
1278 2 -0.475992176686009 24.206345890046254 24.246442793477446 18.19274862710181 0 0 0
1614 2 -0.5683338766665313 18.257229909130455 21.846753717743184 24.897314724578674 0 0 0
497 1 0.8967764432095942 25.32877774382393 25.265107180175566 16.92185070906461 0 0 0
465 1 0.9770509353036572 25.30381422428165 16.903818316556393 16.930157703177233 0 0 0
466 1 0.8972221677111013 27.477906084150536 18.98062281791177 18.98041490887028 0 0 0
467 1 1.016847446368119 25.524226638034357 21.35052783274526 20.988939415353144 0 0 0
468 1 0.9334751311125049 27.318671902590633 23.199896822416996 23.34251674382058 0 0 0
470 1 0.9586965234917152 31.640375283681546 19.019239807582313 23.124134079519056 0 0 0
471 1 1.043626205692786 29.56146611092671 21.091431381118795 16.881338718198204 0 0 0
472 1 0.9942166485058677 31.71892918930888 23.180736371867408 18.89896697049512 0 0 0
734 2 -0.4954434296296575 32.79839735056961 20.222174504515973 22.093601947906492 0 0 0
735 2 -0.4933293826120241 32.76392926502715 22.0615363914623 20.165928164497686 0 0 0
749 2 -0.4812838357266481 32.639523445078034 17.991913802188897 23.97585954202638 0 0 0
802 2 -0.4882627127257185 32.700324141611794 24.052639531353343 17.89787980378542 0 0 0
1479 2 -0.4829292527878467 26.178617715583034 17.913734553402275 17.927237098907913 0 0 0
1480 2 -0.5241123752352395 26.660418490973566 19.96556961744277 19.9840348946456 0 0 0
1481 2 -0.5047398872108441 28.514047162085532 17.90322544646941 20.232159145350632 0 0 0
1482 2 -0.516134952708366 28.659235787649607 20.061169620286858 17.845980296621082 0 0 0
1483 2 -0.4958069996160549 26.254568815244873 22.079278762738753 22.332295023019697 0 0 0
1484 2 -0.5058066975475415 28.281916934518776 22.315095949875655 24.361758204695345 0 0 0
1485 2 -0.5908993446917711 28.49375949208799 23.82162943113378 21.687280698512566 0 0 0
1486 2 -0.5746086889492835 26.122643464695106 23.926591594990242 24.309861283436646 0 0 0
1487 2 -0.4912743423780028 30.57986891473267 17.903678540544455 21.938181913003934 0 0 0
1488 2 -0.4771789646212173 30.61655115336567 19.914472406605064 24.11740446523555 0 0 0
1489 2 -0.5159976145116357 30.45759473483608 22.064340911758336 17.895721950405488 0 0 0
1490 2 -0.5034458722390706 30.81049652463422 24.29711585232785 19.67712087290083 0 0 0
1551 2 -0.6085856139727895 27.735734745646322 25.354418042145575 23.398154433071337 0 0 0
1577 2 -0.5869985590239094 26.586517367225913 22.257308079735804 20.154091319726323 0 0 0
1662 3 0.3431943423260474 27.640462901200934 25.56177378880705 22.418346030277352 0 0 0
1713 3 0.3948053417716749 28.018124294073 23.3845257837595 20.951487801843587 0 0 0
1714 3 0.3995005346850579 27.211363506074967 21.58279467893828 19.717227999648387 0 0 0
115 1 1.025719752624102 33.634997471721476 29.777455635103145 21.221737116037186 -1 0 0
369 1 0.9678866478208036 16.94951796258564 25.31824163335802 16.968550735588668 0 0 0
370 1 0.9738056431390274 18.98633266530385 27.45027254425852 19.035407813643868 0 0 0
1661 3 0.3455625763360965 26.836381755459243 25.575843091331784 23.796846411732197 0 0 0
372 1 1.00802354501898 19.013136644363318 31.609269240618833 23.21787696219327 0 0 0
374 1 0.9020226698397054 23.20921183531907 27.280536328760117 23.162786416907622 0 0 0
376 1 0.9139830533679498 23.19029734007315 31.626563953341332 19.011919098201506 0 0 0
1529 2 -0.4765159635455957 30.740457781859952 30.64194157919241 18.033311785956418 0 0 0
1139 2 -0.4882412713566347 20.079673785780304 32.83083787574292 22.05022390937421 0 0 0
1140 2 -0.4772637610899881 22.298150482503008 32.67146537604609 19.930146651221683 0 0 0
1149 2 -0.5202261829654788 18.0288884986133 32.491802726250285 24.255442831416836 0 0 0
1321 2 -0.4951101553324243 18.059717498414884 26.38661718747238 18.178741419989247 0 0 0
1322 2 -0.4917817672731816 17.760915526808407 28.61220310485047 20.073607148031986 0 0 0
1323 2 -0.4817476250804793 19.997144810804986 26.532755429283675 19.994210184876966 0 0 0
1324 2 -0.4919537085946399 20.04324920928373 28.578621453327415 17.798860838010537 0 0 0
1325 2 -0.4981825018692211 18.037096564014544 30.581524572969286 22.31648643751161 0 0 0
1326 2 -0.5062951663527721 19.94000535337255 30.628496479936853 24.254685330026124 0 0 0
1327 2 -0.497136492081757 21.955510556625423 26.394308367381047 22.455938480194636 0 0 0
1328 2 -0.5378669200583798 22.377805809982434 28.384754839523094 24.127164760883886 0 0 0
1329 2 -0.5698175222632194 24.441917747513042 28.60455525283177 22.124415160987414 0 0 0
1330 2 -0.5161265289077085 24.24581722920968 26.144889203138465 24.369390137430333 0 0 0
1331 2 -0.489384872041227 21.973486168288503 30.49254978518723 17.973037971429218 0 0 0
1332 2 -0.4888603991420118 24.2773438600027 32.66245997208315 17.77069290239282 0 0 0
1333 2 -0.4869218128336093 24.329284863610958 30.572510149523694 20.2131988265425 0 0 0
1594 2 -0.5802107644973676 24.337455176727715 26.270982197102462 21.62510020224831 0 0 0
1608 2 -0.5711229003270571 20.7349421514724 25.817990434292096 25.07247913227495 0 0 0
1622 2 -0.5701958119521722 24.61776210746361 29.82467213890135 24.9034666300853 0 0 0
1747 3 0.371601915219607 24.81913515385834 27.268830679163855 21.424239951764026 0 0 0
1748 3 0.3422548011774634 24.97794336916782 25.772994863385392 22.187279239917373 0 0 0
1776 3 0.4142817833961853 20.97246417875585 26.111938831701856 24.178916339148035 0 0 0
1803 3 0.4113383693302044 24.160132258154814 29.295863431292275 24.22547968762128 0 0 0
121 1 0.9191262915728879 33.72716497266619 25.27690325245623 25.231847957350954 -1 0 0
498 1 0.891611927910959 27.431407730119954 27.42701771339367 18.9396846199653 0 0 0
499 1 0.9768228145069962 25.379020849745253 29.573453688550583 21.053311701428413 0 0 0
500 1 0.9725107452565962 27.423240360400868 31.682332790228887 23.18476340335955 0 0 0
501 1 0.9073568878661085 29.681520907722618 25.362624193114375 20.825411412618298 0 0 0
502 1 1.022763073953451 31.62008028685613 27.433875279550477 23.153484269894246 0 0 0
504 1 0.9069057165867115 31.60252309352665 31.702378218813102 18.972750204707147 0 0 0
469 1 1.025161129200802 29.52236626810572 16.908619497508994 21.126191002837533 0 0 0
511 1 0.8957181967140904 29.497047198160438 29.56078218162178 25.27377940083317 0 0 0
564 2 -0.4767685461148555 32.80277636284645 32.7150269476901 17.784994528989543 0 0 0
808 2 -0.5119315562356463 32.64191869570704 28.442320642004038 22.300886615989484 0 0 0
809 2 -0.499824326030021 32.649831489818546 30.688499257381626 20.261131163390676 0 0 0
820 2 -0.4698961830350681 32.61017748530318 26.51706209217049 24.181625145951827 0 0 0
1387 2 -0.4778902949251277 28.3889512414814 32.56827326399836 22.16106648696029 0 0 0
1388 2 -0.4741301913358337 30.401285524860015 32.87096738979336 20.008926656699618 0 0 0
1393 2 -0.4783043811106661 26.290344557760537 32.9205394919122 24.27857986577565 0 0 0
1521 2 -0.4798609004664572 26.350746874594325 26.26165486085344 17.753817517667855 0 0 0
1522 2 -0.5219098815609031 26.422822101562403 28.292210188687452 19.937555602371813 0 0 0
1523 2 -0.5266241791222402 28.561562350718354 26.32397763272959 20.07520156199051 0 0 0
1524 2 -0.4704062227997448 28.62856186777021 28.607704836006523 17.9173900070523 0 0 0
1525 2 -0.4878804794263215 26.414125457814485 30.49465015411627 21.99383897573227 0 0 0
1526 2 -0.475576791485066 28.46271808954537 30.733287316734437 24.090845626850303 0 0 0
1527 2 -0.4842791248998449 30.58918187637673 26.230495270378384 21.922941450573408 0 0 0
1528 2 -0.4774917480544261 30.646518647827584 28.35236178677383 24.201718464170476 0 0 0
503 1 0.9588496694014953 29.523068998236003 29.557698620406473 16.88265231119616 0 0 0
339 1 0.9685078111095128 16.918194910874544 21.125408074196297 21.103801457315395 0 0 0
401 1 1.035587462484766 25.283489882021676 33.664585525288736 16.88871705736375 0 0 0
341 1 1.043661481906138 21.09235255290362 16.925400263619128 21.109152677432604 0 0 0
89 1 0.9129057602740849 33.69738239782653 16.993438906762936 25.298585042315235 0 0 0
375 1 1.034060161378539 21.121194470853272 29.514185715393534 16.909357194955184 0 0 0
1787 3 0.2829651817595962 19.371340512208622 21.450632263836383 25.164628075720557 0 0 0
479 1 0.8941171030808308 29.546634469657086 21.148568207940354 25.27909817829501 0 0 0
383 1 0.817884704145711 21.16531907811224 29.449830504049235 25.28307679688706 0 0 0
327 1 0.8777294459090907 21.161021088442947 21.130062036810898 33.6836025309109 0 0 0
346 1 0.893003753156144 19.021237689344513 18.78629347509449 27.45330100979027 0 0 0
348 1 1.036274947661149 18.976417501142585 23.218702847114393 31.676080968012574 0 0 0
257 1 0.8537378565885188 16.946815197093624 33.63561856318647 33.67952681147051 0 0 0
350 1 1.024677836507261 23.278441332204977 18.979139190382792 31.640660936737635 0 0 0
351 1 0.8617279971505516 21.036590178606975 21.059662779274095 25.357911278768338 0 0 0
352 1 0.9684672914253873 23.107812342631206 23.151187463898395 27.526728772167772 0 0 0
381 1 0.9909895690873675 21.116938679377792 25.287955186568627 29.622637218303435 0 0 0
1801 3 0.3945798217641699 27.377596235391742 16.967481684412746 28.217620835486702 0 0 0
475 1 0.8937558093579282 25.322555093858533 21.123308349088568 29.53000324601825 0 0 0
1242 2 -0.4900762673293093 20.09726724818679 22.013373125054233 32.7858262347042 0 0 0
1243 2 -0.4873319139530199 22.279428809373968 20.063817376562188 32.46584975020609 0 0 0
1279 2 -0.5347473292770545 17.840082226405425 17.7633272332807 26.137482164163327 0 0 0
1280 2 -0.5205599787452028 17.89874225247207 19.932193144556894 28.355558724274015 0 0 0
1281 2 -0.4724980356824075 20.275390798526363 17.84547323288963 28.585536393204226 0 0 0
1282 2 -0.4751747086233688 20.08136806996192 19.81553430913594 26.542099324600006 0 0 0
1283 2 -0.4911913023447727 17.90669746927861 22.312401691729637 30.75295555141441 0 0 0
1284 2 -0.4853584841819999 18.079621256489222 24.284256518228208 32.62668866180413 0 0 0
1285 2 -0.5020628669259972 19.905568308610682 24.129375257091624 30.63226861332512 0 0 0
1286 2 -0.4798177130258993 22.37573307772511 17.968747108549213 30.63718927268143 0 0 0
1287 2 -0.4798599349595077 24.385118560482198 17.883214393254065 32.904956134240784 0 0 0
1288 2 -0.4860044044527842 24.23848832769276 19.882982270693383 30.592614145296185 0 0 0
1289 2 -0.4753035877447612 21.89234177852147 22.066086737089595 26.368370134685954 0 0 0
1290 2 -0.4881152526040581 22.130022831819748 24.29311912367649 28.776616076874664 0 0 0
1291 2 -0.5221975431739747 24.225351417229398 22.223494332479042 28.319167179052375 0 0 0
1292 2 -0.5271420835603924 24.036299485169188 24.20146047660159 26.669522357290635 0 0 0
1547 2 -0.5653704003306019 17.52962495500784 17.589500390552146 28.50785181336292 0 0 0
1567 2 -0.5643027965143183 20.358171164857573 17.617997178178697 33.3277480199047 0 0 0
1653 3 0.3917821441546277 17.10721544460967 18.560260759289026 28.717156306034965 0 0 0
1694 3 0.4151903369662268 19.485264109020555 17.179288558318483 33.3685182933861 0 0 0
1654 3 0.3981898423721891 17.14427571457907 17.293539122847864 27.56726205117944 0 0 0
1788 3 0.3794046921025119 17.949117125115677 22.238462152057412 25.744252095323095 0 0 0
455 1 0.9549229754091181 29.57489851928964 21.092619837633364 33.712811253210624 0 0 0
474 1 0.9315974808101209 27.42516887992005 19.132338099578686 27.340238315001134 0 0 0
476 1 0.9608507076321694 27.41530862582323 23.21467725190597 31.647181965641 0 0 0
123 1 0.8669155294414449 33.533895114366715 29.28351461243363 29.366444652898792 -1 0 0
478 1 0.9086470083278246 31.741588211616037 18.96254728379207 31.597328434027272 0 0 0
1786 3 0.3696281258066946 33.29713329744089 19.490314299285544 25.612928292963737 -1 0 0
480 1 0.9683777037218343 31.664617788813803 23.23145266860781 27.392672815427115 0 0 0
687 2 -0.491262574867593 32.67466457109034 17.91055110377244 32.9623616769301 0 0 0
754 2 -0.5349515393478693 32.739843333364114 20.336681071622404 30.55243936725778 0 0 0
755 2 -0.4850141586280188 32.89994882359184 22.17721571445088 28.52501641582047 0 0 0
819 2 -0.4771805736243879 32.75444341933536 24.27654025277225 26.112157129928658 0 0 0
1464 2 -0.4724836052329194 28.33445645857537 22.167128566435164 32.58112367473263 0 0 0
1465 2 -0.4538811775956148 30.70527282322139 19.867807328840293 32.594397141116055 0 0 0
1491 2 -0.5321808129509429 26.49255107786145 18.044334846307855 26.4880834306283 0 0 0
1492 2 -0.4922307635654422 26.344310417590414 20.20915129218884 28.61504132706932 0 0 0
1493 2 -0.5160945496269583 28.475442376404352 18.186387658790107 28.217285789901176 0 0 0
1494 2 -0.4764355860422675 28.51284550901711 20.207796848113702 26.12812978005663 0 0 0
1495 2 -0.4761885379086815 26.365731158331407 22.275316975519075 30.74781146723568 0 0 0
1496 2 -0.4739760172587179 26.375097136041102 24.43283679716952 32.823651961276525 0 0 0
1497 2 -0.486619301533347 28.51967196859138 24.28031131593971 30.399505882491276 0 0 0
1498 2 -0.4335894266332612 30.500706389902014 17.975383851719542 30.539817802942125 0 0 0
1499 2 -0.4826854048629711 30.641521641240427 22.226009153260982 26.53642635580636 0 0 0
1500 2 -0.4836937493574161 30.742736393489082 24.260536600185215 28.325539637108456 0 0 0
1554 2 -0.5792028291179464 26.457212354610707 23.98300837099634 26.66889304106439 0 0 0
1609 2 -0.6094600209211124 33.44609864861607 18.045030146072968 30.56381386412626 0 0 0
1613 2 -0.5918840374025497 32.98744699850592 18.80774936020225 26.284681076565672 0 0 0
1667 3 0.4072387267931344 26.757164368765455 23.496025112341773 25.7635913784231 0 0 0
1668 3 0.4102663548615086 25.58613978762893 23.505400060584755 26.981037563752007 0 0 0
1746 3 0.4002924159132427 32.91667049139342 24.684528198186364 31.219993842785236 0 0 0
1778 3 0.3729653869161826 33.39337694957862 18.50084728684297 29.67951032042287 0 0 0
1642 3 0.4224946537693147 29.308811960988674 27.859134737608365 29.153923549649928 0 0 0
505 1 0.9035478290831866 25.205244959090404 25.31447393910789 25.493388275478484 0 0 0
321 1 0.9694320090129328 16.92092875551517 16.89446385907874 33.67967597898657 0 0 0
378 1 0.9039350626276469 19.108571161478753 27.386662456377607 27.506330134550012 0 0 0
379 1 1.007166140312161 16.992460149584698 29.473476754673754 29.636816481524225 0 0 0
380 1 0.9577865582995775 19.135092621706246 31.71278134455434 31.570423728053868 0 0 0
382 1 0.8985477986572251 23.2128215585068 27.43442213982306 31.650418402192383 0 0 0
1541 2 -0.5618655167581456 29.67361914329457 28.78797487469894 29.42081933344145 0 0 0
384 1 0.9915489210796303 23.21590849661422 31.674016424538614 27.421602051965536 0 0 0
1090 2 -0.4579379857479086 18.26793044719956 32.84857862073265 32.43765862919847 0 0 0
1157 2 -0.4763325828382088 20.2730776785865 32.762092746773696 30.37905851496664 0 0 0
1158 2 -0.5001659012358796 22.08798259850771 32.952210530053726 28.47821517618156 0 0 0
1304 2 -0.4993256218943264 20.069007244476783 30.815417788452145 32.631462348700644 0 0 0
1305 2 -0.4825978700281724 22.13113915341009 28.541267066358785 32.88624747725303 0 0 0
1334 2 -0.4984644349680606 18.224632318561806 26.373194283204064 26.517312692758757 0 0 0
1335 2 -0.5028032936671323 17.964314655801395 28.417000221076087 28.783093078685635 0 0 0
1336 2 -0.4882491896481964 20.11478422007078 26.4144145553839 28.381083502154645 0 0 0
1337 2 -0.5337194475632056 20.28551565504006 28.371133843370444 26.210058981010718 0 0 0
1338 2 -0.4950808209170151 17.987014760706288 30.419926038645922 30.597887251530395 0 0 0
1339 2 -0.4824488210440009 22.015265689211617 26.244002897789606 30.65264375096735 0 0 0
1340 2 -0.4728098631482094 24.23722672137482 26.462111339927386 32.50994689159945 0 0 0
1341 2 -0.4738473430746045 24.281198406780952 28.544411553956046 30.40606169756207 0 0 0
1342 2 -0.5399440987011905 22.4164448410383 30.573760760937745 26.382742982262226 0 0 0
1343 2 -0.5068440189538813 24.151833723979795 32.569441462797506 26.364562273873755 0 0 0
1344 2 -0.4904159203982151 24.253545879731675 30.77311813042683 28.381757806947157 0 0 0
1596 2 -0.6368775180175946 17.48127019009846 29.975067612923095 26.260048066519783 0 0 0
1641 3 0.4068946762233286 30.440296577259726 28.630337407914457 29.99022445329991 0 0 0
1576 2 -0.5984933766207453 33.40032570239761 23.312889626802182 33.048427607359514 -1 0 0
1751 3 0.3964343923432206 18.064732634000805 30.68988886193406 25.997622241859442 0 0 0
1752 3 0.4066366953522653 16.966570945736805 30.29359359635387 27.125051313165727 0 0 0
1775 3 0.4164495662267886 20.404315674306453 26.60419887449326 25.55808429770179 0 0 0
413 1 0.9604538790689421 29.504209888649566 33.73787317801612 29.54321474893165 0 0 0
1593 2 -0.5789553282519275 33.46484180330413 25.05863813716488 30.522515341579552 -1 0 0
506 1 0.8060854235485351 27.364959272324718 27.513662258598206 27.387165736677943 0 0 0
507 1 0.9753335505599935 25.298326036944935 29.547089892441388 29.533733479727317 0 0 0
508 1 1.032104505304689 27.432597506694236 31.585486410955735 31.664043542559114 0 0 0
509 1 0.9904381472019632 29.54109879713362 25.286568731378804 29.537997411532892 0 0 0
510 1 0.831977441204186 31.59793205446801 27.32442373225022 31.678822115408916 0 0 0
512 1 0.9674394260146302 31.58277659815758 31.63971378578376 27.39787840665512 0 0 0
587 2 -0.4915333714835524 32.78975522682478 32.82994214763959 26.375673140041563 0 0 0
767 2 -0.5201088242163084 32.89055133483566 26.20050970860644 32.7461155038931 0 0 0
825 2 -0.52128786323689 32.48938461868432 28.40660130435234 30.32475419138759 0 0 0
826 2 -0.5028944281234849 32.55939133314078 30.594527564180748 28.242565260753473 0 0 0
1346 2 -0.4915706305381565 26.412535870806906 32.59210419522523 32.534894318682376 0 0 0
1401 2 -0.4822645988106837 28.30339583938491 32.562644601831416 30.594156415756345 0 0 0
1402 2 -0.4823738769983913 30.540268744985287 32.78551286243013 28.644351441144735 0 0 0
1510 2 -0.4803919401637493 28.63354799268865 30.505487983305205 32.85057534344432 0 0 0
1511 2 -0.4845622899246477 30.702252045038453 28.404980269880628 32.56028697001351 0 0 0
1530 2 -0.4634726089349463 26.126050338212007 26.496654540354886 26.255604228728888 0 0 0
1531 2 -0.46642593691443 26.290192568091822 28.568379844706726 28.61960196822989 0 0 0
1532 2 -0.5154481898060073 28.61398588832649 26.481574047625156 28.60261562922788 0 0 0
1533 2 -0.462525478900056 28.429402682842138 28.67028853019685 26.18520744570742 0 0 0
1534 2 -0.4848269737184334 26.433069292082568 30.56946929342291 30.774493785885007 0 0 0
1535 2 -0.529674361574068 30.3850793420234 26.21192388709767 30.63786425981874 0 0 0
1536 2 -0.476266066009167 30.569316305962687 30.76605051580609 26.407386587850915 0 0 0
481 1 0.9578346118551145 25.317342222416364 25.34689032028646 33.73804266948218 0 0 -1
473 1 1.003832639829467 25.315213348852584 16.934645359384735 25.323933116566085 0 0 0
1804 3 0.4244653777951376 23.903560114071905 30.23443878226117 25.46483629456896 0 0 0

Velocities

2 0 0 0
1708 0 0 0
4 0 0 0
5 0 0 0
6 0 0 0
8 0 0 0
1574 0 0 0
131 0 0 0
1539 0 0 0
513 0 0 0
517 0 0 0
518 0 0 0
519 0 0 0
520 0 0 0
523 0 0 0
524 0 0 0
525 0 0 0
526 0 0 0
529 0 0 0
530 0 0 0
531 0 0 0
532 0 0 0
535 0 0 0
536 0 0 0
537 0 0 0
1548 0 0 0
1584 0 0 0
1674 0 0 0
1727 0 0 0
1728 0 0 0
130 0 0 0
132 0 0 0
39 0 0 0
134 0 0 0
136 0 0 0
926 0 0 0
133 0 0 0
165 0 0 0
1707 0 0 0
289 0 0 0
833 0 0 0
835 0 0 0
836 0 0 0
837 0 0 0
838 0 0 0
839 0 0 0
840 0 0 0
841 0 0 0
842 0 0 0
845 0 0 0
846 0 0 0
847 0 0 0
848 0 0 0
851 0 0 0
852 0 0 0
853 0 0 0
1606 0 0 0
1771 0 0 0
1772 0 0 0
34 0 0 0
36 0 0 0
37 0 0 0
38 0 0 0
40 0 0 0
265 0 0 0
1 0 0 0
1637 0 0 0
925 0 0 0
163 0 0 0
175 0 0 0
605 0 0 0
608 0 0 0
609 0 0 0
610 0 0 0
611 0 0 0
614 0 0 0
615 0 0 0
616 0 0 0
617 0 0 0
618 0 0 0
619 0 0 0
620 0 0 0
621 0 0 0
624 0 0 0
625 0 0 0
626 0 0 0
1538 0 0 0
1570 0 0 0
1635 0 0 0
1636 0 0 0
1699 0 0 0
1700 0 0 0
162 0 0 0
164 0 0 0
166 0 0 0
168 0 0 0
197 0 0 0
909 0 0 0
910 0 0 0
911 0 0 0
912 0 0 0
913 0 0 0
914 0 0 0
915 0 0 0
916 0 0 0
917 0 0 0
918 0 0 0
919 0 0 0
920 0 0 0
921 0 0 0
924 0 0 0
137 0 0 0
129 0 0 0
167 0 0 0
161 0 0 0
43 0 0 0
10 0 0 0
1774 0 0 0
12 0 0 0
13 0 0 0
14 0 0 0
16 0 0 0
139 0 0 0
538 0 0 0
542 0 0 0
543 0 0 0
544 0 0 0
545 0 0 0
548 0 0 0
549 0 0 0
550 0 0 0
551 0 0 0
554 0 0 0
555 0 0 0
556 0 0 0
557 0 0 0
558 0 0 0
559 0 0 0
560 0 0 0
1553 0 0 0
1557 0 0 0
1572 0 0 0
1665 0 0 0
1666 0 0 0
1673 0 0 0
1703 0 0 0
1704 0 0 0
201 0 0 0
138 0 0 0
140 0 0 0
142 0 0 0
144 0 0 0
854 0 0 0
856 0 0 0
857 0 0 0
858 0 0 0
859 0 0 0
860 0 0 0
861 0 0 0
862 0 0 0
863 0 0 0
866 0 0 0
867 0 0 0
868 0 0 0
869 0 0 0
870 0 0 0
871 0 0 0
872 0 0 0
1575 0 0 0
1607 0 0 0
1709 0 0 0
1710 0 0 0
1773 0 0 0
42 0 0 0
44 0 0 0
45 0 0 0
46 0 0 0
48 0 0 0
169 0 0 0
171 0 0 0
627 0 0 0
630 0 0 0
631 0 0 0
632 0 0 0
633 0 0 0
636 0 0 0
637 0 0 0
638 0 0 0
639 0 0 0
640 0 0 0
641 0 0 0
642 0 0 0
643 0 0 0
644 0 0 0
645 0 0 0
646 0 0 0
1600 0 0 0
1760 0 0 0
170 0 0 0
172 0 0 0
173 0 0 0
174 0 0 0
267 0 0 0
176 0 0 0
942 0 0 0
183 0 0 0
941 0 0 0
927 0 0 0
928 0 0 0
929 0 0 0
930 0 0 0
931 0 0 0
932 0 0 0
933 0 0 0
934 0 0 0
935 0 0 0
936 0 0 0
937 0 0 0
938 0 0 0
939 0 0 0
940 0 0 0
151 0 0 0
1759 0 0 0
15 0 0 0
23 0 0 0
305 0 0 0
143 0 0 0
47 0 0 0
1800 0 0 0
18 0 0 0
20 0 0 0
21 0 0 0
22 0 0 0
337 0 0 0
24 0 0 0
1799 0 0 0
956 0 0 0
958 0 0 0
149 0 0 0
185 0 0 0
561 0 0 0
565 0 0 0
566 0 0 0
567 0 0 0
568 0 0 0
571 0 0 0
572 0 0 0
573 0 0 0
574 0 0 0
577 0 0 0
578 0 0 0
579 0 0 0
580 0 0 0
581 0 0 0
582 0 0 0
583 0 0 0
146 0 0 0
147 0 0 0
148 0 0 0
150 0 0 0
955 0 0 0
152 0 0 0
181 0 0 0
275 0 0 0
145 0 0 0
313 0 0 0
873 0 0 0
875 0 0 0
876 0 0 0
877 0 0 0
878 0 0 0
879 0 0 0
880 0 0 0
881 0 0 0
882 0 0 0
885 0 0 0
886 0 0 0
887 0 0 0
888 0 0 0
889 0 0 0
890 0 0 0
891 0 0 0
1632 0 0 0
1824 0 0 0
50 0 0 0
177 0 0 0
52 0 0 0
53 0 0 0
54 0 0 0
56 0 0 0
179 0 0 0
954 0 0 0
647 0 0 0
650 0 0 0
651 0 0 0
652 0 0 0
653 0 0 0
656 0 0 0
657 0 0 0
658 0 0 0
659 0 0 0
660 0 0 0
661 0 0 0
662 0 0 0
663 0 0 0
664 0 0 0
665 0 0 0
666 0 0 0
1628 0 0 0
953 0 0 0
1815 0 0 0
1816 0 0 0
178 0 0 0
180 0 0 0
182 0 0 0
184 0 0 0
957 0 0 0
1620 0 0 0
943 0 0 0
944 0 0 0
945 0 0 0
946 0 0 0
947 0 0 0
948 0 0 0
949 0 0 0
950 0 0 0
951 0 0 0
952 0 0 0
1823 0 0 0
191 0 0 0
55 0 0 0
19 0 0 0
345 0 0 0
85 0 0 0
63 0 0 0
7 0 0 0
26 0 0 0
28 0 0 0
29 0 0 0
30 0 0 0
32 0 0 0
315 0 0 0
533 0 0 0
534 0 0 0
584 0 0 0
588 0 0 0
589 0 0 0
590 0 0 0
591 0 0 0
594 0 0 0
595 0 0 0
596 0 0 0
599 0 0 0
600 0 0 0
601 0 0 0
602 0 0 0
603 0 0 0
604 0 0 0
1602 0 0 0
1763 0 0 0
1764 0 0 0
135 0 0 0
154 0 0 0
155 0 0 0
156 0 0 0
157 0 0 0
158 0 0 0
159 0 0 0
160 0 0 0
283 0 0 0
849 0 0 0
850 0 0 0
892 0 0 0
894 0 0 0
895 0 0 0
896 0 0 0
897 0 0 0
898 0 0 0
899 0 0 0
900 0 0 0
903 0 0 0
904 0 0 0
905 0 0 0
906 0 0 0
907 0 0 0
908 0 0 0
1625 0 0 0
1809 0 0 0
1810 0 0 0
221 0 0 0
1754 0 0 0
58 0 0 0
60 0 0 0
61 0 0 0
62 0 0 0
217 0 0 0
64 0 0 0
93 0 0 0
187 0 0 0
622 0 0 0
623 0 0 0
667 0 0 0
670 0 0 0
671 0 0 0
672 0 0 0
673 0 0 0
676 0 0 0
677 0 0 0
678 0 0 0
679 0 0 0
680 0 0 0
681 0 0 0
682 0 0 0
683 0 0 0
684 0 0 0
1601 0 0 0
1761 0 0 0
1762 0 0 0
31 0 0 0
186 0 0 0
188 0 0 0
189 0 0 0
190 0 0 0
1753 0 0 0
192 0 0 0
1794 0 0 0
922 0 0 0
923 0 0 0
959 0 0 0
960 0 0 0
961 0 0 0
962 0 0 0
963 0 0 0
964 0 0 0
965 0 0 0
966 0 0 0
967 0 0 0
968 0 0 0
969 0 0 0
970 0 0 0
971 0 0 0
972 0 0 0
1583 0 0 0
1597 0 0 0
1617 0 0 0
1793 0 0 0
1725 0 0 0
1726 0 0 0
153 0 0 0
1814 0 0 0
66 0 0 0
68 0 0 0
70 0 0 0
71 0 0 0
72 0 0 0
193 0 0 0
101 0 0 0
233 0 0 0
685 0 0 0
688 0 0 0
689 0 0 0
690 0 0 0
691 0 0 0
694 0 0 0
695 0 0 0
696 0 0 0
697 0 0 0
698 0 0 0
699 0 0 0
700 0 0 0
701 0 0 0
704 0 0 0
705 0 0 0
706 0 0 0
1544 0 0 0
69 0 0 0
194 0 0 0
195 0 0 0
196 0 0 0
198 0 0 0
200 0 0 0
99 0 0 0
229 0 0 0
323 0 0 0
1716 0 0 0
973 0 0 0
974 0 0 0
975 0 0 0
976 0 0 0
977 0 0 0
978 0 0 0
979 0 0 0
980 0 0 0
981 0 0 0
982 0 0 0
983 0 0 0
984 0 0 0
985 0 0 0
988 0 0 0
989 0 0 0
990 0 0 0
1552 0 0 0
1578 0 0 0
1663 0 0 0
1664 0 0 0
1697 0 0 0
1698 0 0 0
1715 0 0 0
98 0 0 0
100 0 0 0
102 0 0 0
97 0 0 0
104 0 0 0
353 0 0 0
527 0 0 0
528 0 0 0
539 0 0 0
765 0 0 0
768 0 0 0
769 0 0 0
770 0 0 0
771 0 0 0
774 0 0 0
775 0 0 0
776 0 0 0
777 0 0 0
778 0 0 0
779 0 0 0
782 0 0 0
783 0 0 0
1579 0 0 0
1603 0 0 0
1616 0 0 0
1647 0 0 0
1717 0 0 0
1718 0 0 0
1765 0 0 0
1766 0 0 0
1791 0 0 0
1792 0 0 0
226 0 0 0
227 0 0 0
228 0 0 0
230 0 0 0
232 0 0 0
199 0 0 0
843 0 0 0
844 0 0 0
855 0 0 0
1037 0 0 0
1038 0 0 0
1039 0 0 0
1040 0 0 0
1041 0 0 0
1042 0 0 0
1043 0 0 0
1044 0 0 0
1045 0 0 0
1046 0 0 0
1047 0 0 0
1050 0 0 0
1051 0 0 0
1564 0 0 0
1569 0 0 0
1627 0 0 0
1687 0 0 0
1688 0 0 0
67 0 0 0
207 0 0 0
103 0 0 0
74 0 0 0
75 0 0 0
76 0 0 0
1691 0 0 0
78 0 0 0
80 0 0 0
9 0 0 0
707 0 0 0
710 0 0 0
711 0 0 0
712 0 0 0
713 0 0 0
716 0 0 0
717 0 0 0
718 0 0 0
719 0 0 0
720 0 0 0
721 0 0 0
722 0 0 0
723 0 0 0
724 0 0 0
725 0 0 0
726 0 0 0
1648 0 0 0
202 0 0 0
203 0 0 0
204 0 0 0
205 0 0 0
206 0 0 0
331 0 0 0
208 0 0 0
1585 0 0 0
237 0 0 0
991 0 0 0
992 0 0 0
993 0 0 0
994 0 0 0
995 0 0 0
996 0 0 0
997 0 0 0
998 0 0 0
999 0 0 0
1000 0 0 0
1001 0 0 0
1002 0 0 0
1003 0 0 0
1004 0 0 0
1005 0 0 0
1006 0 0 0
1566 0 0 0
1591 0 0 0
1692 0 0 0
1742 0 0 0
1741 0 0 0
106 0 0 0
108 0 0 0
109 0 0 0
110 0 0 0
112 0 0 0
552 0 0 0
553 0 0 0
562 0 0 0
784 0 0 0
787 0 0 0
788 0 0 0
789 0 0 0
790 0 0 0
793 0 0 0
794 0 0 0
795 0 0 0
796 0 0 0
797 0 0 0
798 0 0 0
799 0 0 0
800 0 0 0
1540 0 0 0
1615 0 0 0
1639 0 0 0
1640 0 0 0
1789 0 0 0
141 0 0 0
234 0 0 0
235 0 0 0
236 0 0 0
238 0 0 0
239 0 0 0
240 0 0 0
1730 0 0 0
1729 0 0 0
864 0 0 0
865 0 0 0
874 0 0 0
1052 0 0 0
1053 0 0 0
1054 0 0 0
1055 0 0 0
1056 0 0 0
1057 0 0 0
1058 0 0 0
1059 0 0 0
1060 0 0 0
1061 0 0 0
1062 0 0 0
1063 0 0 0
1064 0 0 0
79 0 0 0
111 0 0 0
1790 0 0 0
77 0 0 0
87 0 0 0
113 0 0 0
1817 0 0 0
82 0 0 0
1690 0 0 0
84 0 0 0
83 0 0 0
86 0 0 0
81 0 0 0
88 0 0 0
95 0 0 0
117 0 0 0
727 0 0 0
730 0 0 0
731 0 0 0
732 0 0 0
733 0 0 0
736 0 0 0
737 0 0 0
738 0 0 0
739 0 0 0
740 0 0 0
741 0 0 0
742 0 0 0
743 0 0 0
744 0 0 0
745 0 0 0
746 0 0 0
1739 0 0 0
255 0 0 0
210 0 0 0
211 0 0 0
212 0 0 0
213 0 0 0
214 0 0 0
216 0 0 0
209 0 0 0
245 0 0 0
1077 0 0 0
1007 0 0 0
1008 0 0 0
1009 0 0 0
1010 0 0 0
1011 0 0 0
1012 0 0 0
1013 0 0 0
1014 0 0 0
1015 0 0 0
1016 0 0 0
1017 0 0 0
1018 0 0 0
1019 0 0 0
1020 0 0 0
1021 0 0 0
1022 0 0 0
1550 0 0 0
1560 0 0 0
1619 0 0 0
1659 0 0 0
1660 0 0 0
1679 0 0 0
1680 0 0 0
1797 0 0 0
114 0 0 0
1076 0 0 0
116 0 0 0
118 0 0 0
119 0 0 0
120 0 0 0
215 0 0 0
243 0 0 0
249 0 0 0
575 0 0 0
576 0 0 0
585 0 0 0
801 0 0 0
804 0 0 0
805 0 0 0
806 0 0 0
807 0 0 0
810 0 0 0
811 0 0 0
812 0 0 0
813 0 0 0
814 0 0 0
815 0 0 0
816 0 0 0
817 0 0 0
1590 0 0 0
1626 0 0 0
1740 0 0 0
1811 0 0 0
1812 0 0 0
281 0 0 0
241 0 0 0
242 0 0 0
244 0 0 0
246 0 0 0
247 0 0 0
248 0 0 0
883 0 0 0
884 0 0 0
893 0 0 0
1065 0 0 0
1066 0 0 0
1067 0 0 0
1068 0 0 0
1069 0 0 0
1070 0 0 0
1071 0 0 0
1072 0 0 0
1073 0 0 0
1074 0 0 0
1075 0 0 0
371 0 0 0
90 0 0 0
91 0 0 0
92 0 0 0
94 0 0 0
96 0 0 0
1689 0 0 0
125 0 0 0
702 0 0 0
703 0 0 0
747 0 0 0
750 0 0 0
751 0 0 0
752 0 0 0
753 0 0 0
756 0 0 0
757 0 0 0
758 0 0 0
759 0 0 0
760 0 0 0
761 0 0 0
762 0 0 0
763 0 0 0
764 0 0 0
1549 0 0 0
1750 0 0 0
1565 0 0 0
1657 0 0 0
1658 0 0 0
1711 0 0 0
1082 0 0 0
1777 0 0 0
1088 0 0 0
1087 0 0 0
1081 0 0 0
218 0 0 0
219 0 0 0
220 0 0 0
1604 0 0 0
222 0 0 0
224 0 0 0
347 0 0 0
986 0 0 0
987 0 0 0
1023 0 0 0
1024 0 0 0
1025 0 0 0
1026 0 0 0
1027 0 0 0
1028 0 0 0
1029 0 0 0
1030 0 0 0
1031 0 0 0
1032 0 0 0
1033 0 0 0
1034 0 0 0
1035 0 0 0
1036 0 0 0
1595 0 0 0
1086 0 0 0
1749 0 0 0
1085 0 0 0
122 0 0 0
1084 0 0 0
124 0 0 0
126 0 0 0
128 0 0 0
225 0 0 0
514 0 0 0
597 0 0 0
598 0 0 0
780 0 0 0
781 0 0 0
818 0 0 0
821 0 0 0
822 0 0 0
823 0 0 0
824 0 0 0
827 0 0 0
828 0 0 0
829 0 0 0
830 0 0 0
831 0 0 0
832 0 0 0
1598 0 0 0
1618 0 0 0
1745 0 0 0
1755 0 0 0
1756 0 0 0
1795 0 0 0
1796 0 0 0
231 0 0 0
250 0 0 0
251 0 0 0
252 0 0 0
253 0 0 0
254 0 0 0
1080 0 0 0
256 0 0 0
1083 0 0 0
834 0 0 0
901 0 0 0
902 0 0 0
1048 0 0 0
1049 0 0 0
1078 0 0 0
1079 0 0 0
1785 0 0 0
223 0 0 0
127 0 0 0
377 0 0 0
1798 0 0 0
258 0 0 0
260 0 0 0
73 0 0 0
262 0 0 0
449 0 0 0
264 0 0 0
387 0 0 0
1089 0 0 0
1091 0 0 0
1092 0 0 0
1093 0 0 0
1094 0 0 0
1095 0 0 0
1096 0 0 0
1097 0 0 0
1098 0 0 0
1101 0 0 0
1102 0 0 0
1103 0 0 0
1104 0 0 0
1107 0 0 0
1108 0 0 0
1109 0 0 0
1806 0 0 0
386 0 0 0
388 0 0 0
390 0 0 0
65 0 0 0
392 0 0 0
389 0 0 0
3 0 0 0
521 0 0 0
522 0 0 0
540 0 0 0
606 0 0 0
1345 0 0 0
1347 0 0 0
1348 0 0 0
1349 0 0 0
1350 0 0 0
1351 0 0 0
1352 0 0 0
1353 0 0 0
1354 0 0 0
1357 0 0 0
1358 0 0 0
1361 0 0 0
1561 0 0 0
1599 0 0 0
1655 0 0 0
1656 0 0 0
1681 0 0 0
1682 0 0 0
1757 0 0 0
1758 0 0 0
290 0 0 0
1744 0 0 0
292 0 0 0
293 0 0 0
294 0 0 0
296 0 0 0
325 0 0 0
1165 0 0 0
1166 0 0 0
1167 0 0 0
1168 0 0 0
1169 0 0 0
1170 0 0 0
1171 0 0 0
1172 0 0 0
1173 0 0 0
1174 0 0 0
1175 0 0 0
1176 0 0 0
1177 0 0 0
1180 0 0 0
1181 0 0 0
1182 0 0 0
1623 0 0 0
1638 0 0 0
1643 0 0 0
1705 0 0 0
1805 0 0 0
1743 0 0 0
418 0 0 0
419 0 0 0
420 0 0 0
421 0 0 0
422 0 0 0
424 0 0 0
431 0 0 0
259 0 0 0
612 0 0 0
613 0 0 0
629 0 0 0
686 0 0 0
1405 0 0 0
1406 0 0 0
1407 0 0 0
1408 0 0 0
1409 0 0 0
1410 0 0 0
1411 0 0 0
1412 0 0 0
1413 0 0 0
1414 0 0 0
1415 0 0 0
1418 0 0 0
1542 0 0 0
1592 0 0 0
1644 0 0 0
271 0 0 0
297 0 0 0
423 0 0 0
295 0 0 0
1573 0 0 0
33 0 0 0
35 0 0 0
291 0 0 0
329 0 0 0
266 0 0 0
1770 0 0 0
268 0 0 0
269 0 0 0
270 0 0 0
399 0 0 0
272 0 0 0
301 0 0 0
393 0 0 0
395 0 0 0
425 0 0 0
11 0 0 0
1110 0 0 0
1112 0 0 0
1113 0 0 0
1114 0 0 0
1115 0 0 0
1116 0 0 0
1117 0 0 0
1118 0 0 0
1119 0 0 0
1122 0 0 0
1123 0 0 0
1124 0 0 0
1125 0 0 0
1126 0 0 0
1127 0 0 0
1128 0 0 0
1588 0 0 0
1611 0 0 0
1612 0 0 0
1735 0 0 0
1736 0 0 0
1781 0 0 0
1782 0 0 0
1783 0 0 0
1784 0 0 0
1769 0 0 0
394 0 0 0
396 0 0 0
398 0 0 0
400 0 0 0
1719 0 0 0
429 0 0 0
546 0 0 0
547 0 0 0
563 0 0 0
628 0 0 0
1362 0 0 0
1364 0 0 0
1365 0 0 0
1366 0 0 0
1367 0 0 0
1368 0 0 0
1369 0 0 0
1370 0 0 0
1371 0 0 0
1374 0 0 0
1375 0 0 0
1376 0 0 0
298 0 0 0
299 0 0 0
300 0 0 0
302 0 0 0
303 0 0 0
304 0 0 0
333 0 0 0
427 0 0 0
1183 0 0 0
1184 0 0 0
1185 0 0 0
1186 0 0 0
1187 0 0 0
1188 0 0 0
1189 0 0 0
1190 0 0 0
1191 0 0 0
1192 0 0 0
1193 0 0 0
1194 0 0 0
1195 0 0 0
1196 0 0 0
1197 0 0 0
1198 0 0 0
41 0 0 0
1720 0 0 0
426 0 0 0
428 0 0 0
430 0 0 0
432 0 0 0
634 0 0 0
635 0 0 0
649 0 0 0
708 0 0 0
1419 0 0 0
1420 0 0 0
1421 0 0 0
1422 0 0 0
1423 0 0 0
1424 0 0 0
1425 0 0 0
1426 0 0 0
1427 0 0 0
1428 0 0 0
1429 0 0 0
1430 0 0 0
1543 0 0 0
1580 0 0 0
1605 0 0 0
1645 0 0 0
1646 0 0 0
274 0 0 0
276 0 0 0
278 0 0 0
279 0 0 0
280 0 0 0
309 0 0 0
403 0 0 0
1129 0 0 0
1131 0 0 0
1132 0 0 0
1133 0 0 0
1134 0 0 0
1135 0 0 0
1136 0 0 0
1137 0 0 0
1138 0 0 0
1141 0 0 0
1142 0 0 0
1143 0 0 0
1144 0 0 0
1145 0 0 0
1146 0 0 0
1147 0 0 0
1581 0 0 0
17 0 0 0
407 0 0 0
402 0 0 0
404 0 0 0
307 0 0 0
406 0 0 0
408 0 0 0
277 0 0 0
1685 0 0 0
569 0 0 0
570 0 0 0
586 0 0 0
648 0 0 0
1377 0 0 0
1379 0 0 0
1380 0 0 0
1381 0 0 0
1382 0 0 0
1383 0 0 0
1384 0 0 0
1385 0 0 0
1386 0 0 0
1389 0 0 0
1390 0 0 0
1391 0 0 0
1559 0 0 0
1677 0 0 0
1678 0 0 0
306 0 0 0
308 0 0 0
310 0 0 0
311 0 0 0
312 0 0 0
1563 0 0 0
433 0 0 0
435 0 0 0
1199 0 0 0
1200 0 0 0
1201 0 0 0
1202 0 0 0
1203 0 0 0
1204 0 0 0
1205 0 0 0
1206 0 0 0
1207 0 0 0
1208 0 0 0
1209 0 0 0
1210 0 0 0
1211 0 0 0
1212 0 0 0
1213 0 0 0
1214 0 0 0
1558 0 0 0
1586 0 0 0
1675 0 0 0
1676 0 0 0
1731 0 0 0
1732 0 0 0
434 0 0 0
436 0 0 0
437 0 0 0
438 0 0 0
439 0 0 0
440 0 0 0
447 0 0 0
1686 0 0 0
654 0 0 0
655 0 0 0
669 0 0 0
728 0 0 0
1431 0 0 0
1432 0 0 0
1433 0 0 0
1434 0 0 0
1435 0 0 0
1436 0 0 0
1437 0 0 0
1438 0 0 0
1439 0 0 0
1440 0 0 0
1441 0 0 0
1442 0 0 0
405 0 0 0
51 0 0 0
49 0 0 0
319 0 0 0
282 0 0 0
284 0 0 0
286 0 0 0
285 0 0 0
288 0 0 0
1634 0 0 0
411 0 0 0
1105 0 0 0
1106 0 0 0
1148 0 0 0
1150 0 0 0
1151 0 0 0
1152 0 0 0
1153 0 0 0
1154 0 0 0
1155 0 0 0
1156 0 0 0
1159 0 0 0
1160 0 0 0
1161 0 0 0
1162 0 0 0
1163 0 0 0
1164 0 0 0
1630 0 0 0
1819 0 0 0
1820 0 0 0
477 0 0 0
27 0 0 0
410 0 0 0
412 0 0 0
414 0 0 0
416 0 0 0
515 0 0 0
592 0 0 0
593 0 0 0
668 0 0 0
1359 0 0 0
1360 0 0 0
1392 0 0 0
1394 0 0 0
1395 0 0 0
1396 0 0 0
1397 0 0 0
1398 0 0 0
1399 0 0 0
1400 0 0 0
1403 0 0 0
1404 0 0 0
349 0 0 0
314 0 0 0
1822 0 0 0
316 0 0 0
317 0 0 0
318 0 0 0
415 0 0 0
320 0 0 0
443 0 0 0
1178 0 0 0
1179 0 0 0
1215 0 0 0
1216 0 0 0
1217 0 0 0
1218 0 0 0
1219 0 0 0
1220 0 0 0
1221 0 0 0
1222 0 0 0
1223 0 0 0
1224 0 0 0
1225 0 0 0
1226 0 0 0
1227 0 0 0
1228 0 0 0
1537 0 0 0
1821 0 0 0
1633 0 0 0
1706 0 0 0
1721 0 0 0
1802 0 0 0
57 0 0 0
59 0 0 0
25 0 0 0
441 0 0 0
442 0 0 0
444 0 0 0
445 0 0 0
446 0 0 0
448 0 0 0
607 0 0 0
674 0 0 0
675 0 0 0
748 0 0 0
1416 0 0 0
1417 0 0 0
1443 0 0 0
1444 0 0 0
1445 0 0 0
1446 0 0 0
1447 0 0 0
1448 0 0 0
1449 0 0 0
1450 0 0 0
1451 0 0 0
1452 0 0 0
1621 0 0 0
1631 0 0 0
391 0 0 0
417 0 0 0
409 0 0 0
263 0 0 0
1722 0 0 0
287 0 0 0
322 0 0 0
324 0 0 0
326 0 0 0
328 0 0 0
453 0 0 0
357 0 0 0
451 0 0 0
487 0 0 0
1229 0 0 0
1230 0 0 0
1231 0 0 0
1232 0 0 0
1233 0 0 0
1234 0 0 0
1235 0 0 0
1236 0 0 0
1237 0 0 0
1238 0 0 0
1239 0 0 0
1240 0 0 0
1241 0 0 0
1244 0 0 0
1245 0 0 0
1246 0 0 0
1582 0 0 0
1589 0 0 0
1693 0 0 0
1723 0 0 0
1724 0 0 0
1737 0 0 0
1738 0 0 0
1672 0 0 0
450 0 0 0
452 0 0 0
454 0 0 0
456 0 0 0
261 0 0 0
485 0 0 0
692 0 0 0
693 0 0 0
709 0 0 0
766 0 0 0
1453 0 0 0
1454 0 0 0
1455 0 0 0
1456 0 0 0
1457 0 0 0
1458 0 0 0
1459 0 0 0
1460 0 0 0
1461 0 0 0
1462 0 0 0
1463 0 0 0
1466 0 0 0
1555 0 0 0
1562 0 0 0
1629 0 0 0
1669 0 0 0
1670 0 0 0
1683 0 0 0
1684 0 0 0
1818 0 0 0
1671 0 0 0
354 0 0 0
356 0 0 0
358 0 0 0
360 0 0 0
1712 0 0 0
1099 0 0 0
1100 0 0 0
1111 0 0 0
1293 0 0 0
1294 0 0 0
1295 0 0 0
1296 0 0 0
1297 0 0 0
1298 0 0 0
1299 0 0 0
1300 0 0 0
1301 0 0 0
1302 0 0 0
1303 0 0 0
1306 0 0 0
1307 0 0 0
1768 0 0 0
1556 0 0 0
1767 0 0 0
482 0 0 0
483 0 0 0
484 0 0 0
486 0 0 0
488 0 0 0
1813 0 0 0
516 0 0 0
772 0 0 0
773 0 0 0
786 0 0 0
1355 0 0 0
1356 0 0 0
1363 0 0 0
1501 0 0 0
1502 0 0 0
1503 0 0 0
1504 0 0 0
1505 0 0 0
1506 0 0 0
1507 0 0 0
1508 0 0 0
1509 0 0 0
385 0 0 0
355 0 0 0
361 0 0 0
359 0 0 0
330 0 0 0
1650 0 0 0
332 0 0 0
334 0 0 0
336 0 0 0
1649 0 0 0
365 0 0 0
105 0 0 0
459 0 0 0
1520 0 0 0
1247 0 0 0
1248 0 0 0
1249 0 0 0
1250 0 0 0
1251 0 0 0
1252 0 0 0
1253 0 0 0
1254 0 0 0
1255 0 0 0
1256 0 0 0
1257 0 0 0
1258 0 0 0
1259 0 0 0
1260 0 0 0
1261 0 0 0
1262 0 0 0
1546 0 0 0
1568 0 0 0
1587 0 0 0
1610 0 0 0
1651 0 0 0
1652 0 0 0
1695 0 0 0
1696 0 0 0
1733 0 0 0
1779 0 0 0
363 0 0 0
458 0 0 0
460 0 0 0
1519 0 0 0
462 0 0 0
464 0 0 0
493 0 0 0
714 0 0 0
715 0 0 0
729 0 0 0
785 0 0 0
1467 0 0 0
1468 0 0 0
1469 0 0 0
1470 0 0 0
1471 0 0 0
1472 0 0 0
1473 0 0 0
1474 0 0 0
1475 0 0 0
1476 0 0 0
1477 0 0 0
1478 0 0 0
1780 0 0 0
1545 0 0 0
362 0 0 0
364 0 0 0
366 0 0 0
367 0 0 0
368 0 0 0
1518 0 0 0
1120 0 0 0
1121 0 0 0
1130 0 0 0
1308 0 0 0
1309 0 0 0
1310 0 0 0
1311 0 0 0
1312 0 0 0
1313 0 0 0
1314 0 0 0
1315 0 0 0
1316 0 0 0
1317 0 0 0
1318 0 0 0
1319 0 0 0
1320 0 0 0
1571 0 0 0
1624 0 0 0
1701 0 0 0
1702 0 0 0
1807 0 0 0
1808 0 0 0
107 0 0 0
397 0 0 0
1517 0 0 0
490 0 0 0
491 0 0 0
492 0 0 0
494 0 0 0
495 0 0 0
496 0 0 0
1516 0 0 0
541 0 0 0
791 0 0 0
792 0 0 0
803 0 0 0
1372 0 0 0
1373 0 0 0
1378 0 0 0
1512 0 0 0
1513 0 0 0
1514 0 0 0
1515 0 0 0
335 0 0 0
463 0 0 0
461 0 0 0
489 0 0 0
1734 0 0 0
457 0 0 0
338 0 0 0
340 0 0 0
342 0 0 0
343 0 0 0
344 0 0 0
373 0 0 0
273 0 0 0
1263 0 0 0
1264 0 0 0
1265 0 0 0
1266 0 0 0
1267 0 0 0
1268 0 0 0
1269 0 0 0
1270 0 0 0
1271 0 0 0
1272 0 0 0
1273 0 0 0
1274 0 0 0
1275 0 0 0
1276 0 0 0
1277 0 0 0
1278 0 0 0
1614 0 0 0
497 0 0 0
465 0 0 0
466 0 0 0
467 0 0 0
468 0 0 0
470 0 0 0
471 0 0 0
472 0 0 0
734 0 0 0
735 0 0 0
749 0 0 0
802 0 0 0
1479 0 0 0
1480 0 0 0
1481 0 0 0
1482 0 0 0
1483 0 0 0
1484 0 0 0
1485 0 0 0
1486 0 0 0
1487 0 0 0
1488 0 0 0
1489 0 0 0
1490 0 0 0
1551 0 0 0
1577 0 0 0
1662 0 0 0
1713 0 0 0
1714 0 0 0
115 0 0 0
369 0 0 0
370 0 0 0
1661 0 0 0
372 0 0 0
374 0 0 0
376 0 0 0
1529 0 0 0
1139 0 0 0
1140 0 0 0
1149 0 0 0
1321 0 0 0
1322 0 0 0
1323 0 0 0
1324 0 0 0
1325 0 0 0
1326 0 0 0
1327 0 0 0
1328 0 0 0
1329 0 0 0
1330 0 0 0
1331 0 0 0
1332 0 0 0
1333 0 0 0
1594 0 0 0
1608 0 0 0
1622 0 0 0
1747 0 0 0
1748 0 0 0
1776 0 0 0
1803 0 0 0
121 0 0 0
498 0 0 0
499 0 0 0
500 0 0 0
501 0 0 0
502 0 0 0
504 0 0 0
469 0 0 0
511 0 0 0
564 0 0 0
808 0 0 0
809 0 0 0
820 0 0 0
1387 0 0 0
1388 0 0 0
1393 0 0 0
1521 0 0 0
1522 0 0 0
1523 0 0 0
1524 0 0 0
1525 0 0 0
1526 0 0 0
1527 0 0 0
1528 0 0 0
503 0 0 0
339 0 0 0
401 0 0 0
341 0 0 0
89 0 0 0
375 0 0 0
1787 0 0 0
479 0 0 0
383 0 0 0
327 0 0 0
346 0 0 0
348 0 0 0
257 0 0 0
350 0 0 0
351 0 0 0
352 0 0 0
381 0 0 0
1801 0 0 0
475 0 0 0
1242 0 0 0
1243 0 0 0
1279 0 0 0
1280 0 0 0
1281 0 0 0
1282 0 0 0
1283 0 0 0
1284 0 0 0
1285 0 0 0
1286 0 0 0
1287 0 0 0
1288 0 0 0
1289 0 0 0
1290 0 0 0
1291 0 0 0
1292 0 0 0
1547 0 0 0
1567 0 0 0
1653 0 0 0
1694 0 0 0
1654 0 0 0
1788 0 0 0
455 0 0 0
474 0 0 0
476 0 0 0
123 0 0 0
478 0 0 0
1786 0 0 0
480 0 0 0
687 0 0 0
754 0 0 0
755 0 0 0
819 0 0 0
1464 0 0 0
1465 0 0 0
1491 0 0 0
1492 0 0 0
1493 0 0 0
1494 0 0 0
1495 0 0 0
1496 0 0 0
1497 0 0 0
1498 0 0 0
1499 0 0 0
1500 0 0 0
1554 0 0 0
1609 0 0 0
1613 0 0 0
1667 0 0 0
1668 0 0 0
1746 0 0 0
1778 0 0 0
1642 0 0 0
505 0 0 0
321 0 0 0
378 0 0 0
379 0 0 0
380 0 0 0
382 0 0 0
1541 0 0 0
384 0 0 0
1090 0 0 0
1157 0 0 0
1158 0 0 0
1304 0 0 0
1305 0 0 0
1334 0 0 0
1335 0 0 0
1336 0 0 0
1337 0 0 0
1338 0 0 0
1339 0 0 0
1340 0 0 0
1341 0 0 0
1342 0 0 0
1343 0 0 0
1344 0 0 0
1596 0 0 0
1641 0 0 0
1576 0 0 0
1751 0 0 0
1752 0 0 0
1775 0 0 0
413 0 0 0
1593 0 0 0
506 0 0 0
507 0 0 0
508 0 0 0
509 0 0 0
510 0 0 0
512 0 0 0
587 0 0 0
767 0 0 0
825 0 0 0
826 0 0 0
1346 0 0 0
1401 0 0 0
1402 0 0 0
1510 0 0 0
1511 0 0 0
1530 0 0 0
1531 0 0 0
1532 0 0 0
1533 0 0 0
1534 0 0 0
1535 0 0 0
1536 0 0 0
481 0 0 0
473 0 0 0
1804 0 0 0
