LAMMPS data file via write_data, version 29 Aug 2024, timestep = 34, units = real

216 atoms
3 atom types

0 17.16 xlo xhi
0 17.16 ylo yhi
0 17.16 zlo zhi

Masses

1 28.0855
2 15.9994
3 1.008

Atoms # charge

2 1 0.8810606818982091 2.1095481617681457 2.1727933438906484 2.0933533901931085 0 0 0
3 1 0.8700461310869686 0.014288180826981401 4.295347867453312 4.239586890613627 0 0 0
5 1 0.8192722361154341 4.231600011168762 0.0783150709718821 4.130048160376235 0 0 0
35 1 0.8437859120276998 8.570324483670598 4.262890071136944 4.263502074921306 0 0 0
8 1 0.8895725826766576 6.4696543727478435 6.393480113036235 2.1653699811486526 0 0 0
17 1 0.8307340184254883 0.05009352026364508 8.532190135954744 0.011995103502054141 0 0 0
21 1 0.9004809971776526 4.267552155645592 8.579022471370525 4.3087782362330405 0 0 0
65 2 -0.4555888397269041 1.2278670734649726 1.1240100616403579 1.1244428474143013 0 0 0
69 2 -0.4610815617212826 1.0085646921754015 3.292111130656781 3.3430283869511848 0 0 0
70 2 -0.4649935859147457 3.32144853797456 1.1340969224394732 3.2309157540902573 0 0 0
71 2 -0.4679477008603023 3.233264229336882 3.339291136705121 0.963134963595804 0 0 0
72 2 -0.4639849556664092 1.057017207768286 5.449671823772899 5.468056036640863 0 0 0
76 2 -0.4692913719683728 3.358959929230631 7.559561210191147 5.2794103795257445 0 0 0
78 2 -0.4661738405725752 5.378323596638893 1.0691685792007204 5.3289635534442885 0 0 0
82 2 -0.4637154182615536 7.40565038648815 3.081159896441068 5.366656234535417 0 0 0
84 2 -0.4691164589383611 5.349405071065232 5.316021883731791 0.9709587288288024 0 0 0
87 2 -0.4365636975036457 5.339813309128712 7.577667038938782 3.2143367513367833 0 0 0
88 2 -0.4815708354922979 7.4946349940016175 5.448747340879556 3.096857105742645 0 0 0
89 2 -0.4646265348587795 7.589531293580562 7.383011852425146 1.1196177313716589 0 0 0
201 3 0.3825395006471766 8.219540647477265 0.07057710263627237 3.0209126847429664 0 0 0
4 1 0.9218600012479103 2.1033675297177585 6.451092957224659 6.397247903845369 0 0 0
6 1 0.8614574932386824 6.461727760771893 2.1996904153913706 6.426902170287838 0 0 0
10 1 0.8562805219019245 2.1922588275731845 2.1610786498502472 10.721827041545604 0 0 0
15 1 0.9267436444472873 4.321771406862233 4.274698906966023 8.607126546366494 0 0 0
16 1 0.835054339429062 6.41989120652782 6.448218072003043 10.722094737634889 0 0 0
75 2 -0.4378667628358309 3.1474715486027263 5.285620111542361 7.46223549522105 0 0 0
77 2 -0.469354941249376 1.121537345132217 7.361002851213231 7.453696452830618 0 0 0
81 2 -0.4639313330741258 5.380316270478949 3.3757110130885337 7.634495191249134 0 0 0
83 2 -0.4650547158915358 7.5694813856918275 0.9806347594537166 7.549097990798841 0 0 0
90 2 -0.4513862275362363 1.1332688502358488 1.0124912615338393 9.571977492533964 0 0 0
96 2 -0.4746724087087116 3.0889174945110045 3.1718043093313146 9.739691890326622 0 0 0
107 2 -0.4529341122476148 5.228139344932008 5.350673975575987 9.577761954784737 0 0 0
110 2 -0.4576120317716753 7.507409554251579 7.559267752497843 9.480104001489458 0 0 0
57 1 0.9472724323733331 8.529566783723611 8.561968737394059 8.567815622265517 0 0 0
41 1 0.9124091129494897 8.567867736170728 0.031556234966448216 8.535751424696715 0 1 0
11 1 0.9312658850454628 0.025877737147833802 4.279979821190642 12.897970527631507 0 0 0
12 1 0.890739330840206 2.1625696302683144 6.419197732323543 15.017812641701745 0 0 0
13 1 0.8666373606390666 4.345531375461506 0.10180910182534049 12.82128578696947 0 0 0
14 1 0.9325130843883053 6.438206385766574 2.170463430955937 14.98348731834105 0 0 0
109 2 -0.431462524582258 7.456774387095035 5.334781798530858 11.718929842249425 0 0 0
43 1 0.9154608327990637 8.576243926695902 4.278827915056847 12.881294308828826 0 0 0
85 2 -0.4589156255544541 3.222587298221725 5.498854393487953 16.029703467398367 0 0 0
86 2 -0.4862429348969733 5.282774372186434 3.359472845968026 16.095709539154658 0 0 0
94 2 -0.4527346875078077 1.0490129480255876 3.2367201748813943 11.94194276810318 0 0 0
95 2 -0.4646975766503323 3.383884833461007 0.9854819133415861 11.785863213301319 0 0 0
97 2 -0.4600296935104588 0.9926840210828057 5.206095359256116 13.929371374812092 0 0 0
100 2 -0.5025463677511757 1.024679802275058 7.652893535965904 16.105463732109065 0 0 0
101 2 -0.4933429087038428 3.0960483103085306 7.4716696708985095 14.052262266750859 0 0 0
102 2 -0.4623681211156481 5.42804155702631 1.2104478960492757 14.054251142171081 0 0 0
105 2 -0.4857831095124165 7.5800674281030345 1.0629362508336022 16.184111486554976 0 0 0
106 2 -0.4794112197647181 7.42282120390376 3.0567459496173366 13.959558578403756 0 0 0
108 2 -0.4546057438441177 5.357934790482623 7.607903931347341 11.944927968558835 0 0 0
29 1 0.8701969025408562 4.3039628265726355 8.546797202043336 12.844971594220493 0 0 0
7 1 0.9638163281245709 4.288593591431023 4.268440915888568 17.13958275037112 0 0 -1
1 1 0.861271991729919 0.014623369552538179 0.003260823191602924 17.159256352502066 1 1 -1
18 1 0.9225281695912941 2.1491471769237966 10.688146177167557 2.1482554657660153 0 0 0
212 3 0.3879714222554048 4.315347585875063 15.200658723515367 5.6837121128031205 0 0 0
23 1 0.9472570218270195 4.325523046356593 12.824436791398087 0.034621998682219324 0 0 0
24 1 0.8912042745682586 6.394882431624592 14.994933493235276 2.1288339147104103 0 0 0
79 2 -0.4909246505500309 3.0079826123916655 16.151677105320246 5.1956944173036534 0 0 0
80 2 -0.4992235474420691 5.390868197751784 15.9652686448405 3.096727344187443 0 0 0
111 2 -0.4867414081745826 1.2401958175054988 9.711249011384162 1.0956422827295629 0 0 0
114 2 -0.4669383482052217 0.9982380584716576 11.914587225780023 3.2468697549150938 0 0 0
115 2 -0.4661376808232185 3.1157844185229018 9.756371514309949 3.177483439674679 0 0 0
116 2 -0.4602740890136953 3.2711068258739786 11.891584695444621 1.0294350853800602 0 0 0
117 2 -0.4552803688000659 1.0268017082057037 14.059406218243284 5.3984030117145485 0 0 0
121 2 -0.4570376164131161 5.393502506025828 9.784936188673349 5.435259359697106 0 0 0
123 2 -0.444061297343622 7.391293363917357 11.76945939085574 5.409658619990941 0 0 0
125 2 -0.4659612464432653 5.291835598485914 13.762831123247896 1.0526839887425155 0 0 0
128 2 -0.4685854422386141 7.54555278543479 16.0720929723077 0.9565630047938252 0 0 0
129 2 -0.4488899417834822 7.349357392354908 13.975602863377503 3.176371633285859 0 0 0
193 2 -0.5813324150372392 8.551102336791311 16.798683335263586 3.8029310425219864 0 0 0
202 3 0.3844202580052551 7.7667314396561276 16.641211216908445 4.313541037323117 0 0 0
20 1 0.8392370291339298 1.9871854887527716 14.97700139461043 6.390775432069955 0 0 0
22 1 0.9217327330873744 6.43601025800377 10.70208155872659 6.413064713134531 0 0 0
26 1 0.9229184697092103 2.1359472434910587 10.709854949222013 10.703496588679752 0 0 0
31 1 0.9262932545394665 4.345153522791029 12.840607137282829 8.499853888264258 0 0 0
32 1 0.7113865925939887 6.468559984942374 14.97931418303231 10.646337464141553 0 0 0
211 3 0.3825779219122559 4.6763780129259604 16.34003251123618 6.655692565964318 0 0 0
91 2 -0.4692551906220614 0.9299028696984325 16.080521753765616 7.652204230908146 0 0 0
120 2 -0.4376422942468753 3.1001169949528102 13.798483213264793 7.445452278792264 0 0 0
122 2 -0.4621105335320568 5.244500266543201 11.79424138036042 7.55251635855664 0 0 0
124 2 -0.4658815312800958 7.625542472715582 9.602470394685053 7.591192914208154 0 0 0
130 2 -0.4516292968657618 1.1818045383985893 9.720460548673596 9.617121810048822 0 0 0
135 2 -0.4229592403013631 3.2019696688993355 11.816072100070626 9.709435673176936 0 0 0
142 2 -0.4328632035785508 5.518952055043177 13.963956112649214 9.356678210528464 0 0 0
143 2 -0.4304339024404532 7.484391188934113 16.263967091477113 9.591220129131205 0 0 0
198 2 -0.5655740718906433 5.013518657960546 15.474689192432868 6.384964917722511 0 0 0
28 1 0.8474157905275744 2.163358186344742 15.076182890497744 15.00571797240348 0 0 0
210 3 0.387971980542609 1.5106569161573677 10.472299929988285 15.45231776645016 0 0 0
30 1 0.9980716533500898 6.451648512187833 10.699923554519101 15.043439761652358 0 0 0
214 3 0.4096333354073327 6.136299834198157 13.657959291334905 12.38629073679254 0 0 0
66 2 -0.4434568739014747 0.9947227701675471 16.27046777217964 16.116806942863363 0 0 0
103 2 -0.4395513903874916 3.198694995676439 16.009674405707397 13.909785047783213 0 0 0
104 2 -0.4491048684389283 5.591950371391975 16.4005426365766 11.659244267781656 0 0 0
126 2 -0.4294540142787809 3.2086323720809236 13.924006838698016 16.17734725440214 0 0 0
127 2 -0.4756194436841875 5.452460007794876 11.714247715050833 15.974252121044334 0 0 0
133 2 -0.4637658750739697 1.0232699625056207 11.907314059570808 11.879494719943704 0 0 0
134 2 -0.4351275887036108 3.2274566499139277 9.656008075612792 11.603559400516117 0 0 0
136 2 -0.4341167899879034 1.031900635140193 14.021773663622005 13.910384184376666 0 0 0
139 2 -0.4363680993108905 5.39524726688222 9.734575459222588 13.93594745941309 0 0 0
140 2 -0.4735007110187479 7.379792881174157 9.657330529003454 15.999313360324729 0 0 0
141 2 -0.4678726496443699 7.48718249852037 11.769209266117462 13.916195270681126 0 0 0
144 2 -0.5081840412173734 7.634172791153016 13.961562190964502 11.840566562679419 0 0 0
197 2 -0.5868377378783646 2.212939005275658 10.168598706815974 14.890372875952197 0 0 0
199 2 -0.5371602590280511 5.180886158469742 13.848005233879114 11.982259690050075 0 0 0
209 3 0.405487742180957 2.1649929550472953 9.206357478940175 14.953127322031602 0 0 0
213 3 0.3364919220193923 5.1232400684097295 14.802945555212334 11.490501247286995 0 0 0
34 1 0.9029744759014515 10.752377192233855 2.1545194159551557 2.1277012776515583 0 0 0
161 2 -0.4534104371726125 13.877440669246495 7.511633091970108 3.29555944703027 0 0 0
40 1 0.9375915337852503 15.048105032467483 6.421465973340011 2.119256431021481 0 0 0
73 2 -0.4443344502571485 16.045058828436378 3.2338423776046876 5.393456043491385 0 0 0
74 2 -0.4674158681229511 16.100516891392036 5.496268083039703 3.066543091161231 0 0 0
112 2 -0.4591127370690668 15.983504839173383 7.381400697345898 1.099409485000907 0 0 0
145 2 -0.4902727059380853 9.667300130366087 1.2156208966956121 1.131241185929715 0 0 0
147 2 -0.4630539328597519 9.53833545616989 3.2649021402057463 3.2117406004429263 0 0 0
148 2 -0.4607219610304295 11.858845477186424 0.981918109924973 3.3328569171456057 0 0 0
149 2 -0.4861523645636412 11.643170877832462 3.2106595993469145 1.1621127486846006 0 0 0
150 2 -0.4442683685611585 9.639229724595456 5.397642084512855 5.437485410858304 0 0 0
152 2 -0.4687393538814628 11.770671509333562 7.4675921291636875 5.47077243364176 0 0 0
154 2 -0.4566745366768291 13.80118152089126 1.0567153486173313 5.284709415458173 0 0 0
158 2 -0.465896661799726 13.9435899752199 5.229356719790018 0.9655500160615941 0 0 0
37 1 0.9483933260375391 12.866064239562677 0.024839720451868885 4.296390367372016 0 1 0
39 1 0.935033286315947 12.880060596959009 4.307329440210016 0.02781172283753719 0 0 1
36 1 0.9552109122149712 10.72078222362907 6.466776936733397 6.4142981316516225 0 0 0
38 1 0.8645761175957205 15.006318956836349 2.1163027163320076 6.462425238629222 0 0 0
42 1 0.9365222410839434 10.764385973923412 2.1450401342632515 10.750561075814213 0 0 0
47 1 0.879935511667761 12.899316020991968 4.290407149124773 8.585761793076736 0 0 0
48 1 0.9010487880834002 14.926908675045711 6.453685260783609 10.717873565863961 0 0 0
92 2 -0.4921619989824749 16.0291086281029 1.1834332644827914 7.398156779784234 0 0 0
131 2 -0.4393561889013544 16.103444052888808 7.577982811051632 9.649069508335064 0 0 0
151 2 -0.4373885803262938 11.74820579933931 5.289706198052865 7.525880510345957 0 0 0
153 2 -0.4596987059068596 9.762249012437707 7.502404426320029 7.441654006070476 0 0 0
157 2 -0.5147227793988434 13.983271718827702 3.352766795807875 7.66677360524841 0 0 0
162 2 -0.4409458302014486 9.723088954468139 1.0816343035295455 9.561374508792406 0 0 0
166 2 -0.4480535519539449 11.87435346088032 3.1601068980570353 9.778703039996227 0 0 0
173 2 -0.4750285189375969 13.909095303187147 5.529737773199883 9.745142080646266 0 0 0
195 2 -0.5924905832973743 16.341794659398406 4.083050982961026 9.257441606676514 0 0 0
205 3 0.4031498365010184 15.617182542057455 3.8523347768766056 8.656579576029111 0 0 0
206 3 0.382602796203294 17.150106263132717 3.9915564732181683 8.77586482206372 0 0 0
208 3 0.3759496299430308 8.712796903412489 5.562998955658656 17.000406121800072 0 0 0
44 1 0.9320518241711327 10.59024243189413 6.302404873301297 15.158250227595648 0 0 0
45 1 0.854207174212507 12.8486711067173 0.032287621777200376 12.896113869599107 0 0 0
46 1 0.9615973325533108 15.002188421594143 2.159133187468078 15.001009367745956 0 0 0
33 1 0.9177161570997274 8.607523458180607 0.03964920153144175 17.099253629073715 0 0 0
61 1 0.8821010203459722 12.82474703629416 8.528921715433292 12.865414000633082 0 0 0
67 2 -0.4418770662511329 15.979841396761543 1.0892280150014821 16.003607471598833 0 0 0
98 2 -0.4592746459493073 16.071427683261195 3.111225980086092 14.038883994613869 0 0 0
99 2 -0.4201983677468331 16.089140397057154 5.46033312722501 11.825132137950279 0 0 0
159 2 -0.4607321477840879 11.973614506323209 5.32211102410793 16.194111505655908 0 0 0
160 2 -0.455419900269418 14.002327368742819 3.1244474599077994 16.079833125859516 0 0 0
164 2 -0.4401081757421906 9.611230677872989 3.297519463552527 11.772746442805916 0 0 0
165 2 -0.467756913927848 11.641419668277093 1.159575311283129 11.798643559349074 0 0 0
167 2 -0.4653896489662328 9.553418280600306 5.301221395898069 13.77908648279551 0 0 0
168 2 -0.4742890161447146 9.763061272919053 7.511072225463443 16.011478774897824 0 0 0
169 2 -0.3962036709912388 11.753491219867017 7.334119897975798 14.039061940601268 0 0 0
170 2 -0.4543352100514786 13.741033400517363 1.057572570263588 13.902676698578228 0 0 0
174 2 -0.4534141695688383 13.84895490911352 7.571032479846274 11.949782150598363 0 0 0
196 2 -0.6269678318806797 9.290888996451798 4.993605395337314 16.429922528033156 0 0 0
207 3 0.370525703283475 9.08243943335621 4.090809274997195 16.764241352380413 0 0 0
183 2 -0.4797959854135848 13.852914991190422 13.897638340324846 0.9437738005874032 0 0 0
19 1 0.8771707595848555 17.159773858027283 12.838367402092816 4.234806652938986 -1 0 0
50 1 0.8754144413491521 10.765609556302225 10.775215115235287 2.1615148637830774 0 0 0
51 1 0.8622917480587022 8.594121824568994 12.867203303701933 4.275507941854775 0 0 0
53 1 0.9667685795411241 12.877231675598205 8.612701788625909 4.276794471168738 0 0 0
55 1 0.9447526975527574 12.918337918159411 12.846000651577574 0.021765218836283677 0 0 0
56 1 0.9418506207988613 15.048315260402948 14.978468874379741 2.1163404226390545 0 0 0
68 2 -0.4552027360881353 16.106287407235733 15.916179829638184 1.1484470254248702 0 0 0
118 2 -0.4532754629455836 16.101319845437196 11.712406672203803 5.4522130617174485 0 0 0
119 2 -0.464597012214927 15.942696240048358 13.98125943903501 3.1552524553579953 0 0 0
155 2 -0.4554177896640364 11.709684605907226 16.087189198900216 5.461380016633421 0 0 0
156 2 -0.4419087465488935 14.039020918467012 16.128977627511702 3.2254932379805052 0 0 0
175 2 -0.4277233551186542 9.592262051638379 9.696346421627021 1.0766094751861142 0 0 0
176 2 -0.4587494189342095 9.536522825257226 11.849152210212624 3.3318080703038255 0 0 0
177 2 -0.4722806015537938 11.989015263385632 9.661232993682692 3.2554947274927293 0 0 0
178 2 -0.4694183271907626 11.689900330773831 11.691258941060386 1.1172924275731717 0 0 0
179 2 -0.4735403637854719 9.728902985735903 13.973949246376604 5.493999442389125 0 0 0
181 2 -0.4648451144538394 13.880604531045636 9.539660333420576 5.301299843901082 0 0 0
9 1 0.9269608315837883 17.10092173025541 17.093791225975792 8.553785602271343 0 0 0
25 1 0.8927082388562148 17.13310802546686 8.586193301242421 8.527701417246412 0 0 0
216 3 0.3914523088439996 9.19897481777153 13.569542000772026 8.38975191892067 0 0 0
52 1 0.9357740054108812 10.73695166636346 14.99789927996089 6.423608084172779 0 0 0
54 1 0.9119052479543983 15.01517654088073 10.733220141882088 6.421004241340809 0 0 0
58 1 0.8929988233305463 10.73607302834167 10.688782142564282 10.748863074286607 0 0 0
63 1 0.8942621097596257 12.866169971923789 12.86317183325926 8.551022163142722 0 0 0
64 1 0.8370957692291494 14.99515609179741 14.936296368219578 10.665312668995373 0 0 0
93 2 -0.4915743561308399 16.209743075883885 16.115244215348447 9.609785122076822 0 0 0
132 2 -0.4612801879503335 16.133098889767286 9.506437296680279 7.530402349110553 0 0 0
163 2 -0.4843376172941599 9.675607001568462 15.935293927046045 7.473317787618278 0 0 0
180 2 -0.4922221626568506 11.797804163455076 13.80871491352501 7.624836399266863 0 0 0
182 2 -0.4608299757500715 13.971260402045006 11.691753322155044 7.374792544403617 0 0 0
186 2 -0.4313585211912119 9.587743596061143 9.641934801342531 9.764828015853212 0 0 0
189 2 -0.4563145186718632 11.936114249166618 11.788157141501673 9.602119858198101 0 0 0
192 2 -0.4669740559512015 13.954417309621245 14.060818627943222 9.701167188160099 0 0 0
200 2 -0.5838935886046682 8.899970977421601 13.125707532687432 9.171967630947872 0 0 0
215 3 0.3829104616235284 9.301895456544358 13.62936516041246 9.874050178734546 0 0 0
27 1 0.9222523073248319 17.12930300329567 12.82651753503966 12.844840785792332 0 0 0
60 1 0.890230875501053 10.756654725081717 15.042015677749001 14.986492838207745 0 0 0
62 1 0.8986447120599863 15.044697918982667 10.738906633850968 15.031710356882225 0 0 0
113 2 -0.4598613761440326 16.061600080558673 9.70792035524363 16.107807571376895 0 0 0
137 2 -0.4826067293861968 16.076638079245807 11.67121332529141 14.093533439037545 0 0 0
138 2 -0.5000197232027509 16.106794409885552 13.831581095647087 11.917865597476741 0 0 0
146 2 -0.4597129917935638 9.64694782024898 16.276093742488058 16.091982301793532 0 0 0
171 2 -0.4602434652973643 11.793724898474558 15.942015870741454 14.022162589769223 0 0 0
172 2 -0.4682176218328889 13.904420447439541 15.988397089391915 11.706204620014672 0 0 0
184 2 -0.4324786588188589 11.756485744935569 13.918963220336165 16.087387486587307 0 0 0
185 2 -0.4719181918896882 13.938075971655513 11.96000352125633 16.16181760448298 0 0 0
187 2 -0.4866857106984572 9.67053297802124 11.816528024806916 11.983568050288214 0 0 0
188 2 -0.4557079565830725 11.664395719420742 9.628781982299492 11.65652114554327 0 0 0
190 2 -0.4770307177285129 9.618350939933832 13.909739419254281 13.820589662495204 0 0 0
191 2 -0.4271101044429114 14.013685999552019 9.609188094885209 13.870721081863994 0 0 0
194 2 -0.5759450109579567 16.16845137959246 16.69686953722195 12.963872795890698 0 0 0
203 3 0.395123854449197 15.548962982048527 15.96329565753124 12.802260606026978 0 0 0
204 3 0.3821641004056877 16.835288017792404 16.581954601512084 12.297780899214747 0 0 0
59 1 0.9427638279007767 8.691266449385353 12.828209508483166 12.900194438645276 0 0 0
49 1 0.8186556646567615 8.596659416116022 8.601173459323403 17.159013997918017 0 0 0

Velocities

2 0 0 0
3 0 0 0
5 0 0 0
35 0 0 0
8 0 0 0
17 0 0 0
21 0 0 0
65 0 0 0
69 0 0 0
70 0 0 0
71 0 0 0
72 0 0 0
76 0 0 0
78 0 0 0
82 0 0 0
84 0 0 0
87 0 0 0
88 0 0 0
89 0 0 0
201 0 0 0
4 0 0 0
6 0 0 0
10 0 0 0
15 0 0 0
16 0 0 0
75 0 0 0
77 0 0 0
81 0 0 0
83 0 0 0
90 0 0 0
96 0 0 0
107 0 0 0
110 0 0 0
57 0 0 0
41 0 0 0
11 0 0 0
12 0 0 0
13 0 0 0
14 0 0 0
109 0 0 0
43 0 0 0
85 0 0 0
86 0 0 0
94 0 0 0
95 0 0 0
97 0 0 0
100 0 0 0
101 0 0 0
102 0 0 0
105 0 0 0
106 0 0 0
108 0 0 0
29 0 0 0
7 0 0 0
1 0 0 0
18 0 0 0
212 0 0 0
23 0 0 0
24 0 0 0
79 0 0 0
80 0 0 0
111 0 0 0
114 0 0 0
115 0 0 0
116 0 0 0
117 0 0 0
121 0 0 0
123 0 0 0
125 0 0 0
128 0 0 0
129 0 0 0
193 0 0 0
202 0 0 0
20 0 0 0
22 0 0 0
26 0 0 0
31 0 0 0
32 0 0 0
211 0 0 0
91 0 0 0
120 0 0 0
122 0 0 0
124 0 0 0
130 0 0 0
135 0 0 0
142 0 0 0
143 0 0 0
198 0 0 0
28 0 0 0
210 0 0 0
30 0 0 0
214 0 0 0
66 0 0 0
103 0 0 0
104 0 0 0
126 0 0 0
127 0 0 0
133 0 0 0
134 0 0 0
136 0 0 0
139 0 0 0
140 0 0 0
141 0 0 0
144 0 0 0
197 0 0 0
199 0 0 0
209 0 0 0
213 0 0 0
34 0 0 0
161 0 0 0
40 0 0 0
73 0 0 0
74 0 0 0
112 0 0 0
145 0 0 0
147 0 0 0
148 0 0 0
149 0 0 0
150 0 0 0
152 0 0 0
154 0 0 0
158 0 0 0
37 0 0 0
39 0 0 0
36 0 0 0
38 0 0 0
42 0 0 0
47 0 0 0
48 0 0 0
92 0 0 0
131 0 0 0
151 0 0 0
153 0 0 0
157 0 0 0
162 0 0 0
166 0 0 0
173 0 0 0
195 0 0 0
205 0 0 0
206 0 0 0
208 0 0 0
44 0 0 0
45 0 0 0
46 0 0 0
33 0 0 0
61 0 0 0
67 0 0 0
98 0 0 0
99 0 0 0
159 0 0 0
160 0 0 0
164 0 0 0
165 0 0 0
167 0 0 0
168 0 0 0
169 0 0 0
170 0 0 0
174 0 0 0
196 0 0 0
207 0 0 0
183 0 0 0
19 0 0 0
50 0 0 0
51 0 0 0
53 0 0 0
55 0 0 0
56 0 0 0
68 0 0 0
118 0 0 0
119 0 0 0
155 0 0 0
156 0 0 0
175 0 0 0
176 0 0 0
177 0 0 0
178 0 0 0
179 0 0 0
181 0 0 0
9 0 0 0
25 0 0 0
216 0 0 0
52 0 0 0
54 0 0 0
58 0 0 0
63 0 0 0
64 0 0 0
93 0 0 0
132 0 0 0
163 0 0 0
180 0 0 0
182 0 0 0
186 0 0 0
189 0 0 0
192 0 0 0
200 0 0 0
215 0 0 0
27 0 0 0
60 0 0 0
62 0 0 0
113 0 0 0
137 0 0 0
138 0 0 0
146 0 0 0
171 0 0 0
172 0 0 0
184 0 0 0
185 0 0 0
187 0 0 0
188 0 0 0
190 0 0 0
191 0 0 0
194 0 0 0
203 0 0 0
204 0 0 0
59 0 0 0
49 0 0 0
