ITEM: TIMESTEP
0
ITEM: NUMBER OF ATOMS
216
ITEM: BOX BOUNDS pp pp pp
0.0000000000000000e+00 1.7160000000000000e+01
0.0000000000000000e+00 1.7160000000000000e+01
0.0000000000000000e+00 1.7160000000000000e+01
ITEM: ATOMS id type q x y z
1 1 0.876698 17.1046 17.1483 0.00845356
2 1 0.87635 2.13686 2.11965 2.15001
3 1 0.889634 0.00404566 4.27523 4.2474
4 1 0.8896 2.09727 6.48149 6.42357
5 1 0.830283 4.30742 0.0321073 4.31697
6 1 0.872353 6.41777 2.10738 6.45658
7 1 0.909258 4.32442 4.2676 0.0161842
8 1 0.871653 6.4227 6.45909 2.17535
9 1 0.88224 17.1079 17.1119 8.63112
10 1 0.838204 2.11495 2.10594 10.7294
11 1 0.904463 0.00499245 4.34999 12.9182
12 1 0.868991 2.10851 6.40406 15.0334
13 1 0.909631 4.32653 0.0552523 12.8345
14 1 0.88545 6.40189 2.20038 14.9625
15 1 0.880033 4.33672 4.27186 8.57131
16 1 0.884769 6.40872 6.48483 10.7666
17 1 0.843105 0.039164 8.54707 0.0158814
18 1 0.897708 2.14812 10.7357 2.11335
19 1 0.880395 0.0528832 12.8595 4.30273
20 1 0.845366 2.16999 14.9704 6.38339
21 1 0.892306 4.24157 8.57629 4.28177
22 1 0.885723 6.38207 10.7254 6.41065
23 1 0.89331 4.33612 12.9155 0.0314436
24 1 0.898584 6.46076 14.9909 2.19843
25 1 0.889832 17.1391 8.60167 8.58859
26 1 0.89245 2.11711 10.724 10.6735
27 1 0.875596 17.1521 12.8111 12.9218
28 1 0.848059 2.19092 15.0509 15.0734
29 1 0.889633 4.24861 8.59143 12.8194
30 1 0.916276 6.49148 10.7082 14.9799
31 1 0.923356 4.34332 12.915 8.54366
32 1 0.84409 6.47245 14.9781 10.7775
33 1 0.856891 8.54983 0.0520827 17.1008
34 1 0.861466 10.7021 2.1977 2.10702
35 1 0.85546 8.63056 4.29824 4.32425
36 1 0.895502 10.7475 6.39785 6.3884
37 1 0.906009 12.8345 17.1441 4.3153
38 1 0.878582 15.0747 2.0866 6.47552
39 1 0.89571 12.917 4.3389 17.1124
40 1 0.899841 14.9698 6.44042 2.1949
41 1 0.864566 8.62718 17.1504 8.60503
42 1 0.902018 10.7665 2.1216 10.7582
43 1 0.896407 8.55969 4.32324 12.9041
44 1 0.915134 10.709 6.44779 14.9935
45 1 0.89856 12.8865 0.0506632 12.914
46 1 0.899427 15.0595 2.19881 14.9825
47 1 0.87395 12.889 4.23329 8.62797
48 1 0.918159 14.9807 6.399 10.7017
49 1 0.84903 8.60235 8.56838 17.1578
50 1 0.902656 10.7784 10.7457 2.1848
51 1 0.872022 8.61088 12.841 4.24818
52 1 0.889378 10.6765 15.0271 6.41968
53 1 0.914458 12.8857 8.63434 4.25161
54 1 0.882086 14.9866 10.7384 6.41294
55 1 0.904171 12.911 12.8482 0.0109874
56 1 0.899667 14.9555 15.0211 2.13781
57 1 0.89203 8.52547 8.58516 8.62157
58 1 0.88742 10.7818 10.7627 10.7797
59 1 0.882113 8.52392 12.8239 12.8183
60 1 0.866723 10.7316 15.0291 15.0402
61 1 0.925852 12.8701 8.53813 12.8403
62 1 0.87458 14.9803 10.6971 15.0201
63 1 0.894001 12.9151 12.9078 8.55629
64 1 0.861539 15.0418 14.9559 10.6656
65 2 -0.434519 1.09227 1.07812 1.07133
66 2 -0.450652 1.04736 16.1302 16.1332
67 2 -0.452111 16.0603 1.07153 16.0433
68 2 -0.452179 16.0638 16.0498 1.08372
69 2 -0.448652 1.06144 3.27133 3.26631
70 2 -0.441864 3.21892 1.11262 3.26393
71 2 -0.442414 3.2089 3.27405 1.02854
72 2 -0.45023 1.05121 5.39396 5.36943
73 2 -0.457557 16.0397 3.25451 5.37213
74 2 -0.445674 16.1015 5.39973 3.17761
75 2 -0.433475 3.18239 5.31113 7.48359
76 2 -0.450369 3.27491 7.49123 5.38124
77 2 -0.462888 1.0731 7.45674 7.4948
78 2 -0.514642 5.39606 1.08524 5.30755
79 2 -0.635406 3.24784 16.0441 5.34544
80 2 -0.479842 5.31479 16.0398 3.16418
81 2 -0.451754 5.41637 3.2509 7.54531
82 2 -0.435376 7.45738 3.16242 5.39068
83 2 -0.451105 7.5251 1.04976 7.54539
84 2 -0.46439 5.32387 5.39891 1.03515
85 2 -0.431519 3.25553 5.39572 16.0844
86 2 -0.47955 5.32346 3.26989 16.0645
87 2 -0.440151 5.33048 7.54326 3.17268
88 2 -0.45748 7.52204 5.40466 3.1811
89 2 -0.464753 7.53087 7.50798 1.11297
90 2 -0.473944 1.08132 1.03361 9.59713
91 2 -0.421345 1.01278 16.0706 7.56543
92 2 -0.49549 16.0362 1.11107 7.46771
93 2 -0.476212 16.1291 16.0283 9.67674
94 2 -0.43485 1.04835 3.21944 11.846
95 2 -0.457081 3.27681 1.03534 11.8236
96 2 -0.439695 3.19412 3.19979 9.67905
97 2 -0.468975 1.05115 5.34381 13.9787
98 2 -0.463977 16.1119 3.21567 13.9433
99 2 -0.432555 16.0868 5.36034 11.7503
100 2 -0.497678 1.05568 7.51008 16.0987
101 2 -0.468072 3.19313 7.54098 13.9555
102 2 -0.457631 5.37475 1.11236 13.9198
103 2 -0.43105 3.21287 16.0808 13.9268
104 2 -0.402721 5.4002 16.1081 11.7996
105 2 -0.471157 7.50682 1.11335 16.0749
106 2 -0.461736 7.51312 3.17655 13.8969
107 2 -0.430909 5.33961 5.35832 9.64092
108 2 -0.465922 5.38222 7.55933 11.8284
109 2 -0.439315 7.47904 5.30258 11.7549
110 2 -0.452493 7.46197 7.50373 9.59842
111 2 -0.475596 1.12477 9.6645 1.07932
112 2 -0.429705 16.035 7.45702 1.03013
113 2 -0.457432 16.043 9.63999 16.1238
114 2 -0.456164 1.08804 11.8137 3.20717
115 2 -0.451134 3.19611 9.69313 3.20014
116 2 -0.450567 3.22277 11.8443 1.05796
117 2 -0.454186 1.03833 13.9801 5.35059
118 2 -0.443705 16.1462 11.7721 5.39693
119 2 -0.426039 16.03 13.9644 3.21674
120 2 -0.450042 3.21646 13.9231 7.47461
121 2 -0.447354 5.32811 9.68083 5.37947
122 2 -0.459139 5.30292 11.7898 7.54624
123 2 -0.438756 7.46992 11.7911 5.39927
124 2 -0.432545 7.5471 9.66438 7.54237
125 2 -0.454674 5.39025 13.8951 1.09906
126 2 -0.448586 3.1874 13.896 16.1365
127 2 -0.42838 5.41578 11.7656 16.0431
128 2 -0.444619 7.52555 16.0721 1.06808
129 2 -0.45424 7.47366 13.9731 3.21884
130 2 -0.460427 1.06314 9.6564 9.62554
131 2 -0.442891 16.144 7.47312 9.68684
132 2 -0.439367 16.108 9.62284 7.48675
133 2 -0.43583 1.08092 11.8122 11.83
134 2 -0.443166 3.19898 9.65206 11.7571
135 2 -0.419117 3.21282 11.8356 9.63702
136 2 -0.443832 1.04924 13.9544 13.9277
137 2 -0.472069 16.076 11.7746 13.993
138 2 -0.480767 16.0881 13.8954 11.8463
139 2 -0.428757 5.34994 9.70291 13.9314
140 2 -0.445457 7.46663 9.597 16.0319
141 2 -0.474413 7.51807 11.7557 13.9021
142 2 -0.425319 5.37542 13.928 9.64009
143 2 -0.467161 7.47578 16.0762 9.64236
144 2 -0.58037 7.46937 13.931 11.7885
145 2 -0.473955 9.65623 1.1015 1.10731
146 2 -0.437737 9.65484 16.1338 16.0841
147 2 -0.476818 9.59397 3.19829 3.20204
148 2 -0.424388 11.8087 1.03796 3.26292
149 2 -0.445669 11.7531 3.27223 1.10258
150 2 -0.461648 9.63048 5.35763 5.40502
151 2 -0.42287 11.7914 5.32617 7.51644
152 2 -0.436477 11.8181 7.50748 5.38903
153 2 -0.411032 9.68234 7.5178 7.494
154 2 -0.42541 13.9288 1.06227 5.38087
155 2 -0.449788 11.7493 16.1381 5.41983
156 2 -0.44506 13.9782 16.1094 3.25978
157 2 -0.48059 13.8851 3.24092 7.50347
158 2 -0.448482 13.9896 5.3068 1.0462
159 2 -0.44062 11.778 5.31235 16.1132
160 2 -0.446176 13.9191 3.16587 16.0924
161 2 -0.467078 13.887 7.45687 3.25371
162 2 -0.447103 9.70337 1.08751 9.62222
163 2 -0.49453 9.68534 16.0409 7.54812
164 2 -0.421024 9.61666 3.25409 11.7478
165 2 -0.464747 11.7558 1.07517 11.8531
166 2 -0.449933 11.8215 3.21728 9.70398
167 2 -0.45092 9.60413 5.32067 13.9889
168 2 -0.460948 9.71039 7.52153 16.0336
169 2 -0.459481 11.8385 7.46565 13.9101
170 2 -0.444783 13.8945 1.05956 13.913
171 2 -0.451648 11.8074 16.0308 13.9166
172 2 -0.430421 13.9952 16.1119 11.8043
173 2 -0.470559 13.9246 5.42059 9.69145
174 2 -0.460987 13.8926 7.51903 11.8509
175 2 -0.42739 9.67305 9.66844 1.08414
176 2 -0.457124 9.59966 11.7499 3.26014
177 2 -0.479676 11.8565 9.69569 3.22473
178 2 -0.451379 11.7652 11.7629 1.07375
179 2 -0.467236 9.70151 13.9763 5.4207
180 2 -0.470054 11.7662 13.8826 7.56592
181 2 -0.457448 13.8877 9.60545 5.38841
182 2 -0.450024 13.922 11.7824 7.49102
183 2 -0.466741 13.9238 13.9329 1.04085
184 2 -0.433824 11.7683 13.9133 16.1201
185 2 -0.462198 13.988 11.8548 16.114
186 2 -0.417601 9.60274 9.6548 9.70331
187 2 -0.466554 9.63442 11.7516 11.8424
188 2 -0.454371 11.7578 9.61916 11.7613
189 2 -0.452279 11.8562 11.7533 9.64596
190 2 -0.430963 9.62925 13.9145 13.9065
191 2 -0.451168 13.9884 9.60891 13.8953
192 2 -0.474588 13.9612 13.9494 9.63817
193 2 -0.575223 8.42675 16.5729 3.60382
194 2 -0.567745 15.8008 16.6967 12.6237
195 2 -0.579298 16.256 4.24978 9.34114
196 2 -0.583765 9.17343 4.88129 16.5124
197 2 -0.579361 2.25418 10.1338 14.8543
198 2 -0.592703 4.63651 15.4789 6.26774
199 2 -0.565848 5.447 14.3828 11.7069
200 2 -0.577882 8.88095 13.1444 9.29407
201 3 0.381373 8.18486 0.156472 3.04694
202 3 0.369735 7.82451 16.6251 4.34959
203 3 0.390566 15.5632 15.8212 12.9378
204 3 0.375028 16.7339 16.6296 12.4081
205 3 0.381441 15.6084 3.87659 8.73863
206 3 0.369919 17.1028 4.06448 8.92872
207 3 0.368268 9.0174 3.98909 16.8306
208 3 0.375182 8.62778 5.4359 17.0748
209 3 0.398561 2.1486 9.1866 14.9691
210 3 0.378545 1.56901 10.5205 15.4044
211 3 0.399896 4.45967 16.3737 6.56701
212 3 0.492499 4.00685 15.334 5.55771
213 3 0.233522 5.97796 14.8922 11.0903
214 3 0.454132 6.08055 13.8295 12.1696
215 3 0.376626 9.37718 13.6855 9.91256
216 3 0.380399 9.12504 13.4824 8.42936
ITEM: TIMESTEP
34
ITEM: NUMBER OF ATOMS
216
ITEM: BOX BOUNDS pp pp pp
0.0000000000000000e+00 1.7160000000000000e+01
0.0000000000000000e+00 1.7160000000000000e+01
0.0000000000000000e+00 1.7160000000000000e+01
ITEM: ATOMS id type q x y z
1 1 0.861272 17.1746 17.1633 -0.000743647
2 1 0.881061 2.10955 2.17279 2.09335
3 1 0.870046 0.0142882 4.29535 4.23959
4 1 0.92186 2.10337 6.45109 6.39725
5 1 0.819272 4.2316 0.0783151 4.13005
6 1 0.861457 6.46173 2.19969 6.4269
7 1 0.963816 4.28859 4.26844 -0.0204172
8 1 0.889573 6.46965 6.39348 2.16537
9 1 0.926961 17.1009 17.0938 8.55379
10 1 0.856281 2.19226 2.16108 10.7218
11 1 0.931266 0.0258777 4.27998 12.898
12 1 0.890739 2.16257 6.4192 15.0178
13 1 0.866637 4.34553 0.101809 12.8213
14 1 0.932513 6.43821 2.17046 14.9835
15 1 0.926744 4.32177 4.2747 8.60713
16 1 0.835054 6.41989 6.44822 10.7221
17 1 0.830734 0.0500935 8.53219 0.0119951
18 1 0.922528 2.14915 10.6881 2.14826
19 1 0.877171 -0.000226142 12.8384 4.23481
20 1 0.839237 1.98719 14.977 6.39078
21 1 0.900481 4.26755 8.57902 4.30878
22 1 0.921733 6.43601 10.7021 6.41306
23 1 0.947257 4.32552 12.8244 0.034622
24 1 0.891204 6.39488 14.9949 2.12883
25 1 0.892708 17.1331 8.58619 8.5277
26 1 0.922918 2.13595 10.7099 10.7035
27 1 0.922252 17.1293 12.8265 12.8448
28 1 0.847416 2.16336 15.0762 15.0057
29 1 0.870197 4.30396 8.5468 12.845
30 1 0.998072 6.45165 10.6999 15.0434
31 1 0.926293 4.34515 12.8406 8.49985
32 1 0.711387 6.46856 14.9793 10.6463
33 1 0.917716 8.60752 0.0396492 17.0993
34 1 0.902974 10.7524 2.15452 2.1277
35 1 0.843786 8.57032 4.26289 4.2635
36 1 0.955211 10.7208 6.46678 6.4143
37 1 0.948393 12.8661 17.1848 4.29639
38 1 0.864576 15.0063 2.1163 6.46243
39 1 0.935033 12.8801 4.30733 17.1878
40 1 0.937592 15.0481 6.42147 2.11926
41 1 0.912409 8.56787 17.1916 8.53575
42 1 0.936522 10.7644 2.14504 10.7506
43 1 0.915461 8.57624 4.27883 12.8813
44 1 0.932052 10.5902 6.3024 15.1583
45 1 0.854207 12.8487 0.0322876 12.8961
46 1 0.961597 15.0022 2.15913 15.001
47 1 0.879936 12.8993 4.29041 8.58576
48 1 0.901049 14.9269 6.45369 10.7179
49 1 0.818656 8.59666 8.60117 17.159
50 1 0.875414 10.7656 10.7752 2.16151
51 1 0.862292 8.59412 12.8672 4.27551
52 1 0.935774 10.737 14.9979 6.42361
53 1 0.966769 12.8772 8.6127 4.27679
54 1 0.911905 15.0152 10.7332 6.421
55 1 0.944753 12.9183 12.846 0.0217652
56 1 0.941851 15.0483 14.9785 2.11634
57 1 0.947272 8.52957 8.56197 8.56782
58 1 0.892999 10.7361 10.6888 10.7489
59 1 0.942764 8.69127 12.8282 12.9002
60 1 0.890231 10.7567 15.042 14.9865
61 1 0.882101 12.8247 8.52892 12.8654
62 1 0.898645 15.0447 10.7389 15.0317
63 1 0.894262 12.8662 12.8632 8.55102
64 1 0.837096 14.9952 14.9363 10.6653
65 2 -0.455589 1.22787 1.12401 1.12444
66 2 -0.443457 0.994723 16.2705 16.1168
67 2 -0.441877 15.9798 1.08923 16.0036
68 2 -0.455203 16.1063 15.9162 1.14845
69 2 -0.461082 1.00856 3.29211 3.34303
70 2 -0.464994 3.32145 1.1341 3.23092
71 2 -0.467948 3.23326 3.33929 0.963135
72 2 -0.463985 1.05702 5.44967 5.46806
73 2 -0.444334 16.0451 3.23384 5.39346
74 2 -0.467416 16.1005 5.49627 3.06654
75 2 -0.437867 3.14747 5.28562 7.46224
76 2 -0.469291 3.35896 7.55956 5.27941
77 2 -0.469355 1.12154 7.361 7.4537
78 2 -0.466174 5.37832 1.06917 5.32896
79 2 -0.490925 3.00798 16.1517 5.19569
80 2 -0.499224 5.39087 15.9653 3.09673
81 2 -0.463931 5.38032 3.37571 7.6345
82 2 -0.463715 7.40565 3.08116 5.36666
83 2 -0.465055 7.56948 0.980635 7.5491
84 2 -0.469116 5.34941 5.31602 0.970959
85 2 -0.458916 3.22259 5.49885 16.0297
86 2 -0.486243 5.28277 3.35947 16.0957
87 2 -0.436564 5.33981 7.57767 3.21434
88 2 -0.481571 7.49463 5.44875 3.09686
89 2 -0.464627 7.58953 7.38301 1.11962
90 2 -0.451386 1.13327 1.01249 9.57198
91 2 -0.469255 0.929903 16.0805 7.6522
92 2 -0.492162 16.0291 1.18343 7.39816
93 2 -0.491574 16.2097 16.1152 9.60979
94 2 -0.452735 1.04901 3.23672 11.9419
95 2 -0.464698 3.38388 0.985482 11.7859
96 2 -0.474672 3.08892 3.1718 9.73969
97 2 -0.46003 0.992684 5.2061 13.9294
98 2 -0.459275 16.0714 3.11123 14.0389
99 2 -0.420198 16.0891 5.46033 11.8251
100 2 -0.502546 1.02468 7.65289 16.1055
101 2 -0.493343 3.09605 7.47167 14.0523
102 2 -0.462368 5.42804 1.21045 14.0543
103 2 -0.439551 3.19869 16.0097 13.9098
104 2 -0.449105 5.59195 16.4005 11.6592
105 2 -0.485783 7.58007 1.06294 16.1841
106 2 -0.479411 7.42282 3.05675 13.9596
107 2 -0.452934 5.22814 5.35067 9.57776
108 2 -0.454606 5.35793 7.6079 11.9449
109 2 -0.431463 7.45677 5.33478 11.7189
110 2 -0.457612 7.50741 7.55927 9.4801
111 2 -0.486741 1.2402 9.71125 1.09564
112 2 -0.459113 15.9835 7.3814 1.09941
113 2 -0.459861 16.0616 9.70792 16.1078
114 2 -0.466938 0.998238 11.9146 3.24687
115 2 -0.466138 3.11578 9.75637 3.17748
116 2 -0.460274 3.27111 11.8916 1.02944
117 2 -0.45528 1.0268 14.0594 5.3984
118 2 -0.453275 16.1013 11.7124 5.45221
119 2 -0.464597 15.9427 13.9813 3.15525
120 2 -0.437642 3.10012 13.7985 7.44545
121 2 -0.457038 5.3935 9.78494 5.43526
122 2 -0.462111 5.2445 11.7942 7.55252
123 2 -0.444061 7.39129 11.7695 5.40966
124 2 -0.465882 7.62554 9.60247 7.59119
125 2 -0.465961 5.29184 13.7628 1.05268
126 2 -0.429454 3.20863 13.924 16.1773
127 2 -0.475619 5.45246 11.7142 15.9743
128 2 -0.468585 7.54555 16.0721 0.956563
129 2 -0.44889 7.34936 13.9756 3.17637
130 2 -0.451629 1.1818 9.72046 9.61712
131 2 -0.439356 16.1034 7.57798 9.64907
132 2 -0.46128 16.1331 9.50644 7.5304
133 2 -0.463766 1.02327 11.9073 11.8795
134 2 -0.435128 3.22746 9.65601 11.6036
135 2 -0.422959 3.20197 11.8161 9.70944
136 2 -0.434117 1.0319 14.0218 13.9104
137 2 -0.482607 16.0766 11.6712 14.0935
138 2 -0.50002 16.1068 13.8316 11.9179
139 2 -0.436368 5.39525 9.73458 13.9359
140 2 -0.473501 7.37979 9.65733 15.9993
141 2 -0.467873 7.48718 11.7692 13.9162
142 2 -0.432863 5.51895 13.964 9.35668
143 2 -0.430434 7.48439 16.264 9.59122
144 2 -0.508184 7.63417 13.9616 11.8406
145 2 -0.490273 9.6673 1.21562 1.13124
146 2 -0.459713 9.64695 16.2761 16.092
147 2 -0.463054 9.53834 3.2649 3.21174
148 2 -0.460722 11.8588 0.981918 3.33286
149 2 -0.486152 11.6432 3.21066 1.16211
150 2 -0.444268 9.63923 5.39764 5.43749
151 2 -0.437389 11.7482 5.28971 7.52588
152 2 -0.468739 11.7707 7.46759 5.47077
153 2 -0.459699 9.76225 7.5024 7.44165
154 2 -0.456675 13.8012 1.05672 5.28471
155 2 -0.455418 11.7097 16.0872 5.46138
156 2 -0.441909 14.039 16.129 3.22549
157 2 -0.514723 13.9833 3.35277 7.66677
158 2 -0.465897 13.9436 5.22936 0.96555
159 2 -0.460732 11.9736 5.32211 16.1941
160 2 -0.45542 14.0023 3.12445 16.0798
161 2 -0.45341 13.8774 7.51163 3.29556
162 2 -0.440946 9.72309 1.08163 9.56137
163 2 -0.484338 9.67561 15.9353 7.47332
164 2 -0.440108 9.61123 3.29752 11.7727
165 2 -0.467757 11.6414 1.15958 11.7986
166 2 -0.448054 11.8744 3.16011 9.7787
167 2 -0.46539 9.55342 5.30122 13.7791
168 2 -0.474289 9.76306 7.51107 16.0115
169 2 -0.396204 11.7535 7.33412 14.0391
170 2 -0.454335 13.741 1.05757 13.9027
171 2 -0.460243 11.7937 15.942 14.0222
172 2 -0.468218 13.9044 15.9884 11.7062
173 2 -0.475029 13.9091 5.52974 9.74514
174 2 -0.453414 13.849 7.57103 11.9498
175 2 -0.427723 9.59226 9.69635 1.07661
176 2 -0.458749 9.53652 11.8492 3.33181
177 2 -0.472281 11.989 9.66123 3.25549
178 2 -0.469418 11.6899 11.6913 1.11729
179 2 -0.47354 9.7289 13.9739 5.494
180 2 -0.492222 11.7978 13.8087 7.62484
181 2 -0.464845 13.8806 9.53966 5.3013
182 2 -0.46083 13.9713 11.6918 7.37479
183 2 -0.479796 13.8529 13.8976 0.943774
184 2 -0.432479 11.7565 13.919 16.0874
185 2 -0.471918 13.9381 11.96 16.1618
186 2 -0.431359 9.58774 9.64193 9.76483
187 2 -0.486686 9.67053 11.8165 11.9836
188 2 -0.455708 11.6644 9.62878 11.6565
189 2 -0.456315 11.9361 11.7882 9.60212
190 2 -0.477031 9.61835 13.9097 13.8206
191 2 -0.42711 14.0137 9.60919 13.8707
192 2 -0.466974 13.9544 14.0608 9.70117
193 2 -0.581332 8.5511 16.7987 3.80293
194 2 -0.575945 16.1685 16.6969 12.9639
195 2 -0.592491 16.3418 4.08305 9.25744
196 2 -0.626968 9.29089 4.99361 16.4299
197 2 -0.586838 2.21294 10.1686 14.8904
198 2 -0.565574 5.01352 15.4747 6.38496
199 2 -0.53716 5.18089 13.848 11.9823
200 2 -0.583894 8.89997 13.1257 9.17197
201 3 0.38254 8.21954 0.0705771 3.02091
202 3 0.38442 7.76673 16.6412 4.31354
203 3 0.395124 15.549 15.9633 12.8023
204 3 0.382164 16.8353 16.582 12.2978
205 3 0.40315 15.6172 3.85233 8.65658
206 3 0.382603 17.1501 3.99156 8.77586
207 3 0.370526 9.08244 4.09081 16.7642
208 3 0.37595 8.7128 5.563 17.0004
209 3 0.405488 2.16499 9.20636 14.9531
210 3 0.387972 1.51066 10.4723 15.4523
211 3 0.382578 4.67638 16.34 6.65569
212 3 0.387971 4.31535 15.2007 5.68371
213 3 0.336492 5.12324 14.8029 11.4905
214 3 0.409633 6.1363 13.658 12.3863
215 3 0.38291 9.3019 13.6294 9.87405
216 3 0.391452 9.19897 13.5695 8.38975
