
read_data       runs/${phlabel}_N${baseatoms}/03_calcination_1173K/calcined_1173K.data
read_data       runs/pH7p0_N${baseatoms}/03_calcination_1173K/calcined_1173K.data
read_data       runs/pH7p0_N192/03_calcination_1173K/calcined_1173K.data
Reading data file ...
  orthogonal box = (1.49781 1.49781 1.49781) to (15.66219 15.66219 15.66219)
  2 by 2 by 3 MPI processor grid
  reading atoms ...
  216 atoms
  reading velocities ...
  216 velocities
  read_data CPU = 0.002 seconds

pair_style      reaxff NULL safezone 2.0 mincap 100
pair_coeff      * * kode_lammps/potentials/ffield.reax.SiOH Si O H
WARNING: Changed valency_val to valency_boc for X (src/REAXFF/reaxff_ffield.cpp:294)
neighbor        2.0 bin
neigh_modify    every 10 delay 0 check yes
fix             qeq all qeq/reaxff 1 0.0 10.0 1.0e-6 reaxff maxiter 200

timestep        ${dt}
timestep        0.25
thermo          1000
thermo_style    custom step time temp press pe ke etotal vol density
thermo_modify   flush yes lost warn

dump            dmp all custom 2000 ${rundir}/traj_wtmetad.lammpstrj id type q x y z vx vy vz
dump            dmp all custom 2000 runs/pH7p0_N192/05_wtmetad_plumed/traj_wtmetad.lammpstrj id type q x y z vx vy vz
dump_modify     dmp sort id
fix             rb all reaxff/bonds 2000 ${rundir}/bonds.reaxff
fix             rb all reaxff/bonds 2000 runs/pH7p0_N192/05_wtmetad_plumed/bonds.reaxff

# Heating is unbiased; PLUMED starts only in production.
fix             heat all npt temp 1173.0 ${Tprod} 100.0 iso 1.0 1.0 1000.0
fix             heat all npt temp 1173.0 2300 100.0 iso 1.0 1.0 1000.0
run             ${nheat}
run             80000

CITE-CITE-CITE-CITE-CITE-CITE-CITE-CITE-CITE-CITE-CITE-CITE-CITE

Your simulation uses code contributions which should be cited:

- Type Label Framework: https://doi.org/10.1021/acs.jpcb.3c08419

@Article{Gissinger24,
 author = {Jacob R. Gissinger, Ilia Nikiforov, Yaser Afshar, Brendon Waters, Moon-ki Choi, Daniel S. Karls, Alexander Stukowski, Wonpil Im, Hendrik Heinz, Axel Kohlmeyer, and Ellad B. Tadmor},
 title = {Type Label Framework for Bonded Force Fields in LAMMPS},
 journal = {J. Phys. Chem. B},
 year =    2024,
 volume =  128,
 number =  13,
 pages =   {3282–-3297}
}

- pair reaxff command: doi:10.1016/j.parco.2011.08.005

@Article{Aktulga12,
 author = {H. M. Aktulga and J. C. Fogarty and S. A. Pandit and A. Y. Grama},
 title = {Parallel Reactive Molecular Dynamics: {N}umerical Methods and Algorithmic Techniques},
 journal = {Parallel Computing},
 year =    2012,
 volume =  38,
 number =  {4--5},
 pages =   {245--259}
}

- fix qeq/reaxff command: doi:10.1016/j.parco.2011.08.005

@Article{Aktulga12,
 author = {H. M. Aktulga and J. C. Fogarty and S. A. Pandit and A. Y. Grama},
 title = {Parallel Reactive Molecular Dynamics: {N}umerical Methods and Algorithmic Techniques},
 journal = {Parallel Computing},
 year =    2012,
 volume =  38,
 pages =   {245--259}
}

CITE-CITE-CITE-CITE-CITE-CITE-CITE-CITE-CITE-CITE-CITE-CITE-CITE

Neighbor list info ...
  update: every = 10 steps, delay = 0 steps, check = yes
  max neighbors/atom: 2000, page size: 100000
  master list distance cutoff = 12
  ghost atom cutoff = 12
  binsize = 6, bins = 3 3 3
  2 neighbor lists, perpetual/occasional/extra = 2 0 0
  (1) pair reaxff, perpetual
      attributes: half, newton off, ghost
      pair build: half/bin/ghost/newtoff
      stencil: full/ghost/bin/3d
      bin: standard
  (2) fix qeq/reaxff, perpetual, copy from (1)
      attributes: half, newton off
      pair build: copy
      stencil: none
      bin: none
Per MPI rank memory allocation (min/avg/max) = 61.49 | 62.01 | 62.65 Mbytes
   Step          Time           Temp          Press          PotEng         KinEng         TotEng         Volume        Density    
         0   0              1198.4362     -10235.262     -30168.925      768.04677     -29400.878      2841.7947      2.3311855    
      1000   250            1126.2397     -13288.144     -30271.827      721.77791     -29550.049      2821.987       2.3475483    
      2000   500            1183.0236     -12669.405     -30209.809      758.16927     -29451.64       2859.4685      2.3167769    
      3000   750            1111.6594     -549.7611      -30119.388      712.43379     -29406.955      2847.8227      2.3262511    
      4000   1000           1264.8904      41252.442     -30096.395      810.63558     -29285.759      2808.4834      2.3588356    
      5000   1250           1192.6006      3422.0724     -30130.997      764.30688     -29366.69       2814.9015      2.3534574    
      6000   1500           1267.2663     -341.84634     -30178.752      812.15824     -29366.594      2852.6551      2.3223104    
      7000   1750           1403.2718     -20684.286     -30166.401      899.32061     -29267.08       2847.0783      2.3268593    
      8000   2000           1206.5347     -22921.143     -30195.952      773.23693     -29422.716      2808.5884      2.3587474    
      9000   2250           1350.1633      33233.214     -30111.992      865.28477     -29246.707      2831.449       2.3397033    
     10000   2500           1280.8084      22659.149     -30206.752      820.837       -29385.915      2808.0372      2.3592104    
     11000   2750           1373.8973     -1039.6707     -30152.2        880.4953      -29271.705      2821.67        2.347812     
     12000   3000           1354.0321     -18019.008     -30078.949      867.76417     -29211.184      2882.2054      2.2985005    
     13000   3250           1442.4148     -26999.027     -30085.57       924.40635     -29161.164      2854.8643      2.3205133    
     14000   3500           1404.8992      18378.825     -30124.759      900.36357     -29224.395      2831.9079      2.3393242    
     15000   3750           1429.7777      24750.929     -29957.086      916.30757     -29040.778      2845.6877      2.3279963    
     16000   4000           1465.3659     -20508.953     -30073.887      939.11512     -29134.771      2870.2847      2.3080465    
     17000   4250           1461.5147     -2953.3908     -30053.821      936.64698     -29117.174      2841.3549      2.3315463    
     18000   4500           1445.0772      11575.019     -30043.241      926.11264     -29117.128      2836.0404      2.3359155    
     19000   4750           1329.7302      14598.853     -30022.61       852.18973     -29170.42       2853.4819      2.3216375    
     20000   5000           1577.7905      30933.171     -30005.991      1011.1652     -28994.826      2822.4118      2.3471949    
     21000   5250           1408.3606      30986.436     -30016.414      902.58194     -29113.832      2823.1162      2.3466092    
     22000   5500           1499.9563     -2746.4515     -29985.416      961.28326     -29024.133      2860.2931      2.316109     
     23000   5750           1547.5519     -19909.814     -29845.773      991.78601     -28853.987      2881.947       2.2987066    
     24000   6000           1517.2473      29264.066     -29968.552      972.36459     -28996.188      2826.4666      2.3438276    
     25000   6250           1395.993      -3303.3719     -30000.963      894.65587     -29106.307      2852.1898      2.3226893    
     26000   6500           1592.7441     -3311.4136     -29909.262      1020.7485     -28888.514      2854.5932      2.3207336    
     27000   6750           1358.6362      15887.055     -29947.245      870.71482     -29076.53       2824.1         2.3457918    
     28000   7000           1576.5737     -10294.464     -29842.184      1010.3853     -28831.798      2896.7808      2.2869354    
     29000   7250           1657.8123      2021.5607     -30003.025      1062.4491     -28940.575      2853.3657      2.3217321    
     30000   7500           1541.9226     -5254.3124     -29872.176      988.17832     -28883.997      2866.1537      2.3113731    
     31000   7750           1546.3267      1847.6837     -29829.729      991.00081     -28838.728      2871.2738      2.3072514    
     32000   8000           1448.1933      2825.0976     -29871.045      928.10964     -28942.936      2852.882       2.3221257    
     33000   8250           1794.1686     -40696.335     -29868.691      1149.8363     -28718.854      2889.9393      2.2923494    
     34000   8500           1555.3332      11037.076     -29912.512      996.77284     -28915.739      2858.5383      2.3175308    
     35000   8750           1766.041       17936.245     -29925.861      1131.8101     -28794.051      2838.9378      2.3335314    
     36000   9000           1663.954      -19444.42      -29730.881      1066.3851     -28664.496      2872.0843      2.3066003    
     37000   9250           1598.6073     -9143.4331     -29929.074      1024.5061     -28904.568      2873.6799      2.3053196    
     38000   9500           1741.3171     -16928.519     -29798.645      1115.9652     -28682.679      2868.7202      2.3093052    
     39000   9750           1599.2561      23122.835     -29815.986      1024.9219     -28791.064      2885.6668      2.2957434    
     40000   10000          1732.9632     -7180.8721     -29764.013      1110.6113     -28653.401      2921.4257      2.267643     
     41000   10250          1789.9273     -65.224856     -29702.881      1147.1182     -28555.762      2891.0847      2.2914412    
     42000   10500          1630.6373     -5466.1533     -29918.265      1045.0333     -28873.231      2874.3739      2.304763     
     43000   10750          1517.4495      18962.921     -29829.928      972.49419     -28857.434      2883.2096      2.2977       
     44000   11000          1782.4165      3976.9492     -29676.956      1142.3047     -28534.652      2896.7879      2.2869298    
     45000   11250          1716.9141     -47166.703     -29687.797      1100.3259     -28587.472      2924.7257      2.2650844    
     46000   11500          1717.62       -31391.122     -29746.633      1100.7783     -28645.855      2894.5468      2.2887004    
     47000   11750          1954.9622      8137.0276     -29674.08       1252.8848     -28421.196      2929.9533      2.261043     
     48000   12000          1767.7597     -3335.0108     -29737.191      1132.9115     -28604.28       2881.5305      2.2990389    
     49000   12250          1888.1944      13768.042     -29615.08       1210.095      -28404.985      2928.3254      2.2623       
     50000   12500          1935.1741      18483.455     -29668.476      1240.2031     -28428.273      2906.5362      2.2792596    
     51000   12750          1559.7351     -17573.833     -29580.455      999.59395     -28580.861      2940.9358      2.2525995    
     52000   13000          2099.3905      42286.784     -29714.822      1345.4452     -28369.377      2905.6502      2.2799546    
     53000   13250          1991.3633      11407.67      -29572.537      1276.2133     -28296.324      2940.158       2.2531955    
     54000   13500          1936.2934     -4550.286      -29391.944      1240.9204     -28151.024      2991.2403      2.214717     
     55000   13750          1915.347      -876.9653      -29623.635      1227.4964     -28396.139      2964.5298      2.2346716    
     56000   14000          1847.3597     -14545.406     -29588.793      1183.9251     -28404.868      2953.9989      2.2426381    
     57000   14250          1884.6745     -11854.173     -29353.925      1207.8392     -28146.086      2943.6287      2.2505388    
     58000   14500          1817.4911      7685.9351     -29510.969      1164.7831     -28346.186      2980.5039      2.2226948    
     59000   14750          2168.9006     -1539.6896     -29568.433      1389.9924     -28178.441      2893.2232      2.2897475    
     60000   15000          2150.7048      10320.199     -29477.391      1378.3311     -28099.06       3005.5202      2.2041944    
     61000   15250          1821.2193      23249.094     -29558.685      1167.1724     -28391.513      2859.8158      2.3164955    
     62000   15500          2130.5478     -20226.654     -29550.632      1365.413      -28185.219      2977.4129      2.2250023    
     63000   15750          2120.8944      11086.695     -29461.394      1359.2264     -28102.168      2920.964       2.2680015    
     64000   16000          1927.81        26680.871     -29561.069      1235.4836     -28325.586      2886.041       2.2954458    
     65000   16250          2038.5002      5264.0345     -29438.642      1306.4221     -28132.219      2943.4434      2.2506804    
     66000   16500          2078.4644     -6340.8055     -29492.999      1332.0341     -28160.965      2949.8468      2.2457948    
     67000   16750          2236.7305      55896.849     -29421.306      1433.4628     -27987.843      2944.1038      2.2501756    
     68000   17000          1930.2138     -18553.04      -29358.208      1237.0242     -28121.184      3030.1443      2.1862822    
     69000   17250          2189.6711      22752.349     -29412.828      1403.3037     -28009.524      2967.7698      2.232232     
     70000   17500          2272.5063      174.4472      -29252.22       1456.3906     -27795.829      2983.1974      2.220688     
     71000   17750          2099.7147     -20669.485     -29417.152      1345.6529     -28071.499      2989.8534      2.2157443    
     72000   18000          2433.2233      39325.732     -29371.205      1559.3899     -27811.815      2965.5796      2.2338806    
     73000   18250          2196.0062     -23014.64      -29440.333      1407.3636     -28032.97       2991.8236      2.2142851    
     74000   18500          2227.9845     -4415.2205     -29327.571      1427.8577     -27899.713      2969.3655      2.2310324    
     75000   18750          2362.0499     -6173.1678     -29199.868      1513.7768     -27686.091      2993.8794      2.2127647    
     76000   19000          2083.9092      13741.126     -29297.448      1335.5236     -27961.925      2969.4211      2.2309906    
     77000   19250          2535.3115      23496.763     -29342.256      1624.8156     -27717.441      2975.5499      2.2263954    
     78000   19500          2064.2796      31966.526     -29313.344      1322.9435     -27990.401      2949.7221      2.2458897    
     79000   19750          2311.796      -6088.9824     -29373.412      1481.5703     -27891.842      2988.52        2.2167329    
     80000   20000          2450.1084      14411.725     -29334.659      1570.2112     -27764.448      2968.0406      2.2320283    
Loop time of 1823.66 on 12 procs for 80000 steps with 216 atoms

Performance: 0.948 ns/day, 25.329 hours/ns, 43.868 timesteps/s, 9.475 katom-step/s
76.4% CPU use with 12 MPI tasks x 1 OpenMP threads

MPI task timing breakdown:
Section |  min time  |  avg time  |  max time  |%varavg| %total
---------------------------------------------------------------
Pair    | 918.08     | 1300.7     | 1506.3     | 462.5 | 71.32
Neigh   | 16.977     | 20.773     | 23.244     |  37.8 |  1.14
Comm    | 92.766     | 299.02     | 682.6      | 967.3 | 16.40
Output  | 0.016282   | 0.027607   | 0.029272   |   2.1 |  0.00
Modify  | 200.85     | 202.6      | 205.3      |   9.5 | 11.11
Other   |            | 0.5899     |            |       |  0.03

Nlocal:             18 ave          21 max          14 min
Histogram: 1 0 0 0 5 1 0 3 0 2
Nghost:        2062.67 ave        2101 max        2023 min
Histogram: 3 0 0 2 1 0 1 2 1 2
Neighs:        9229.42 ave       10715 max        7186 min
Histogram: 1 0 0 0 5 1 0 3 0 2

Total # of neighbors = 110753
Ave neighs/atom = 512.74537
Neighbor list builds = 1489
Dangerous builds = 0
unfix           heat

# Correct order: PLUMED first, then NPT production.
fix             plm all plumed plumedfile ${plumedfile} outfile ${rundir}/plumed.log
fix             plm all plumed plumedfile kode_lammps/plumed/plumed_pH7p0_N192_localq6.dat outfile ${rundir}/plumed.log
fix             plm all plumed plumedfile kode_lammps/plumed/plumed_pH7p0_N192_localq6.dat outfile runs/pH7p0_N192/05_wtmetad_plumed/plumed.log
fix             prod all npt temp ${Tprod} ${Tprod} 100.0 iso 1.0 1.0 1000.0
fix             prod all npt temp 2300 ${Tprod} 100.0 iso 1.0 1.0 1000.0
fix             prod all npt temp 2300 2300 100.0 iso 1.0 1.0 1000.0
run             ${nmeta}
run             240000
Per MPI rank memory allocation (min/avg/max) = 62.73 | 63.25 | 63.87 Mbytes
   Step          Time           Temp          Press          PotEng         KinEng         TotEng         Volume        Density    
     80000   20000          2450.1084      14411.158     -29334.659      1570.2112     -27764.448      2968.0406      2.2320283    
     81000   20250          2282.9808     -13024.886     -29273.89       1463.1034     -27810.786      3021.2324      2.1927312    
     82000   20500          2445.4007      673.0484      -29303.016      1567.1941     -27735.822      2950.8589      2.2450245    
     83000   20750          2172.9245     -3645.6962     -29300.688      1392.5711     -27908.117      3018.9446      2.1943929    
     84000   21000          2282.6236      51277.06      -29266.664      1462.8745     -27803.789      2939.4833      2.2537126    
     85000   21250          2173.4221     -8102.0848     -29215.455      1392.8901     -27822.565      3054.8432      2.1686058    
     86000   21500          2300.8342      18425.036     -29154.596      1474.5452     -27680.051      2984.2559      2.2199003    
     87000   21750          2222.5845     -25455.594     -29292.435      1424.397      -27868.038      3002.2569      2.2065902    
     88000   22000          2395.0532      17041.977     -29311.941      1534.9277     -27777.013      3011.0584      2.2001402    
     89000   22250          2662.6962     -6589.4802     -29095.778      1706.4532     -27389.325      3030.943       2.1857061    
     90000   22500          2183.8661     -28791.711     -29130.588      1399.5834     -27731.004      2975.1273      2.2267116    
     91000   22750          2339.5207      21215.828     -29397.242      1499.3384     -27897.903      2975.3244      2.2265641    
     92000   23000          2370.5954     -7667.639      -29129.669      1519.2533     -27610.416      3026.7301      2.1887484    
     93000   23250          2305.8338     -15686.912     -29273.072      1477.7493     -27795.323      3046.8884      2.1742676    
     94000   23500          2105.6239      17689.291     -29139.776      1349.4399     -27790.336      2966.3211      2.2333221    
     95000   23750          2164.5235     -9507.8205     -29290.63       1387.1872     -27903.443      2961.7044      2.2368034    
     96000   24000          2215.784       3272.5674     -29183.522      1420.0387     -27763.483      2992.7638      2.2135895    
     97000   24250          2391.9443      8619.2155     -29225.334      1532.9353     -27692.399      3017.0209      2.1957921    
     98000   24500          2115.0134      24819.154     -29264.463      1355.4575     -27909.005      2928.8528      2.2618926    
     99000   24750          2316.8212     -33797.446     -29250.712      1484.7909     -27765.922      3032.0962      2.1848748    
    100000   25000          2570.6191     -32596.111     -29181.905      1647.4434     -27534.461      3018.2336      2.1949098    
    101000   25250          2316.9231     -5771.5514     -29358.044      1484.8561     -27873.188      2959.6614      2.2383475    
    102000   25500          2350.1004     -30199.493     -29111.249      1506.1186     -27605.13       3007.8339      2.2024988    
    103000   25750          2458.9716      1957.0269     -29228.128      1575.8914     -27652.237      2998.9108      2.2090523    
    104000   26000          2241.8147      294.36821     -29233.813      1436.7211     -27797.092      2965.3114      2.2340826    
    105000   26250          2236.7824      12795.639     -29245.846      1433.496      -27812.35       2978.8254      2.2239473    
    106000   26500          2454.9457     -17884.737     -29381.033      1573.3113     -27807.722      2977.7095      2.2247807    
    107000   26750          2257.2878     -22338.619     -29419.707      1446.6374     -27973.07       2985.5731      2.2189209    
    108000   27000          2309.2272     -9412.192      -29167.111      1479.924      -27687.187      2996.0573      2.2111561    
    109000   27250          2176.7207      22812.918     -29264.18       1395.0041     -27869.175      2993.2468      2.2132324    
    110000   27500          2086.4692      26746.842     -29368.819      1337.1642     -28031.655      2973.7777      2.2277222    
    111000   27750          2419.9702     -4884.9314     -29287.423      1550.8964     -27736.527      3002.6681      2.206288     
    112000   28000          2113.5965      8746.9284     -29154.141      1354.5494     -27799.591      3008.8321      2.2017681    
    113000   28250          2226.9246     -12201.795     -29321.587      1427.1784     -27894.408      2963.7994      2.2352223    
    114000   28500          2243.0117     -28166.422     -29225.692      1437.4883     -27788.204      2983.5419      2.2204316    
    115000   28750          2406.0109     -17619.434     -29389.874      1541.9502     -27847.924      2979.9781      2.223087     
    116000   29000          2279.592      -16461.838     -29308.343      1460.9316     -27847.411      2968.8213      2.2314413    
    117000   29250          2270.6884     -2744.4327     -29181.283      1455.2255     -27726.058      3019.767       2.1937953    
    118000   29500          2165.3186     -17244.062     -29422.108      1387.6968     -28034.411      3004.0188      2.205296     
    119000   29750          2275.6992      7722.0403     -29264.746      1458.4368     -27806.309      2919.0867      2.26946      
    120000   30000          2318.271      -9993.9321     -29226.475      1485.72       -27740.755      3047.8161      2.1736058    
    121000   30250          2410.3045      15889.997     -29249.354      1544.7019     -27704.652      2977.0089      2.2253043    
    122000   30500          2326.4448      4777.5444     -29329.584      1490.9583     -27838.626      2975.0262      2.2267873    
    123000   30750          2574.2304     -16563.795     -29193.314      1649.7578     -27543.556      3012.1408      2.1993496    
    124000   31000          2365.0335      27250.805     -29379.179      1515.6889     -27863.49       2939.5956      2.2536265    
    125000   31250          2061.9388     -17677.325     -29262.091      1321.4433     -27940.647      2981.8968      2.2216566    
    126000   31500          2298.2545     -10372.968     -29131.843      1472.8919     -27658.951      2981.5255      2.2219333    
    127000   31750          2257.264       274.86155     -29313.003      1446.6222     -27866.381      3008.0491      2.2023413    
    128000   32000          2292.323       9149.7625     -29290.873      1469.0906     -27821.782      2935.2808      2.2569393    
    129000   32250          2345.8917     -13718.047     -29338.247      1503.4214     -27834.826      2980.6132      2.2226133    
    130000   32500          2390.5415     -1832.2811     -29423.118      1532.0363     -27891.081      2952.3531      2.2438883    
    131000   32750          2039.0361      890.89359     -29067.973      1306.7655     -27761.208      3034.8704      2.1828776    
    132000   33000          2246.5062     -21403.171     -29306.328      1439.7277     -27866.601      3002.3624      2.2065126    
    133000   33250          2385.7682      14842.633     -29268.081      1528.9772     -27739.103      2977.3344      2.225061     
    134000   33500          2136.6242      1245.5016     -29322.664      1369.3072     -27953.357      3016.3877      2.196253     
    135000   33750          2547.2434      11325.076     -29359.791      1632.4625     -27727.328      2951.8442      2.2442751    
    136000   34000          2292.6019     -38466.155     -29224.288      1469.2693     -27755.019      3041.7742      2.1779232    
    137000   34250          2281.6836      8743.241      -29318.121      1462.2721     -27855.849      2949.7352      2.2458798    
    138000   34500          2251.0367     -20978.319     -29068.156      1442.6312     -27625.525      3004.7385      2.2047677    
    139000   34750          2288.6429     -7582.8913     -29255.542      1466.7321     -27788.81       3034.1971      2.183362     
    140000   35000          2220.3634      18548.173     -29159.566      1422.9735     -27736.592      2995.9761      2.2112161    
    141000   35250          2237.0652     -16045.259     -29085.384      1433.6773     -27651.707      3050.6145      2.1716118    
    142000   35500          2426.4791      20670.578     -29200.479      1555.0677     -27645.411      2985.3083      2.2191177    
    143000   35750          2172.1105     -17372.849     -29159.65       1392.0495     -27767.601      3064.2638      2.1619387    
    144000   36000          2408.6064     -31485.53      -29083.143      1543.6136     -27539.529      3032.3372      2.1847012    
    145000   36250          2300.7256     -5007.1733     -29206.723      1474.4756     -27732.247      2978.3638      2.224292     
    146000   36500          2144.8412     -30994.942     -29267.663      1374.5733     -27893.09       3014.9868      2.1972735    
    147000   36750          2370.5334     -26015.624     -29169.739      1519.2136     -27650.525      2983.4825      2.2204758    
    148000   37000          2241.702      -4585.8474     -29230.602      1436.6489     -27793.954      3040.0337      2.1791701    
    149000   37250          2192.8782     -6951.2912     -29426.235      1405.359      -28020.876      2958.3469      2.2393421    
    150000   37500          2132.8931     -5033.2035     -29077.709      1366.9161     -27710.793      3008.0925      2.2023094    
    151000   37750          2260.5022      45384.534     -29062.616      1448.6974     -27613.918      3026.343       2.1890283    
    152000   38000          2272.6673     -3652.565      -29176.299      1456.4937     -27719.805      3043.6481      2.1765823    
    153000   38250          2371.204       41634.973     -29268.322      1519.6434     -27748.679      2976.4893      2.2256928    
    154000   38500          2356.9206      7711.7523     -29103.711      1510.4895     -27593.221      3118.9835      2.1240095    
    155000   38750          2188.0619      13209.769     -29247.059      1402.2723     -27844.786      2989.1855      2.2162394    
    156000   39000          2181.3229     -16527.659     -29174.475      1397.9535     -27776.521      3020.8894      2.1929802    
    157000   39250          2530.5228     -13412.311     -29261.575      1621.7467     -27639.828      3023.4307      2.1911369    
    158000   39500          2324.326      -789.25506     -29270.047      1489.6004     -27780.447      3041.2132      2.1783249    
    159000   39750          2479.8702     -15070.232     -29214.182      1589.2847     -27624.897      3023.8785      2.1908124    
    160000   40000          2215.573      -16705.963     -29101.637      1419.9035     -27681.733      3117.2082      2.1252192    
    161000   40250          2354.877      -9752.6379     -29230.754      1509.1798     -27721.574      3007.8995      2.2024508    
    162000   40500          2198.7731     -17000.161     -29261.784      1409.1368     -27852.647      3068.7359      2.1587881    
    163000   40750          2193.9137     -20540.724     -29211.531      1406.0226     -27805.508      2993.7174      2.2128845    
    164000   41000          2367.1812      13199.474     -29333.894      1517.0653     -27816.829      2995.348       2.2116798    
    165000   41250          2319.5297     -4273.0964     -29266.394      1486.5267     -27779.867      3046.534       2.1745205    
    166000   41500          2194.3022      3695.4187     -29120.154      1406.2716     -27713.882      3007.0413      2.2030794    
    167000   41750          2156.4232      21440.172     -29243.735      1381.9959     -27861.739      3001.6405      2.2070433    
    168000   42000          2273.7124     -3720.9092     -29112.815      1457.1635     -27655.652      3025.2021      2.1898539    
    169000   42250          2293.9932      28118.481     -29084.369      1470.1609     -27614.208      3013.4576      2.1983885    
    170000   42500          2233.3886     -564.31451     -29264.582      1431.3211     -27833.26       3023.7801      2.1908837    
    171000   42750          2498.8185      9562.1706     -29110.501      1601.4282     -27509.073      3055.0181      2.1684816    
    172000   43000          2509.0792     -3569.3888     -29369.651      1608.004      -27761.647      3030.5006      2.1860252    
    173000   43250          2372.143       33828.689     -29303.17       1520.2452     -27782.925      3016.0202      2.1965206    
    174000   43500          2329.048       14249.216     -29051.322      1492.6267     -27558.695      3074.5953      2.154674     
    175000   43750          2294.5588     -27092.887     -29291.14       1470.5234     -27820.617      3026.0835      2.1892161    
    176000   44000          2257.7043      19727.742     -29270.298      1446.9043     -27823.394      3012.3041      2.1992303    
    177000   44250          2245.2136      24133.904     -29286.149      1438.8994     -27847.249      3048.2526      2.1732945    
    178000   44500          2241.064      -5688.8182     -29246.754      1436.24       -27810.514      3010.5472      2.2005138    
    179000   44750          2344.4179      5774.0549     -29173.785      1502.4768     -27671.308      3060.7943      2.1643894    
    180000   45000          2269.628       20062.987     -29202.997      1454.546      -27748.451      3041.4229      2.1781747    
    181000   45250          2351.9204      31104.414     -29344.23       1507.285      -27836.945      2985.7854      2.2187631    
    182000   45500          2501.9166     -193.19761     -29086.035      1603.4137     -27482.621      3068.9485      2.1586386    
    183000   45750          2288.8507     -1945.5825     -29161.83       1466.8653     -27694.965      3055.5397      2.1681114    
    184000   46000          2311.5716     -17810.256     -29375.414      1481.4265     -27893.987      2964.5309      2.2346708    
    185000   46250          2184.3552      17059.581     -29380.288      1399.8968     -27980.391      3018.8746      2.1944437    
    186000   46500          2337.647      -11756.932     -29195.72       1498.1376     -27697.582      2997.6201      2.2100034    
    187000   46750          2298.7967     -31222.346     -29389.277      1473.2394     -27916.037      3053.7063      2.1694131    
    188000   47000          2325.6097      17178.636     -29169.647      1490.4232     -27679.223      2973.2003      2.2281548    
    189000   47250          2303.8927     -25611.056     -29197.021      1476.5053     -27720.515      3044.9636      2.175642     
    190000   47500          2032.3629     -11107.186     -29326.479      1302.4889     -28023.991      2964.5608      2.2346482    
    191000   47750          2299.7133      8202.9241     -29264.123      1473.8269     -27790.296      3044.4847      2.1759842    
    192000   48000          2497.4771      3466.536      -29136.833      1600.5685     -27536.264      3049.8243      2.1721745    
    193000   48250          2276.6027     -15268.111     -29225.711      1459.0158     -27766.695      3050.7803      2.1714938    
    194000   48500          2351.1951      9121.9198     -29217.69       1506.8202     -27710.87       2981.4411      2.2219961    
    195000   48750          2466.8019     -13575.01      -29360.98       1580.9096     -27780.07       3081.4639      2.1498712    
    196000   49000          2474.9286      22399.651     -29332.338      1586.1178     -27746.22       2986.8352      2.2179833    
    197000   49250          2376.7938     -3304.3747     -29252.586      1523.2257     -27729.36       3044.7208      2.1758155    
    198000   49500          2426.7161     -21390.524     -29339.127      1555.2197     -27783.907      3008.1975      2.2022326    
    199000   49750          2368.1884     -1296.3988     -29153.169      1517.7107     -27635.458      3038.8803      2.1799972    
    200000   50000          2112.4444     -7463.4068     -29229.941      1353.811      -27876.13       3009.5215      2.2012637    
    201000   50250          2592.0066      8794.5478     -29337.145      1661.1501     -27675.995      3032.901       2.184295     
    202000   50500          2350.5552     -15577.526     -29203.879      1506.4101     -27697.469      3060.5603      2.1645548    
    203000   50750          2247.4052      3047.1352     -29242.233      1440.3039     -27801.929      3012.2465      2.1992724    
    204000   51000          2214.9439     -3787.6488     -29272.673      1419.5003     -27853.173      3047.8332      2.1735936    
    205000   51250          2234.23       -4487.3294     -29075.818      1431.8603     -27643.957      3041.3981      2.1781925    
    206000   51500          2132.0232      11219.17      -29309.075      1366.3586     -27942.716      3032.8458      2.1843348    
    207000   51750          2288.9846      5112.8643     -29247.618      1466.9511     -27780.666      3022.6601      2.1916955    
    208000   52000          2296.6909      22488.385     -28986.951      1471.8899     -27515.061      3055.9913      2.167791     
    209000   52250          2287.5548     -10631.077     -29346.041      1466.0347     -27880.006      3039.2613      2.1797239    
    210000   52500          2450.8161      35672.604     -29226.843      1570.6647     -27656.178      2992.1525      2.2140418    
    211000   52750          2374.2459     -24058.673     -29396.464      1521.5928     -27874.871      3077.3287      2.1527602    
    212000   53000          2348.1406     -7121.2851     -29250.294      1504.8626     -27745.432      3011.1424      2.2000788    
    213000   53250          2294.9848      50293.55      -29231.016      1470.7964     -27760.22       3055.934       2.1678317    
    214000   53500          2656.056       2167.0741     -29129.925      1702.1977     -27427.727      3080.6368      2.1504485    
    215000   53750          2383.2935     -263.48337     -29234.027      1527.3912     -27706.636      3004.0236      2.2052925    
    216000   54000          2233.7158     -19418.346     -29226.088      1431.5308     -27794.557      3089.6856      2.1441504    
    217000   54250          2538.8782     -348.14598     -29204.857      1627.1014     -27577.755      2995.9403      2.2112425    
    218000   54500          2336.6757     -8403.6076     -29301.158      1497.5151     -27803.643      3035.2274      2.1826208    
    219000   54750          2448.8335     -29680.64      -29172.373      1569.3941     -27602.979      3071.3684      2.1569378    
    220000   55000          2286.152      -9541.7858     -28999.699      1465.1358     -27534.564      3061.8641      2.1636331    
    221000   55250          2564.8992      47480.336     -29372.209      1643.7776     -27728.431      2994.0709      2.2126231    
    222000   55500          2107.7788      53466.478     -29263.399      1350.821      -27912.578      2987.5728      2.2174357    
    223000   55750          2232.9598      3253.0265     -29225.135      1431.0462     -27794.088      3048.0884      2.1734115    
    224000   56000          2368.1967      4160.1723     -29106.386      1517.7161     -27588.67       3030.3004      2.1861696    
    225000   56250          2279.1887     -7534.6794     -29146.458      1460.6731     -27685.785      3127.2074      2.1184238    
    226000   56500          2325.1414     -19534.95      -29220.071      1490.123      -27729.948      3009.5161      2.2012677    
    227000   56750          2058.3684     -3872.0119     -29340.355      1319.1551     -28021.2        2968.9489      2.2313455    
    228000   57000          2328.3406     -15776.723     -29227.913      1492.1733     -27735.74       3068.516       2.1589428    
    229000   57250          2236.6276     -10047.475     -29123.158      1433.3968     -27689.761      3013.3399      2.1984744    
    230000   57500          2036.8391      22979.628     -29292.986      1305.3575     -27987.628      2968.6207      2.2315921    
    231000   57750          2020.4286     -23638.893     -29057.955      1294.8405     -27763.115      3070.7404      2.1573789    
    232000   58000          2360.7558      20565.884     -29142.719      1512.9474     -27629.771      2992.7106      2.2136289    
    233000   58250          2167.4918     -14480.459     -29315.694      1389.0895     -27926.604      3042.0833      2.1777019    
    234000   58500          2288.9866      42325.354     -29149.513      1466.9524     -27682.56       3045.8114      2.1750364    
    235000   58750          2422.9439      6182.2725     -29275.441      1552.8021     -27722.639      3064.9005      2.1614896    
    236000   59000          2098.6595     -353.06062     -29321.536      1344.9767     -27976.56       3013.543       2.1983262    
    237000   59250          2391.7458     -14815.63      -29248.1        1532.8081     -27715.292      3039.5077      2.1795472    
    238000   59500          2191.6845     -18511.222     -29181.102      1404.5939     -27776.508      3066.7266      2.1602025    
    239000   59750          2543.6008      424.13376     -29239.983      1630.128      -27609.855      2987.933       2.2171684    
    240000   60000          2321.0558     -22578.869     -29416.89       1487.5047     -27929.385      3052.0278      2.1706063    
    241000   60250          2325.6798      3931.581      -29241.693      1490.4681     -27751.225      2995.7784      2.211362     
    242000   60500          2322.3279      25734.002     -29301.935      1488.32       -27813.615      2979.6191      2.2233548    
    243000   60750          2129.7659     -479.86303     -29168.958      1364.9119     -27804.046      3075.4474      2.154077     
    244000   61000          2322.0224      1693.7073     -29189.652      1488.1242     -27701.528      3008.0882      2.2023126    
    245000   61250          2281.4524     -6685.6722     -29287.4        1462.1239     -27825.276      3069.9958      2.1579021    
    246000   61500          2400.6781      7595.7869     -29174.572      1538.5326     -27636.039      3058.0411      2.166338     
    247000   61750          2451.0152      13122.446     -29358.915      1570.7923     -27788.122      3015.7534      2.196715     
    248000   62000          2241.1776      3326.2911     -29486.919      1436.3128     -28050.606      3020.5448      2.1932304    
    249000   62250          2405.6485     -1477.4134     -29300.752      1541.718      -27759.034      3029.386       2.1868294    
    250000   62500          2384.8499      15002.497     -29068.345      1528.3887     -27539.956      3106.4302      2.1325928    
    251000   62750          2129.1322     -551.26929     -29017.538      1364.5058     -27653.032      3053.4179      2.1696181    
    252000   63000          2296.3328      199.64665     -29359.014      1471.6604     -27887.354      2993.2586      2.2132236    
    253000   63250          2294.5489     -29531.675     -29092.485      1470.5171     -27621.967      3126.0396      2.1192152    
    254000   63500          2270.0043     -7468.7452     -29211.031      1454.7871     -27756.244      3052.2851      2.1704233    
    255000   63750          2332.2601      24444.316     -29235.917      1494.6852     -27741.232      3005.0581      2.2045333    
    256000   64000          2215.6199      25076.474     -29334.47       1419.9336     -27914.537      3038.0905      2.1805639    
    257000   64250          2431.2586     -18677.18      -29371.263      1558.1308     -27813.132      3029.5275      2.1867273    
    258000   64500          2439.622      -877.54673     -29248.23       1563.4907     -27684.739      3038.8169      2.1800427    
    259000   64750          2308.5755     -5800.9859     -29200.772      1479.5064     -27721.266      3072.8214      2.1559179    
    260000   65000          2373.0211      44425.605     -29372.036      1520.8079     -27851.228      2937.0964      2.2555442    
    261000   65250          2316.894      -16529.749     -29245.098      1484.8375     -27760.261      3068.9416      2.1586434    
    262000   65500          2327.354      -1552.9492     -29097.547      1491.5411     -27606.006      3100.9478      2.1363631    
    263000   65750          2227.2509     -15338.44      -29351.839      1427.3876     -27924.452      2993.2945      2.213197     
    264000   66000          2291.9661      20303.574     -29107.918      1468.8619     -27639.056      3005.3408      2.2043259    
    265000   66250          2153.9197     -11400.336     -29203.605      1380.3915     -27823.214      3127.1482      2.1184639    
    266000   66500          2163.9249      22748.039     -29137.384      1386.8035     -27750.581      2946.9814      2.2479784    
    267000   66750          2061.9604      26166.226     -29300.485      1321.4571     -27979.028      3018.2881      2.1948702    
    268000   67000          2127.9078     -3307.3344     -29012.03       1363.7212     -27648.308      3056.8363      2.1671918    
    269000   67250          2190.9677      13392.627     -29161.082      1404.1346     -27756.948      3026.5839      2.1888541    
    270000   67500          2304.9113     -3583.7919     -29222.724      1477.1581     -27745.566      3028.5957      2.1874001    
    271000   67750          2252.929       18432.36      -29013.59       1443.844      -27569.746      3069.2285      2.1584416    
    272000   68000          2198.1207      13670.411     -29195.558      1408.7188     -27786.839      3009.2933      2.2014307    
    273000   68250          2181.8113     -4714.3576     -29139.824      1398.2665     -27741.557      2998.7468      2.2091731    
    274000   68500          2490.0101      15594.684     -29086.057      1595.7831     -27490.274      3053.0271      2.1698957    
    275000   68750          2474.3832     -7108.3611     -29219.022      1585.7683     -27633.254      3070.3236      2.1576718    
    276000   69000          2305.641      -4566.497      -29185.149      1477.6257     -27707.523      3013.2848      2.1985146    
    277000   69250          2160.2635     -2104.6314     -29264.349      1384.4571     -27879.892      2996.581       2.2107697    
    278000   69500          2287.9649     -5388.8428     -29129.339      1466.2976     -27663.041      3094.7865      2.1406163    
    279000   69750          2381.5191      18235.62      -29227.761      1526.2541     -27701.507      3038.2675      2.1804369    
    280000   70000          2111.2333      21344.517     -29410.741      1353.0349     -28057.706      2975.7905      2.2262154    
    281000   70250          2221.2137     -17398.204     -29337.641      1423.5185     -27914.123      3031.3259      2.18543      
    282000   70500          2275.427       22725.951     -29121.47       1458.2624     -27663.208      3010.9819      2.2001961    
    283000   70750          2113.5982     -34510.268     -29111.52       1354.5504     -27756.97       3181.362       2.082363     
    284000   71000          2422.799       36202.119     -29069.412      1552.7093     -27516.702      2982.8703      2.2209315    
    285000   71250          2213.0102      3038.2929     -29188.74       1418.2611     -27770.479      3087.7594      2.145488     
    286000   71500          2327.1922      7894.5815     -29098.145      1491.4373     -27606.707      3064.5399      2.161744     
    287000   71750          2476.7775     -8448.0553     -29078.227      1587.3027     -27490.925      3065.0951      2.1613524    
    288000   72000          2258.4875      4365.4624     -29234.29       1447.4063     -27786.883      3046.4296      2.174595     
    289000   72250          2333.3021      6077.4325     -29148.842      1495.353      -27653.489      3036.3507      2.1818134    
    290000   72500          2548.4437      10388.451     -29356.413      1633.2317     -27723.181      3039.6215      2.1794656    
    291000   72750          2244.5465      2295.1227     -29222.369      1438.4718     -27783.898      2985.9986      2.2186047    
    292000   73000          2297.5687     -22865.471     -29041.284      1472.4524     -27568.832      3053.3974      2.1696326    
    293000   73250          2220.1633     -6722.5899     -29198.811      1422.8453     -27775.965      3111.5409      2.12909      
    294000   73500          2268.135       33900.215     -29329.691      1453.5891     -27876.102      2978.8212      2.2239504    
    295000   73750          1973.2745     -16746.451     -29297.575      1264.6206     -28032.954      3013.8014      2.1981377    
    296000   74000          2330.5132      10657.367     -29243.219      1493.5657     -27749.653      2963.0661      2.2357755    
    297000   74250          2341.3813     -11538.286     -28979.732      1500.5308     -27479.202      3129.7804      2.1166823    
    298000   74500          2346.9672     -1773.1453     -29282.248      1504.1107     -27778.137      3024.5604      2.1903185    
    299000   74750          2166.3382      26440.664     -29280.002      1388.3502     -27891.652      3004.6427      2.2048381    
    300000   75000          2336.268      -793.58083     -29144.337      1497.2538     -27647.083      3049.5557      2.1723658    
    301000   75250          2511.358       26532.257     -29335.161      1609.4644     -27725.697      3022.6365      2.1917126    
    302000   75500          2339.1272      39892.581     -29269.155      1499.0862     -27770.069      3036.1442      2.1819617    
    303000   75750          2214.2894     -17700.967     -28975.293      1419.0809     -27556.212      3091.9357      2.1425901    
    304000   76000          2280.9103     -20754.862     -29132.518      1461.7765     -27670.742      3042.2732      2.177566     
    305000   76250          2160.3329     -14535.379     -29269.784      1384.5016     -27885.282      3028.326       2.187595     
    306000   76500          2314.4663     -713.36563     -29034.395      1483.2817     -27551.113      3090.632       2.1434938    
    307000   76750          2234.0573     -5907.5837     -29238.676      1431.7496     -27806.926      3054.8834      2.1685772    
    308000   77000          2494.4451     -2251.2529     -29093.72       1598.6254     -27495.095      3023.9975      2.1907262    
    309000   77250          2345.9229     -13067.062     -29206.6        1503.4413     -27703.158      3091.7465      2.1427211    
    310000   77500          2339.9303      63782.225     -29236.251      1499.6009     -27736.65       2991.658       2.2144077    
    311000   77750          2023.6528     -836.15142     -29250.437      1296.9068     -27953.531      3063.8061      2.1622617    
    312000   78000          2348.3067      43218.841     -29183.793      1504.9691     -27678.824      3009.0657      2.2015972    
    313000   78250          2145.0767      4424.3161     -29314.743      1374.7242     -27940.019      3052.9624      2.1699418    
    314000   78500          2350.1732      8852.6515     -29297.926      1506.1653     -27791.761      2993.8071      2.2128181    
    315000   78750          2267.6708     -11489.13      -29250.737      1453.2916     -27797.446      3021.796       2.1923222    
    316000   79000          2146.3336      5986.3168     -29197.252      1375.5298     -27821.722      3075.1377      2.154294     
    317000   79250          2286.0118      19726.35      -29179.091      1465.0459     -27714.045      3015.7455      2.1967207    
    318000   79500          2382.421      -22181.925     -29248.616      1526.8321     -27721.784      3078.3954      2.1520142    
    319000   79750          2226.0344      1307.1803     -29170.609      1426.608      -27744.001      3019.134       2.1942553    
    320000   80000          2319.8546     -19189.329     -29182.193      1486.7349     -27695.459      3061.3664      2.1639849    
Loop time of 10946.4 on 12 procs for 240000 steps with 216 atoms

Performance: 0.474 ns/day, 50.678 hours/ns, 21.925 timesteps/s, 4.736 katom-step/s
75.3% CPU use with 12 MPI tasks x 1 OpenMP threads

MPI task timing breakdown:
Section |  min time  |  avg time  |  max time  |%varavg| %total
---------------------------------------------------------------
Pair    | 2582.3     | 3615.1     | 4101.6     | 768.8 | 33.03
Neigh   | 57.789     | 66.709     | 72.367     |  51.8 |  0.61
Comm    | 327.78     | 814.94     | 1849.7     |1622.0 |  7.44
Output  | 0.040469   | 0.078275   | 0.083713   |   4.1 |  0.00
Modify  | 6441.3     | 6446.4     | 6453.8     |   4.6 | 58.89
Other   |            | 3.104      |            |       |  0.03

Nlocal:             18 ave          22 max          15 min
Histogram: 1 3 1 0 2 3 0 0 1 1
Nghost:        1990.83 ave        2022 max        1959 min
Histogram: 1 3 2 0 0 0 0 3 1 2
Neighs:        8956.92 ave       10906 max        7502 min
Histogram: 1 3 1 0 2 3 0 0 1 1

Total # of neighbors = 107483
Ave neighs/atom = 497.60648
Neighbor list builds = 5267
Dangerous builds = 0
unfix           prod
unfix           plm

write_data      ${rundir}/wtmetad_final.data
write_data      runs/pH7p0_N192/05_wtmetad_plumed/wtmetad_final.data
System init for write_data ...
write_restart   ${rundir}/wtmetad_final.restart
write_restart   runs/pH7p0_N192/05_wtmetad_plumed/wtmetad_final.restart
System init for write_restart ...
unfix           rb
unfix           qeq
undump          dmp
Total wall time: 3:32:50
