LAMMPS data file via write_data, version 29 Aug 2024, timestep = 320000, units = real

216 atoms
3 atom types

1.3199138329420883 15.840086167058356 xlo xhi
1.3199138329420883 15.840086167058356 ylo yhi
1.3199138329420883 15.840086167058356 zlo zhi

Masses

1 28.0855
2 15.9994
3 1.008

Atoms # charge

2 1 1.510826020657246 3.4967121239342442 3.010430881948482 3.163418223899546 0 0 0
72 2 -0.640996105871511 2.177867548822466 5.697590729619969 6.1286575130414915 0 0 0
69 2 -0.6753774390092124 2.62358124326904 3.4290054271857477 4.326808701746671 0 0 0
3 1 1.186500571952447 1.3643493428927105 4.474996110475553 5.402242843891583 0 0 0
8 1 1.211221892934615 6.376005671351911 7.211805403589356 2.4636432710439236 0 0 0
87 2 -0.563998801582105 5.7473553183051616 7.29237955530162 3.9278303150867293 0 0 0
84 2 -0.6380827138106132 5.886141034452735 5.70862730589034 2.3864815784525666 0 0 0
71 2 -0.7831442086560341 4.556162888726206 3.9119804221741235 2.5952800315013107 0 0 0
65 2 -0.8789246150761451 2.943551571054984 1.8135150219626546 2.3247305526187425 0 0 0
70 2 -0.5284883786190536 4.495221687806273 2.1085126700976264 4.011089499697638 0 0 0
82 2 -0.7207295089796317 7.926021019112442 4.032639439264287 5.935921657087147 0 0 0
21 1 1.399739263328203 4.535892761027963 8.3538538600218 5.0525697256829964 0 0 0
88 2 -0.5573297084464557 7.73363460341471 4.508850933775482 3.706470933490092 0 0 0
89 2 -0.7366510240966612 7.9446769951841025 7.587587075657604 1.8878780641177766 0 0 0
198 2 -0.5955084092006078 7.96916803686845 8.249094174193523 5.037981102803672 0 1 0
76 2 -0.662414833961778 3.716212533999648 7.3313250649349895 5.888076258428433 0 0 0
205 3 0.4603560524066951 7.805424926994977 4.156667745676569 2.787404711485642 1 0 0
195 2 -0.6258369599319938 5.158629137478915 8.016697339578977 1.479999803284037 1 0 0
5 1 1.181512256304883 5.006187187940399 1.3673795401905864 5.595147593907485 0 0 0
215 3 0.4129892872300165 1.8203893411954157 4.713035666214705 3.1315169019688334 0 1 1
211 3 0.4204619291248144 7.124177645984609 8.407770573145783 5.6243044853556174 0 1 0
17 1 1.379426274625409 1.3576943065897482 8.531661584466665 1.8343834506912498 0 0 0
7 1 1.531944223402643 5.162523022428631 4.705868926561408 1.3440222242303204 0 0 0
90 2 -0.8240935659006606 2.259177469109705 1.9800805021645336 9.905872628854071 0 0 0
4 1 1.353027736030544 3.0272615316093 6.503881106417719 7.0796983471729495 0 0 0
16 1 1.298537696170509 6.628517196236645 6.79174865748663 10.443080546012826 0 0 0
15 1 1.275658457855608 4.788322382655872 4.660128012186466 9.070051975245903 0 0 0
77 2 -0.6562673283778087 2.4648666163823973 8.040534832378409 7.633159001172016 0 0 0
75 2 -0.6303726078637125 3.8165559235149713 5.267058252960389 7.782226375584974 0 0 0
110 2 -0.7704387191101728 7.769014721111535 7.280732116330829 9.516900522406587 0 0 0
81 2 -0.6381487088330542 6.03946380807103 3.996134530309395 8.04604949091366 0 0 0
10 1 1.782449511066151 3.1890837954559923 2.918534088402568 10.770250205082036 0 0 0
78 2 -0.6250918124863092 5.570558507717625 2.687208462401157 6.211965270557625 0 0 0
96 2 -0.7578837527245258 4.068966162272263 3.368026201811655 9.679889585072063 0 0 0
107 2 -0.65981058632676 5.487278457441104 5.703007228378727 10.132117624021012 0 0 0
6 1 1.505813163630989 6.916204970100322 3.2763975867977164 6.879997600066417 0 0 0
83 2 -0.816478250364011 7.673142263078873 2.1269161066057576 7.426805524192756 0 0 0
97 2 -0.5429704974680981 6.769419787469638 2.8294473105838613 10.5880239800223 0 0 0
57 1 1.461647860251258 8.438815919683474 8.229429886346255 8.430363389601624 0 0 0
210 3 0.4073085136651362 7.227207358242876 2.7047306104203086 9.74805997533129 0 0 0
100 2 -0.7456574762973405 2.6322375737967656 7.847742270215456 15.622584095745083 0 0 0
108 2 -0.7095143429299416 5.540227585996966 7.539824276994839 11.492529540498664 0 0 0
95 2 -0.914501885700147 4.08779635997476 2.130606314579687 11.723696816695357 0 0 0
14 1 1.507074831123165 6.814240922414868 2.987654359511619 14.050775917816637 0 0 0
106 2 -0.6592702159748558 8.073069029256386 3.9495353853623594 13.607603110954893 0 0 0
109 2 -0.6345178329037107 7.391288165248434 5.533409015013975 11.340899445261192 0 0 0
101 2 -0.854838050673228 4.424929116723347 7.87112699370784 13.632333415449033 0 0 0
105 2 -0.6838019984939747 7.61925104857 1.9693918857401869 15.070250750411933 0 0 0
86 2 -0.8716326133083061 6.042389989327361 3.9847873856007965 14.91904518338796 0 0 0
197 2 -0.5661167861546675 2.168354812036258 5.060493239922798 13.750029438562676 0 0 0
12 1 1.495408512111857 4.028987169986394 7.428976642789294 14.960844083654628 0 0 0
85 2 -0.7760958408867539 4.263673071805812 5.831205954639922 15.148960524142831 0 0 0
209 3 0.3662862654045459 2.592936015554714 6.033663379283952 13.828601183367525 0 0 0
102 2 -0.743915485384242 5.970722352954 2.2826587256583393 13.017483229273552 0 0 0
11 1 1.220587738463553 1.419306439393391 4.8525388865764505 12.218777930568654 0 0 0
94 2 -0.8397779992583544 2.326403179365142 4.068958787787919 11.085092839639396 0 0 0
201 3 0.4200764864584924 1.5024478735882147 2.2845363934901015 14.385155402394519 1 0 -1
214 3 0.3732237955119234 7.407524028740753 3.4282886760513187 11.072179768350752 0 0 0
18 1 1.545832858855163 3.065560152823192 10.334243728818496 3.407390366805824 0 0 0
80 2 -0.5945581018248335 6.325656957925802 14.986352229421394 4.939913784219642 0 0 0
125 2 -0.826740049206989 5.276451861738666 13.377459253286757 3.48433256353508 0 0 0
24 1 1.246160269218834 6.708002658249358 13.741433459735296 3.852544104437415 0 0 0
1 1 1.597121209771478 2.190049603027451 15.084384065628182 2.033199492220449 1 0 0
128 2 -0.6517704081309904 7.289262907818348 14.587267162587711 2.3601925931630143 0 0 0
51 1 1.243198413477475 8.323296186760382 11.638611000287266 5.301816459973306 0 0 0
129 2 -0.7420802121059642 7.769592839557522 12.472378855407094 4.22601186971359 0 0 0
115 2 -0.8504962540901329 3.709753543128383 9.12722127386343 4.092637885600386 0 0 0
116 2 -0.8376967925057464 3.890309321615091 11.471652486631383 2.567012074205273 0 0 0
33 1 1.402489275989179 8.345687909587358 15.439775992453955 1.5197059258741297 0 -1 1
126 2 -0.8354321088036015 2.8173103299043616 14.05122386794264 2.8567711585824886 0 0 1
111 2 -0.760427541060093 1.8140224649569672 9.767607648785754 2.635247444648903 0 0 0
23 1 1.379006951813363 4.093333040485845 12.996423226366105 2.704293130206091 0 0 0
114 2 -0.8552713245091064 2.4662117637971854 11.244698375599492 4.525267086018394 0 0 0
213 3 0.4022527012830519 8.342402601312767 9.106438617093936 4.918300499931085 -1 1 0
117 2 -0.7146110495170538 1.8170162413735966 13.424521586907119 5.799511575085437 0 0 0
19 1 1.504152499543921 1.4131043916542712 12.324207996614884 4.704640849543116 0 0 0
121 2 -0.8515388156182687 5.411906837173436 9.163680428038319 6.144520764210261 0 0 0
206 3 0.4811892513765977 5.76126004783859 11.727936138703583 1.3221427403174193 1 0 0
26 1 1.530684669762958 3.3582319585053417 10.74322738819184 10.633076448753402 0 0 0
130 2 -0.7586842496214136 2.7508895404592257 9.80741456513982 9.524817800732682 0 0 0
124 2 -0.7344207728145251 7.393031795666156 8.771472626084606 7.418598569140107 0 0 0
31 1 1.308744582199983 4.780936022928245 12.445734188402941 8.68890314044442 0 0 0
193 2 -0.8123363072805829 8.079245840915785 14.598560151014874 9.772521846941617 0 0 -1
32 1 1.634976425271761 6.753537846641714 14.010577242773214 10.274725986328017 0 0 0
20 1 1.308876379749376 2.8019932362018016 13.972290881117958 6.919086695930286 0 0 0
120 2 -0.7183876570657391 3.426696449003458 13.146978257678875 8.109571409185623 0 0 0
122 2 -0.703866026584292 5.413854510172854 11.078457921871973 8.122536646851898 0 0 0
142 2 -0.7485737862379547 5.888323491857004 13.460104524982738 9.071110736579081 0 0 0
91 2 -0.6134048745498337 1.6335997579501464 14.53190470261336 7.838450346592359 0 0 0
135 2 -0.664273064766687 4.4518926607196425 11.67572230102013 10.286755612116616 0 0 0
22 1 1.290651539177876 6.159309650769914 9.985282292110945 7.122143267739503 0 0 0
25 1 1.345321096918248 1.6921847245069972 8.76540363568657 8.755688067061591 1 0 0
123 2 -0.6586454103401833 7.514012503669432 10.843711330672512 6.543962890420016 0 0 0
79 2 -0.6157810738962892 3.889568252185845 15.288471425629156 6.719727323952488 0 0 0
28 1 1.447008171865304 3.5220947340317945 13.610680684456593 14.339280639619723 0 0 0
200 2 -0.6917257815542927 4.496757995489227 13.482627682645308 15.545375555118335 0 0 0
30 1 1.404123971727276 7.004217164784251 10.302251653100113 14.269516014984243 0 0 0
141 2 -0.6238237912793159 7.927611373688309 10.81266141323723 13.01941735671879 0 0 0
13 1 1.50526533575092 4.994016172380752 15.611239299362257 12.207026483456094 0 -1 0
139 2 -0.7474154185611876 6.047612417867947 9.43802891930154 13.369461293054577 0 0 0
134 2 -0.7581512781184685 4.117631038634164 9.588947753698877 11.560753350107166 0 0 0
66 2 -0.7548756441497698 2.6781330785166992 14.73389989794859 14.950203549296598 0 0 0
136 2 -0.7476263236619518 2.36328870016684 12.782118769672845 13.46982222329888 0 0 0
127 2 -0.7430345840043957 6.258696144129793 11.237584441962095 15.180879857311837 0 0 0
133 2 -0.7030464244821286 2.452251829546377 11.453273107492393 11.68446900789083 0 0 0
103 2 -0.6743379256917618 4.386806500949977 14.288455372873267 13.228984605719615 0 0 0
59 1 1.359059598544381 8.21996115553458 12.054409412087928 12.036128523424633 0 0 0
104 2 -0.8542400248860533 5.921162815102407 14.806451896095265 11.163903376589747 0 0 0
29 1 1.594785155862246 5.002812190416355 8.681823363696934 12.416429782861407 0 0 0
140 2 -0.5091844020488355 8.336483234142616 9.742209095663249 15.169645469092032 0 0 0
144 2 -0.7340993067142779 7.074312769890746 12.650631247195399 11.016409521301753 0 0 0
34 1 1.265339018800734 10.726982091049015 2.7187277453156775 3.0427161459389724 0 0 0
196 2 -0.6492909889608601 12.067797051722382 1.7545064620641393 1.5417203389110898 0 0 0
40 1 1.173743417922754 13.819897909361778 6.328961510866904 3.4715124454181296 0 0 0
147 2 -0.5276036710839672 9.841529618526687 3.6964028117909358 4.008503462434939 0 0 0
148 2 -0.7948601781306334 11.734534935005756 2.1564775310783695 4.125775920967026 0 0 0
216 3 0.4330514701211683 12.87115430748665 4.486704729583696 4.895174563241689 -1 1 1
154 2 -0.8275313894223739 13.12033940993154 1.9724945476057314 6.117899299447966 0 0 0
74 2 -0.5782319992306192 15.778883663446233 5.233140747807871 3.3451781447617757 0 0 0
161 2 -0.697630423500028 12.677648844529614 7.061435767637891 4.166208162138491 0 0 0
149 2 -0.6529595615637728 11.576472751755631 4.041562299953924 2.388211016684004 0 0 0
145 2 -0.5759526254539825 9.249957424815406 2.1757598352012897 2.0624218822802485 0 0 0
158 2 -0.7849725731185194 13.10333778945687 5.9652306087312175 2.1217783960581595 0 0 0
112 2 -0.543713002939908 15.156188774790357 7.689107282051556 3.098654732726483 0 0 0
49 1 1.367320105397134 9.287323987394373 8.264907888226858 1.668613182625919 0 0 1
199 2 -0.5898203824344413 13.852587211192414 4.674356355534964 4.657368067273108 -1 1 1
35 1 1.218894515254167 8.761934489579911 4.95257336585545 4.912891189448909 0 0 0
150 2 -0.7376055346089025 9.788594481834679 5.797219403799954 5.761760350101808 0 0 0
53 1 1.370455601980692 12.338433054555356 8.531311371013807 4.852072337208474 0 0 0
152 2 -0.6308609139016145 11.841677165275776 7.808902401832429 6.1476827878496385 0 0 0
173 2 -0.7384347821556122 13.782818727500922 5.713562489146114 9.288621943888131 0 0 0
38 1 1.450943739449227 14.242788668448537 2.595644702113658 6.974705520791059 0 0 0
36 1 1.367415260668963 10.669314138015462 6.684378574540933 6.757455345624285 0 0 0
47 1 1.28861324707523 12.491066486112839 4.81210662422785 8.602929728113665 0 0 0
194 2 -0.593566264158662 13.674278898204333 2.4136446730093395 10.676811968539855 -1 2 0
41 1 1.372010094205435 9.050570064252753 1.5516549114980902 7.981534783119956 0 1 0
162 2 -0.8418794813813962 9.439678814599164 2.4422064922957034 9.199267475609819 0 0 0
151 2 -0.6703143404510625 11.509431407270606 5.467394628983179 7.4529720803990855 0 0 0
48 1 1.396761354911755 14.288195763331679 6.796755224406463 10.23387590699808 0 0 0
157 2 -0.624258296930707 13.42972019732075 3.9803310295639185 7.608410532966085 0 0 0
92 2 -0.8545923901415485 14.949226804719236 1.9837435139709103 8.298708035526817 0 0 0
166 2 -0.7050976736647688 11.41701802265552 4.0467903468397 9.408515663292444 0 0 0
131 2 -0.7232836641733127 15.42720428295141 7.753711068872177 9.59961902304912 0 0 0
42 1 1.464311133427893 10.20795825775295 3.0758091292807306 10.394566475402835 0 0 0
143 2 -0.5413123264605376 9.996653518590696 2.535968604841303 6.980173912878398 0 1 0
204 3 0.3248977117166709 13.217056314241407 1.825062474512017 10.17098830740077 -1 2 0
153 2 -0.7468460249789171 9.643114948628618 7.456765028224008 7.6219924149073535 0 0 0
212 3 0.4409722093601581 9.946372891405018 3.55753761608213 6.890400405705044 0 1 0
73 2 -0.7079014036547373 15.394837230253428 3.5006632550289454 6.442459598368629 0 0 0
174 2 -0.7148021958280165 13.207640715188646 7.920759485634504 10.87865715821542 0 0 0
203 3 0.3673098999389121 13.959004078835276 3.06787028803491 9.795393119618314 -1 2 0
61 1 1.532712070741369 12.320227359988882 8.461741733525628 12.11344680405666 0 0 0
44 1 1.568805270844345 10.806775164390071 6.537634319097227 13.78339057095823 0 0 0
167 2 -0.7907189127069866 9.526041548250074 5.768868813687218 13.160043270763055 0 0 0
46 1 1.585938291191304 13.72117171157108 3.2470149792598195 13.735116135665734 0 0 0
208 3 0.4527318281225085 12.184670164530498 1.703707279166521 15.133013188770196 0 0 -1
169 2 -0.8677511826982889 11.729031016171193 7.2544168286356285 12.709871290853492 0 0 0
165 2 -0.7316932831930106 10.718311719766692 2.0986257810714775 11.32680339413635 0 0 0
98 2 -0.7328828704551813 14.670870015776181 4.183054816036656 12.878489582603374 0 0 0
168 2 -0.6415843655430088 10.022723611461373 7.295537741493795 15.108359920657977 0 0 0
159 2 -0.8351583036902233 11.671556323423488 5.854179622221322 14.743850929312277 0 0 0
170 2 -0.766622368125537 12.718914722768517 2.500929862202974 13.02719382055868 0 0 0
160 2 -0.864949957889992 13.172045328885726 3.86885724987042 15.013313874569246 0 0 0
67 2 -0.6509884115485214 15.036430245222087 2.310471447675859 14.151266291980088 0 0 0
164 2 -0.8139123667760216 9.427220778032423 4.044380412348192 11.350938023348963 0 0 0
99 2 -0.6245855563660418 15.294116759611125 6.274994004916073 11.376718869807771 0 0 0
39 1 1.611525976070399 12.395706033300524 4.9529897055156695 15.816872004217778 0 0 0
43 1 1.416313515070689 8.631233439991622 4.9107397355853095 12.356258451073748 0 0 0
118 2 -0.6519910304295895 14.899935349834543 11.577165709651895 5.6967220411730395 0 0 0
176 2 -0.6700382706925933 9.308565473491546 10.756506237825349 4.185310933433743 0 0 0
50 1 1.357177821487 10.558992618908867 10.42050924441852 3.2778228790409973 0 0 0
68 2 -0.8314646469475556 15.202516560461516 14.801855150451395 2.3874270349124425 0 0 0
156 2 -0.7162407324210811 13.490732369540416 14.566960023299302 4.341774628045471 0 0 0
207 3 0.3453742797009728 12.113071539072584 15.37511965918242 1.9437725333284575 0 -1 0
56 1 1.313485915899552 14.046929611872043 13.906424977699448 2.86005754656677 0 0 0
179 2 -0.608744079203439 9.50593951656565 12.635013659341746 6.079568268368753 0 0 0
178 2 -0.7228386148202658 10.945500222530082 11.71296291323631 1.9805494339735654 0 0 0
177 2 -0.7635489737153102 11.316734125517636 9.646792961069565 4.354620054280766 0 0 0
183 2 -0.8103010605516571 12.968211622638165 13.154581542691874 1.78466281084496 0 0 0
119 2 -0.6919886016845866 14.802375286283432 12.712839743073804 3.7178324787698203 0 0 0
175 2 -0.7892957319220173 10.230904733071549 9.168845748829249 2.326950012604578 0 0 0
37 1 1.543061615177284 12.55461157416381 15.712262484730399 4.93518229180669 0 0 0
155 2 -0.7280741476673946 11.348041742420675 14.909940848342941 5.6491339069115 0 0 0
181 2 -0.6661807815437849 13.574049619333467 9.273171321445773 5.642663103555695 0 0 0
192 2 -0.7363132165012904 13.336312595512467 13.023295761602999 9.391265715813248 0 0 0
64 1 1.476263460262352 13.923038917047846 13.674955679695145 10.62426578453581 0 0 0
189 2 -0.7222960638067819 11.097952059172469 11.002233469677716 9.229078764006015 0 0 0
52 1 1.497206887492207 10.591287140607305 13.8630268995118 6.612744392717665 0 0 0
93 2 -0.8088599770476675 14.930112304229095 14.634074835501876 9.804024731573891 0 0 0
186 2 -0.6237391328020124 9.073397457246331 9.116988317509996 9.51844705771308 0 0 0
63 1 1.352760433758015 12.340533261140026 11.93741280381902 8.464822233371386 0 0 0
132 2 -0.5937214610478541 14.934329583705491 9.417325738564376 7.589430646723426 0 0 0
163 2 -0.7783113970568276 9.826585267141535 14.596766741210546 7.583244002734937 0 0 0
182 2 -0.782180505464662 13.080691091901707 11.10973861339283 7.39243027495039 0 0 0
54 1 1.488273702275382 14.129453686826093 10.417937116240392 6.58694314350937 0 0 0
180 2 -0.6760880426946083 11.594379897730835 13.050876896812737 7.486484501804715 0 0 0
58 1 1.330281831469192 10.309684036336806 10.290834010156132 10.33278550672642 0 0 0
202 3 0.4117134963223626 8.977067084646709 14.538509918690158 10.093545641041453 0 0 -1
9 1 1.679514357925452 15.775638482904323 15.592542990256279 9.096798835608336 0 0 0
55 1 1.442183870697543 11.902846184784687 12.343398693117974 15.60109894515457 0 0 -1
60 1 1.342727965364722 10.153479659637682 14.178896441981752 13.908653768948462 0 0 0
62 1 1.236860948364103 14.037521363217644 10.04778951452723 14.195220598378922 0 0 0
184 2 -0.7306891707373325 11.186835766050425 13.194095694681208 14.436623575536773 0 0 0
137 2 -0.6749555096157115 15.248268074512533 10.899920321465341 13.47853018787009 0 0 0
172 2 -0.7517622090887326 13.217205734868072 14.539638791058099 11.789557616682512 0 0 0
146 2 -0.7560864935519778 9.502597729270327 14.909448457832234 15.253163803668642 0 0 0
190 2 -0.6995194726386903 9.075583773349212 13.111786634334727 12.765360899700998 0 0 0
171 2 -0.644276912358812 11.096191138056115 15.160569416148805 13.266175577490621 0 0 0
185 2 -0.5632702503296982 12.62775337463343 11.000428134162911 14.587837130620498 0 0 0
113 2 -0.6572066537899081 15.16993724976118 9.123312947525271 15.052750800847619 0 0 0
191 2 -0.736536764604365 13.10105281034262 9.286779977777407 13.111318158489105 0 0 0
138 2 -0.7503166247607291 14.989769380322713 12.798373213860078 11.396421998353135 0 0 0
187 2 -0.6199967789186857 9.11352626920066 10.962683607842765 11.212968882809305 0 0 0
188 2 -0.6829920837390514 11.245086068543987 9.664419602644845 11.420994537219999 0 0 0
45 1 1.174593995077713 12.183288360971202 15.766626146627726 12.035831184516612 0 -1 0
27 1 1.47870589840609 15.834220038899094 12.132529920802043 12.614405182231199 0 0 0

Velocities

2 -0.002912618248202559 0.003452758600603559 0.0027383213756198483
72 -0.01861542710799261 -0.006201023574941476 0.0011298332370262155
69 0.0032776406322504253 -0.0038637424193013925 -0.008675186166434354
3 -0.011547191165313997 0.00740660844957605 -0.00013667996098211207
8 -0.008751205966270563 0.0016977729672958781 0.007048137458790695
87 -0.011659298475853739 -0.005615429197516419 -0.0008372181212212623
84 -0.009211178356100457 -0.02479195615367075 0.005722861683095517
71 -0.0007425350990964061 0.004487574483148251 0.007022509557495961
65 -0.019418160264718654 -0.00016803812681061119 0.0028640978282207185
70 0.015440719017688148 0.0022880219950739147 0.01106264864180507
82 -0.0001471599158290439 0.007106852558862293 -0.00017638064341753314
21 -0.005933168946766096 -0.003605373430041083 -0.016647871946975847
88 -0.011431682873075624 -0.006428276615585211 0.029941150377420747
89 -0.008911757927924766 -0.00927397483264051 0.009111741689367674
198 0.007413885205418274 0.01115763343648875 -0.015380881506923908
76 -0.01760065684690859 -0.013674764434396238 -0.010000650819647298
205 0.034296980922860876 -0.07090296250973256 -0.07937379856528834
195 0.001266445623947635 0.01853184419275716 0.009330346942849696
5 0.013406946671805746 0.006508038516286442 0.0012417071272104684
215 -0.005729562986133197 0.04587395681277239 -0.056737076100497115
211 -0.03632625195188983 -0.04513444013459853 -0.0574816316197975
17 0.0021391062243087105 -0.013859995020004881 0.0030287002866862932
7 0.0006867867019731611 -0.005773642049225718 0.011584912660989155
90 -0.0046843937304824265 -3.060706280362069e-05 -0.006862440275304071
4 0.0012054085765182095 0.007604573121080495 -0.00042997441367935934
16 0.006731824215998842 0.011046868641327139 -0.014162340240009655
15 -0.01278037023826606 0.00037257873398432615 0.001854326677631172
77 -0.008118734760356494 -0.009484472526230883 -0.002740187307552874
75 0.0013971131579568372 -0.0020553805573394067 -0.0030681214855039123
110 0.011104572392610685 0.004728046403130665 0.0009106352754575016
81 0.003253163010310037 0.011763657103997325 0.004826485240874162
10 0.002530394518017113 0.007898355082608168 0.0018296469175106377
78 -0.007656265884293363 -0.00910852763538843 -0.01318747936529226
96 -0.0026032224135223436 0.0022940154534294922 -0.0038485782933864888
107 -0.0009609311029275396 0.02347039286988057 -0.004123606948732743
6 -0.007284639770565489 -0.003398125153272565 -0.0003508536339827899
83 0.011495239054569275 0.0027445911641808545 -0.004318588003145219
97 -0.008548491061085484 -0.016508533438984157 -0.011546218530984925
57 -0.004638537269970496 -0.007073421727025755 0.008803108194958451
210 0.029360248484209338 -0.014508242207054182 0.13450171008731235
100 0.009852709588064357 -0.011643096377788395 0.0010625082996658262
108 0.004775844922279821 -0.00044223119281112407 -0.00949221197248287
95 -0.0007140648063448671 0.01499417730694534 0.003916699943616337
14 -0.0016278419462642738 0.014911928404614593 -7.77586923974736e-05
106 -0.011348717976488171 0.009349515369012006 0.001880078074134964
109 0.005195364803448244 -0.010400995926365043 0.0002019615454794288
101 -0.01067233262532386 0.016204446480577554 0.00187156896175379
105 0.011629261049004228 0.012907143417508277 -0.01021058861165997
86 0.005111179047092607 -0.014939515636050772 0.006221008177770346
197 -0.01138128876311481 0.006497940935052612 0.013169931256434392
12 0.010508425913277643 -0.006233819340668052 0.005333912979895889
85 0.014929576369144288 0.0028834569564812214 0.017750859244762027
209 -0.05785665038241434 -0.025276020010902376 0.08717976991691034
102 -0.00587173352690453 0.005516390197279537 -0.001181565629928024
11 0.006324387095692053 0.0025686903558886274 0.0013971952180440743
94 0.0018985252830885507 -0.008096168208887923 0.00019130521250043312
201 0.010948304182991465 0.032924867000326416 0.012575029084820591
214 0.06301390496016321 -0.007482616362989211 0.037547516137138144
18 0.008101367826368257 0.0031415613969256 0.0011033884454164135
80 0.001064689085129958 0.01571694023327983 -0.005000196347369839
125 0.01881053604036034 -0.010220922109859325 0.011827819559830281
24 -0.020278566708681944 -0.007953089037783585 -0.009055643907528391
1 -0.021956370010106398 -0.013121182286777116 0.02565586902440012
128 -0.001149208833397894 0.007389013383630701 -0.00471383783785211
51 0.015990810231243706 -0.012377500393219087 -0.008352002374144556
129 0.010558921152550435 0.00017960101208410722 -0.0026997049089923842
115 0.0038989490551815946 -0.015683549638549513 -0.005557206922319886
116 0.01696893590206318 0.005512851111997168 -0.00752614286589975
33 0.008041847997903766 0.012246990310581862 -0.011076673343543541
126 -0.008372233542915442 -0.0036028147279785765 0.005976091178713646
111 -0.009692711447297553 0.0028738386741147507 0.001563663653313968
23 0.0028737789426490365 0.008034527029278305 -0.006010956990061084
114 -0.0028996424856009076 -0.003609353884488395 -0.0072839027781970555
213 -0.0741333706684825 -0.013446894328763871 -0.008861538089643208
117 -0.005074799453688109 -0.008337507867048012 0.003702297919617369
19 0.00016700044815541883 0.00516662622653582 0.005595696865732827
121 0.009431603714598679 0.014286408447725397 0.0001236383903920104
206 -0.015661093772213894 0.021947566524307863 0.048007931050866495
26 0.003214100045597562 -0.006700162918377556 -0.002082845042847669
130 -0.0001935993555315284 0.006340263874874002 0.006250542012873373
124 -0.00914186996401945 -0.009621905185718649 -0.0182144103644512
31 0.018874020163531024 0.012513418239891003 0.007081106926785269
193 0.015121814617515796 0.02612397559541012 0.0043531115424300035
32 0.006942130286283441 -0.00029016969040247445 0.0005824901844781907
20 -0.004293874412873766 -0.004913722708687932 0.007251891597105586
120 0.018511849347618597 -0.007502679167495862 -0.015905757234135624
122 0.001709266427480238 -0.005479575803619512 -0.002732182546998089
142 -0.0014801669640944182 -0.006382653164959046 -0.0004839105737464318
91 -0.014529351114895237 0.0021829195308384727 0.011575206401777378
135 0.005736321165314415 -0.009465868432804343 0.007591890836205356
22 0.008212799478939973 -0.011109230471608023 6.915280626169724e-05
25 -0.0006066492876461029 0.013405733579682947 0.00340425667362888
123 -0.024766180492156006 -0.011075796532865214 -0.02865259193845819
79 -0.019228922148679075 0.0100861887051066 0.0008802846163949015
28 -0.01304302715182265 -0.006320206350701328 0.0046282965760564496
200 -0.005744232395770745 -0.00823220655160957 -0.002560971768799183
30 -0.0066892510884474475 -0.00867872218374387 -0.0005639490901746481
141 -0.026968917241534145 -0.003961883285208779 -0.0015233218344290604
13 0.01749393486456729 -0.002712770894431018 -0.011034772404109446
139 0.0033147785018619413 0.015641601458102308 0.0030263124146848704
134 -0.009400645396072632 -0.0028802870675334194 -0.0021261585963249954
66 -0.002957949305300228 -0.006978639731003054 -0.01090650102978489
136 0.018586748167101715 -0.010060522832649159 -0.009527732082985768
127 -0.004301302569946406 0.00418655269991688 0.023349165968819537
133 -0.018020747154677042 0.0034014955601060905 -0.010922755634058081
103 -0.0017926228314676623 0.004849258367582948 -0.004383326936311163
59 -0.004494236492221382 -0.008374757942834836 -0.0016709555015992832
104 0.008156948501661144 -0.0315913221643434 -0.011671691922706739
29 -0.003198093737507728 -0.011626476909377206 -0.007784118104533699
140 -0.017564423666458957 0.01742644258090183 -0.020756101688950385
144 0.007533069874408749 0.006475033205756002 -0.000992492371577747
34 -0.009639398320065934 0.002244832084464704 0.012396398094688201
196 -0.00021449075220779916 -0.023664433612031553 -0.004059810815764318
40 0.003018318381324357 0.0034888983376344697 -0.0074409000405336444
147 0.00795101992968144 0.025274078187598803 0.0011364430776984531
148 -0.0090165468728893 -0.0065594217172950265 0.006579399250464125
216 0.01986587520426728 -0.04564069494786248 0.027389006374502898
154 -0.0012271178858169758 -0.006574666615417381 0.007340087447354938
74 0.00227850897739451 -0.004901537599254728 0.007783366932201147
161 0.010205180937226466 -0.0032430137395434273 0.002625875837637793
149 0.0037461031974416114 0.012600806104099442 0.0015246723300557173
145 -0.006008274992573147 0.0011594159207463587 -0.0010724643078137085
158 -0.009932154917440329 0.01009229765546108 0.0033271555103225815
112 0.03103358814697855 0.014646208890484125 -0.005431271470645702
49 -0.01318027820123161 0.00044924343490441646 -0.013449909155468077
199 -0.00015268444098715827 0.0023815469142753672 0.013225122903902008
35 -0.000934286051642336 -0.015432488068495707 -0.007696662411170262
150 0.0011636084916387065 0.003057646982823482 0.0020675034761516694
53 -0.0035406184290558093 0.004574343408701492 -0.004486266741804864
152 0.01572768296020805 0.004641647906282514 -0.010045792548039445
173 0.003920788357987265 0.01893246783400099 -0.003858904257110566
38 0.0046825418893938564 0.017667400567699644 -0.007319209929098834
36 0.013870296780060748 0.009863334912974184 0.0030896681476589483
47 0.01254206909759346 -0.002809569830651958 0.0053785022146473046
194 -0.00630419432954598 -0.007653251993055777 0.012711329385772525
41 -0.0007262153914900824 0.013173786403596007 -0.002221051702373686
162 -0.0022364712947388113 -0.01778593278745289 -0.004218142177854051
151 -0.0021258946962575405 -0.00249747510881726 -0.0024186890936009724
48 0.00486557738019128 0.00011691849143280205 0.005945336079672014
157 -0.016657217635014515 -0.016297172775801342 -0.007404211845986205
92 -0.008555157181752001 -0.00751605760561013 0.016351809746028713
166 0.004959772806261329 0.004692639858235034 0.010182607421844571
131 -0.0011708965217870828 0.00018107777130520886 0.011000970899203644
42 -0.01024565704314085 -0.014433535859618866 0.007298084083065643
143 -0.006154874125525572 -0.004490703945713436 0.0018038487292648068
204 -4.724939898722386e-05 0.04753332755603939 0.01009373878426862
153 0.003228291124360474 -0.013626053591242167 0.004228960102930076
212 -0.04286743470989527 0.05063224065521433 -0.032436702489345444
73 -0.009938501458366802 -0.01740383860697347 -4.729060687865938e-05
174 -0.0015750661341946137 -0.0025405151511991362 -0.021727085611355324
203 -0.0398872099522123 -0.049137966100107 -0.06567050886596404
61 0.00410627694969443 0.00930794590470953 0.0024858520403615047
44 0.013506070277422972 0.012597475136002833 -0.01027721172299365
167 0.011888406170607822 0.01731692228826598 -0.013772810606090454
46 0.011672501653021895 -0.004888791724153669 0.007124255130889699
208 -0.011525004939423796 -0.05482988115724184 -0.028800377530930933
169 -0.0057443730207001695 0.01193730112944815 -0.0044123268227360055
165 0.013077449341666686 -0.005443189973021616 -0.0038883087133277983
98 -0.0005190877595005728 -0.013490561334703425 -0.0031194059203293305
168 0.028710924965622577 -0.019393299565092465 0.013989825450363067
159 -0.012815264644256811 0.007954465681757042 0.005850411972023514
170 0.008241056397549176 -0.006743858837196299 -0.019994323713117226
160 0.0013044689517131274 0.015596145059799837 -0.010566134745557282
67 0.0001154024334827961 -0.001078564944419219 -0.001560597093964824
164 -0.0014499872790331007 -0.0007208082919656849 -0.001264562576144404
99 -0.006669167862222867 8.811908486724794e-05 0.01502425842003265
39 0.007785670229519217 0.004279532107492582 0.0098414572416546
43 0.008334481070914888 0.0013096137056234358 0.0010766541010273228
118 0.02007987695096797 0.015636419978628847 0.0009671936312656878
176 -0.0036871859546751644 -0.0069203098373013016 -0.015615151898098999
50 -0.002092590433995175 -0.006906426426626163 -0.008400692317974733
68 0.011001661701036359 -0.012264071782817673 0.0023430630148012087
156 0.01608659231963295 0.012399348840295105 0.01104483144916703
207 0.030172962371146743 -0.01824182494770755 0.05537151219477372
56 0.004334686805321532 0.01820646772695953 -0.001627007563498296
179 -0.010621751033840204 -0.016878087234780507 0.0007925021342008831
178 0.023802457721271247 0.021702634419553033 -0.002074036941332299
177 -0.0010367622834149218 -0.0066984920226845065 -0.007415197712407093
183 0.01340318087819331 0.018864686495655175 0.010321035262307161
119 -0.017392204068152554 -0.0028033171636012103 -0.004631459339436744
175 0.004295053614248421 5.296876390545676e-05 -0.011316961684688747
37 -0.009451012778392925 0.016645894965576724 -0.0007836126338670415
155 -0.006558629046689589 -0.013349569618139585 -0.01858199138953931
181 0.009157029834919768 0.004213729252409111 -0.006562284699536516
192 -0.004383704603327104 -0.005523186135826728 0.01887605668986015
64 0.0013147462025899616 0.01312761712226346 0.007877102915812768
189 0.011113832115887038 -0.0008759125649746878 0.004946439505691508
52 -0.0011619026095411639 -0.006164399145533214 0.012210881072446464
93 -0.012894424818068793 0.0047874492577050665 0.01699767805957084
186 0.009724667389388398 -0.01018385482458743 -0.002952201229535936
63 -0.006148167688327519 -0.01479579785953995 -0.0017505365092318173
132 -0.008441347487447914 -0.025108763379923554 0.008662389597819701
163 -0.00931004785142596 0.014184552525896822 -0.004659662518094545
182 -0.005679846226013939 -0.004008585324635188 -0.013814003819609075
54 -0.0016289106168268352 -0.003182378134345415 0.0009242450735026581
180 -0.011755844385056268 0.0029744833950990594 -0.0012962546372581227
58 0.003639506772075085 -0.0030180715700892148 -0.013791905059339478
202 0.002716761221787097 -0.04567736197952778 -0.04230301650933888
9 0.0012638488522266277 -0.005557521298639407 0.0038856346845952618
55 -4.4130479736283426e-05 0.001979646494072693 -0.004372215030267639
60 0.008764067344203097 0.002229422000730654 0.0069866643193408715
62 -0.010521017793848553 -0.011388252720392076 0.010673526451282585
184 0.013467821874609735 0.015149972154441605 0.014335318131112282
137 -0.003084070786440656 -0.007285789832161969 0.004392735446685437
172 -0.005007720019395679 -0.005679141633202972 0.00746018653482062
146 0.01920664694307248 -0.023022140372100302 0.0007914358201991078
190 -0.016922573723740206 0.009681183994136075 -0.0026340849459065086
171 -0.010492757647548154 -0.01285097785889475 -0.025008203873255593
185 0.01646809563442926 -0.006669364731204568 0.0018439588387868153
113 -0.0021232124818700115 0.016028083155942296 -0.01027380701755709
191 0.007186083775850046 -0.00213993033635425 0.01490171553437753
138 -0.005570678028553272 -0.00026702348789992204 0.0086974627112073
187 -0.012921854247031775 0.0035952716697436387 -0.012929277967873685
188 -0.0027583120800183623 0.006909515725207247 -0.009650193233878076
45 0.003977121442204162 0.0027000072308827954 0.008837000107573094
27 -0.014088480621021466 0.009094547672816707 0.00834765526267002
