ITEM: TIMESTEP
0
ITEM: NUMBER OF ATOMS
222
ITEM: BOX BOUNDS pp pp pp
0.0000000000000000e+00 1.7160000000000000e+01
0.0000000000000000e+00 1.7160000000000000e+01
0.0000000000000000e+00 1.7160000000000000e+01
ITEM: ATOMS id type q x y z vx vy vz
1 1 0.951233 0.0685388 17.0926 0.0262429 0.000473815 -2.81096e-06 -0.00162925
2 1 0.942277 2.13227 2.07891 2.13657 0.0015816 -0.00577609 0.000482569
3 1 0.998882 0.0176422 4.22246 4.30057 -0.00287979 0.00497743 0.000304668
4 1 0.878674 2.23213 6.33894 6.2956 -0.00154558 -0.00572976 -0.00175309
5 1 0.92779 4.27534 17.1116 4.27279 -0.00132844 0.00426411 -0.00356868
6 1 0.959802 6.45392 2.13327 6.58861 -0.00152806 0.00234055 -0.00394359
7 1 0.873613 4.20771 4.19983 17.1364 -0.000161464 -0.000300587 0.00285557
8 1 0.918921 6.32594 6.23586 2.08108 0.0034249 0.000611866 0.000554863
9 1 0.968814 17.1487 16.979 8.49225 0.0024602 0.00579027 0.0025524
10 1 0.79835 2.2558 1.89834 10.6457 0.000920347 -0.00426499 0.00297241
11 1 0.846663 17.1042 4.37033 13.1573 0.00234703 0.00155539 -0.00379148
12 1 0.931149 2.12679 6.46128 15.1075 0.00553061 0.00223686 0.00444084
13 1 0.868962 4.36541 17.0977 12.8815 -0.00152466 0.000995674 0.00419603
14 1 0.900375 6.44763 2.11086 15.0078 0.000956341 -0.00299919 0.00151634
15 1 0.940477 4.36521 4.40568 8.65256 0.00211954 -0.00095411 -0.000294937
16 1 0.936904 6.47955 6.47799 10.7147 -0.000167069 -0.00292305 0.00209109
17 1 0.932515 0.00281129 8.59022 0.0551364 0.00757086 -0.00388746 0.000238769
18 1 0.931138 2.10958 10.6773 2.19179 0.000390538 -0.00243083 -0.000934833
19 1 0.931753 0.000219935 12.8314 4.29226 0.00468978 0.00271892 -1.79248e-05
20 1 0.871793 2.16244 14.9322 6.38823 0.000972046 -0.00324666 0.00105147
21 1 0.813563 4.26853 8.45981 4.17834 0.00184597 -0.00180328 0.00330721
22 1 0.843653 6.57512 10.7141 6.43682 -0.00125715 0.00284472 -0.00107374
23 1 0.946957 4.38127 12.9239 17.1582 -0.00262699 0.00304177 -0.000151316
24 1 0.924227 6.48652 15.0201 2.17052 0.00144457 0.00196136 0.00220586
25 1 0.811929 0.0260894 8.54235 8.72855 -0.00456624 -0.00528595 -0.00176405
26 1 0.869215 2.12394 10.7442 10.7155 -0.00169507 -0.00180213 -0.000107961
27 1 0.938665 17.1596 12.8605 12.8452 -0.0027854 -0.00192397 -0.00236318
28 1 0.948296 2.24013 15.028 15.0622 0.000104901 -0.00168019 0.00397609
29 1 0.88478 4.18129 8.53826 12.7904 -0.00342803 0.00531053 -0.000858318
30 1 0.837499 6.4917 10.9224 14.9469 0.00303849 0.0030607 0.00120586
31 1 0.868107 4.2715 12.8912 8.61784 -0.00191825 0.000574662 0.000575609
32 1 0.870682 6.46564 15.0194 10.738 0.000295141 0.00105402 -0.00272881
33 1 0.910534 8.62019 17.1397 0.0156522 7.77525e-05 -0.000776149 0.000731283
34 1 0.810452 10.819 1.97312 2.19171 -0.00142796 -0.00277267 0.000590886
35 1 0.874381 8.58445 4.22233 4.57345 -0.00309603 0.00497734 -0.00630289
36 1 0.92213 10.724 6.45091 6.51359 -0.00221693 -0.000285381 0.0025372
37 1 0.871589 12.9417 17.065 4.31934 0.00728149 -0.00124991 -0.0103538
38 1 0.920598 15.0319 2.09163 6.43053 -0.00256207 0.00420457 -0.000662637
39 1 0.907809 13.2042 4.35315 0.0123292 -0.00144185 -0.0017544 0.00226621
40 1 0.945667 15.1079 6.4714 2.25734 0.00283324 -0.00132846 0.00674364
41 1 0.884254 8.58481 0.0437007 8.69577 -0.0013712 -0.00263872 -0.00516937
42 1 0.903134 10.75 2.19465 10.7439 -0.00038946 -0.00179363 0.00852388
43 1 0.93283 8.54536 4.32383 12.8305 0.00220406 -0.00181075 -0.000673179
44 1 0.797983 10.581 6.697 14.7768 0.00133415 -0.00186935 0.0080554
45 1 0.913339 12.8884 17.1411 12.8483 0.000405741 0.00360874 0.00324454
46 1 0.979025 15.0752 1.99995 15.0659 0.00401522 -0.001362 -0.00122852
47 1 0.909599 12.886 4.29365 8.52262 -0.000882337 0.00376394 -0.000194431
48 1 0.940311 14.9836 6.50336 10.8803 0.00044739 -0.00167441 0.00176312
49 1 0.859902 8.77229 8.9178 17.0071 0.00134839 -0.000651793 -0.00481698
50 1 1.00088 10.8671 10.8252 2.16019 -0.000104483 -0.00432785 0.003971
51 1 0.930936 8.66657 12.883 4.28922 -0.00106442 0.00255372 0.00393356
52 1 0.936534 10.7832 14.9871 6.44153 0.00130927 -0.00311365 0.00862972
53 1 0.870259 12.8916 8.60177 4.31371 -0.00308652 0.0040493 -0.000863367
54 1 0.909244 14.9601 10.7438 6.42808 0.000977244 -0.00137585 0.00303566
55 1 0.932611 12.942 12.9284 17.155 -0.00183826 -0.00104605 0.000692567
56 1 0.936029 15.0787 14.999 2.15232 0.00405582 0.003372 -0.00252745
57 1 0.944813 8.65066 8.62706 8.63816 0.00241293 -0.00353946 -0.00356726
58 1 1.00032 10.7496 10.8134 10.7394 0.00125238 0.00209366 0.00105931
59 1 0.937077 8.6409 12.9846 12.859 0.00358618 -0.000832782 -0.00620794
60 1 0.873555 10.7735 15.0573 15.0261 0.00143394 0.000638067 -0.0015853
61 1 0.881727 12.8655 8.73768 12.8362 0.0048916 -0.00180503 0.00147263
62 1 0.986639 15.0486 10.7478 15.0349 0.000715718 0.000550908 -0.00139355
63 1 0.88033 12.8783 12.8818 8.57525 -0.0018198 -0.00260836 0.00256716
64 1 0.934378 15.0109 14.9673 10.7074 -0.00164961 -0.00213042 0.00123431
65 2 -0.475949 1.07489 0.819105 1.02805 -0.00241012 0.00506634 -0.00230343
66 2 -0.474563 1.1622 15.9094 16.005 0.000629324 0.00452325 9.0412e-05
67 2 -0.477762 16.1834 1.12837 16.0035 -0.00682919 0.000692508 -0.000739278
68 2 -0.468091 16.1939 16.2293 1.04496 0.00414811 -0.0012587 -0.0020269
69 2 -0.470894 0.952149 3.27859 3.21736 -0.000812582 -0.00151481 -0.00208707
70 2 -0.472725 3.17697 1.19788 3.1359 0.00179712 -0.000585326 0.00438269
71 2 -0.463444 3.04648 2.99494 1.05635 -0.00227242 -0.00390156 -0.000579996
72 2 -0.485931 1.07603 5.092 5.27458 0.00879967 0.00104963 -0.00542162
73 2 -0.473761 15.9387 3.12476 5.44926 -0.000366933 0.00146264 0.00282947
74 2 -0.469217 16.3162 5.36685 3.38988 -0.00044352 0.0001554 0.00904886
75 2 -0.523579 3.27525 5.39557 7.21632 5.78257e-05 -0.00368789 -0.0036537
76 2 -0.504241 3.16991 7.2297 5.24174 -0.00423361 -0.00672615 0.000331892
77 2 -0.52889 1.24809 7.61229 7.46257 -0.000292287 0.00126466 0.00290064
78 2 -0.431717 5.32847 0.955299 5.50629 0.00053318 -0.00374125 -0.00368245
79 2 -0.463875 3.31971 16.0225 5.17141 0.00285986 -0.00885898 -0.000705671
80 2 -0.464704 5.35385 16.2332 3.29697 -0.00191658 -0.00243377 -0.0035751
81 2 -0.458649 5.48989 3.21507 7.41802 -0.00286306 0.0035464 -0.00414306
82 2 -0.478663 7.71842 3.16554 5.51703 0.00740154 0.00189804 0.0047693
83 2 -0.46613 7.34912 1.1983 7.66153 0.00152493 -0.000347405 -0.00485117
84 2 -0.437523 5.14103 5.37752 1.2554 -0.00674317 0.00283334 0.000313182
85 2 -0.466256 3.32202 5.21314 16.148 0.00292312 -0.00342414 0.00402753
86 2 -0.445986 5.44397 3.16097 15.9346 -0.000571555 0.0010976 8.45538e-05
87 2 -0.488691 5.214 7.56469 3.16841 -0.00098412 0.00297485 0.00156273
88 2 -0.543669 7.29766 5.3822 3.61709 0.00294522 -0.00426043 0.00573904
89 2 -0.563588 7.6319 7.53568 1.00767 0.000392792 -0.00228665 0.00279143
90 2 -0.526231 1.11522 0.722596 9.37821 0.0009051 0.00435597 4.4678e-05
91 2 -0.472079 0.904552 16.0316 7.42775 -0.00209922 0.000639966 0.00360913
92 2 -0.495289 16.2769 0.951404 7.52234 -0.00386937 -0.000720486 0.00309218
93 2 -0.472335 15.9353 15.9667 9.73257 -0.00366519 -0.00239513 0.000511055
94 2 -0.549942 1.3575 3.20544 12.0409 0.00319177 0.00311065 0.00197434
95 2 -0.452148 3.28983 0.950222 11.5789 -0.000785042 0.00227577 -0.00316726
96 2 -0.470572 3.45267 2.98847 9.5096 -0.00519045 -0.00129705 0.00071926
97 2 -0.489547 0.827265 5.35965 14.1494 0.000460409 0.00402058 0.00449493
98 2 -0.550328 15.8794 3.21958 14.212 -0.00391115 0.00339429 0.00419376
99 2 -0.523278 16.1891 5.41375 12.1968 0.000829197 -0.000333469 -0.00640328
100 2 -0.471468 1.25557 7.52204 16.0761 -0.00130552 0.000474134 6.7776e-05
101 2 -0.463602 2.99776 7.392 13.9614 -0.00211877 -0.00515229 0.00342394
102 2 -0.460103 5.29348 1.01831 13.7713 -0.00331136 -0.00223768 -0.00418139
103 2 -0.46664 3.15531 16.0846 14.1084 0.00212994 0.00227978 -0.00415253
104 2 -0.454376 5.56247 15.9266 11.8068 0.00214776 -0.000423768 -0.00222297
105 2 -0.450178 7.54836 0.969641 16.2525 0.0078754 0.000194082 0.00150957
106 2 -0.445048 7.49154 3.13268 14.0887 0.00128068 -7.78462e-05 -0.000778391
107 2 -0.44169 5.67726 5.43214 9.66157 0.00201461 0.000746024 -0.00312078
108 2 -0.462958 5.14755 7.54199 11.7946 -0.000958729 0.00166506 -0.00786496
109 2 -0.458122 7.3397 5.4502 11.7272 -0.00356785 -0.00103048 0.0023265
110 2 -0.46298 7.73124 7.64908 9.66922 -0.00510449 -0.000152241 -0.00110322
111 2 -0.474698 0.897627 9.54149 1.09881 0.00340863 -0.000827085 0.00146815
112 2 -0.462948 15.9704 7.44288 1.17911 0.000276031 0.00153266 -0.00189917
113 2 -0.468913 16.2361 9.66357 16.2586 -0.000670418 -9.26835e-05 0.00401536
114 2 -0.474908 1.11772 11.5783 3.21438 -0.00313115 -0.00308781 0.00138606
115 2 -0.497756 3.03209 9.70423 3.22013 -0.000550486 -0.00138104 -0.00312576
116 2 -0.432297 3.22492 11.898 1.14078 -0.00360192 -0.00735962 0.000636044
117 2 -0.454385 1.03991 13.6933 5.31015 -0.00502544 -0.00408268 0.00125572
118 2 -0.458835 16.0988 11.969 5.29445 -0.00664568 -2.71683e-05 -0.00450237
119 2 -0.47072 16.1167 14.0607 3.09741 -0.00106959 0.00322712 -0.00297293
120 2 -0.447942 3.1383 14.0903 7.4707 -0.00231925 0.0032366 0.00189585
121 2 -0.496911 5.54384 9.39462 5.33032 -0.00328941 -0.00403455 0.000257651
122 2 -0.412527 5.4595 11.9022 7.49756 0.000656719 0.00224451 -0.00695115
123 2 -0.459436 7.79549 11.8261 5.31016 -0.000134947 -0.000342855 -0.00264151
124 2 -0.46935 7.49996 9.84379 7.51421 0.00250433 0.00577757 0.00256805
125 2 -0.467591 5.40834 13.8044 1.00884 0.00625018 -0.00143566 -0.00637548
126 2 -0.481014 3.43927 13.9888 16.2666 -0.000817057 -0.00880415 -0.00207329
127 2 -0.471335 5.45952 11.7474 15.9494 -0.00532543 -0.0010757 0.00224486
128 2 -0.462309 7.54527 15.9169 1.18903 -0.00136839 0.000530872 0.00289067
129 2 -0.458362 7.44825 14.0972 3.23185 0.00595351 0.00303232 -0.00625672
130 2 -0.452905 0.923852 9.65547 9.58539 0.00449836 -5.5581e-05 -0.000767876
131 2 -0.4895 16.1006 7.39652 9.96413 -0.0026301 0.00520548 0.00567306
132 2 -0.493863 15.9222 9.43273 7.58402 -0.000299029 -0.00167279 -0.00374497
133 2 -0.459451 0.976389 11.9758 11.7881 0.00305615 -0.000417778 -0.00353065
134 2 -0.459631 3.29106 9.52309 11.7574 -0.00388209 -0.00195263 0.00133043
135 2 -0.44556 3.13422 11.6365 9.7022 -0.000595706 0.00500827 0.00124774
136 2 -0.4367 1.20546 13.8864 13.9125 0.00151352 0.00357203 0.000990286
137 2 -0.47459 15.9743 11.6686 13.9398 0.000670047 -0.0039005 0.00167666
138 2 -0.46307 16.2244 13.9289 11.9169 -0.000499969 0.00308742 -0.00621043
139 2 -0.501861 5.44428 9.64045 13.8504 -0.0032219 -0.00912536 -0.00529951
140 2 -0.539893 7.77898 9.73679 15.9607 0.0103322 0.00785302 -0.000337413
141 2 -0.473198 7.54951 12.1176 13.7777 -0.00168821 0.00239219 0.00608953
142 2 -0.447879 5.2363 13.8143 9.66528 0.000870715 -0.0022281 -0.00211872
143 2 -0.454305 7.63079 16.2683 9.70619 -0.00197355 0.000937498 0.0043197
144 2 -0.459129 7.71461 14.0038 11.8797 0.000802499 0.00367326 0.00222175
145 2 -0.457577 9.82137 1.1542 1.11643 -0.00373559 -0.00726727 0.00447774
146 2 -0.451731 9.5489 16.2292 16.0854 0.00732316 0.00284555 -0.00326493
147 2 -0.521445 9.7953 3.20898 3.36799 -0.00527425 -0.00045074 -0.00114507
148 2 -0.462118 11.947 0.745308 3.28837 -0.000136442 0.00197568 0.00362018
149 2 -0.485342 12.0048 3.2235 1.25068 -0.00128058 0.00177261 0.00140051
150 2 -0.480594 9.57763 5.16629 5.53745 -3.9776e-05 -0.00248971 0.00670596
151 2 -0.461286 11.7691 5.45294 7.34208 -0.00580303 -0.00271548 -0.00694733
152 2 -0.441308 11.6573 7.47245 5.40676 0.00174402 0.00598503 -0.00196855
153 2 -0.460069 9.66401 7.6085 7.76074 0.0114176 -0.00587649 0.000302475
154 2 -0.457991 14.0698 1.16779 5.3781 0.00114725 -0.00535033 0.00279303
155 2 -0.463375 11.7484 16.0352 5.52752 -0.000970406 0.00203063 -0.0025592
156 2 -0.462741 14.0897 15.8633 3.21968 0.00171917 0.000583129 0.00571179
157 2 -0.456715 13.8567 3.20501 7.62981 0.00342096 0.00392926 -0.00205113
158 2 -0.464614 13.9792 5.1933 1.23036 0.000906546 0.00596472 -0.00293033
159 2 -0.556936 11.9124 5.49964 15.8955 0.000760931 -0.000569503 0.00465211
160 2 -0.529619 14.1634 2.85977 16.1615 -0.00475522 -0.00198589 -0.00253279
161 2 -0.456182 14.1525 7.53136 3.18794 -0.0072629 0.00651509 -0.000203896
162 2 -0.456915 9.8491 1.12432 9.80215 -0.00111435 0.0100564 -0.0123624
163 2 -0.424908 9.58146 16.0405 7.5529 -0.000480616 -0.00143304 0.00220635
164 2 -0.461942 9.525 3.3914 11.7944 -0.00565566 7.63804e-05 -0.00270127
165 2 -0.470856 11.7163 1.25167 11.8099 3.86608e-05 0.0044237 -0.0030373
166 2 -0.463248 11.9728 3.33679 9.6236 0.0130344 0.00181465 -0.00792331
167 2 -0.463961 9.57106 5.37116 13.6607 0.00876788 0.00131178 0.00252742
168 2 -0.510184 9.70145 7.96054 16.0251 -0.00178344 -0.00531875 0.00089689
169 2 -0.484276 11.6024 7.55356 13.7968 -0.00263232 0.00221888 -0.00462072
170 2 -0.484952 13.8679 0.840734 13.927 -0.00380852 -0.00619741 -0.00156422
171 2 -0.455767 11.9225 16.1031 13.7767 0.00505933 0.00310896 -0.000146101
172 2 -0.460359 14.0132 16.0234 11.6147 0.000581556 -0.0047298 -0.00072844
173 2 -0.493982 14.061 5.61103 9.45731 -0.000392125 -0.000736173 -0.00183995
174 2 -0.455271 14.0286 7.69926 11.6292 0.000668411 0.00206789 -0.000448083
175 2 -0.478762 9.94339 10.0363 1.0078 -0.00413236 0.00289023 -0.00122801
176 2 -0.469835 9.77442 11.7774 3.07182 -0.000959234 0.00168064 0.00380395
177 2 -0.469936 11.9255 9.51916 3.29399 -0.00685434 0.000995562 0.00202951
178 2 -0.472844 11.8664 11.8641 1.27524 0.00228069 -0.000153949 -0.00226144
179 2 -0.469908 9.71494 13.7616 5.26757 -0.00382223 -0.00510971 0.000824382
180 2 -0.46631 11.8186 14.1197 7.44638 0.00990705 0.00377734 0.0077715
181 2 -0.470326 13.9382 9.86 5.43064 0.00256955 0.0053749 -0.00254225
182 2 -0.459401 13.9482 11.6398 7.44715 -0.00853041 -0.0027448 0.000922291
183 2 -0.469601 13.9741 13.8977 0.896788 -0.00114687 -0.00176837 -0.0015398
184 2 -0.450296 11.9026 13.9622 16.2602 0.0019765 -0.00363454 9.65391e-05
185 2 -0.471939 14.0573 11.8249 15.916 -0.00548917 0.00118778 -0.00520316
186 2 -0.470363 9.85744 9.73862 9.74988 -0.00121403 0.00208864 -0.00284876
187 2 -0.475729 9.67046 11.7468 11.6766 0.00285353 -0.00022914 0.000488619
188 2 -0.47865 11.9725 9.78746 11.9233 -0.00454215 0.00154864 -0.00271363
189 2 -0.472455 11.6524 11.8623 9.74887 -0.00671025 -0.00501234 0.00594237
190 2 -0.460017 9.83294 14.0289 14.1028 -0.00657789 0.00499713 -0.00126799
191 2 -0.464894 14.0016 9.75268 14.1117 0.00378467 0.0050035 -0.00383672
192 2 -0.465238 13.9198 13.7644 9.52885 -0.000592057 0.00168285 0.00562119
193 2 -0.539637 3.36988 5.34711 9.48442 0.0112186 -0.00187666 -0.00733338
194 2 -0.558603 7.09346 7.75168 14.4078 -0.0106113 -0.00364555 0.00307582
195 2 -0.557385 14.7224 7.0636 7.34093 0.000799624 0.0100272 -0.000272331
196 2 -0.564751 7.33382 5.18024 1.3514 -0.0090849 -0.00363454 -0.00885901
197 2 -0.538388 12.0383 4.43457 3.48383 0.00332449 -0.00504278 -0.00351263
198 2 -0.576219 1.03952 3.12956 9.28807 0.00873234 0.0102472 0.00140804
199 2 -0.567709 14.2687 5.1357 16.2158 -0.0141391 -0.00193556 0.000911088
200 2 -0.563329 1.91067 9.81563 6.19187 -0.00305231 0.00440865 0.00678196
201 2 -0.599239 13.7903 5.10212 12.0963 -0.00392576 -0.00330682 0.00209516
202 2 -0.561505 6.96568 7.18553 5.58226 0.000304418 0.00212665 0.00115543
203 3 0.376644 2.09435 3.8053 12.128 0.0047292 -0.0136823 0.027395
204 3 0.400141 2.86655 5.88134 8.76849 0.00429452 0.00107088 -0.00690263
205 3 0.410191 7.63333 8.32437 15.0287 -0.0113565 -0.026296 -0.0136871
206 3 0.408386 6.35929 8.40176 14.0192 -0.0269143 -0.00297875 -0.0187814
207 3 0.412054 15.1099 8.00321 7.49662 0.00746489 0.00935796 0.00486936
208 3 0.425852 14.5435 6.60305 8.25158 0.00468107 0.0117356 -0.0121286
209 3 0.390395 8.08936 6.76087 0.651451 -0.0153056 0.00119328 -0.0207921
210 3 0.395391 7.73322 4.6635 2.14741 -0.0230407 0.00201191 -0.00462213
211 3 0.421359 12.2809 4.08388 2.51844 0.00992537 0.0105411 0.00560578
212 3 0.410482 11.0849 4.04684 3.67428 0.0114033 -0.0128283 0.000823045
213 3 0.398636 0.809298 2.1945 8.81356 0.0106492 -0.00300224 -0.0178959
214 3 0.385519 2.01203 3.42122 8.93246 -0.0220603 0.0307743 0.024111
215 3 0.395049 12.7056 5.87072 15.4739 -0.0083795 0.00222152 0.0229346
216 3 0.412929 14.8223 4.36477 15.8119 0.0189741 0.00554818 0.0104226
217 3 0.411282 1.67219 8.89808 6.67751 0.009202 -0.0283818 0.00449221
218 3 0.394193 2.18806 9.60858 5.29635 0.00889033 0.015471 0.00299287
219 3 0.368789 14.7753 4.85193 12.5491 0.00440077 -0.0127319 -0.00470609
220 3 0.363649 13.1931 4.396 12.4312 0.00617531 -0.0192413 -0.0035814
221 3 0.425973 6.94191 6.61011 4.76141 -0.012112 0.00532586 -0.0157306
222 3 0.417282 6.41283 8.06019 5.41308 -0.00457599 -0.00232766 -0.00448117
ITEM: TIMESTEP
1000
ITEM: NUMBER OF ATOMS
222
ITEM: BOX BOUNDS pp pp pp
1.5257623500457900e+00 1.5634237649954226e+01
1.5257623500457900e+00 1.5634237649954226e+01
1.5257623500457900e+00 1.5634237649954226e+01
ITEM: ATOMS id type q x y z vx vy vz
1 1 1.75318 1.59001 15.3965 1.5474 -0.000218164 0.00363454 0.00273922
2 1 1.70675 3.35449 3.15631 3.26378 0.00370116 0.0109533 -0.00148913
3 1 1.79056 1.61924 4.88012 5.09592 -0.000568941 0.00183168 -0.00438508
4 1 1.65518 3.32948 6.82235 6.50103 -0.00881348 -0.00418843 0.000625468
5 1 1.70235 5.13244 1.59849 5.157 0.000599413 0.00170395 0.0100069
6 1 1.7003 6.96462 3.24788 6.93603 0.00268295 -0.00800721 -0.0046257
7 1 1.72724 4.81469 4.88696 15.5144 -0.0031182 0.00181845 0.00819392
8 1 1.54629 6.58547 6.12538 3.47257 -0.00055292 -0.000153034 0.00209865
9 1 1.66775 15.5433 15.2598 8.33051 -0.00230005 -0.00190423 -0.0030196
10 1 1.41537 3.39595 2.9034 9.98608 0.00193022 0.00468105 0.00123436
11 1 1.64757 1.79265 5.02465 12.3082 0.00433926 -0.00208301 0.0027497
12 1 1.87732 3.25245 7.0101 13.9602 0.000905232 -0.00370153 -0.00163955
13 1 1.74215 5.16598 15.5615 11.9295 -0.00419702 0.00637919 0.00238592
14 1 1.78088 6.71901 3.3025 13.8057 0.00774164 -0.000687977 0.00120483
15 1 1.46636 5.15057 5.06727 8.66276 -0.00269851 0.000900222 -0.00907884
16 1 1.75297 6.89872 6.71722 10.4517 -0.00115027 0.001279 0.00488819
17 1 1.78952 1.54151 8.65847 1.66398 -0.00141009 -0.00472703 0.00579365
18 1 1.84251 3.33918 10.3136 3.35664 0.00459312 0.000397758 -0.00518127
19 1 1.70076 15.6046 12.081 4.87632 0.00256755 -0.000142423 -0.00925704
20 1 1.77315 3.31447 13.6672 6.62594 -0.00335578 -0.000770741 0.00239726
21 1 1.57389 5.25808 8.49464 4.85121 -0.00292617 -0.00113526 0.00191456
22 1 1.62033 6.94351 10.2379 6.79124 -0.005174 -0.000536298 -0.00381198
23 1 1.74161 5.07745 12.2899 1.59244 -0.000736488 0.00407985 0.0043422
24 1 1.82188 6.95767 13.8425 3.38553 0.00360223 -0.0033142 0.00803979
25 1 1.74462 15.5835 8.46306 8.38862 0.00602303 -0.00345238 0.00160205
26 1 1.8553 3.25755 10.2478 10.1628 -0.00411372 -0.0035124 -0.00283121
27 1 1.77892 1.69699 12.0051 12.0594 -0.000481339 0.000473631 0.00099679
28 1 1.91316 3.43016 13.9192 13.7438 -0.00242142 0.00547823 -0.00146156
29 1 1.82879 4.98838 8.59778 12.0632 -0.00349626 -0.00405651 0.00270946
30 1 1.77449 6.58355 10.4401 13.8549 0.0106871 0.00605147 -0.00575956
31 1 1.76097 5.13331 12.007 8.46891 0.00362166 0.000779863 0.00363824
32 1 1.86881 6.87942 13.6014 10.3018 -0.00221805 -0.000784881 0.00177431
33 1 1.85712 8.34003 1.53565 15.6392 0.00104481 0.0017527 0.00177209
34 1 1.73743 10.2533 3.30156 2.94143 -0.00302101 -0.00074346 0.00291804
35 1 1.62687 8.7679 4.83994 5.18484 -0.00664469 -0.00244615 0.00374278
36 1 1.76457 10.3367 6.84413 6.83924 0.00613135 0.000985881 -0.00259593
37 1 1.66095 11.8729 1.71068 4.98051 -0.00109482 -0.000880351 -0.00483836
38 1 1.77619 13.7408 3.22749 6.86713 7.49221e-05 0.00327916 -0.00105058
39 1 1.40513 12.4812 5.19602 15.4915 0.00114118 0.00320913 -0.00101183
40 1 1.75499 14.04 6.77693 3.43689 -0.00177758 -0.00596609 -0.00516907
41 1 1.83461 8.54992 15.5826 8.79572 -0.00426237 0.00398577 0.00033417
42 1 1.90245 10.3235 3.34316 10.4483 0.0103216 -0.000264302 -0.00707219
43 1 1.64886 8.73491 5.11572 12.2432 0.00150298 0.00358432 0.00588489
44 1 1.53763 10.2571 7.31916 13.8887 -0.00453663 0.00595324 0.00258293
45 1 1.96912 12.0807 1.57672 12.0463 -0.0063289 -0.00517246 -0.00406829
46 1 1.86926 14.0047 3.07965 13.8161 -0.00558753 0.0034387 -0.00181354
47 1 1.63517 12.1024 5.0743 8.63317 0.00398045 0.00603117 -0.00132768
48 1 1.39679 13.9087 6.9003 10.44 -0.000501199 -0.00648039 -7.25706e-05
49 1 1.59981 8.65574 9.26167 1.5208 0.00882087 -0.00286966 -0.00599302
50 1 1.78268 10.6174 10.4903 3.36586 0.00696118 -0.009282 0.00721066
51 1 1.85492 8.76551 12.1046 5.16422 -3.58904e-05 0.00475854 0.00301478
52 1 1.75358 10.3563 13.9946 6.91058 0.00212381 0.000446251 0.00835855
53 1 1.78234 12.1463 8.50216 5.0474 -8.15067e-06 0.00334213 0.000258046
54 1 1.82582 13.8056 10.4143 6.78818 0.00340775 0.00189746 -0.000263952
55 1 1.69677 12.1047 12.2566 15.6007 0.00289985 0.00380065 0.00403369
56 1 1.70266 13.6838 13.9662 3.37854 -0.000489653 -0.0042899 -0.0030396
57 1 1.95609 8.68142 8.50592 8.74989 -0.00111304 -0.00969996 -0.00111687
58 1 1.76471 10.4841 10.4401 10.2891 -0.00036338 -0.0016069 0.00548796
59 1 1.6883 8.52262 11.8987 12.1027 -0.00673436 0.00761174 -0.00399604
60 1 1.6887 10.2084 13.9387 13.8412 0.00153282 0.00155345 -0.000998476
61 1 1.67622 12.2756 8.93303 12.1578 -0.00336578 -0.00515922 0.00306126
62 1 1.89931 14.0419 10.5227 14.0279 0.00138848 -0.000585433 -0.00117371
63 1 1.71295 12.1448 12.2031 8.59064 -0.00320473 -0.00157736 -0.000592184
64 1 1.75645 13.8598 13.7978 10.5074 0.00351238 -0.00194655 -0.0090525
65 2 -0.829217 2.45812 2.02147 2.6594 -0.00142421 0.000344191 -0.0060866
66 2 -0.920421 2.43151 14.5325 14.6969 -0.0025442 -0.00114514 -0.00577649
67 2 -0.920093 14.8299 2.15247 14.6427 -0.0103275 0.0062454 -0.00325992
68 2 -0.845564 14.6192 14.712 2.40336 -0.00295863 0.00541384 0.00793638
69 2 -0.879058 2.31737 4.11787 3.99842 -0.00170413 0.0041218 -0.00115204
70 2 -0.869551 4.30354 2.64797 4.37937 0.00606745 -0.00233864 0.0001952
71 2 -0.877392 3.99335 3.6818 1.98577 -0.0133046 -0.00366984 -0.00679015
72 2 -0.920277 2.54708 5.5332 6.10334 -0.00508772 0.00267928 0.00303295
73 2 -0.88163 14.8274 3.86701 5.83978 0.00453011 -6.95753e-05 0.00276779
74 2 -0.950971 15.0048 6.07436 4.45307 0.00941867 -0.00960165 -0.00352745
75 2 -0.741254 4.31892 6.41358 7.5485 0.0105046 -0.00839701 0.00166922
76 2 -0.918719 4.19181 7.61971 5.55159 -0.00153783 -0.00462506 -0.00122281
77 2 -0.925945 2.19743 7.64512 7.39125 0.00895149 -0.00149007 -0.00385254
78 2 -0.8356 6.24015 2.36612 5.92482 -0.00398731 0.00452245 0.0137385
79 2 -0.83458 4.22681 14.8791 6.11385 -0.00171616 0.00259694 -0.00217726
80 2 -0.877387 5.96982 14.7524 4.12979 -0.00154444 -0.0026774 -0.00478361
81 2 -0.743629 5.8634 4.28165 7.53553 0.00116942 0.000158729 0.00135885
82 2 -0.87939 8.14101 3.88102 6.21999 -0.000277392 0.00168338 -0.00679114
83 2 -0.871486 7.46797 2.14456 8.01726 0.00573767 0.00419935 -0.00136739
84 2 -0.906823 5.53909 5.40694 2.66265 -0.00768906 -0.00543069 0.0055196
85 2 -0.953713 3.88886 6.04203 14.9544 -0.0136343 0.00804716 -0.00449051
86 2 -0.990217 5.80005 4.22648 14.5683 -0.000863745 -0.00530369 -0.000110894
87 2 -0.832094 6.22235 7.56787 3.88268 -0.0118831 -0.0110984 0.000750176
88 2 -0.763966 7.39348 5.43867 4.67856 0.00585855 -0.00441466 0.00130372
89 2 -0.695484 8.23841 8.6181 2.88179 0.00543039 -0.000928722 0.00614549
90 2 -0.77615 2.60456 1.97289 8.93436 -0.00746528 0.00433048 0.00303185
91 2 -0.910298 2.17624 14.2873 7.44797 -0.00367481 -0.00446046 -0.00298454
92 2 -0.921239 14.524 2.23788 7.75478 0.00397941 -0.00133509 -0.00520583
93 2 -0.850412 14.88 14.6635 9.65076 -0.00364158 -0.00267198 -0.00630151
94 2 -0.790834 3.03071 4.10465 11.9033 -0.0104668 0.000380876 -0.00577869
95 2 -0.849599 4.26777 1.99046 10.8246 -0.0015516 -0.000669758 -0.0014509
96 2 -0.744246 4.45498 3.81733 9.23755 -0.00327488 -0.00225419 -0.0082725
97 2 -0.951372 2.3144 6.1593 13.1 -0.00199306 0.00970156 -0.00124074
98 2 -0.926471 14.9627 4.09652 13.1714 -0.00228161 -0.00456669 0.00371613
99 2 -0.757097 15.0435 5.58422 11.2036 0.00523006 0.00564754 -0.00241132
100 2 -0.92428 2.44085 8.1108 14.6147 -0.0036523 0.00453112 0.000118759
101 2 -0.934821 4.23011 7.60226 12.9716 0.000929262 0.00304533 -0.0140616
102 2 -0.870348 5.94871 2.59871 12.6191 0.00392667 0.000819791 -0.00379216
103 2 -0.954162 4.2073 14.9608 13.0196 0.00726876 0.0107055 0.00153714
104 2 -0.868421 6.14813 14.4604 11.3728 0.00532934 0.00160919 -0.00505102
105 2 -0.898585 7.32062 2.18175 14.7155 0.00156594 0.00772145 0.000743871
106 2 -0.844299 7.89263 4.02815 13.1454 0.00367914 -0.000146696 -0.0037084
107 2 -0.868208 6.2682 5.67198 9.60034 0.000329809 -0.00232805 0.00256179
108 2 -0.833378 5.74079 7.67814 11.0639 0.00288964 0.00305793 -0.00176977
109 2 -0.939051 7.64998 6.01817 11.5933 0.00858475 -0.01006 0.00340008
110 2 -0.98451 7.71034 7.67824 9.50503 -0.000300272 -0.00144296 -0.00194218
111 2 -0.94737 2.54839 9.2561 2.62167 0.00586942 -0.00104248 -0.00701792
112 2 -0.947255 14.8138 7.49873 2.35037 0.00622281 0.00665181 -0.00432954
113 2 -0.911678 14.7678 9.7525 15.1494 0.00381036 -0.0142993 -0.00666625
114 2 -0.907562 2.22594 10.9335 4.1263 0.00189631 -0.0034629 0.000343655
115 2 -0.942539 4.4998 9.66031 4.16595 -0.00289264 0.00117958 0.00189668
116 2 -0.842406 3.98199 11.454 2.59011 -0.0051226 -0.00538648 0.000553375
117 2 -0.924112 2.63495 12.9137 5.43091 -0.000858778 -0.00362287 -0.00322009
118 2 -0.873134 14.5126 11.4061 5.91118 0.00822086 -0.00186121 0.00467882
119 2 -0.828421 14.5919 12.8142 3.8925 0.00413517 0.00145991 -0.00249433
120 2 -0.915263 4.1586 12.8028 7.51718 0.00151949 0.000334155 0.00557296
121 2 -0.865666 6.11505 9.09168 6.04091 -0.00184827 -0.00270411 -0.0146438
122 2 -0.90001 5.99878 11.2661 7.32708 -0.00169563 -0.00498426 -0.00964482
123 2 -0.85233 7.9428 10.9308 5.73827 0.00190614 -0.00175999 0.00182668
124 2 -0.911538 7.7315 9.43407 7.91337 0.0064846 0.00224968 0.0110906
125 2 -0.872679 6.21608 12.8578 2.44709 -0.00572956 0.00338312 0.00198311
126 2 -0.875934 4.32548 13.3221 14.8633 -0.0011036 -0.00494203 -0.00349986
127 2 -0.892792 5.56959 11.3695 14.6188 0.00407543 0.0058077 0.00817825
128 2 -0.990149 7.78231 14.5172 2.34036 0.00509427 0.000523049 -0.00993922
129 2 -0.895529 7.65949 12.8875 4.42549 0.000406864 -0.00503612 -0.00606765
130 2 -0.917902 2.60298 9.21426 9.3042 0.000864367 0.0040948 -0.00193546
131 2 -0.876275 14.8244 7.50515 9.26065 0.000681172 -0.00186839 -0.00479683
132 2 -0.912941 14.6713 9.38726 7.51261 -0.000462147 -0.00241642 0.0047789
133 2 -0.926661 2.40864 11.2073 10.9525 0.00608778 -0.0114446 -0.0100366
134 2 -0.882558 3.96192 9.47035 11.3045 0.00558246 0.00750781 0.000534296
135 2 -0.938193 4.34939 11.116 9.41639 -0.000689775 -0.0040662 0.00441116
136 2 -0.932818 2.77702 12.8599 12.8903 -6.61707e-05 -0.00152377 -0.000454071
137 2 -0.907884 15.0648 11.0011 13.0581 -0.00711249 0.00174968 0.00147051
138 2 -0.888451 14.6936 12.8381 11.451 0.00121406 -0.00420484 0.00036406
139 2 -0.925539 5.99194 9.51019 12.7346 -0.0044119 0.00408141 0.00326358
140 2 -0.846974 7.26835 9.79274 15.0272 -0.000363668 0.00790224 0.00616399
141 2 -0.881646 7.77949 11.1648 13.2207 -0.00678809 0.000472275 -0.00524293
142 2 -0.939044 6.01706 13.0175 9.16039 -0.0028922 -0.00573542 -0.00201576
143 2 -0.917211 7.98351 14.537 9.79909 -0.0099806 -0.00410189 0.0106153
144 2 -0.918895 7.44334 12.5102 11.0985 0.00218838 0.00120826 0.00509087
145 2 -0.984318 9.12896 2.55262 2.29995 0.000692316 -0.00903785 -0.00811115
146 2 -0.83153 9.34184 14.9883 14.5269 -0.00380022 0.00718466 -0.00185799
147 2 -0.895954 9.49734 4.25358 3.89621 -0.00429416 -0.0105455 -0.00525329
148 2 -0.940405 11.2462 2.49814 3.78911 0.00788684 0.000379213 -0.00763884
149 2 -0.727865 10.9863 4.32648 2.00423 -0.00325183 0.00698388 0.00460545
150 2 -0.84188 9.48507 6.12155 5.73464 0.000292503 0.000299111 0.00420032
151 2 -0.853236 10.9822 5.74339 7.73031 -0.00112081 0.00429598 -0.00205506
152 2 -0.848806 11.3132 7.87187 6.2386 -0.010128 -0.00529442 0.00458748
153 2 -0.973835 9.40782 7.68297 7.73569 0.00872397 -0.00260412 -0.00447444
154 2 -0.93397 12.6682 2.70782 5.98904 -0.00328564 0.00168544 -0.000617705
155 2 -0.8744 10.9524 14.889 5.73679 -0.00237423 0.00618326 -0.00602463
156 2 -0.83793 13.0832 14.8738 4.44785 -0.000588099 0.00485191 -0.00208693
157 2 -0.921083 13.1083 4.31124 7.66267 -0.00404738 0.000892229 0.0163439
158 2 -0.851164 13.2928 5.66818 2.62191 0.00497656 0.00157282 -0.00206176
159 2 -0.726938 10.9166 6.82145 15.2848 0.00152589 -0.00159342 0.00165663
160 2 -0.82927 13.1827 3.99594 14.6794 -0.00114791 -0.00634581 -0.00415551
161 2 -0.945108 12.9589 7.70802 4.08255 0.00132504 0.00149827 0.00474354
162 2 -0.93209 9.40099 2.57528 9.53601 -0.0152475 -0.00608187 -0.00871391
163 2 -0.912736 9.53767 14.9053 7.84345 -0.000197674 -0.00358123 -0.00803286
164 2 -0.956949 9.6157 4.42753 11.2196 0.00225315 0.00600293 0.00477626
165 2 -1.02192 11.0533 2.45713 11.4179 0.00140813 0.000284233 0.0142316
166 2 -0.91486 11.4719 3.99148 9.56312 -0.0098317 -0.000979689 0.00465877
167 2 -0.804385 9.58485 6.03796 13.2612 -0.0035215 -0.00133407 0.00602452
168 2 -0.839839 9.25539 8.3341 14.4979 -0.00118859 0.00134116 0.00410572
169 2 -0.815722 11.2774 7.99143 12.8992 0.00958486 0.00532393 0.0100374
170 2 -1.01234 13.0753 2.41166 12.7698 0.00249597 -0.0066796 0.00160582
171 2 -0.854538 11.3429 14.6799 13.0272 -0.00832377 -0.00753982 0.00845896
172 2 -0.977597 12.8596 14.7496 11.1611 0.00470779 0.00302269 0.00592623
173 2 -0.837005 12.8315 6.18145 9.41461 0.00748442 -0.00918843 0.00554017
174 2 -0.757163 13.3207 8.07547 11.3542 0.00552806 0.00395216 -0.00188829
175 2 -0.884146 9.73169 10.1099 2.1126 -0.0140572 0.00145655 0.00125233
176 2 -0.939788 9.73217 11.3879 4.24383 0.00304474 -0.00167615 0.0127959
177 2 -0.889415 11.0962 9.23719 4.15977 0.00456466 0.000513583 0.00329411
178 2 -0.886351 11.6711 11.2936 2.64993 -0.00238397 0.000674013 -0.0048155
179 2 -0.958009 9.42514 13.0013 6.172 0.00248195 0.00303022 -9.8044e-05
180 2 -0.881985 11.5526 13.3356 7.68212 -0.00255885 0.00383964 -0.00636076
181 2 -0.876642 12.9377 9.63994 5.81584 -0.00467176 0.0022163 -0.00529195
182 2 -0.900045 12.8583 11.0991 7.87179 -0.00110144 0.00386672 0.00337126
183 2 -0.804194 12.5771 13.4556 2.36264 0.00142905 0.0112642 -0.00480391
184 2 -0.836658 10.9456 12.9258 14.8387 -0.000631673 0.00692931 0.00161863
185 2 -0.900119 13.2847 11.6474 14.7111 0.00206311 -0.00310433 -0.00892247
186 2 -0.967488 9.56786 9.28947 9.61593 -0.00026333 0.00540088 0.00519789
187 2 -0.878463 9.65292 11.0928 11.3948 0.00732851 -0.00303837 -0.00246188
188 2 -0.891448 11.6336 9.81647 11.0077 0.00343933 0.00393916 0.00138331
189 2 -0.861471 10.9043 11.6427 9.39502 -0.00112362 -0.00577602 0.00237582
190 2 -0.786687 9.30366 13.0948 12.8899 -0.0017797 -0.00197694 -0.0011184
191 2 -0.91624 13.0525 9.61546 13.3443 -0.000312635 0.000389148 0.00281527
192 2 -0.870334 13.1824 12.751 9.64448 -0.000522373 0.00468894 0.00586944
193 2 -0.609169 3.63995 6.27898 9.8034 0.00540931 -0.00104167 -0.00827206
194 2 -0.581013 6.72028 7.12063 14.0958 -0.00719624 -0.0096889 0.000756798
195 2 -0.590804 13.616 6.9354 6.80774 0.00180065 0.0129425 -0.00200446
196 2 -0.712219 7.69957 6.1292 2.30326 0.000555108 -0.00441494 0.0065944
197 2 -0.606281 11.9604 5.2049 4.84027 -0.00494476 0.0111621 0.000440447
198 2 -0.610465 1.98462 4.15526 9.51074 0.00273272 -0.00385189 -0.00157009
199 2 -0.581578 13.1337 6.31871 14.4979 0.00362079 -0.00171446 0.00110376
200 2 -0.601888 3.19785 10.1928 6.58606 -0.00594806 0.00472805 -0.00175959
201 2 -0.598236 12.7314 5.53206 11.7955 0.00520183 -0.00631058 0.00221651
202 2 -0.555814 7.10418 6.95414 6.90241 -0.00113365 0.00785938 -0.000556461
203 3 0.394302 3.66856 3.95223 12.7173 0.0403271 0.0199071 0.0324649
204 3 0.408767 3.20795 6.79763 8.97458 0.00591428 0.0137522 -0.0100503
205 3 0.418265 7.18003 6.53433 13.4744 0.0394731 -0.0167089 0.00205699
206 3 0.424496 6.65231 6.66109 14.9506 -0.00878333 0.00703102 -0.00969506
207 3 0.385725 14.5305 6.71914 6.45942 -0.0204959 -0.0320172 0.0319238
208 3 0.438442 13.8839 6.89931 7.69427 0.00334669 -0.0271633 0.00956644
209 3 0.45139 7.4918 8.9784 3.44569 0.0313224 0.0114039 0.0207871
210 3 0.441773 8.56613 5.78864 2.58967 -0.0373852 -0.0066824 -0.0114546
211 3 0.403854 11.7617 4.89174 3.95909 -0.0125791 0.000869457 0.00554208
212 3 0.418214 12.446 4.4806 5.23532 -0.018732 0.0215689 0.0414518
213 3 0.428965 15.6159 3.65335 8.87714 0.00792703 0.00507474 -0.000130899
214 3 0.429168 3.06341 5.50798 9.91842 0.0146476 0.0145347 0.0264134
215 3 0.408801 10.7947 7.50728 1.8504 -0.00652433 -0.0240447 0.0131532
216 3 0.433892 14.0549 6.66138 14.7246 -0.00379071 0.0168821 0.0469424
217 3 0.402568 3.91632 10.8202 6.60716 -0.00815655 -0.00138102 0.00174227
218 3 0.396948 3.4942 9.5637 5.89646 -0.0171669 -0.0285267 -0.000890643
219 3 0.410544 13.5292 4.93392 11.9977 0.0218107 0.00889774 -0.00990048
220 3 0.397723 12.2805 5.16299 11.0164 -0.00993608 0.0320396 0.01944
221 3 0.438525 7.4108 7.82253 6.62428 0.0201736 -0.00722779 0.0206904
222 3 0.431695 6.63366 7.07711 7.69615 0.0555038 0.011499 0.0162922
ITEM: TIMESTEP
2000
ITEM: NUMBER OF ATOMS
222
ITEM: BOX BOUNDS pp pp pp
1.5257464843764854e+00 1.5634253515623517e+01
1.5257464843764854e+00 1.5634253515623517e+01
1.5257464843764854e+00 1.5634253515623517e+01
ITEM: ATOMS id type q x y z vx vy vz
1 1 1.71887 1.60918 15.4164 1.67005 -0.00575944 0.00224179 -0.000313273
2 1 1.73936 3.31889 3.18203 3.29304 0.00426711 -0.00124171 0.000449772
3 1 1.69164 1.66482 4.89399 5.1491 -0.00359855 0.000558227 -0.00135155
4 1 1.63678 3.45248 6.87335 6.7085 -0.00480898 -0.00141489 -0.000708832
5 1 1.83155 5.20052 1.41628 4.90764 -0.00273953 0.00664195 -0.00461981
6 1 1.75161 7.02473 2.99046 6.87861 0.000552003 -0.00381682 0.00178251
7 1 1.86515 4.87026 5.00091 15.5408 0.00615738 -0.000308723 -0.00134639
8 1 1.66139 6.75525 6.18927 3.41777 0.00385713 0.00114508 3.25192e-05
9 1 1.7172 15.5795 15.3631 8.34288 0.0050794 0.000815774 -0.00228949
10 1 1.47939 3.25801 3.12367 9.93687 -0.00795237 0.000725516 0.000131118
11 1 1.59466 15.5653 4.79139 12.4606 0.00217133 0.000874081 0.00266915
12 1 1.75884 3.26361 6.91204 13.7912 -0.00204949 -0.00140364 -0.000439521
13 1 1.72314 4.88852 15.583 12.0573 -0.00023648 0.00122719 0.000592949
14 1 1.87764 6.64971 3.26018 13.8339 -0.00231411 -0.00317016 0.000799123
15 1 1.64372 5.18916 4.91307 8.46409 0.00126504 -0.00221583 -0.00699635
16 1 1.70435 6.7167 6.79819 10.316 0.00113381 0.00371509 -0.00185796
17 1 1.87278 1.58627 8.67195 15.502 -0.00221254 0.00955708 0.000741752
18 1 1.79709 3.5029 10.324 3.14553 0.000213323 0.0016289 0.00509254
19 1 1.85676 1.64515 11.9563 4.8576 0.00408667 -0.00237398 -0.00215382
20 1 1.82915 3.31841 13.822 6.52855 0.00536388 0.00039526 -0.000670793
21 1 1.78753 5.27529 8.48254 4.81383 -0.00377464 0.00299257 -0.00487277
22 1 1.67326 6.97325 10.3011 6.67115 0.00134118 0.00677878 0.00162034
23 1 1.78784 5.13013 12.3052 15.5745 0.0014027 -0.00613482 0.0039005
24 1 1.89201 7.0058 13.7744 3.22776 -0.00131831 -0.00289284 -0.00344722
25 1 1.68392 1.45221 8.56866 8.56645 -0.00258316 -0.0010745 -0.00326498
26 1 1.71372 3.32664 10.4528 10.1206 -0.00208849 0.000106923 -0.00200663
27 1 1.80017 1.57748 12.0962 11.9162 0.000932213 -0.00194261 -0.000888962
28 1 1.801 3.18202 13.7916 13.7649 -0.0034752 0.004075 0.000536054
29 1 1.82298 4.98827 8.6522 12.0015 -0.00463936 0.00556499 0.00176593
30 1 1.81222 6.64935 10.3879 13.8535 -0.000975368 0.000960853 -0.00298694
31 1 1.72454 5.1974 12.2132 8.35206 -0.00199868 -0.000751023 0.00409801
32 1 1.83076 6.73972 13.7315 10.4938 0.00176608 -0.00303115 0.00186549
33 1 1.79281 8.56194 1.55061 15.5841 0.00471264 -0.000240204 -0.00332911
34 1 1.76143 10.3 3.33567 3.13409 1.70744e-05 -0.00185555 0.00416269
35 1 1.71245 8.78696 4.90845 5.27016 -0.000675795 -0.00324476 0.00455785
36 1 1.76955 10.4149 6.99154 6.86256 0.00150319 0.00371589 0.000482236
37 1 1.77884 12.0177 1.62332 5.03305 0.00232297 0.00312817 0.00248123
38 1 1.79614 13.7876 3.31782 6.89779 0.0032368 0.000327843 0.000187589
39 1 1.36063 12.5402 5.27825 15.6196 0.00499238 0.00493756 0.00200838
40 1 1.75971 14.2695 6.91148 3.45883 0.000532652 0.0032474 0.000590988
41 1 1.86065 8.60745 1.49863 9.00251 -0.00223742 -0.00343078 0.00166269
42 1 1.84114 10.3416 3.34773 10.6598 -0.00185617 -0.00110557 0.000749263
43 1 1.74731 8.53279 5.16853 12.2096 0.00263504 -0.00187366 -0.000131714
44 1 1.5443 10.1065 7.27428 13.909 -0.00163279 -0.00287165 -0.00452061
45 1 1.81213 12.0024 15.453 12.1292 -0.00459001 -0.000855576 -1.26676e-05
46 1 1.74816 13.742 2.96053 14.0551 0.00795194 -0.00216475 0.0023684
47 1 1.67418 11.9702 4.9965 8.71384 -0.00033223 0.00279328 -0.00455517
48 1 1.44445 13.8662 6.64079 10.564 0.00307942 -0.00251113 -0.00397212
49 1 1.64427 8.71877 9.23259 1.60429 -0.00136377 0.000884093 -0.000786842
50 1 1.7954 10.6849 10.5941 3.34825 -0.00279076 0.00282103 -0.00372801
51 1 1.82927 8.8019 12.2071 5.07865 0.00437988 -0.00286794 -0.000756374
52 1 1.72798 10.3736 14.0352 6.93276 0.000372518 -0.00052786 -0.00552815
53 1 1.7755 12.2478 8.54847 5.02162 -0.00251091 0.00732006 -0.00130102
54 1 1.77964 13.9641 10.462 6.77209 -0.00328162 0.000913813 -0.000945409
55 1 1.85199 12.3467 12.1553 15.5539 0.00279652 -0.00506462 -0.00153774
56 1 1.73934 13.8353 13.8982 3.4349 0.00309905 0.000915414 0.00187754
57 1 1.84265 8.55754 8.59609 8.63253 0.00413227 0.00226014 0.00010482
58 1 1.9332 10.398 10.3825 10.2668 0.00253842 -0.00336111 0.000206068
59 1 1.88172 8.58933 11.9539 12.078 0.000532639 -0.00300433 0.000481709
60 1 1.82395 10.2196 13.7018 13.9352 -0.00476472 0.00419946 0.00464784
61 1 1.73896 12.1495 8.74409 12.1175 0.000676709 -0.00140613 -0.00303421
62 1 1.80857 14.0249 10.4433 13.8423 -0.00519972 -0.00141863 -0.00434871
63 1 1.8998 12.0714 12.068 8.47062 -0.00351839 0.000146681 -0.00127737
64 1 1.72069 13.8058 13.767 10.2643 0.00264009 -0.00540423 -0.00499815
65 2 -0.869902 2.74774 2.14745 2.37046 0.00220803 -0.00148143 0.00435331
66 2 -0.866034 2.1305 14.3371 14.7861 -0.00365358 0.00305154 0.00199229
67 2 -0.86797 14.8575 2.23581 14.8313 0.00434705 0.00374678 -0.00798161
68 2 -0.890093 14.8359 14.9083 2.82177 0.00432386 0.00178299 -0.00219036
69 2 -0.903684 2.194 3.8308 4.17761 0.00418791 0.00484817 -0.000471577
70 2 -0.860942 4.51616 2.62415 4.14962 -0.00652657 -0.00631478 0.00503125
71 2 -0.848681 3.83939 4.08993 2.14375 0.000648528 0.00970828 0.000813773
72 2 -0.826528 2.75745 5.69965 5.97949 0.000570119 -0.00110421 -0.00376875
73 2 -0.908247 14.6671 4.3404 6.17 0.0012363 0.0019313 0.00118873
74 2 -0.919261 14.9785 6.00735 4.45387 -0.00022975 0.00220131 0.00182711
75 2 -0.842674 4.36171 6.0713 7.67415 -0.00304752 -0.00255634 -0.0057998
76 2 -0.963665 4.2777 7.71169 5.66782 0.00141391 -0.00601662 0.00274745
77 2 -0.811413 2.39039 7.78234 7.52544 0.00400436 -0.00371365 -0.00286415
78 2 -0.86991 6.2357 2.11882 5.81001 0.00323039 -0.00108521 -0.00205833
79 2 -0.945711 4.1834 14.872 5.82977 0.00883649 0.000223517 -0.00291247
80 2 -0.967696 5.92024 14.5748 3.96643 0.00564713 -0.00786544 -0.00270289
81 2 -0.827422 6.1306 4.12031 7.51969 0.0053371 -0.00199654 -0.00966661
82 2 -0.839319 8.16189 3.9157 6.31151 -1.14896e-05 0.00399572 -0.00140825
83 2 -0.904085 7.61949 2.24363 8.03759 0.00308734 -0.00496356 0.00494662
84 2 -0.915015 5.71418 5.45158 2.62279 -0.00384905 -0.00297273 -0.000118705
85 2 -0.898228 4.05428 6.0971 14.9199 0.000910803 -0.00425378 -0.00528878
86 2 -0.982986 5.70049 4.17956 14.5508 0.00105874 0.00659237 -4.88522e-05
87 2 -0.914457 6.09077 7.50167 3.94183 -0.000889625 -0.00392643 -0.00202537
88 2 -0.85296 7.5339 5.46835 4.51951 0.0034503 0.0062375 0.00107944
89 2 -0.733504 8.30698 8.57364 2.97246 -0.0028253 -0.00407389 -0.00247745
90 2 -0.825363 2.50549 1.86862 9.30425 -0.00553728 -0.0052478 0.00287173
91 2 -0.886721 2.12297 14.4358 7.24204 0.00487927 0.00426598 0.0010564
92 2 -0.939277 14.8049 2.47041 7.65732 0.000946528 0.00130677 0.00332907
93 2 -0.889763 14.6255 14.5461 9.18177 -0.00110524 0.00519073 0.00288998
94 2 -0.811221 2.53109 3.73251 12.0102 0.00472326 -0.000147851 -0.00170061
95 2 -0.757206 4.30314 2.31533 10.874 -0.00524915 0.00328704 0.000511692
96 2 -0.790069 4.33564 3.75279 8.96159 0.00463855 0.00348292 0.000602905
97 2 -0.841194 2.17807 5.82903 13.3836 0.00057714 0.00194023 0.00446535
98 2 -0.896965 14.4625 3.9808 13.1722 0.00188586 -0.00211004 -0.00967815
99 2 -0.809036 14.9146 5.65791 11.3386 0.00600708 -0.0065894 0.000326099
100 2 -0.920784 2.39288 7.98731 14.4218 -0.00202786 -0.0039876 0.00385742
101 2 -0.934747 4.09053 7.66013 12.7481 -0.00353111 -0.00640971 -0.00303175
102 2 -0.914503 5.71907 2.47936 12.9537 -0.00648346 1.92885e-05 0.00098587
103 2 -0.915131 3.72611 14.9111 12.872 -0.00433121 -0.00149987 -0.00281064
104 2 -0.88931 5.72874 14.4965 11.4429 0.00257866 5.71922e-06 0.000492955
105 2 -0.901165 7.40525 2.34857 14.8319 0.00102864 0.00198994 0.00102349
106 2 -0.923042 7.61154 4.11127 12.9723 0.000343289 -0.000210906 -0.00445354
107 2 -0.912342 6.17137 5.66883 9.38105 0.00100845 0.00442739 -0.00184766
108 2 -0.935522 5.76543 7.7717 11.0458 -0.000696683 -0.0018024 -0.00531004
109 2 -0.895794 7.67692 6.23218 11.4737 -0.00283478 -0.00284386 -0.00229222
110 2 -0.918917 7.63064 7.59192 9.33452 0.0026359 0.000348513 0.00326323
111 2 -0.860084 2.63276 9.56588 2.07091 -0.00576808 -0.00416872 0.00622035
112 2 -0.912947 15.1601 7.78895 2.55381 -0.00648126 -0.000566214 0.00752641
113 2 -0.947885 14.5984 9.56409 14.9093 -0.00131151 0.00234592 -0.00331782
114 2 -0.926575 2.36432 10.9459 3.95989 -0.00260387 0.00186241 -0.00308982
115 2 -0.965173 4.51278 9.4421 3.86184 0.0075805 -0.00782717 -0.00246274
116 2 -0.907384 4.23677 11.519 2.43228 0.00712467 -0.00242194 -0.000538134
117 2 -0.924366 2.71661 12.911 5.46204 -0.000612511 -0.00596263 0.00220614
118 2 -0.923528 14.8987 11.3947 5.9929 0.00143785 -0.00339679 0.00578687
119 2 -0.869166 14.7341 12.7302 4.03157 -0.000367926 -0.00939061 0.00215959
120 2 -0.89423 4.25649 13.1073 7.58064 0.00148563 -0.00512612 -0.00549479
121 2 -0.977449 6.13711 9.23313 5.79583 -0.000761817 -0.00271132 -0.00311771
122 2 -0.899747 5.97024 11.3114 7.28503 0.00123193 0.00136027 -0.00213189
123 2 -0.866105 8.06577 11.0733 5.86097 0.00349224 -0.000434267 -0.00302553
124 2 -0.878886 7.72359 9.66726 7.88117 -0.00255491 -0.00645782 -0.00205299
125 2 -0.934822 6.3944 12.9008 2.11828 0.00164419 0.00414286 -0.00781849
126 2 -0.876621 4.30651 13.3312 14.7365 0.00622016 -0.00407873 -0.000796106
127 2 -0.902787 5.64862 11.3432 14.4798 -8.1926e-05 0.007197 0.00101663
128 2 -0.95266 7.92016 14.7636 2.56577 -0.000391884 0.00380613 0.000836542
129 2 -0.97324 7.76061 12.8605 4.20682 -0.000886311 -0.00381622 -0.000261149
130 2 -0.897965 2.58355 9.2897 9.36297 -0.00255986 0.0020713 0.00688334
131 2 -0.788108 14.9381 7.54041 9.54498 0.00278884 0.00236512 0.00145443
132 2 -0.896511 14.6356 9.52412 7.84079 0.00383829 0.00426935 0.00356418
133 2 -0.929003 2.39696 11.4169 10.8426 0.00437909 0.00806674 0.00513507
134 2 -0.872215 4.15866 9.76877 11.2965 -0.00106621 0.00147816 -0.00430728
135 2 -0.875797 4.29101 11.1418 9.09639 -0.00184493 -0.00818485 0.00803232
136 2 -0.911186 2.57655 12.7088 12.9073 -0.00314006 -0.000858443 0.00379955
137 2 -0.902069 15.0142 10.983 12.7808 0.00259009 0.00632981 0.00811373
138 2 -0.896105 14.6596 13.1815 11.4107 -0.0013687 -0.00626094 0.0023346
139 2 -0.903778 5.96308 9.29593 13.0013 -0.00272764 -0.000359807 0.00625748
140 2 -0.882704 7.4652 9.77081 15.0492 -0.00497976 -0.000335045 0.000784168
141 2 -0.910827 7.70652 11.0243 12.9062 -0.00400026 -0.0018945 0.00787497
142 2 -0.922742 5.90685 13.0927 9.4008 -0.00123493 0.00140145 -0.00191536
143 2 -0.920294 7.84246 14.744 9.98828 0.000548766 -0.00579784 0.00821012
144 2 -0.920319 7.51408 12.6508 11.1956 0.00197542 0.00359836 -0.000846689
145 2 -0.915372 9.4196 2.65384 2.09214 0.00494036 0.00346573 -2.48367e-05
146 2 -0.92454 9.53011 14.8625 14.6734 -0.000830996 -0.00212701 0.00752604
147 2 -0.917842 9.40154 4.07337 4.13287 -0.000344459 0.00120606 -2.32168e-05
148 2 -0.909162 11.0885 2.26085 3.95917 -0.00392613 0.00238157 -0.00343821
149 2 -0.838098 11.0398 4.50652 2.58325 0.000892553 -0.00208358 -0.00154153
150 2 -0.877094 9.62992 6.09658 5.83824 -0.00208194 0.00541936 0.0015081
151 2 -0.863646 10.9464 6.00915 7.95376 0.00259635 0.00220122 -0.00188939
152 2 -0.902618 11.5075 7.7247 6.11151 -0.00429571 0.000374559 0.00476588
153 2 -0.903984 9.57138 8.06101 7.61422 -0.00515751 -0.000873138 0.00186922
154 2 -0.966452 12.8521 2.69143 5.84766 -0.00527432 -0.00561673 0.00387419
155 2 -0.878267 11.0647 15.0696 5.99652 -0.0055275 -0.00301199 0.00448163
156 2 -0.903918 12.9273 14.6354 4.48144 -0.00368466 0.00250097 0.00160586
157 2 -0.929008 12.9763 4.18641 7.85143 -0.00340153 0.00571655 0.00219248
158 2 -0.790852 13.6276 5.79983 2.55297 0.00224415 -0.0001561 0.00150059
159 2 -0.735017 10.698 6.57804 15.217 -0.0038302 0.00360961 0.00309
160 2 -0.845818 12.9762 3.92962 14.9655 0.00449897 -0.000427495 0.00150818
161 2 -0.914698 13.0687 7.65503 4.10205 -0.00690888 0.00689052 0.00345441
162 2 -0.936485 9.36639 2.51156 9.88065 -0.00511681 0.00273355 -0.0004664
163 2 -0.884591 9.54722 14.8844 8.07597 0.0108278 -0.000663445 -0.00323537
164 2 -0.992324 9.57582 4.3948 11.4888 0.000808249 -0.00363807 -0.00273888
165 2 -0.939883 11.0607 2.45249 11.6612 0.00620501 0.00216642 0.000498479
166 2 -0.936025 11.3368 3.98407 9.60245 -0.00102438 -0.000526851 0.00362723
167 2 -0.894112 9.16674 6.17528 13.2102 -0.00318725 -0.00607502 0.00297323
168 2 -0.827113 9.46392 8.50628 14.5531 -0.00212424 -7.92135e-05 -0.00747678
169 2 -0.8791 11.0795 7.90103 12.837 0.00317773 0.00915994 0.00357509
170 2 -0.899733 12.8823 1.96551 13.1672 -0.00843344 -0.00330762 0.00401664
171 2 -0.856 11.2378 14.3462 12.9403 -0.00602585 -0.00175141 0.00853884
172 2 -0.865735 12.826 14.8142 10.9718 0.00302832 -0.00337792 0.00129429
173 2 -0.840143 12.9295 5.99988 9.44627 -0.00272205 -0.0055504 0.00237326
174 2 -0.858143 13.1804 7.80353 11.5397 -0.00422351 0.00148474 -0.00051854
175 2 -0.870303 9.71707 10.2483 2.2028 0.00574858 0.00419693 0.000766346
176 2 -0.924221 9.97162 11.5689 4.36186 -0.00260524 -0.00895642 0.000494314
177 2 -0.879677 11.2974 9.38946 4.06584 0.00317073 0.00299551 -0.000995667
178 2 -0.905683 11.8165 11.2801 2.57595 0.0058146 -0.000309856 -0.000410383
179 2 -0.890029 9.3387 13.2313 6.12933 0.00466977 -0.00214886 -0.0011847
180 2 -0.909099 11.4801 13.1566 7.56794 -0.00237626 0.000928617 0.00129696
181 2 -0.845233 13.2659 9.48389 5.77599 -0.00194674 0.000633356 -0.00783421
182 2 -0.908261 12.8016 11.2611 7.46898 -0.00375081 0.0055996 0.00729011
183 2 -0.886621 13.0748 13.2479 2.26382 0.00141649 0.00122404 -0.000337271
184 2 -0.893929 11.1068 12.8153 14.7755 0.00270363 0.00167629 -0.00630267
185 2 -0.927156 13.2135 11.6032 14.4861 -0.00118409 0.00402184 0.00330013
186 2 -0.910223 9.33848 9.34231 9.66056 0.00122385 -0.00287206 0.00521188
187 2 -0.994068 9.65915 11.2722 11.179 -0.00377305 0.00109082 -0.00112993
188 2 -0.939797 11.4609 9.59289 11.0001 -0.00326437 0.000576823 0.0081244
189 2 -0.969733 10.9906 11.2094 9.15325 0.00172418 -0.00176199 -0.000172417
190 2 -0.939492 9.18939 12.9615 13.0433 -0.00040475 -0.000150831 0.000358965
191 2 -0.845647 12.8381 9.63364 13.2071 -0.00518094 -0.00253259 -0.00618102
192 2 -0.934173 13.0089 12.6358 9.54198 0.00218253 0.00379724 0.0058675
193 2 -0.619156 3.18834 6.7728 10.557 -0.000817552 -0.00617758 -0.00221623
194 2 -0.574551 6.66299 6.9637 14.1573 -0.00102479 0.00679339 -0.00435803
195 2 -0.558008 13.84 6.79883 6.80899 0.00197148 -0.000852697 0.00413231
196 2 -0.721221 7.92582 5.9674 2.24845 -0.0108504 0.00242238 -0.004016
197 2 -0.618977 12.1341 5.16294 4.88503 -0.00212543 0.000754106 -0.00633086
198 2 -0.676445 2.15557 4.23483 9.47424 0.00670553 0.00240291 0.00333382
199 2 -0.669978 12.9088 6.13441 14.3941 -0.00116751 -0.00552521 0.00221726
200 2 -0.591945 3.34046 10.3168 6.64693 -0.00471129 0.00217855 -0.00289185
201 2 -0.668988 12.4172 5.5074 11.9833 0.000522034 -0.00257254 0.0071073
202 2 -0.600052 7.0598 6.80855 6.80813 0.000166043 0.00625305 6.81045e-05
203 3 0.436391 2.80506 3.05357 12.6434 -0.0100024 0.00699136 -0.0123618
204 3 0.425512 2.88461 7.66174 10.6595 -0.00899872 0.00422965 -0.000503388
205 3 0.426326 6.93675 6.98894 13.2101 -0.000834342 -0.0210125 -0.0110839
206 3 0.411264 7.27737 6.29003 14.5667 0.0277503 0.000561914 -0.0114732
207 3 0.442948 13.5454 6.22641 6.09663 0.00670264 -0.00160652 0.0369957
208 3 0.415535 13.6832 6.20242 7.60119 -0.0109325 -0.0328109 0.00502596
209 3 0.427802 7.47645 8.86921 3.42906 -0.0344784 0.0195165 0.000673152
210 3 0.398558 8.6939 5.41096 2.55067 0.0110244 0.015133 0.000753419
211 3 0.423424 11.8654 5.24678 3.9403 0.00444799 -0.0248495 0.00411303
212 3 0.397869 12.7277 4.37667 4.87774 0.00767045 -0.012103 0.0159956
213 3 0.440106 15.744 3.8092 8.79256 0.00695883 -0.00926362 -0.0363353
214 3 0.461516 2.47228 6.19854 10.4625 0.0177505 0.00444065 0.00536377
215 3 0.391133 10.0325 5.93374 1.57068 0.0239326 -0.00754868 -0.00302848
216 3 0.453081 13.199 5.56522 13.6259 -0.0108823 0.00539602 0.00229411
217 3 0.418613 4.14528 10.4189 7.19104 0.00117048 -0.00652914 -0.0121004
218 3 0.38822 3.42447 9.44887 6.18628 -0.0334347 -0.00950953 -0.0259293
219 3 0.397178 12.2501 6.34973 12.4828 -6.83093e-05 0.018478 -0.00243383
220 3 0.390157 11.5878 5.39673 11.51 0.0237496 0.00603954 -0.0136243
221 3 0.406227 6.39379 7.4759 6.77706 0.0188563 0.00601002 -0.00993002
222 3 0.430461 6.86843 6.15072 7.49949 0.0186248 -0.0181253 -0.0140096
ITEM: TIMESTEP
3000
ITEM: NUMBER OF ATOMS
222
ITEM: BOX BOUNDS pp pp pp
1.5242252263562310e+00 1.5635774773643801e+01
1.5242252263562310e+00 1.5635774773643801e+01
1.5242252263562310e+00 1.5635774773643801e+01
ITEM: ATOMS id type q x y z vx vy vz
1 1 1.72827 1.50913 15.3739 1.59843 0.0022236 -0.00253793 0.000670392
2 1 1.767 3.37902 2.91621 3.33793 0.00345705 -0.00519551 -0.00118391
3 1 1.78232 1.76541 4.86613 5.03162 -0.000468614 0.00259419 0.00220396
4 1 1.74414 3.55401 6.68585 6.73392 0.00213077 -0.00189407 -0.00394414
5 1 1.87774 5.31964 15.4325 5.1237 0.00614398 -0.00154594 -0.0035898
6 1 1.82147 7.20497 3.01698 6.8912 8.45098e-05 0.00428931 -0.00445531
7 1 1.71402 4.78949 4.8349 15.6461 -0.00161604 0.000291301 -0.00933849
8 1 1.52264 6.66934 6.2793 3.45066 0.0011426 0.00240459 0.00399136
9 1 1.6798 15.4582 15.1542 8.14496 -2.37092e-05 0.00168156 0.00183389
10 1 1.55968 3.42609 2.69928 9.63793 -0.000998488 -0.00168632 0.000735866
11 1 1.71786 15.6268 4.99597 12.5575 -4.26334e-05 0.00553905 0.00231703
12 1 1.79564 3.31962 6.93889 14.0494 0.000664816 0.00101663 0.0017144
13 1 1.76423 4.87056 15.5422 12.0449 0.000906216 -0.00145102 -0.00227383
14 1 1.68957 6.66844 3.33028 13.7941 -0.00372721 0.00278089 -0.00208602
15 1 1.744 5.31362 4.80791 8.46802 -0.000461486 -0.000926928 0.00430749
16 1 1.83988 6.81893 6.68258 10.4178 0.00855035 0.000321528 0.00112063
17 1 1.74617 15.6337 8.88525 15.5584 0.00200722 -0.00211617 0.0036101
18 1 1.68714 3.37027 10.4655 3.35166 -0.00302519 -0.00049361 0.00250418
19 1 1.67725 15.4304 12.0958 4.89359 -0.00279004 -0.00118247 -0.000392329
20 1 1.75255 3.3775 13.5868 6.48853 -0.00321094 0.00316381 0.00261008
21 1 1.7113 5.12938 8.52527 4.89213 0.0018024 -0.000859473 0.00276951
22 1 1.78087 6.83736 10.3336 6.72968 0.00268962 -0.00502563 -0.0042253
23 1 1.83343 5.07026 12.2312 15.6242 -0.00144818 0.000929024 -0.00130131
24 1 1.88644 7.04521 13.8533 3.26907 -0.00128535 -0.00156484 -0.00101865
25 1 1.45468 1.5863 8.33067 8.47639 -0.00346337 -0.00186493 0.000265964
26 1 1.71227 3.27755 10.2192 10.2644 -0.00145309 5.98229e-05 0.000208957
27 1 1.87985 1.54157 12.0194 11.934 0.0072875 0.00765403 -0.00179439
28 1 1.77519 3.16366 13.793 13.7651 -0.00091338 -0.000939094 -0.00178068
29 1 1.87833 5.10181 8.58677 12.1123 0.000397031 -0.000233495 -0.000267619
30 1 1.90177 6.6763 10.5117 13.7982 -0.00346675 3.8756e-05 -0.00769983
31 1 1.73897 5.03865 12.036 8.50683 -0.00186353 -0.00185236 -0.00270938
32 1 1.93247 6.66171 13.8015 10.2997 0.00223378 0.00322723 -0.000609391
33 1 1.87474 8.47846 1.65013 15.5775 0.00136472 -0.00146709 -0.00252016
34 1 1.74088 10.3418 3.36036 3.02691 0.000960249 -0.00126577 -0.00114453
35 1 1.66779 8.80395 4.94347 5.13902 0.00139405 -0.00167299 0.00292138
36 1 1.72429 10.4399 6.92331 6.93578 0.00274818 0.000750045 0.00447494
37 1 1.71427 12.012 1.64199 5.01801 0.00193257 -0.00247827 0.000682586
38 1 1.72544 13.9161 3.29903 6.81754 -0.00162499 -0.00111239 0.00162353
39 1 1.41882 12.7168 5.38964 15.6105 0.0018018 0.00158758 0.00133538
40 1 1.68287 14.3148 7.02782 3.53066 0.00253736 -0.0021805 0.00218825
41 1 1.88118 8.70595 15.5134 8.93553 0.00316876 -0.00125543 -0.00222386
42 1 1.80003 10.4685 3.21084 10.5116 0.00218972 -0.00473975 0.00159622
43 1 1.79569 8.62707 5.02061 12.1779 -0.000537328 -0.000419424 0.000218173
44 1 1.57983 10.1519 7.15075 13.7863 0.00200486 -0.00196554 -0.000280551
45 1 1.82714 12.267 15.6612 12.2555 -0.00135106 0.00130128 -0.0028358
46 1 1.67423 13.9364 3.11505 14.2142 0.00403926 -0.00449502 -0.00153422
47 1 1.75493 12.1382 5.02234 8.59413 -0.0024259 0.000599091 0.00063111
48 1 1.5631 13.8671 6.65575 10.5409 0.00150046 -0.00476145 -0.000798825
49 1 1.63991 8.69382 9.16399 15.5578 0.00113103 -0.00127589 -0.000491078
50 1 1.79952 10.6249 10.6265 3.33367 0.00489832 0.00220648 -0.000176123
51 1 1.88666 8.64513 12.0657 5.12436 -0.0021414 -0.00406346 -0.00130693
52 1 1.77144 10.2531 13.9815 6.80715 0.00175805 -0.00198243 0.000260955
53 1 1.81205 12.1656 8.6534 5.04034 -0.00467038 0.00655175 -0.00332453
54 1 1.66761 13.8464 10.4752 6.89041 0.00112131 -0.00446505 0.00218489
55 1 1.75267 12.0641 12.367 15.4556 -0.0031448 0.000357065 -0.00132964
56 1 1.76197 13.6478 13.9755 3.28119 0.0047359 -0.0020482 -0.00014916
57 1 1.77556 8.45967 8.57205 8.60082 0.000973476 0.000648379 -0.000182027
58 1 1.74363 10.2518 10.4358 10.2624 -0.000756802 -0.00120428 0.00491688
59 1 1.86905 8.50059 12.2233 12.0563 0.00382434 0.00522131 0.00183853
60 1 1.81579 10.2038 14.0245 13.7564 0.000856883 -0.00133691 0.0024144
61 1 1.77508 12.0946 8.76739 12.0314 -0.00212504 -0.00174028 -0.00123933
62 1 1.88191 13.8132 10.4896 13.7829 0.00186484 0.000719795 0.000210337
63 1 1.81945 11.9629 12.2016 8.54406 -0.000720417 0.00150203 0.000332178
64 1 1.80238 13.8271 13.8383 10.3527 0.00519337 -5.52461e-05 0.000685669
65 2 -0.862717 2.5348 1.7963 2.62286 0.00211431 0.00485189 0.000147029
66 2 -0.85173 2.03041 14.2212 14.7858 -0.00742361 -0.000151998 -0.000353665
67 2 -0.897181 15.11 2.25987 14.728 0.00310694 -0.00166979 0.00117576
68 2 -0.851423 14.4094 15.1074 2.60644 0.00212814 -0.00190455 0.00260053
69 2 -0.92237 2.54422 4.04527 3.99748 -0.00436668 -0.00463139 0.00273015
70 2 -0.896248 4.39734 2.29832 4.32788 -0.00104259 0.00555734 0.00563768
71 2 -0.873464 4.11179 3.60111 2.16472 -0.00460923 -0.00373701 -0.00148766
72 2 -0.875954 2.80015 5.57917 5.94261 -0.00519199 -0.00241599 0.0074836
73 2 -0.931538 14.9155 4.01094 5.87516 0.00161734 -0.000969518 0.00342579
74 2 -0.963159 15.0613 6.07279 4.49069 -0.00308114 -0.0016504 -0.00545991
75 2 -0.899929 4.61633 5.92794 7.61204 0.00479988 0.000343555 -0.00461807
76 2 -0.94246 4.19315 7.6375 5.70403 0.000441648 -0.0017856 -0.000158722
77 2 -0.904393 2.64331 7.60015 7.54529 -0.00243775 -0.00302726 0.00213458
78 2 -0.927322 6.20015 2.1145 6.17351 0.00194852 -0.00389572 0.00920723
79 2 -0.937305 4.52944 14.3345 5.79697 0.000163329 0.0049664 -0.00849453
80 2 -0.976956 6.13982 14.768 4.06698 0.00255764 -0.000636622 0.00662555
81 2 -0.898455 6.39644 4.19335 7.52833 -0.00830863 -0.000283979 -0.00211125
82 2 -0.891589 8.13077 3.78471 5.916 -0.00017557 -0.00132977 -0.00696817
83 2 -0.928321 8.09126 2.45055 7.97767 -0.00126655 -0.00266248 0.00172569
84 2 -0.81995 5.53796 5.45553 2.75484 -0.00271603 -0.00381252 -0.0044997
85 2 -0.944426 3.94962 5.97659 15.048 -0.00035072 0.0030057 -0.00770283
86 2 -0.917626 5.92353 4.37711 14.6802 -0.00539356 -0.000345396 0.005949
87 2 -0.84764 5.96813 7.59796 3.97748 0.0109988 -0.00106019 0.00907617
88 2 -0.837434 7.52249 5.55087 4.57219 6.91123e-05 0.00253578 0.00156924
89 2 -0.688945 8.08021 8.58939 2.79563 0.00301284 0.000942389 0.00043288
90 2 -0.811791 2.69352 1.66209 8.808 -0.00302679 -0.00346604 -0.00889451
91 2 -0.828277 2.15759 14.4587 7.07808 -0.00130765 -0.00632461 0.00322251
92 2 -0.960426 14.7294 2.32072 7.68738 -0.00750363 0.0012096 0.00449909
93 2 -0.918252 14.8197 14.2861 9.29524 0.00512061 -0.00291537 -0.00762446
94 2 -0.83257 2.71486 4.1797 12.2393 0.000508225 0.00811191 0.00377075
95 2 -0.9125 4.10496 2.1447 10.9434 -0.00435464 -0.00678652 0.00275148
96 2 -0.877636 4.46514 3.65927 8.95148 -0.00278754 -0.00176435 0.00153144
97 2 -0.913913 2.14282 6.10746 13.4621 0.000128764 0.00105476 -0.00197992
98 2 -0.907871 14.537 4.16558 13.2238 0.00303357 -0.000691055 0.00233495
99 2 -0.833617 14.9912 5.74909 11.3879 0.00234529 0.00713592 -0.00106718
100 2 -0.897061 2.51477 8.06672 14.7271 -0.00486422 0.00200589 0.00519342
101 2 -0.921063 4.23516 7.719 13.0457 0.00292147 -0.000642247 -0.00440101
102 2 -0.852358 5.67471 2.58018 12.7541 0.00332658 -0.0016801 0.000821678
103 2 -0.932555 3.92892 14.888 13.0968 0.00241666 0.000264354 -0.0107025
104 2 -0.919102 5.78724 14.4766 11.3948 0.000426568 -0.00397452 0.000184214
105 2 -0.913976 7.35743 2.32261 14.8064 -0.00499006 -0.00359671 -0.000734254
106 2 -0.918078 7.80565 3.97645 13.0069 0.00241754 0.0125398 -0.002631
107 2 -0.926318 6.11441 5.62089 9.53805 -0.00332722 0.00130644 0.00028373
108 2 -0.937268 5.91978 7.72291 11.1 0.00390894 0.00637971 -0.00419006
109 2 -0.949558 7.78349 5.9844 11.3949 -0.000348956 0.00709078 -0.000357488
110 2 -0.907378 7.68836 7.45713 9.45459 -0.00195302 0.00447522 -0.000556141
111 2 -0.798042 2.37471 9.90869 2.28494 0.00378972 0.000463482 0.00211269
112 2 -0.872781 14.962 8.09742 2.63044 -0.0023122 0.00548546 -0.00547603
113 2 -0.931572 14.5189 9.61037 14.7242 -0.000848219 -0.00322703 -0.00234237
114 2 -0.801084 2.20078 10.946 4.27595 -0.00774472 0.000219283 -0.000915261
115 2 -0.86363 4.24232 9.31575 3.8354 -0.00277624 -0.000788942 -0.00013701
116 2 -0.897198 4.28105 11.5591 2.62755 -0.001136 -0.00321152 0.000594488
117 2 -0.842444 2.51308 12.9422 5.38934 0.00515005 0.00331621 0.00421278
118 2 -0.84384 14.651 11.5695 6.13247 -0.00304666 0.00246782 -0.000934111
119 2 -0.868464 14.6046 12.8539 3.7693 -0.00619689 -0.00551964 0.00680941
120 2 -0.847555 3.86389 12.7467 7.67042 0.00232049 0.00414573 -0.000686075
121 2 -0.902061 6.04745 9.56831 5.60261 0.00706039 0.00183675 -0.00430591
122 2 -0.938392 5.90009 11.3146 7.4694 -0.0017433 0.00243067 -0.00408708
123 2 -0.910101 8.07171 11.0146 6.03607 -0.000738237 -0.00123208 0.00249564
124 2 -0.907576 7.44635 9.3941 7.74466 -0.000152981 0.00171337 -0.00483746
125 2 -0.888692 6.2383 12.9958 2.20384 0.000376827 0.00269828 -0.00182202
126 2 -0.859932 4.20113 13.1986 14.7744 -0.00512323 0.00168861 0.00288197
127 2 -0.982256 5.71244 11.3283 14.5849 -0.00201798 -0.00133037 0.00239105
128 2 -0.957795 8.06175 14.6555 2.47896 0.00410397 -0.00231838 0.000576756
129 2 -0.973106 7.68559 12.9324 4.28737 0.000476222 -0.00226975 -0.00209132
130 2 -0.84821 2.67124 9.10098 9.41143 -0.00137435 -0.00469109 0.00726491
131 2 -0.724005 14.9968 7.47539 9.68456 0.00118679 -0.00216647 0.00704035
132 2 -0.752681 14.8092 9.6256 7.80675 -0.00229933 0.009841 -0.00782272
133 2 -0.883569 2.17627 11.1796 10.8196 -0.001816 8.80765e-06 -0.000849938
134 2 -0.8813 4.05117 9.44357 11.4108 0.00458597 0.000207947 -0.00365967
135 2 -0.930123 4.30192 11.0468 9.45049 -0.00131241 0.0025946 0.00256224
136 2 -0.939554 2.60741 12.7439 12.7516 -0.0054715 -0.00329929 0.000437171
137 2 -0.911091 14.9446 11.0173 12.8175 0.00325059 -0.00370196 0.00139018
138 2 -0.929595 14.5754 12.9009 11.3291 -0.00640091 -0.00048834 0.00579298
139 2 -0.964838 6.04989 9.5382 12.7881 0.000199298 -0.0028821 -0.00225315
140 2 -0.91481 7.47091 9.84493 14.9222 0.00372249 0.00154342 -0.000585256
141 2 -0.944361 7.7437 11.3038 12.958 0.000471805 0.000163047 0.00113068
142 2 -0.934301 5.73744 13.1793 9.2957 0.00334936 -0.00191544 0.00201904
143 2 -0.95888 7.49615 14.7785 9.45361 -0.00327085 0.000824607 -0.0021446
144 2 -0.996877 7.61051 12.885 10.9912 -0.00373152 0.0065748 -0.00740547
145 2 -0.990034 9.40707 2.60649 2.1484 0.00261296 0.000924673 0.00136802
146 2 -0.896203 9.46358 15.1006 14.5892 -0.00739764 0.00242276 0.00196618
147 2 -0.90216 9.57706 4.34565 3.90827 -0.00182168 0.00204419 0.000429467
148 2 -0.926893 11.356 2.55811 3.93993 -0.00187836 0.00431354 0.00112451
149 2 -0.726826 11.0102 4.4645 2.16239 -0.00301717 -0.00362216 -0.00046731
150 2 -0.846775 9.50674 6.13544 5.90616 -0.00346931 0.00733792 0.00244723
151 2 -0.932684 11.4483 6.09813 7.77849 -8.20133e-05 -0.00234079 0.0024019
152 2 -0.864767 11.3585 7.95686 6.08044 -0.0054335 -0.00562546 0.0013249
153 2 -0.875453 9.52591 7.84554 7.71538 -0.000900457 0.000475399 0.00277066
154 2 -0.91578 12.7975 2.56372 5.99454 0.00150412 -0.00462687 0.00523589
155 2 -0.851029 10.8716 15.1277 5.88557 -0.00161168 0.000539762 -0.00441094
156 2 -0.91339 12.8293 14.5944 4.41814 0.000850899 -0.00149521 -0.00706124
157 2 -0.91153 13.1332 4.40356 7.63264 -0.00477563 -0.000166824 0.00155533
158 2 -0.826886 13.2967 6.16246 2.71045 0.000580054 -0.00346216 -0.000609419
159 2 -0.719161 10.8365 6.48625 15.0534 -0.000806941 0.00316935 -0.00437115
160 2 -0.834455 13.4502 4.04046 15.3354 -0.00961925 -0.0037136 0.00295341
161 2 -0.891197 13.2607 7.70424 4.46255 0.000551023 0.00526177 0.00481669
162 2 -0.942296 9.45196 2.20579 10.0325 0.00115222 0.00196698 0.000467755
163 2 -0.928481 9.63748 14.7179 8.0529 -0.00447607 0.00458837 0.000990925
164 2 -0.934591 9.69073 4.29413 11.2791 0.00201875 -0.00320255 -0.000933302
165 2 -0.974488 11.5704 2.56646 11.3802 -0.000389602 0.00112479 0.0015118
166 2 -0.912407 11.1915 4.0337 9.37918 0.00113222 0.00289295 0.00116545
167 2 -0.954764 9.37396 5.98537 13.1144 0.00289389 -0.00110994 -0.00302855
168 2 -0.883406 9.27631 8.24792 14.4516 -0.00207646 -0.00421622 0.00118174
169 2 -0.885454 11.2344 7.7513 12.8474 0.00359608 0.00417146 0.000901878
170 2 -0.883883 12.88 2.10223 13.5601 9.51593e-05 0.00284421 -0.0051393
171 2 -0.907117 11.2038 14.7334 12.7988 0.00140915 0.00340153 -0.00395128
172 2 -0.912504 13.2631 14.8884 11.3252 -0.000705701 0.00143536 -0.00506055
173 2 -0.884712 13.1286 5.86063 9.42719 -0.00347964 -2.9487e-05 -0.000684346
174 2 -0.810955 13.1796 7.89734 11.2787 -0.00724289 0.00158299 -0.000887289
175 2 -0.849385 9.77896 10.014 2.19795 -0.0049882 0.00429079 0.00564682
176 2 -0.97276 9.73471 11.4171 4.30764 -0.000572963 -0.00277028 0.00629431
177 2 -0.876113 11.4009 9.39999 3.96469 -3.1812e-05 -0.0012457 0.00299374
178 2 -0.879083 11.6392 11.4546 2.53232 -0.00368273 0.00215005 -0.000746647
179 2 -0.920103 9.25906 13.1041 6.11272 0.00262167 0.00243974 0.00298984
180 2 -0.87851 11.3385 13.0756 7.4215 -0.00564255 -0.000942992 -0.0031792
181 2 -0.853775 12.9606 9.77201 5.79207 -0.00481232 0.00198912 -0.00251742
182 2 -0.881248 12.8973 11.2817 7.85111 0.00405485 0.00121075 -0.00410063
183 2 -0.875267 12.7016 13.4883 2.14922 0.000139254 -0.00481097 0.00265719
184 2 -0.915972 10.965 12.8988 14.5091 -0.000761516 -0.00752883 -0.00296211
185 2 -0.871997 13.1832 11.6411 14.5793 -0.0035118 0.00503482 0.00233829
186 2 -0.868873 9.1939 9.44301 9.59115 -0.000317447 -0.00499258 -0.00705104
187 2 -0.884937 9.57607 11.3558 11.3466 0.00281395 -0.00694071 0.003081
188 2 -0.892948 11.2849 9.50418 10.9616 0.000924609 0.00308563 0.000546904
189 2 -0.895312 10.8329 11.3139 9.15645 -0.00228923 0.000102293 0.00614276
190 2 -0.908876 9.12646 13.362 12.9299 -0.00111195 -0.0011906 -0.00569353
191 2 -0.943341 12.7226 9.77254 12.9907 0.00254588 -0.00396364 -0.00121921
192 2 -0.912658 12.6482 13.1441 9.56345 -0.00171443 0.000347219 -0.000424963
193 2 -0.619069 3.3891 6.22124 10.2589 0.000332476 0.000238278 0.000806018
194 2 -0.588959 6.80458 7.01412 14.1662 0.00333827 -0.00481208 0.00798368
195 2 -0.672425 14.255 7.15653 7.05496 0.00807468 0.00547295 0.00135193
196 2 -0.728796 7.72001 6.08536 2.24719 -0.00199952 -0.000204654 1.91244e-05
197 2 -0.614093 12.0717 5.08195 5.0916 0.00518465 -0.00286656 0.00443861
198 2 -0.68811 2.18003 3.7577 9.79401 0.000524277 0.00258909 0.00196594
199 2 -0.735751 13.3075 6.18664 14.4774 0.00392127 0.00274188 -0.000282632
200 2 -0.583669 3.30983 10.2049 6.83737 -0.00315723 0.0075041 0.00168266
201 2 -0.63092 12.3703 5.54036 11.9683 0.00453541 0.00667671 0.00441394
202 2 -0.576212 6.91032 6.89488 6.87982 0.00160687 -0.000137121 -0.00757125
203 3 0.490478 3.49091 3.66264 12.0789 -0.0148909 -0.0114188 0.00994366
204 3 0.441796 3.05089 7.08935 9.9782 0.0171288 -0.00622864 0.0177194
205 3 0.421996 7.77089 6.96595 14.0531 0.0101167 0.0200771 0.0276559
206 3 0.42767 6.59289 6.37883 14.8795 -0.0181188 0.040876 -0.0112763
207 3 0.452771 14.2692 7.00949 6.10447 0.0101828 -0.0059077 -0.0153299
208 3 0.461781 13.5945 6.60884 7.52006 -0.0110134 0.00626767 0.00114831
209 3 0.448633 7.18475 8.86679 3.10499 -0.0251218 0.0333231 0.00092539
210 3 0.414581 8.24508 5.24084 2.3346 -0.0211663 0.0100515 0.00982908
211 3 0.423326 12.8194 5.34362 4.56845 0.000818274 -0.00193466 0.00241533
212 3 0.423545 11.9436 4.17714 4.94493 0.00350586 -0.0165964 0.0333179
213 3 0.418068 1.47796 3.45214 9.18462 0.0084943 -0.00448181 -0.000877004
214 3 0.462352 2.70962 5.66979 10.5854 0.0161838 -0.0166614 -0.0242416
215 3 0.416937 10.2642 5.58848 15.4376 -0.027671 -0.0296505 0.0163655
216 3 0.451868 14.2228 6.25349 14.1493 0.0116902 0.00130159 0.014587
217 3 0.400566 3.44001 10.2637 7.80977 -0.0071868 -0.000478541 -0.0144216
218 3 0.410703 3.34832 9.26853 6.67611 0.0114407 0.0127477 -0.002213
219 3 0.41713 12.1532 5.90111 12.864 0.00230898 -0.000270962 -0.0229085
220 3 0.394133 11.6143 4.90713 11.823 -0.00465648 -0.0150155 -0.0247058
221 3 0.432292 7.1175 5.99233 6.58405 -0.00649048 0.00723928 -0.00597604
222 3 0.412812 6.57268 6.71635 7.76877 0.0185957 -0.031736 0.00400145
ITEM: TIMESTEP
4000
ITEM: NUMBER OF ATOMS
222
ITEM: BOX BOUNDS pp pp pp
1.5242979421483698e+00 1.5635702057851640e+01
1.5242979421483698e+00 1.5635702057851640e+01
1.5242979421483698e+00 1.5635702057851640e+01
ITEM: ATOMS id type q x y z vx vy vz
1 1 1.86707 1.68073 15.3275 1.58672 -0.00394945 0.00176549 0.00097062
2 1 1.85482 3.36553 3.22653 3.20763 -0.00658618 0.000672362 0.00364632
3 1 1.70178 1.53135 4.88864 5.03957 0.00023857 -0.0025994 -0.00287251
4 1 1.69107 3.47998 6.5071 6.7145 0.00383045 -0.00143219 0.0030536
5 1 1.9157 5.20723 15.5623 4.72846 0.000554958 -0.00375092 0.00017174
6 1 1.72575 6.96392 3.04196 6.69919 0.00207744 -0.000528659 -0.00460328
7 1 1.84886 4.96947 5.01835 15.553 -0.000596028 -0.00761535 -0.00142093
8 1 1.56855 6.91577 6.35143 3.25497 0.00034409 0.00155168 -0.00505002
9 1 1.78244 1.52365 15.2613 8.29792 -0.00250244 -0.00506275 0.00146629
10 1 1.56798 3.49479 2.7405 9.93073 -0.000718642 -0.00230349 -0.00229876
11 1 1.47487 15.5264 5.18456 12.7341 -0.00124458 -0.00148657 0.000263398
12 1 1.70795 3.36277 7.10544 13.9702 0.00775017 0.00359741 -3.7065e-05
13 1 1.72445 4.99306 15.4184 12.1387 0.00488408 -0.0084935 -0.00497477
14 1 1.57731 6.66828 3.17398 13.8214 0.00294994 0.00418898 0.00215096
15 1 1.72879 5.28824 4.82127 8.49107 0.000545143 -0.0019863 6.25712e-05
16 1 1.75492 6.9286 6.75139 10.2648 0.00568838 0.000333826 -0.00478116
17 1 1.63547 1.53902 8.82913 15.6231 0.00116984 0.00391116 0.00246141
18 1 1.74495 3.29541 10.3108 3.444 -1.02067e-06 -0.00129126 0.00113667
19 1 1.82333 15.3464 11.9447 5.06468 0.00151285 0.000635919 -0.00127099
20 1 1.75617 3.34693 13.7568 6.37045 0.00127076 -0.00176296 -0.00127212
21 1 1.74691 5.12202 8.28898 4.82344 0.000408783 -0.00013663 -0.000232551
22 1 1.99159 6.84574 10.135 6.53296 0.000692488 -0.00019793 0.000950685
23 1 1.81585 5.03251 12.0097 1.67464 0.00059347 0.00832188 -0.00129407
24 1 1.80869 7.02454 13.7623 3.20358 -0.00113533 0.00306691 0.000460108
25 1 1.50117 15.3794 8.43909 8.66252 6.89006e-05 0.000706681 0.00246671
26 1 1.76134 3.28304 10.2895 10.0748 0.00531882 0.00112921 -6.33057e-05
27 1 1.7631 1.64474 12.0667 11.9284 0.00245685 -0.00145554 0.00108092
28 1 1.82219 3.38169 13.6633 13.9616 0.000582261 -0.00358795 0.00319666
29 1 1.76753 5.11602 8.56745 11.9039 0.000775927 -0.00177367 0.00167591
30 1 1.74813 6.60104 10.6562 13.5624 -0.00889766 -0.00313364 -0.00298258
31 1 1.80611 5.12725 11.9318 8.21763 -0.00329051 0.000623605 0.00435131
32 1 1.82582 6.66031 13.7631 10.1182 0.00118666 -0.00396075 0.00107595
33 1 1.78063 8.68218 15.6467 15.5619 -0.00240581 0.00290962 -0.000997593
34 1 1.73641 10.4523 3.36195 3.13879 0.00458118 0.000964432 -0.00329924
35 1 1.68239 8.83043 4.92983 5.17944 -0.000493788 -0.00220381 -0.00336186
36 1 1.8161 10.4713 6.8954 6.81568 -0.000384342 -0.000357414 -0.00363796
37 1 1.7191 12.1373 1.6914 5.08953 0.00232281 -0.00319114 0.00916772
38 1 1.74478 13.9105 3.28324 7.06866 -0.000867399 7.7074e-05 -0.00188048
39 1 1.36683 12.6495 5.33295 1.57887 -0.00106306 0.00730299 -0.000590054
40 1 1.72584 14.1947 7.05206 3.53026 -0.00509165 -0.00065607 -0.00133742
41 1 1.77283 8.63203 15.5739 8.62564 -0.000776648 -0.00164484 -0.00528729
42 1 1.71585 10.3041 3.2747 10.4327 -0.00232229 0.0014278 -0.00303974
43 1 1.70973 8.5967 5.1119 12.2541 -0.00652891 0.00269068 0.000768668
44 1 1.63204 10.0199 7.16286 14.0187 0.00595695 -0.00430393 0.00118424
45 1 1.66845 12.1997 15.6411 12.0454 0.00569716 -0.00132259 0.00130241
46 1 1.67266 13.8667 3.02362 14.1375 -0.00404323 0.00301796 -0.00333934
47 1 1.77686 12.0709 5.11127 8.70676 -0.000916478 0.00066651 -0.00373508
48 1 1.66537 13.787 6.82203 10.6399 0.0015902 0.00155147 -0.000195523
49 1 1.71476 8.70446 9.48363 15.4559 -0.000159846 0.00294982 0.00560004
50 1 1.8697 10.7098 10.6295 3.27304 -0.00346153 -0.0029017 0.00231497
51 1 1.8149 8.69026 11.9566 5.07659 -0.0033458 -0.00266702 0.00253896
52 1 1.8178 10.3305 13.93 6.73317 2.03452e-05 0.000895358 0.00218947
53 1 1.83776 12.1882 8.71757 5.03038 -0.00428412 -0.00181405 0.00238613
54 1 1.90213 13.7523 10.3767 7.0473 -0.000918249 0.000271894 0.00018081
55 1 1.84277 12.1834 12.3819 15.5125 -0.00353249 -0.000904979 0.00060143
56 1 1.77154 13.8422 13.9204 3.33351 -0.000127455 -0.00105685 0.00157164
57 1 1.79783 8.57733 8.63583 8.49381 0.00147768 -0.00139435 -0.00175124
58 1 1.73413 10.1576 10.4133 10.5298 0.00277291 0.00303338 -0.000311431
59 1 1.88554 8.45372 12.3625 11.9979 -0.00403958 0.0041403 0.00429777
60 1 1.76184 10.337 13.9399 13.7437 -0.000233587 -0.000436996 0.000720683
61 1 1.73074 12.0314 8.70999 12.2494 0.00318461 0.00397038 0.00149583
62 1 1.80438 13.9136 10.533 13.7893 -0.00355045 0.00184809 0.00152942
63 1 1.75105 11.8911 12.144 8.66088 0.00259152 -0.000749475 0.000706755
64 1 1.88687 13.9061 13.8077 10.303 -0.00305148 0.00307413 -0.00037858
65 2 -0.89976 2.72389 2.1524 2.24642 -0.00245333 0.00136417 -0.00222878
66 2 -0.960185 2.27028 14.4811 14.5975 0.000653645 -0.00374339 -0.00728827
67 2 -0.884844 14.6925 2.02419 15.0115 -0.00334305 -0.00383016 -0.00100995
68 2 -0.916268 15.0789 14.5926 2.71919 0.00402177 0.000717745 0.00326443
69 2 -0.890682 2.32292 3.84425 4.1254 -0.000164157 0.00294081 -0.00113102
70 2 -0.96334 4.49713 2.52375 3.94788 -0.00392464 -0.000554959 -0.00632976
71 2 -0.927791 3.99302 4.33686 2.34917 -0.00213522 -0.000501011 -0.000550538
72 2 -0.925118 2.57315 5.46878 5.99278 -0.000922297 -0.00253514 0.00114014
73 2 -0.928359 14.634 4.05563 5.91016 0.000989388 0.00400954 -0.000623616
74 2 -0.949819 14.9326 6.1566 4.52753 0.00105826 0.00255605 -0.00205653
75 2 -0.942453 4.40418 5.80675 7.73542 -0.00580961 0.000506509 0.000530785
76 2 -0.958818 4.31563 7.29945 5.73022 -0.00820356 0.00776949 0.000473868
77 2 -0.790996 2.62166 7.5708 7.44387 0.00261626 0.00616478 -0.00317608
78 2 -0.896052 6.0019 2.13785 5.84473 -0.00331913 0.00356959 0.000843009
79 2 -0.94035 4.17925 14.6695 5.46376 0.00755849 0.0024723 0.00979741
80 2 -0.99176 6.2645 14.8043 3.9424 0.00332391 -0.00175051 0.0066469
81 2 -0.898362 6.14335 4.21168 7.37327 0.0017155 -0.00414186 0.000434476
82 2 -0.807524 7.97892 3.72476 5.69954 0.00855046 0.00437305 0.000582744
83 2 -0.902187 7.91386 2.4725 7.73738 0.00165912 0.00300498 -0.000871302
84 2 -0.902073 6.13444 5.40165 2.31445 0.00279333 -0.0011554 -0.00690377
85 2 -0.88608 4.2184 6.18273 14.8272 0.00231736 -0.000768054 -0.000745677
86 2 -0.82816 5.46599 3.91179 14.5847 -0.00147758 0.00478465 0.00190229
87 2 -0.876715 6.07599 7.54937 3.80521 0.00132152 -0.00181359 0.00386868
88 2 -0.793133 7.63537 5.75541 4.52711 -0.000995398 0.00891966 0.00301719
89 2 -0.756937 7.55501 9.25744 2.38924 -0.000279241 0.00491709 -8.23628e-05
90 2 -0.869331 2.78122 1.66554 9.07206 -0.00802058 0.000411843 -0.00432158
91 2 -0.867111 2.24587 14.4962 7.12009 -0.00640733 -0.0107228 -0.00400208
92 2 -0.983416 14.8173 2.3773 7.85378 -0.00150288 -0.0104653 -0.00428058
93 2 -0.945759 14.7774 14.4006 9.20187 0.000450867 0.00697857 -0.00199692
94 2 -0.689315 2.85791 4.58598 12.3327 -0.0058963 0.00137504 0.00221841
95 2 -0.871001 3.94402 2.14786 11.2779 7.77649e-05 0.00444699 -0.00198231
96 2 -0.843725 4.61841 3.67149 9.34737 0.00110046 -0.0096954 0.000508408
97 2 -0.829794 2.00674 6.28452 13.65 -0.00305185 0.00138642 0.0100169
98 2 -0.871357 14.8285 3.9923 13.4129 0.00112328 -0.00317344 0.000840617
99 2 -0.858999 14.6329 5.80687 11.5604 0.00565242 0.00779343 -0.00107212
100 2 -0.797989 2.72749 8.22625 14.8162 -0.00423872 0.000369186 -0.000956514
101 2 -0.8941 4.19988 7.65553 12.7654 -0.00769918 -0.000111007 0.000665683
102 2 -0.828778 6.12289 2.17965 12.7513 -0.00228699 -0.00302296 0.00103194
103 2 -0.924663 4.34003 14.6175 13.1976 -0.000732467 -0.00369716 0.0021679
104 2 -0.857856 5.68282 14.3421 11.1204 0.00461165 -0.00283787 -0.00585199
105 2 -0.812915 7.65083 2.52993 14.9478 0.00321366 -0.000242057 0.00273438
106 2 -0.795274 7.49418 4.26019 12.9485 -0.00260773 -0.00648933 0.00471704
107 2 -0.897205 6.22089 5.6267 9.43025 0.000902379 0.00831398 9.3419e-05
108 2 -0.906285 6.06371 7.82632 10.954 -0.00414391 -0.00630415 -0.00279468
109 2 -0.905522 7.70488 5.99788 11.4047 -0.00188319 -0.00266593 -0.000802655
110 2 -0.923915 7.85411 7.44909 9.27466 -0.00305679 0.000500772 0.00541782
111 2 -0.845093 2.51438 9.81025 2.24548 -0.000255103 -0.000492608 -0.00649099
112 2 -0.872511 15.1779 7.69154 2.52688 -0.00215349 -0.00450554 0.00586583
113 2 -0.876581 14.5885 9.41328 14.6219 0.00419893 0.000140458 0.000232767
114 2 -0.860203 2.06124 10.8388 4.32048 0.00470719 -0.00172293 -0.00392027
115 2 -0.926127 4.14746 9.15956 4.0441 -0.00166143 -0.000346171 0.00661372
116 2 -0.91155 4.28709 11.3358 2.86821 0.000212927 -0.00723961 0.00585771
117 2 -0.862823 2.4578 12.788 5.54039 0.00266083 0.000142943 0.000770959
118 2 -0.956375 14.6867 11.276 6.2663 0.00178584 -0.00752624 0.00142391
119 2 -0.952815 14.382 12.7832 4.28139 0.00150296 0.0024812 0.00368615
120 2 -0.844079 4.25618 13.0126 7.48876 0.00514773 0.0022352 0.00690444
121 2 -0.956302 6.07754 9.10754 5.739 -0.00365049 0.00026739 -0.000370717
122 2 -0.993786 5.92064 11.1558 7.17076 0.0031022 -0.00383739 0.00317074
123 2 -0.962548 7.83266 10.7412 5.61981 0.00588597 0.00399297 0.00559107
124 2 -0.976319 7.65359 9.51761 7.66212 0.00146415 0.00119096 -0.00378722
125 2 -0.88014 6.16404 12.8942 2.19366 -0.00624572 0.00190042 0.00347729
126 2 -0.937669 4.0739 12.9678 15.145 0.00610247 0.00115451 -0.00372136
127 2 -0.896382 5.55378 11.1098 14.6276 -0.00134741 -0.00205364 -0.00104817
128 2 -0.885928 7.99105 14.541 2.22468 -0.00264357 0.00400696 -0.00118403
129 2 -0.91436 7.73773 12.7358 4.14062 0.000296976 0.00389752 0.00105273
130 2 -0.854251 2.4083 9.12629 9.48933 0.000171229 -0.00589442 -0.00227724
131 2 -0.892496 14.754 7.65332 9.84499 0.00328335 0.000883022 -0.00195814
132 2 -0.897923 14.584 9.5799 8.0556 -0.00820107 -0.00235877 0.00444978
133 2 -0.878943 2.50183 11.3068 10.8404 -0.0032914 -0.00539292 0.00201736
134 2 -0.85333 4.16994 9.57398 11.1482 0.000156358 -0.00790137 -0.000793631
135 2 -0.934871 4.1375 10.9608 8.98168 0.000480481 -0.000339282 -0.00537566
136 2 -0.869131 2.72639 12.7439 12.8814 0.00176015 -0.00413594 -0.00325779
137 2 -0.887781 14.9842 11.0301 12.8021 -0.00397798 0.00222885 -0.00413323
138 2 -0.968722 14.7657 13.0143 11.2438 -0.000645469 -0.000742014 -0.00511223
139 2 -0.900347 6.10722 9.4845 12.6699 0.00135228 -0.00204906 0.000106342
140 2 -0.852932 7.79846 10.3099 14.4674 -0.000696211 0.000406526 -0.00449896
141 2 -0.892893 7.25216 11.8107 12.7815 0.00950488 0.00254475 -0.00802854
142 2 -0.930559 5.9422 12.7446 9.22331 -0.00568618 0.00250752 0.00445888
143 2 -0.869004 7.41935 14.8334 9.3091 -0.00180479 -2.56639e-06 -0.00150389
144 2 -0.928588 7.86723 13.0892 10.8385 0.00169248 0.00628675 0.00312694
145 2 -0.861086 9.43812 2.39207 2.51596 0.00501777 0.00224816 -0.00373098
146 2 -0.885048 9.71645 15.153 14.5558 -0.00280348 0.00610465 0.00258814
147 2 -0.891049 9.67858 4.39198 3.98636 -0.00175722 -0.00172901 0.00481773
148 2 -0.900525 11.4118 2.74126 4.18078 -0.00140791 -0.00186154 0.00140591
149 2 -0.778184 10.9981 4.27229 2.08208 0.00863994 -0.0025111 0.00282489
150 2 -0.905421 9.52925 5.86461 6.18521 0.00287301 -2.92204e-05 0.000310577
151 2 -0.912425 11.4032 6.06599 7.73277 0.00248354 -0.000743695 -0.00199326
152 2 -0.880313 11.2149 7.67384 5.74707 0.00456365 0.00208021 -0.00543007
153 2 -0.877012 9.74262 7.97996 7.71891 0.00531194 9.14144e-05 -0.00694184
154 2 -0.854193 12.8173 2.48758 6.2647 0.00425743 -0.00607434 -0.00423384
155 2 -0.886664 10.9957 14.9392 5.76732 -0.0026477 -0.0015621 0.000541928
156 2 -0.877959 13.103 15.0346 4.18569 0.00218752 0.00396372 -0.00551472
157 2 -0.941269 13.1896 4.24285 8.05872 -0.00492418 -0.00216673 -0.0014931
158 2 -0.834937 13.4102 5.87731 2.81262 -0.00608052 -0.000940692 0.00393367
159 2 -0.748299 10.7538 6.52616 15.2704 -0.000909213 -0.00250394 0.00322026
160 2 -0.775125 13.3479 4.05077 15.1729 -0.00107866 -0.00172225 0.00321503
161 2 -0.963662 13.2044 8.07478 4.11176 0.00418583 0.00189261 0.000679731
162 2 -0.866207 9.29506 2.32209 9.74318 0.00123675 0.000589139 -0.0093443
163 2 -0.949773 9.56799 14.6635 7.75479 -0.00446524 -0.000379472 0.00436479
164 2 -0.845394 9.49835 4.06896 11.5479 -0.00517514 0.00384176 -0.00258035
165 2 -0.877068 11.295 2.59449 11.3715 -0.00463399 -0.00170633 0.00361768
166 2 -0.94349 11.1041 4.16056 9.42811 0.00505967 0.00328072 -0.00429073
167 2 -0.923686 9.10378 6.09325 13.3316 0.00696272 -0.00939382 0.00232872
168 2 -0.895736 9.11238 8.27502 14.6438 0.00167552 -0.000552187 0.001084
169 2 -0.912429 10.9794 7.97936 13.0935 0.00458512 0.000997879 0.00898545
170 2 -0.865935 12.7482 2.41179 13.1961 0.00704743 0.00365452 -0.000403189
171 2 -0.836826 11.3232 14.4431 12.6162 0.000991613 -0.00256844 -0.00268967
172 2 -0.895753 13.2451 15.0057 11.0589 -0.00421891 0.00163264 0.000568691
173 2 -0.939351 12.8285 6.13212 9.58133 0.00270876 0.00638038 -0.0045393
174 2 -0.896565 13.0599 7.69324 11.656 -0.00308618 0.00271322 0.0056388
175 2 -0.921651 9.85411 10.1732 2.06038 -0.00186716 -0.00433596 0.00415479
176 2 -0.937672 9.90538 11.4278 4.2647 4.99131e-05 0.00202653 0.00203574
177 2 -0.932085 11.2459 9.46797 4.11564 0.00444732 0.0156644 -0.00577774
178 2 -0.960637 11.7526 11.4238 2.48885 0.00443102 0.00174358 0.00377206
179 2 -0.918536 9.33394 12.9001 6.06764 -5.33953e-05 0.00320676 0.00499142
180 2 -0.882236 11.366 13.0658 7.54185 0.00302173 0.00263609 -0.00349996
181 2 -0.973841 12.7972 9.62412 6.15158 -0.00116621 -0.000295858 0.00597691
182 2 -0.891662 12.8942 11.2292 7.99036 0.00841456 0.00397992 -0.0045145
183 2 -0.917496 12.8878 13.5228 2.21845 1.8033e-05 -0.00158514 0.00299333
184 2 -0.944034 11.0445 12.9973 14.7253 0.0052053 -0.00189233 0.0051076
185 2 -0.940069 13.1539 11.6754 14.5366 0.00337623 -0.00265415 -0.00714746
186 2 -0.831463 9.21441 9.45544 9.60987 -0.00413345 0.000549246 -0.00448491
187 2 -0.954837 9.25299 11.1669 11.4751 -0.00586296 0.00149188 -0.00160597
188 2 -0.846679 11.3677 9.53994 11.0798 -0.00597186 0.0100095 -0.00294491
189 2 -0.858815 10.7573 11.4109 9.56692 -0.00864817 -0.00251963 -0.00238198
190 2 -0.917644 9.20865 13.3239 12.9457 -5.85563e-05 0.000211433 0.000773153
191 2 -0.879174 12.9 9.73868 13.0202 0.001545 -0.0031198 0.00838402
192 2 -0.883886 12.7857 13.022 9.63196 -0.0053824 -0.00628497 -0.00277422
193 2 -0.57871 3.26482 6.43458 10.3265 -0.00270908 -0.00223886 -0.000118252
194 2 -0.618251 6.70902 6.95036 13.948 -0.00850486 -0.000595271 0.00066327
195 2 -0.660495 14.2899 6.99536 7.26866 0.00401384 -0.00140112 0.000318911
196 2 -0.710221 8.26222 6.70066 2.46244 0.00230266 0.00107329 0.00218778
197 2 -0.561761 12.107 5.14981 5.20317 -0.000685539 0.00509552 -0.00172324
198 2 -0.757606 2.24768 3.70124 10.1692 -0.00360665 -0.00562226 0.00933947
199 2 -0.667844 13.3048 6.28951 14.6266 0.00155292 -0.00669433 -0.00800317
200 2 -0.576664 3.16634 9.88695 6.71652 0.0054359 0.00542025 -0.0106345
201 2 -0.607907 11.6679 5.22882 12.7843 0.0038983 0.00312743 -0.0029399
202 2 -0.556041 6.92691 6.63461 6.81094 0.00427657 0.00236804 0.000352961
203 3 0.45991 2.78282 3.67876 12.0582 -0.0288588 -0.00473259 0.00877949
204 3 0.419976 2.6925 7.20835 10.4951 -0.0250703 0.00763185 -0.00396051
205 3 0.439692 7.17886 7.72224 14.2388 0.00508896 0.0124264 0.0334421
206 3 0.470686 7.16072 6.35574 13.4047 0.0363239 0.00227301 -0.00909382
207 3 0.376981 15.0132 6.45894 6.76797 0.00616001 0.00369396 0.0113174
208 3 0.40179 13.8867 6.43163 7.9436 -0.0219202 -0.0530719 -0.0227038
209 3 0.494199 6.8128 9.19775 2.95841 0.00454417 0.00453641 -0.0333092
210 3 0.432016 9.03558 6.43599 2.87906 0.0153982 -0.0106994 0.0281433
211 3 0.403766 13.0721 5.12529 5.29577 -0.0129883 0.000623835 -0.0308161
212 3 0.396227 12.0279 4.66644 4.32204 -0.0252387 0.0128242 -0.00105362
213 3 0.402053 1.53138 3.61634 9.45997 -0.0206261 -0.0135311 0.0149396
214 3 0.420514 2.77278 5.72275 10.7763 0.00236788 -0.020069 0.025767
215 3 0.433396 10.2918 5.60469 15.5913 -0.00634151 0.0215985 -0.00684504
216 3 0.451623 14.2734 6.30998 14.6077 0.00217149 0.0106707 0.00028574
217 3 0.425036 3.05818 10.0728 7.65974 -0.0154198 0.0231514 -0.00773541
218 3 0.426817 3.09127 8.881 6.57682 -0.0216942 0.011423 0.0100792
219 3 0.399371 12.2151 6.0497 12.6936 0.00716356 0.00306447 0.0196886
220 3 0.400779 11.9586 4.661 12.0486 -0.00505078 0.00444229 0.0138805
221 3 0.431153 6.03157 6.32094 6.56282 0.0228286 -0.0122536 -0.0241984
222 3 0.41846 7.07678 6.37756 7.7539 0.00524138 0.00413596 0.00933932
ITEM: TIMESTEP
5000
ITEM: NUMBER OF ATOMS
222
ITEM: BOX BOUNDS pp pp pp
1.5241544987586906e+00 1.5635845501241299e+01
1.5241544987586906e+00 1.5635845501241299e+01
1.5241544987586906e+00 1.5635845501241299e+01
ITEM: ATOMS id type q x y z vx vy vz
1 1 1.81217 1.65406 15.3494 1.66767 -0.000846436 0.00468044 0.00442972
2 1 1.72654 3.42067 3.0858 3.28248 0.000692269 -6.22322e-05 0.000660492
3 1 1.71542 1.62186 4.89216 5.12258 0.000179175 -0.00249784 5.29084e-05
4 1 1.75383 3.64409 6.58825 6.61471 0.00110103 0.00107725 0.00216687
5 1 1.91073 5.25039 15.5128 4.97268 -0.00380666 -0.000292347 0.00115065
6 1 1.81426 7.08849 2.98665 6.81383 0.000816901 0.00427092 -0.000842995
7 1 1.84623 4.86288 5.0746 15.6128 0.0050307 -0.00155561 -9.94953e-05
8 1 1.58158 6.88978 6.33602 3.32363 -0.00258978 0.00455698 0.00371042
9 1 1.64962 15.4914 15.2528 8.30609 0.000681991 0.000529065 -0.0016483
10 1 1.54225 3.46904 2.85327 9.75077 -0.000356378 -0.00300541 -0.00291394
11 1 1.62228 15.5886 5.06499 12.6721 -0.00338715 0.00328085 0.00488166
12 1 1.75988 3.19105 7.13912 14.117 0.00116215 0.00292078 -0.00218483
13 1 1.78581 4.94485 15.6598 12.0599 -0.000867696 0.00603661 -0.00169671
14 1 1.80799 6.5946 3.31036 13.9215 -0.00319462 -0.00437368 0.003413
15 1 1.68376 5.38796 4.85658 8.46489 -0.0027364 0.00183289 -0.000507933
16 1 1.79862 6.70901 6.88677 10.3566 0.00182644 0.00161652 -8.49298e-05
17 1 1.747 15.5329 8.90236 1.67676 -0.00184729 -0.00406971 -7.45583e-05
18 1 1.75879 3.59189 10.409 3.17549 -0.00202784 0.000131704 0.000506558
19 1 1.83839 1.63304 11.8889 4.99466 -0.00258807 -0.000736158 -0.0033156
20 1 1.76157 3.36922 13.7644 6.59417 0.00043975 0.00139947 0.000701915
21 1 1.78041 5.31643 8.44734 4.85475 0.00532458 -0.000134271 -0.00260013
22 1 1.88011 6.92705 10.2769 6.74009 0.0040993 0.000924526 -0.00189125
23 1 1.74766 5.07776 12.3404 15.4034 -0.00151535 0.000724609 -9.36967e-05
24 1 1.79505 6.94217 13.7036 3.23663 -0.00243169 0.00429309 0.00100504
25 1 1.45395 15.4619 8.35495 8.5593 0.000795532 0.000508061 0.00504316
26 1 1.70693 3.19048 10.3031 10.1715 0.000268141 0.00807372 -0.000170658
27 1 1.84896 15.5025 12.064 11.847 0.000107931 -0.00504007 -0.00188028
28 1 1.87435 3.15401 13.8438 13.6502 -0.00590971 0.00245003 -0.00271222
29 1 1.80868 4.89389 8.65606 12.0426 0.00416394 0.000260611 0.00499859
30 1 1.68775 6.68182 10.6001 13.5328 -0.000977817 -0.0050529 -0.00125652
31 1 1.73515 5.07297 11.9948 8.43847 0.00397335 -0.00178877 0.00334988
32 1 1.79699 6.75144 13.7225 10.4244 0.00182907 0.0018275 -0.0008243
33 1 1.71705 8.51349 1.67939 15.6428 0.00100936 0.000803317 0.000779533
34 1 1.77602 10.4636 3.40333 3.05998 -0.000608126 -0.000563463 -0.000624428
35 1 1.72451 8.82754 4.85082 5.2135 0.00126224 0.00145306 -0.00340266
36 1 1.77214 10.3585 6.80273 7.04613 0.00319173 0.00324054 -0.00135242
37 1 1.84567 12.0478 1.61078 5.03939 -0.00187837 -0.00179059 -0.000327884
38 1 1.81589 13.7973 3.29517 6.88814 -0.00131024 0.000450041 -0.000928282
39 1 1.45803 12.5925 5.29194 15.5658 0.000263337 -0.00226366 0.00355152
40 1 1.84929 14.0772 6.92283 3.54128 0.00214798 -0.00423015 -0.00402503
41 1 1.9085 8.64421 15.3704 8.76725 3.1284e-05 0.00633022 -0.0024986
42 1 1.70008 10.3018 3.27086 10.5066 -0.00361246 -0.00372864 -0.000686376
43 1 1.7252 8.41185 5.13801 12.1763 -0.000555557 -0.00325168 -0.00211781
44 1 1.64159 10.0782 7.26286 13.6271 0.00425447 0.00380655 -0.000644675
45 1 1.88263 12.1244 1.58281 12.1772 0.00379433 -0.00479709 -0.00390507
46 1 1.87657 13.9188 3.01586 14.1524 -0.00139027 0.0024355 -0.00236221
47 1 1.72882 12.1125 4.99255 8.77706 0.00390799 -0.000471214 -0.00141309
48 1 1.72733 13.9419 6.63092 10.6137 0.00267352 -0.00616901 0.0033291
49 1 1.67166 8.7638 9.37725 15.3959 0.00293481 0.0014335 0.0049737
50 1 1.91243 10.6504 10.432 3.36956 0.0011491 0.00267864 -0.000169674
51 1 1.97702 8.66334 12.0039 4.99676 -0.000125264 0.00222101 0.000342999
52 1 1.89021 10.2479 13.9215 6.64873 -0.00269197 0.00151607 0.00696019
53 1 1.84798 12.1278 8.54602 5.20659 0.0018661 -0.00179218 -0.00279726
54 1 1.8564 13.9014 10.3589 6.86777 0.00200978 -0.00168261 0.00329862
55 1 1.7718 12.1849 12.3277 15.5945 2.06475e-05 -0.00592429 0.00261194
56 1 1.77602 13.8692 13.873 3.48566 0.00109277 -0.00237646 -0.00198194
57 1 1.79272 8.6042 8.67362 8.77851 0.00305119 0.00527562 0.00331541
58 1 2.03518 10.4972 10.4427 10.3031 0.000120212 0.00514064 0.00136436
59 1 1.85774 8.77494 12.1878 12.0711 0.000526147 0.00117418 0.000875539
60 1 1.8069 10.2921 14.0419 13.9104 -0.00537625 -0.00290361 0.00289945
61 1 1.81586 12.206 8.6932 12.076 -0.00224067 0.00392348 -0.00264797
62 1 1.88501 13.8336 10.5346 13.8219 -0.000302257 0.000874675 -0.00428446
63 1 1.87552 12.0498 12.1795 8.40557 0.00571942 0.00426449 -0.00330837
64 1 1.7976 13.6257 13.859 10.3177 0.00125965 3.99796e-05 -0.0020572
65 2 -0.879959 2.73667 2.14459 2.28443 -0.000248176 0.00292467 0.00207844
66 2 -0.937286 2.21401 14.6298 14.5685 0.00153388 -0.000867168 0.00106719
67 2 -0.879149 14.6571 2.18604 15.1851 -0.00122625 0.00509865 0.000196209
68 2 -0.924587 15.0197 14.5142 2.74731 -0.00184256 -0.000227073 0.0046283
69 2 -0.846666 2.36359 3.79579 4.21969 -0.00206691 0.00237931 -0.000481126
70 2 -0.922361 4.57236 2.22664 3.89658 0.00724708 0.000675572 0.00208861
71 2 -0.855775 3.82646 4.25106 2.31988 -0.00396495 0.00669239 -0.000368014
72 2 -0.941772 2.73343 5.58368 5.93672 0.00284798 -0.00323535 -0.00386729
73 2 -0.995447 14.6573 4.27617 6.04356 0.00110549 -0.00651058 0.000651726
74 2 -0.928499 15.0312 6.02925 4.34434 -0.00332628 -0.00363061 -0.000751219
75 2 -0.907281 4.54201 5.91828 7.6722 -0.00169149 -0.00553349 -0.00185092
76 2 -0.951368 4.37198 7.50004 5.59987 -0.00328651 0.00259796 -0.00378996
77 2 -0.769207 2.6649 7.54176 7.2587 0.00173527 -0.00591667 0.000802298
78 2 -0.952007 6.17028 2.28994 5.80547 -0.000124472 -0.00638566 -0.000654066
79 2 -0.934159 4.18239 14.8555 5.82047 -0.00624423 0.00594749 0.000203975
80 2 -0.92546 6.02607 14.3994 4.28517 -0.00255949 -0.00472825 -0.00603615
81 2 -0.894061 6.35786 4.20955 7.42128 0.00412085 0.00165615 -0.000409479
82 2 -0.854855 8.17658 3.71859 5.95185 0.000774635 0.000141952 0.00371363
83 2 -0.94639 7.93963 2.1772 7.80869 0.0027001 -0.00137561 0.00681819
84 2 -0.884076 5.85572 5.51377 2.57849 0.00315146 -0.00269362 0.00247085
85 2 -0.895234 4.15067 6.32272 15.0323 0.00107723 -0.00629742 0.00140856
86 2 -0.975319 5.70517 4.28767 14.6496 0.00545591 -0.00108749 0.00545434
87 2 -0.890238 6.3341 7.66441 3.96806 0.00313109 -0.000612879 -0.00024623
88 2 -0.785062 7.53047 5.47944 4.50849 -0.00255537 -0.00506807 0.00113146
89 2 -0.755023 7.64976 8.82162 2.20389 0.00151442 -0.0024019 -0.00389381
90 2 -0.837314 2.65975 1.75017 8.94915 -0.00144303 -0.00360372 -0.00462186
91 2 -0.848648 2.07608 14.3548 7.28942 -0.0057094 0.00531584 -0.000911634
92 2 -0.939523 14.5138 2.29076 7.83435 0.000559852 0.00227943 0.000959209
93 2 -0.85577 14.6933 14.3347 9.33695 0.000661776 0.00452779 0.00704991
94 2 -0.737135 2.80602 4.35743 12.272 0.001137 0.00611716 0.0132666
95 2 -0.92222 3.99589 2.18722 11.0517 -0.00648003 0.00507745 0.000826144
96 2 -0.855244 4.5624 3.61757 8.94956 -0.000908978 0.000729153 0.00120271
97 2 -0.846863 2.08817 6.10569 13.6341 -0.00533669 -0.00416026 0.00550597
98 2 -0.968029 14.8337 3.85527 13.2616 0.000561281 0.00238823 -0.000418926
99 2 -0.930503 14.9301 5.82634 11.4918 -0.00070406 -0.00278194 0.00386241
100 2 -0.879463 2.11803 8.07037 14.6938 -0.00249099 -0.00246603 -0.00122171
101 2 -0.886724 3.97471 7.71653 12.9355 -0.00621449 0.00209122 0.00318318
102 2 -0.888369 5.73686 2.58546 12.8338 -0.00133583 -0.000842037 -0.00391093
103 2 -0.908386 4.11093 14.9623 13.144 -0.00213112 -0.0018161 -0.00372356
104 2 -0.897221 5.88115 14.5718 11.3546 0.00131282 -0.00270827 -0.00635474
105 2 -0.894499 7.34327 2.32345 14.8228 0.00425947 1.42531e-05 0.003008
106 2 -0.882022 7.62164 4.13389 12.9986 -0.000863721 0.00275709 -0.00568103
107 2 -0.932179 6.13179 5.82632 9.41108 0.000168528 0.00086103 -0.00161552
108 2 -0.916186 5.71385 7.89534 11.0117 -0.00184496 -0.00267522 -0.00298516
109 2 -0.888993 7.3624 6.02256 11.5169 0.00189068 -0.00936118 0.00729965
110 2 -0.93412 7.81544 7.66381 9.68413 0.00217578 0.00220813 -0.00817047
111 2 -0.863832 2.64264 9.63342 2.23996 -0.000105367 -0.00187249 -0.00252211
112 2 -0.913218 14.907 7.84771 2.64789 0.00164448 0.00151531 0.00461152
113 2 -0.867834 14.5203 9.8832 15.0899 0.00218972 0.00952239 0.000642615
114 2 -0.912684 2.48527 11.1537 3.93059 0.000886087 0.00296878 -0.0028859
115 2 -0.899138 4.43887 9.34084 3.92537 -0.000137834 -0.00224793 0.00201812
116 2 -0.886076 4.60436 11.1948 2.26404 0.00460269 -0.00142116 0.0042114
117 2 -0.928899 2.65112 12.8053 5.63417 0.00487158 0.00529497 0.00084755
118 2 -0.950253 14.9079 11.0082 5.9495 0.00409248 9.52738e-05 0.00244618
119 2 -0.829864 14.5653 12.6505 4.30283 -0.000910934 0.00200629 -0.000800968
120 2 -0.890062 4.36171 13.0447 7.56015 -0.00650182 -0.00139335 0.00115727
121 2 -0.945098 5.99136 9.35806 5.86704 0.000366929 -0.000622928 -0.000328312
122 2 -0.925425 6.13226 11.3091 7.48854 -0.00309569 0.00153812 0.00178771
123 2 -0.974436 7.90098 10.9791 5.78151 -0.00514908 0.00179412 0.00146349
124 2 -0.919537 7.78364 9.53882 7.76852 -0.00232703 0.00425109 0.00591581
125 2 -0.917694 6.07574 13.2132 2.08799 7.35524e-05 0.00668994 -0.00138029
126 2 -0.930542 3.93302 13.0129 14.6001 -0.00115402 0.00106963 -0.00736261
127 2 -0.842854 5.8489 11.7003 14.2019 -0.002149 0.00507536 -0.00199422
128 2 -0.829324 7.86725 14.8613 2.64849 -0.000261431 -0.000162874 0.00465893
129 2 -0.957282 7.84521 12.6591 3.92431 -0.00118612 -0.00434092 -0.00696215
130 2 -0.832316 2.46061 9.13147 9.32814 0.000463374 0.00657317 -0.00382185
131 2 -0.86406 14.9194 7.47188 9.70579 0.00451746 -0.00438426 -0.000264038
132 2 -0.835635 14.4882 9.46686 7.95002 0.00481039 0.00130931 -0.0050566
133 2 -0.895322 2.05173 11.2029 10.7661 -0.00379148 -0.00391406 0.00354039
134 2 -0.925851 4.0398 9.66606 11.2534 0.00235714 -0.00987246 0.00807662
135 2 -0.930297 4.03311 11.0248 9.07864 -0.00581853 -0.00877446 -0.00705813
136 2 -0.929437 2.46011 12.9671 12.5927 -0.0052208 -0.000252026 0.00245249
137 2 -0.947432 14.8972 11.114 12.8925 0.00311853 0.00422293 -0.000278624
138 2 -0.948766 14.4056 12.9406 11.3281 0.0022323 -0.00248372 -0.0014557
139 2 -0.90296 5.80826 9.43492 13.0103 -0.00504327 0.000932393 0.0014512
140 2 -0.834103 7.73963 10.322 14.6641 -0.00866611 -0.000163752 -0.00149214
141 2 -0.877852 7.67293 11.2202 12.4529 4.79445e-06 -0.00117489 -0.00115842
142 2 -0.856268 5.83543 12.7004 9.61099 -0.00526591 -0.000105103 0.00922509
143 2 -0.923589 7.51144 14.6439 9.44281 -0.00334026 -0.00198789 -0.00242991
144 2 -0.910604 7.94545 13.0697 11.1097 0.00478059 0.00114447 0.00190106
145 2 -0.879206 9.36579 2.76036 2.25407 0.00609091 0.00207155 5.99854e-05
146 2 -0.901222 9.52299 15.1129 14.6528 -0.000709311 0.00441811 -0.00254034
147 2 -0.920855 9.60812 4.28158 4.0506 0.000937372 0.000696424 0.00079802
148 2 -0.940329 11.4735 2.59087 3.91637 0.0104201 -0.00222015 -0.00212208
149 2 -0.773876 10.9061 4.38343 2.05042 -0.00299849 -0.00237908 -0.00425972
150 2 -0.94814 9.46865 5.81146 6.29614 0.00366059 -0.00508185 -0.00918759
151 2 -0.903501 11.3596 6.10848 8.02616 -0.00255255 -0.00465356 0.000693078
152 2 -0.886549 11.1738 7.63625 5.99143 -0.00264868 -0.00255227 0.00695285
153 2 -0.907737 9.56943 7.76204 7.946 0.00197332 0.00270825 0.0025213
154 2 -0.996273 12.9173 2.53692 5.88361 0.00229104 -0.00635125 -0.000622531
155 2 -0.997749 11.0214 14.813 5.71592 -0.00213479 -0.00487155 0.0025955
156 2 -0.922022 13.0006 14.7158 4.42621 -0.00452291 -0.00114495 0.00543218
157 2 -0.985647 13.0675 4.22718 7.77386 -0.00279025 -0.00187535 -0.000581045
158 2 -0.900314 13.2943 5.97454 2.6296 -0.00149119 0.000173188 -0.00486813
159 2 -0.707278 10.729 6.49516 14.9314 0.00266067 0.00758205 -0.000730234
160 2 -0.855627 13.1859 3.94137 15.1451 -0.00379773 0.00469916 -0.00541067
161 2 -0.956414 13.301 7.80188 4.51859 0.00420151 -0.00218497 0.00646063
162 2 -0.893413 9.39496 2.25826 9.64837 0.00159955 -0.00213842 -0.000291095
163 2 -0.93662 9.42936 14.396 7.87894 -0.00393966 -0.00405704 -0.00335025
164 2 -0.847111 9.36055 4.41974 11.1132 0.00496696 0.00514557 -0.00132492
165 2 -0.924205 11.072 2.52828 11.5904 -3.85239e-06 0.00110655 -0.00145831
166 2 -0.92646 11.3217 3.91695 9.53373 0.00021266 -0.00564364 0.00635754
167 2 -0.924395 9.14049 6.14408 13.095 0.00608846 -0.000289558 -0.000361311
168 2 -0.925121 9.22287 8.25864 14.4021 0.00556407 0.00197875 -0.000869929
169 2 -0.936508 11.0789 7.79852 12.6007 0.00396101 -0.0024309 -0.00610388
170 2 -0.970615 13.0302 2.16574 13.3015 0.000219914 -0.00107975 -0.00214563
171 2 -0.912325 11.267 14.6396 12.8593 -0.00758765 0.00692797 -0.000309234
172 2 -0.944934 12.8518 14.9896 11.0563 -0.000878931 -0.00479056 0.00344121
173 2 -0.971975 12.9934 5.75656 9.81559 -0.00384416 0.00138809 -0.00487833
174 2 -0.926427 13.1835 7.62447 11.5348 -0.00464064 -0.0037769 -0.00391152
175 2 -0.94655 9.79279 9.96981 2.22763 -0.00824637 0.00187969 0.00178614
176 2 -0.976056 9.77886 11.2851 4.26971 0.00276042 0.00134407 -4.00379e-05
177 2 -0.944313 11.283 9.24085 4.15895 -0.00136058 0.00291904 -0.000767214
178 2 -0.896679 11.5909 11.3485 2.58377 -0.00414451 -0.00124318 0.0010257
179 2 -0.941035 9.19625 13.1737 5.86155 -0.00746227 -0.000895723 -0.00326405
180 2 -0.904315 11.2015 12.9025 7.3385 0.00462492 -0.00271915 0.0042939
181 2 -0.909273 12.7457 9.62215 6.15608 -0.00123823 -0.00445395 0.000183908
182 2 -0.890668 13.2071 11.4206 7.73891 8.1494e-05 -0.00530702 0.00488777
183 2 -0.860066 12.9937 13.3264 2.33181 -0.00277957 0.000304555 0.00384246
184 2 -0.889364 11.11 13.2188 14.9395 -0.00184046 -0.00278861 -0.00868515
185 2 -0.934438 13.0825 11.6139 14.5303 -0.00345612 5.92829e-05 0.00416725
186 2 -0.945857 9.40709 9.58978 9.73197 -0.00222809 -0.00542514 -0.00697173
187 2 -0.991582 9.86402 11.3758 11.2941 -0.00237122 -0.0036843 -0.00553404
188 2 -0.960122 11.495 9.53515 10.9515 0.00378666 0.000160375 -0.000939507
189 2 -0.975921 11.174 11.1451 9.18006 0.00475811 0.00285877 -0.00624027
190 2 -0.937115 9.31293 13.0472 13.1825 0.00583089 -0.00509602 -0.00635947
191 2 -0.996299 12.9048 9.58997 13.1174 0.00094761 0.00130413 0.00799555
192 2 -0.932197 12.6123 13.2231 9.33774 0.00812001 0.00338924 0.00453447
193 2 -0.595186 3.31661 6.47063 10.3739 0.000138366 -0.00362069 -0.00572198
194 2 -0.585122 6.75262 7.15251 14.1797 -0.00432334 -0.00274183 -0.00585683
195 2 -0.641288 14.4088 6.87185 7.27884 -1.31842e-05 0.00195452 0.00491253
196 2 -0.717629 8.14624 6.32103 2.34945 -0.0028512 0.00312067 0.0060122
197 2 -0.60123 12.1821 5.12467 5.13683 -0.00847302 -0.00698481 0.00346993
198 2 -0.702061 2.21778 3.87943 9.65257 0.00510616 -0.00138175 -0.00550392
199 2 -0.710115 13.1272 6.2516 14.4608 0.000328949 0.00118687 -0.00243136
200 2 -0.602073 3.2537 9.98665 6.69947 -0.00287908 0.00899821 -0.00360895
201 2 -0.594381 11.8957 5.03719 12.2497 0.0041993 0.00117586 0.000702058
202 2 -0.595557 7.15613 7.0629 6.98553 0.00422727 -7.85802e-05 0.00286531
203 3 0.45482 2.87822 3.42882 12.3763 -0.00331564 -0.00874649 -0.0272942
204 3 0.445124 2.72419 7.17341 10.3086 0.00666708 0.00575938 -0.00641026
205 3 0.450532 7.35638 7.52184 14.8181 -0.017378 0.0222948 -0.00261186
206 3 0.442894 7.20479 6.52868 13.5924 -0.00192374 -0.0150279 0.00301169
207 3 0.396324 15.1466 6.60409 6.59646 0.0025944 0.0161409 0.000250721
208 3 0.395404 14.1158 6.03519 7.73643 0.00395302 0.0108197 0.00588156
209 3 0.481004 6.77305 8.93521 2.59802 0.0241938 0.0351405 -0.0169654
210 3 0.424911 8.86394 5.73552 2.68665 -0.0161006 0.00107691 0.0149963
211 3 0.399344 12.9188 5.34766 5.75494 0.000575122 -0.00807895 0.00367677
212 3 0.418242 12.415 4.2379 4.82582 -0.000982797 0.00762298 0.0133285
213 3 0.398698 15.6196 3.49178 9.02805 0.0275785 -0.00515673 -0.00157502
214 3 0.446753 2.74548 5.72891 10.5972 -0.00808728 0.00229245 0.0030764
215 3 0.447127 10.2182 5.64832 15.2382 -0.0341612 0.0153548 0.0255383
216 3 0.433747 14.0847 6.42674 14.4313 0.00307937 -0.0018164 0.0103711
217 3 0.432113 3.1064 10.0585 7.64698 -0.0087115 -0.0208344 -0.0275327
218 3 0.421699 3.71975 9.15318 6.59755 0.00408233 -0.0311678 -0.00929638
219 3 0.406184 12.3969 5.89534 12.4494 -0.014895 -0.0114978 -0.0136879
220 3 0.405057 11.772 5.1005 11.3135 0.0107272 -0.00997994 -0.00981502
221 3 0.421398 6.49884 6.53478 7.37247 -0.000769349 -0.0145096 0.00453101
222 3 0.405078 7.97341 6.66459 7.35213 0.0010761 -0.00419698 0.00036193
ITEM: TIMESTEP
6000
ITEM: NUMBER OF ATOMS
222
ITEM: BOX BOUNDS pp pp pp
1.5230654082201740e+00 1.5636934591779783e+01
1.5230654082201740e+00 1.5636934591779783e+01
1.5230654082201740e+00 1.5636934591779783e+01
ITEM: ATOMS id type q x y z vx vy vz
1 1 1.79323 1.66173 15.4146 1.77414 -0.00112066 0.00053126 -0.00420432
2 1 1.76326 3.38666 3.09236 3.46243 -0.00426487 0.000537839 0.00221119
3 1 1.64696 1.60738 4.95582 5.0674 -0.00288588 0.000719805 0.00154494
4 1 1.72352 3.51152 6.71217 6.72461 -0.0042111 0.00350738 7.63194e-05
5 1 1.84862 5.15884 15.3547 5.06549 -0.000390743 0.00161478 0.00117232
6 1 1.67835 7.05953 3.00626 6.64466 0.00175431 -8.43666e-05 0.00485706
7 1 1.74447 4.96342 4.86462 1.56047 0.00491331 0.00223767 -0.00221369
8 1 1.51886 6.82962 6.29104 3.49765 0.00227773 0.00227933 8.45323e-05
9 1 1.77548 15.445 15.2384 8.34989 -0.00294646 -0.00124531 0.000463963
10 1 1.60902 3.54932 2.86701 9.54799 -0.00291274 0.0011171 -0.00279198
11 1 1.64936 15.5157 5.08122 12.5069 -0.00132519 -0.000123529 0.00283712
12 1 1.7412 3.35427 6.92387 13.979 0.00436233 0.0018121 0.000125161
13 1 1.71 4.97874 1.51967 11.9176 -0.0055215 0.00503533 0.00281213
14 1 1.76695 6.73562 3.16511 13.8817 0.000260996 0.000971214 -0.000363772
15 1 1.71797 5.35508 4.92881 8.32094 0.00123832 -0.00431567 -0.0041649
16 1 1.77193 6.80726 6.71924 10.3725 0.000141878 -0.00235096 -0.00250626
17 1 1.79904 1.71321 8.81154 1.57554 0.00290906 -0.000388911 0.00214319
18 1 1.78543 3.61863 10.5393 3.24045 -0.00304072 -0.00122805 0.00170159
19 1 1.90639 1.50847 11.9168 4.83025 0.0013459 0.000301916 -0.000551927
20 1 1.77224 3.2555 13.595 6.68686 0.00141149 -0.00263492 -0.00209198
21 1 1.76766 5.18208 8.54059 4.96081 -0.00250825 0.000452675 -0.00120883
22 1 1.86555 6.95501 10.1782 6.87103 -0.00203075 0.00737598 -0.00473588
23 1 1.85463 5.19284 12.2159 15.3628 0.00245961 -0.00694077 0.00453261
24 1 1.78726 6.93829 13.7519 3.19949 0.000134421 0.00173642 -0.000603878
25 1 1.46261 15.3927 8.55857 8.54151 -0.000714725 -0.00260873 0.00569326
26 1 1.70748 3.20149 10.2923 10.2871 0.000522475 0.0048196 2.72305e-05
27 1 1.94014 15.5905 12.0789 11.9757 -0.00182378 0.00273117 0.000156292
28 1 1.83201 3.22192 13.8687 13.6968 -0.00134652 0.00530434 0.000839409
29 1 1.9501 5.00019 8.5449 11.9852 0.00167271 -0.000137906 -0.00690626
30 1 1.84561 6.70334 10.6102 13.2817 -0.0042706 0.00671223 0.000851286
31 1 1.74788 5.12191 11.9998 8.51219 -0.00138294 -0.00187551 -0.00330993
32 1 1.82742 6.737 13.8844 10.2206 0.0042604 -0.00160975 0.00273733
33 1 1.79369 8.59005 1.51962 1.51107 -0.00190585 -0.00188894 0.00500892
34 1 1.7043 10.421 3.36299 2.9941 -0.00734017 0.00291911 0.00333537
35 1 1.68197 8.91569 4.85369 5.17561 -0.002657 0.00254356 0.00129017
36 1 1.77584 10.4561 6.81165 6.95207 0.00268309 -0.00321428 -0.000389472
37 1 1.67709 11.9629 1.63251 5.02916 -0.00327071 -0.00161345 -0.000936935
38 1 1.70859 13.8758 3.30078 6.86474 0.00350681 -0.000751712 -0.000268586
39 1 1.33699 12.7013 5.39789 15.6431 0.00543925 -0.00405373 -0.0016472
40 1 1.76461 14.1607 7.13362 3.56704 0.00388022 -0.00143986 0.00383915
41 1 1.78223 8.67873 15.6584 8.78369 -0.00118892 0.0065505 -0.00244995
42 1 1.83599 10.2923 3.35294 10.5099 0.000361005 -0.00119462 0.00152393
43 1 1.77532 8.54125 5.02129 12.2416 0.000357804 0.00153442 -0.00346621
44 1 1.59577 10.0175 7.22341 13.8217 0.000633389 0.000686728 0.000479947
45 1 1.80248 12.1221 15.7161 12.2775 -0.000952939 -0.00231572 0.000146479
46 1 1.69431 13.9845 3.07382 14.171 0.00103228 0.000939136 0.000651058
47 1 1.65769 12.1322 4.94648 8.73363 0.00206629 -0.00312548 -0.00368883
48 1 1.70156 13.8917 6.73768 10.54 0.000328166 0.00429097 -0.00418719
49 1 1.66155 8.43059 9.29633 15.4323 -0.00422796 -4.10264e-05 0.00506779
50 1 1.83916 10.4785 10.4014 3.3563 0.000634189 0.00501832 -0.00215867
51 1 1.73988 8.59401 12.0164 5.15371 -0.00217118 -0.0034789 0.00649109
52 1 1.77459 10.2033 13.9984 6.77363 0.00179108 -0.00381661 0.00186176
53 1 1.82601 12.0719 8.68425 5.17849 -0.000551311 -0.000521638 -0.000513693
54 1 1.85915 13.8146 10.5556 6.84282 0.000323222 -0.0024853 -5.78559e-05
55 1 1.79653 12.1365 12.128 15.6698 -0.00017791 0.00269669 0.00237111
56 1 1.83276 13.7898 13.8943 3.42868 -0.000197593 0.000823056 -0.00661093
57 1 1.83588 8.6424 8.5063 8.74033 -0.00010088 0.000857989 0.00550012
58 1 1.74264 10.4627 10.3769 10.1975 -0.00469968 0.00289269 0.00266467
59 1 1.7834 8.72808 12.2881 11.8368 -0.00763123 -0.00069049 -0.00582379
60 1 1.79377 10.2979 13.8832 13.8719 0.00106264 -0.00340673 0.0025519
61 1 1.72631 12.154 8.72054 12.0574 0.00111527 0.00148891 0.00307767
62 1 1.80292 13.9424 10.3974 13.8621 0.00132094 0.00101297 -0.00107265
63 1 1.75244 12.0024 12.2864 8.52707 0.00101886 0.00397981 0.004074
64 1 1.77596 13.7551 13.9271 10.4928 0.0012154 0.00456072 -0.000395448
65 2 -0.895065 2.68327 2.01788 2.63828 0.00263603 -0.00106921 -0.00249995
66 2 -0.851635 2.29099 14.3768 14.8473 0.0066172 0.0048232 0.00628544
67 2 -0.856901 15.1411 2.2427 14.8518 0.000159007 0.0071417 0.00233767
68 2 -0.92476 14.6928 14.8992 2.71737 -0.00245959 -0.00542001 -0.00284427
69 2 -0.890485 2.32859 4.13169 3.98734 0.00199611 0.0016512 -0.00831216
70 2 -0.933918 4.219 2.32458 4.4979 0.00414202 -0.00596774 -0.00130353
71 2 -0.864409 4.25705 3.75995 2.32711 0.000596397 -0.00531851 -0.00368976
72 2 -0.905335 2.53538 5.61019 6.18029 0.00136499 0.00125893 -0.00353846
73 2 -0.918732 14.6427 4.03558 5.71221 -0.00243724 0.00413832 0.00275612
74 2 -0.927268 14.885 6.18052 4.51114 -0.00453351 -0.0055624 -0.00326201
75 2 -0.930961 4.49917 5.93517 7.53991 0.000448076 0.000816547 0.000451705
76 2 -0.968452 4.2151 7.59703 5.69505 0.000524219 0.000548456 -0.00196367
77 2 -0.808935 2.64804 7.71713 7.54636 -0.000405611 -0.00444479 -0.0012029
78 2 -0.892705 6.20736 1.83166 5.98192 0.00312329 -0.000857022 3.05739e-05
79 2 -0.904634 4.28392 14.551 6.04947 0.00635029 -0.000804495 -0.0057582
80 2 -0.928299 5.85908 14.5436 3.97226 0.000496016 0.01041 -0.00106094
81 2 -0.876435 6.25135 4.22764 7.25171 -0.007096 0.00439494 -0.000885165
82 2 -0.832929 8.19547 3.62276 5.78839 0.00790587 0.00340658 0.00111254
83 2 -0.842896 8.00736 2.52067 7.75334 -0.00255151 -4.70535e-05 0.000684094
84 2 -0.856923 5.73502 5.48417 2.78204 -0.00147051 -0.00330857 -0.00248302
85 2 -0.870854 4.09246 6.00048 15.0158 -0.00186976 7.39673e-05 -0.00461571
86 2 -0.913415 5.92058 4.21386 14.6716 0.000190964 -0.00509032 0.00199256
87 2 -0.845392 6.15035 7.70275 4.10295 -0.000412874 -0.00747435 0.00111569
88 2 -0.873171 7.66569 5.64132 4.67564 0.00262105 -0.00154725 -0.000422863
89 2 -0.770958 7.14225 9.17183 2.14555 0.00101509 0.00689799 -0.00766816
90 2 -0.86399 2.63052 1.72554 9.00284 0.000374939 -0.00499678 -0.00115278
91 2 -0.873784 2.00698 14.2912 7.35528 0.000392404 -0.00480632 0.00270544
92 2 -0.948 14.5966 2.31544 7.8019 0.00951008 0.00382799 0.00406779
93 2 -0.929451 14.7438 14.4787 9.42579 -0.00426836 0.00231157 0.00211309
94 2 -0.783831 2.50826 4.20069 12.0376 0.00469575 -0.00139305 -0.00284678
95 2 -0.901436 4.10052 2.3773 10.9211 0.00300824 -0.00549274 0.000478288
96 2 -0.884595 4.43539 3.7382 8.71078 0.000693698 -0.00259186 -0.00274637
97 2 -0.852067 2.1457 6.01055 13.5328 -0.000605282 0.00500093 0.00105239
98 2 -0.890012 14.6276 3.96215 13.138 1.6971e-05 0.00128409 -0.0041662
99 2 -0.946073 14.8521 5.85436 11.3295 -0.000239622 -7.01957e-05 0.00199389
100 2 -0.898323 2.45219 7.89797 14.7083 -0.00393958 0.00314614 -0.000535855
101 2 -0.901617 4.14107 7.51193 12.7726 0.000423364 0.000456535 -0.00237147
102 2 -0.841994 5.8329 2.55499 12.7758 -0.00236594 -0.000277047 -0.00295091
103 2 -0.905349 4.02369 14.9205 12.937 -0.00438552 0.00320775 0.00475923
104 2 -0.913281 5.91529 14.5825 11.3659 0.00143055 -0.00524358 -0.00435706
105 2 -0.890563 7.42612 2.1618 14.8758 0.00143491 -0.00120268 -0.00537022
106 2 -0.89513 7.80475 3.93366 13.0872 0.000459273 -0.000221685 0.000809806
107 2 -0.851276 6.23727 5.56997 9.48222 -0.00877098 -0.0031744 -0.00433162
108 2 -0.9611 5.7969 7.67859 11.0346 -0.00646844 0.0028125 0.00149492
109 2 -0.895321 7.54956 5.9298 11.4916 -0.00436167 -0.00091942 0.00199847
110 2 -0.91475 7.89313 7.43093 9.48804 -0.00256353 -0.000214799 0.00173519
111 2 -0.873205 2.86645 9.5562 2.23075 0.000391862 -0.00345436 0.0010295
112 2 -0.915746 15.0198 7.89996 2.53641 0.0026847 -0.00219681 0.00367434
113 2 -0.892077 14.7977 9.71533 14.9017 0.00524356 0.00278876 -0.00264102
114 2 -0.985998 2.41496 11.1779 3.88584 0.00445155 -0.00394655 0.000260993
115 2 -0.923976 4.56704 9.60049 4.05367 0.00189812 0.00242461 -0.00178789
116 2 -0.934051 4.63064 11.3171 2.33419 0.00266362 0.00586896 -0.00531927
117 2 -0.894197 2.47961 12.8926 5.53999 -0.0017753 0.0084089 -0.00482816
118 2 -0.977159 14.7795 11.1326 5.81746 6.47616e-05 -0.00314057 -0.000969991
119 2 -0.948914 14.6821 12.8258 3.96758 0.00117187 0.00463945 -0.00179084
120 2 -0.934824 3.98846 12.6684 7.67108 -0.00400254 -0.00565676 0.000725642
121 2 -0.904132 6.11392 9.30548 5.98111 -0.00501374 0.00226715 -0.00260527
122 2 -0.901678 6.09755 11.2889 7.54553 0.00593428 0.00799833 0.000884853
123 2 -0.929177 7.89994 10.9002 5.87394 0.00355993 0.000623597 -0.00109574
124 2 -0.939603 7.64797 9.51435 8.04449 0.000854736 -0.00100042 0.000105135
125 2 -0.873346 6.29049 13.0209 1.99147 -0.00373464 -0.00158539 0.0030159
126 2 -0.901652 4.24041 13.1675 14.6145 0.00714714 0.000308569 0.000570195
127 2 -0.930026 5.90796 11.5358 14.2035 0.000114866 -0.00108843 0.000804051
128 2 -0.889237 7.96387 14.7747 2.68062 -0.000652957 -0.00347408 -0.00458094
129 2 -0.832723 7.53941 12.6558 4.10302 -0.00168473 0.000705693 0.00326364
130 2 -0.811671 2.39919 9.27851 9.44941 0.00243594 -0.00559062 -0.00354526
131 2 -0.892113 14.7193 7.66372 9.6464 -0.00618101 0.000182306 0.00364021
132 2 -0.880945 14.6828 9.74777 7.82141 0.00396268 -0.00342946 -0.00101078
133 2 -0.965568 2.31736 11.3694 10.939 0.00286044 0.0037784 0.00259868
134 2 -0.91838 3.90125 9.28565 11.2919 -0.00170681 0.00692523 -0.00074841
135 2 -0.897573 4.30746 10.9199 9.34266 0.00329386 0.000480789 0.00507417
136 2 -0.966502 2.43991 12.9364 12.7773 0.00302811 0.00699972 0.00740753
137 2 -0.952749 14.988 11.0821 12.9582 -0.00590096 0.00251815 -0.0013459
138 2 -0.978165 14.4941 12.9812 11.4311 -0.00262208 6.65705e-05 -0.000853219
139 2 -1.04427 5.88747 9.44141 12.7836 0.00190295 -0.00441609 -0.000320494
140 2 -0.819424 7.93002 10.1674 14.1941 -0.00431073 -0.00421478 -0.00472019
141 2 -0.912762 7.47706 11.4309 12.293 0.00369522 0.00356228 0.00604602
142 2 -0.9693 5.89549 12.9748 9.42144 -0.00133496 0.00399865 -0.00393769
143 2 -0.890238 7.432 14.9207 9.37696 -0.00211325 -0.00596401 0.00589722
144 2 -0.8546 8.04748 13.1736 10.8205 0.000708776 -0.00537391 -0.00187028
145 2 -0.899241 9.36531 2.65039 2.16411 -0.00427024 -0.000191298 5.68579e-05
146 2 -0.922501 9.58624 15.0019 14.6122 0.00437586 0.00029017 -0.00496805
147 2 -0.915881 9.708 4.3689 3.9387 0.000795922 0.000621782 -0.00745089
148 2 -0.88028 11.3577 2.40601 3.83811 -0.00684747 0.00406053 -0.000347745
149 2 -0.764981 11.0301 4.41428 2.07884 0.00372557 -0.00732852 -0.00281595
150 2 -0.930764 9.6805 5.7496 6.20609 -0.00400579 -0.00221866 0.000536726
151 2 -0.862107 11.2261 6.09006 8.06602 -0.00559781 0.000209852 -0.00236455
152 2 -0.911953 11.2772 7.61817 5.83967 -0.0119441 0.00709489 -0.00182047
153 2 -0.917402 9.47381 7.7992 7.60227 0.00146695 0.00763404 -0.000162894
154 2 -0.822828 12.7164 2.51361 6.19804 0.00567315 -0.00132117 -0.000102463
155 2 -0.870273 10.8479 14.9737 5.76754 0.00209311 -0.00443394 0.00589438
156 2 -0.883946 12.9212 14.6525 4.42375 0.0036307 -0.00157452 -0.0030567
157 2 -0.916294 13.2906 4.35528 7.83474 0.00232322 0.00447794 0.000187582
158 2 -0.842692 13.3194 6.07249 2.79452 0.00702376 -0.00373109 -0.00110168
159 2 -0.69467 10.9026 6.55783 14.9873 0.00255699 -0.000259364 0.00631865
160 2 -0.76368 13.5098 4.02352 15.3246 -0.000154349 -0.00388154 0.00228753
161 2 -0.902724 13.1809 8.09367 4.26745 0.007791 -0.00233311 0.00567995
162 2 -0.910909 9.4697 2.2376 9.91128 -0.0053818 -0.0038239 0.00496471
163 2 -0.887809 9.50531 14.6311 7.99558 0.00663904 0.000203123 -0.00710231
164 2 -0.942424 9.36092 4.42232 11.129 0.00361093 -0.0059307 -0.00240755
165 2 -0.893982 11.2107 2.62848 11.5486 -0.00245538 0.00110168 -0.00235549
166 2 -0.923691 11.2088 3.89428 9.44741 -0.00325498 0.00511632 -0.00457015
167 2 -0.921279 9.17709 6.05312 13.237 -0.00410611 -0.00665618 0.00445134
168 2 -0.879861 9.14208 8.14009 14.7213 0.0016067 0.00347305 0.00133776
169 2 -0.845343 10.957 7.96831 12.8181 0.000781784 0.000604095 -0.00325335
170 2 -0.908111 12.887 2.22095 13.4223 0.00311563 0.00058823 -0.00133459
171 2 -0.873541 11.2912 14.5225 12.8598 -0.00288558 -0.00406689 0.00109075
172 2 -0.887317 13.0763 15.1216 11.2218 -0.00106927 0.00145719 -0.00818302
173 2 -0.917788 12.8772 5.77765 9.7894 -0.00192799 0.00169455 0.0049603
174 2 -0.91695 13.0791 7.58561 11.5811 -1.5885e-05 0.00494194 0.00511972
175 2 -0.878827 9.48512 9.89519 2.33092 0.00196846 -0.00770262 -0.000907455
176 2 -0.879 9.76867 11.4187 4.30524 0.00582595 -6.65717e-05 0.00082034
177 2 -0.899145 11.074 9.23033 4.10734 -0.00811868 -0.00183811 -0.00125267
178 2 -0.9312 11.56 11.1961 2.60265 0.00575421 0.000539673 -0.000398172
179 2 -0.869493 9.12509 13.2524 5.9416 0.00643005 -0.00232758 0.0122601
180 2 -0.875633 11.1947 13.0405 7.48092 0.00182855 5.94093e-05 -0.000150381
181 2 -0.946416 12.744 9.72193 6.13038 -0.00518044 0.00255006 6.03405e-05
182 2 -0.894603 13.0694 11.6696 7.59452 -0.00130035 0.0020358 0.00392888
183 2 -0.86207 12.8028 13.2983 2.31153 -0.00438324 -0.00338578 0.00522024
184 2 -0.871873 11.0358 12.8461 14.8353 0.00344161 -0.0101735 0.00350415
185 2 -0.886244 13.101 11.4177 14.6689 -0.00270101 -0.0063782 0.000910421
186 2 -0.922317 9.59437 9.16282 9.669 -0.00178516 -0.00358591 -0.00442312
187 2 -0.929099 9.73994 11.425 11.0872 -0.00316656 -0.00267059 -0.00255358
188 2 -0.889414 11.6161 9.61286 10.9128 0.00561792 -0.00304654 0.0078445
189 2 -0.887476 11.1089 11.1488 9.03104 -0.000281235 0.000516563 0.000392628
190 2 -0.89592 9.28008 13.1835 13.0156 0.00211823 0.00111352 0.000532948
191 2 -0.897397 12.8563 9.47411 13.1678 -0.00767884 0.00103661 -0.00665362
192 2 -0.850495 12.5727 13.2126 9.71681 0.00107287 -0.00271068 -0.00343903
193 2 -0.58053 3.25309 6.29788 10.2431 0.00335251 0.00176052 0.00497188
194 2 -0.615148 6.7384 7.08469 14.1159 0.00256867 6.99124e-05 0.00399054
195 2 -0.644054 14.2839 6.9793 7.28743 -0.000103795 -0.00275044 -0.00667089
196 2 -0.789588 7.95947 6.49721 2.48216 -0.00639627 -0.00895809 -0.00284732
197 2 -0.587344 12.1113 5.02452 4.96949 -5.53414e-05 0.00107526 -0.00300967
198 2 -0.687601 2.27754 3.88122 9.58998 0.00453125 0.000630698 0.00751376
199 2 -0.689213 13.3355 6.2724 14.5561 -0.00444212 -0.000183652 0.00443253
200 2 -0.611189 3.22788 10.1749 6.82881 0.00488646 0.00161891 0.00804979
201 2 -0.623631 11.804 5.28926 12.4591 -0.0036743 -0.00327213 -0.00244996
202 2 -0.593255 6.93921 6.97608 6.77573 0.00655997 -0.00026931 -0.00110335
203 3 0.497914 3.00273 3.39347 12.1722 0.0423037 -0.0117846 -0.00583411
204 3 0.435937 2.74368 7.06624 10.0059 -0.0301186 -0.0247411 -0.00505386
205 3 0.445134 7.21757 7.09962 14.9233 0.0451372 -0.00530327 -0.026116
206 3 0.432022 7.23874 6.63146 13.4165 -0.0137824 -0.0301288 0.00386467
207 3 0.388238 15.1297 6.71784 6.77043 0.0235231 0.0171564 0.0050098
208 3 0.40268 14.0382 6.18808 7.82853 -0.0134931 -0.0315939 0.0218187
209 3 0.510544 6.40852 9.01475 2.76403 0.0113578 0.00437456 0.00918625
210 3 0.424516 8.7869 6.0689 2.66802 -0.00945008 -0.0249289 0.0115886
211 3 0.428959 13.0954 4.96767 4.84408 0.0452768 -0.0207964 0.00931676
212 3 0.409577 11.7616 5.22607 4.09742 -0.0031976 -0.0239897 -0.0227798
213 3 0.43381 1.46414 3.58538 9.20918 0.0297551 -0.00447148 0.0112762
214 3 0.451479 2.61747 5.67474 10.6156 -0.0195879 0.0278879 -0.010714
215 3 0.413837 10.3834 5.78001 15.5675 0.000448384 0.00794646 -0.00503593
216 3 0.451978 14.2805 6.33062 14.504 0.016871 0.0163226 -0.03595
217 3 0.42924 3.316 10.7281 7.61126 -0.0126743 0.00374998 -0.00241342
218 3 0.442277 3.37529 9.25393 7.04863 -0.0352076 -0.00206363 -0.0241673
219 3 0.453135 12.2115 6.10076 12.6618 0.0194541 0.00708402 0.0019851
220 3 0.410312 11.9336 5.08782 11.5264 0.0113191 -0.00799023 0.00647784
221 3 0.427404 6.4189 6.22043 6.47919 0.00909457 -0.00719629 0.00192097
222 3 0.431817 7.85016 6.70401 6.78797 0.0260424 -0.00953236 -0.00627247
ITEM: TIMESTEP
7000
ITEM: NUMBER OF ATOMS
222
ITEM: BOX BOUNDS pp pp pp
1.5242617149344628e+00 1.5635738285065507e+01
1.5242617149344628e+00 1.5635738285065507e+01
1.5242617149344628e+00 1.5635738285065507e+01
ITEM: ATOMS id type q x y z vx vy vz
1 1 1.73273 1.65536 15.3703 1.53989 -0.000475513 -0.000858733 -0.00391876
2 1 1.77105 3.29924 3.07762 3.2358 0.00247136 -0.00295668 0.000941685
3 1 1.72242 1.62239 4.6928 5.13143 0.00777948 -0.00162404 0.00224315
4 1 1.73787 3.60585 6.55718 6.59587 -0.00126207 -0.00225453 -0.00178781
5 1 1.89444 5.23494 1.53945 4.94118 0.00604979 -0.00127606 -0.00023059
6 1 1.80702 7.03517 3.16271 6.72666 -0.0023739 -0.00248507 0.000839247
7 1 1.7758 4.84229 5.11851 1.56389 -0.0032338 0.00520145 0.00286785
8 1 1.49658 6.77969 6.45281 3.47905 -0.0014897 -0.00463832 -0.00159123
9 1 1.73208 15.589 15.2148 8.45465 -0.00315856 0.00398359 0.00318363
10 1 1.61169 3.58159 2.94553 9.65432 0.000895806 -0.00153934 -0.00169477
11 1 1.67024 15.3831 5.14544 12.4961 -0.00353576 -0.00111919 -0.000936716
12 1 1.81694 3.22669 7.04143 13.8529 -0.00077805 -0.00426618 -0.00153074
13 1 1.71278 4.84742 15.5816 12.0677 -0.00225799 -0.00319054 0.000204095
14 1 1.69155 6.55522 3.32293 13.8803 -0.00169734 -0.000276499 -0.00354506
15 1 1.88228 5.41379 4.95504 8.37709 -0.00228161 -0.00192269 0.00728068
16 1 1.72809 6.92012 6.71054 10.38 0.00371055 -0.00338698 0.000877878
17 1 1.68173 1.58365 8.7683 1.64273 0.000776826 -0.00223886 -0.00068322
18 1 1.75738 3.44286 10.4718 3.29515 0.000983692 0.00241687 0.00208789
19 1 1.74719 15.4683 12.0136 4.87426 0.00137158 0.000742528 -0.00248576
20 1 1.69493 3.28049 13.7325 6.51051 0.00307604 0.000153478 8.84345e-05
21 1 1.65963 5.20102 8.64651 4.97931 0.00369305 0.00642876 -0.0018368
22 1 1.78964 6.99183 10.2316 6.83461 0.000814379 -0.00257571 0.000671578
23 1 1.68209 5.1384 12.2286 1.56614 0.000744616 0.00123439 0.00232926
24 1 1.7823 7.04925 13.8461 3.39263 -0.000845543 -0.000191215 0.00067902
25 1 1.43237 15.3995 8.43709 8.57003 0.00107103 -0.000580461 -0.00192834
26 1 1.81423 3.24588 10.1864 10.1557 2.10313e-05 0.00545293 0.00130597
27 1 1.67002 1.58714 11.8767 12.094 -0.00128005 0.0010057 0.00342208
28 1 1.72975 3.29699 13.6807 13.8108 0.000136145 -0.00130766 0.00154539
29 1 1.81439 5.08774 8.56742 11.9108 0.000907793 0.00251342 0.00151827
30 1 1.71441 6.70866 10.5613 13.5525 -0.00502041 0.000853081 -0.00156633
31 1 1.7844 5.00392 12.002 8.34593 -0.0043663 -0.000953592 -0.001241
32 1 1.81741 6.56411 13.8619 10.1641 -0.00448685 0.00297336 3.39275e-05
33 1 1.84091 8.49267 1.55702 15.5507 -0.00261002 0.000410845 0.000189873
34 1 1.74175 10.3642 3.37229 2.95044 0.00176139 0.00365078 0.00128039
35 1 1.57159 8.8381 4.88835 5.13874 0.00531918 0.00163818 -0.00278146
36 1 1.76387 10.5247 6.90996 6.94189 -0.0038543 0.00196054 0.000850294
37 1 1.80554 12.0128 1.72134 4.92143 0.00892984 -7.45072e-05 -0.00281945
38 1 1.74085 13.8513 3.1591 7.02845 -0.00272573 -0.00178441 0.00153078
39 1 1.33688 12.8936 5.29078 15.5757 0.00480847 0.00646998 0.00249729
40 1 1.71142 14.2538 6.91378 3.60773 -0.000785149 -0.00359112 0.00573952
41 1 1.83846 8.52421 15.5572 8.66529 0.00362194 -0.0018219 0.00538717
42 1 1.74822 10.3115 3.13301 10.4749 -0.00102954 0.00301876 -0.00543718
43 1 1.71866 8.60528 4.96443 12.3395 -0.00180009 -0.00424847 -0.00132485
44 1 1.63046 10.0923 7.04814 13.9921 0.000705567 -0.00662628 0.000658965
45 1 1.84641 12.0985 15.4518 12.1468 -0.000499281 0.00375668 -0.00532802
46 1 1.68266 13.987 2.98485 14.0221 -0.00289651 -0.00268992 0.00249467
47 1 1.80627 12.0172 4.91553 8.67437 6.87437e-05 0.00260702 -0.0064583
48 1 1.83607 13.6813 6.70707 10.4647 -0.00778843 -0.00666175 -3.10013e-05
49 1 1.74852 8.69137 9.31797 15.4806 0.000792306 -0.00134334 -0.000360532
50 1 1.85608 10.582 10.5575 3.32483 -0.00107819 0.00492561 -0.00353975
51 1 1.79844 8.82904 12.1174 5.14719 -1.03889e-05 0.00682053 0.00312814
52 1 1.85593 10.3939 14.0874 6.78207 -3.99346e-05 0.00513298 0.00222276
53 1 1.85579 12.1505 8.59408 5.01241 0.00261035 -0.00539935 -0.00383379
54 1 1.77898 13.7744 10.523 6.85446 -0.00116727 0.000466621 0.000902164
55 1 1.78545 12.2248 12.3266 15.548 -2.53137e-05 0.00330149 0.00138329
56 1 1.85734 13.754 14.0248 3.35046 0.00236232 0.00151159 0.00531306
57 1 1.93396 8.68038 8.57106 8.75651 -0.000531257 -3.48102e-05 0.00339837
58 1 1.78606 10.3214 10.5043 10.397 0.00321893 -0.000665558 -0.00748417
59 1 1.87262 8.48871 12.3581 11.9262 -0.00537541 0.00430262 -0.00294682
60 1 1.80211 10.2134 13.8549 13.8847 -0.000505744 0.00109686 0.00391447
61 1 1.79181 11.969 8.61912 12.1431 0.00286603 0.000443291 -0.00078155
62 1 1.7729 13.7539 10.3508 13.9488 0.00176967 0.00349853 -0.00538944
63 1 1.8302 12.0536 12.3165 8.59234 0.00291779 -0.00209246 -0.00320455
64 1 1.87243 13.9358 13.7496 10.4732 -0.00176938 -0.00176452 -0.00178728
65 2 -0.866158 2.82702 1.92223 2.35763 -0.00488505 -0.00118216 0.0054647
66 2 -0.860071 2.3134 14.1654 14.9026 0.00607885 -0.000475074 0.0037736
67 2 -0.898849 15.1919 2.21161 14.5804 -0.000216775 -0.00368297 -0.00236143
68 2 -0.905397 14.7226 14.9416 2.59368 -0.00169733 0.0010645 0.00393542
69 2 -0.878055 2.1294 3.69418 4.0037 0.000208939 0.00394008 0.000241818
70 2 -0.926201 4.44546 2.57055 4.14016 -0.00183923 -0.000870984 -0.00194503
71 2 -0.852538 3.85314 4.26582 2.35373 0.00175095 7.58205e-05 0.00340349
72 2 -0.901098 2.70424 5.45599 5.95455 0.00458453 -0.000202912 -0.00205845
73 2 -0.899336 14.9422 3.89781 6.18892 -0.000837409 -0.00213648 -0.00119418
74 2 -0.88063 14.9743 5.90495 4.57459 0.00141435 0.00633535 0.000966135
75 2 -0.933029 4.45714 5.92725 7.67318 0.00373003 -0.000353505 -0.00601359
76 2 -0.942763 4.25423 7.54535 5.63337 -0.000992616 -0.00597758 0.00128628
77 2 -0.760168 2.63211 7.45723 7.3533 -0.00209749 0.000915019 -0.00466328
78 2 -0.948812 6.01692 2.23487 6.05409 -0.00446371 0.00271519 0.000691069
79 2 -0.869739 4.39408 14.6019 5.7136 -0.00185357 -0.00458527 0.00203148
80 2 -0.941691 6.1048 14.9477 3.96969 0.000427 0.000718658 0.00374451
81 2 -0.927336 6.3642 4.41079 7.30744 0.00357184 -0.00134206 -0.0037787
82 2 -0.835572 8.11608 3.67288 5.73712 0.00324474 0.00342771 0.00606667
83 2 -0.914661 7.92287 2.53909 7.83343 0.00707337 -0.00328377 0.00128431
84 2 -0.849658 5.72777 5.59531 2.73635 -0.00659129 0.000887557 0.000520993
85 2 -0.914551 4.01077 6.15272 14.8261 0.00225005 0.0071246 0.00358805
86 2 -0.926922 5.74229 4.23638 14.7925 -0.00394102 -0.000235506 0.00186063
87 2 -0.867149 6.16025 7.76391 4.00343 0.00358732 -0.00277279 -0.000123442
88 2 -0.819013 7.5344 5.65028 4.64157 0.000399373 0.000556258 -0.000645946
89 2 -0.839044 7.49822 8.94817 2.20598 -0.00246913 -0.000541848 0.000189958
90 2 -0.870189 2.80346 1.801 8.9522 0.00179397 0.00276021 0.00256403
91 2 -0.823098 2.12451 14.5201 7.20727 -1.73017e-05 0.000430801 -0.00439177
92 2 -0.930738 14.5915 2.17442 8.00483 -0.00326584 -0.00594908 -0.000956054
93 2 -0.943809 14.972 14.2486 9.4627 -0.000777609 -0.00215136 -0.00507171
94 2 -0.768455 2.38102 4.23496 11.9559 0.00372748 0.0022282 0.0124471
95 2 -0.877634 4.11075 2.31811 11.005 0.00415278 -0.000830747 0.00157097
96 2 -0.914566 4.68719 3.75972 8.99734 0.00579829 0.00354749 0.00867571
97 2 -0.944979 2.12523 6.10006 13.3767 0.000257268 -0.000771231 -0.00392555
98 2 -0.878058 14.515 4.03391 13.0282 0.00403879 0.00950078 -0.00614769
99 2 -0.91947 14.7313 5.91578 11.2728 0.00380701 0.00173708 0.00309829
100 2 -0.875249 2.32006 8.06653 14.5365 -0.00446359 -0.000491829 -0.000955591
101 2 -0.954401 4.1076 7.68596 12.7701 -0.00638736 0.00373101 0.000350633
102 2 -0.873939 5.56963 2.47115 12.9634 0.0109362 0.00046425 0.0065535
103 2 -0.877691 3.75182 14.8044 12.8236 -0.0045538 -0.00311637 -0.00168903
104 2 -0.872432 5.82234 14.5153 11.3361 0.00458566 -0.00576234 -0.00354727
105 2 -0.841828 7.32039 2.28307 14.8085 0.00178954 0.000766149 -0.00421251
106 2 -0.888713 7.78025 3.92426 13.0561 -0.000450746 -0.00115018 0.00279332
107 2 -0.890562 6.28072 5.63837 9.40663 0.000351096 -0.00883813 -0.00295405
108 2 -0.907374 5.77322 7.57207 10.9687 0.000371545 -0.00513523 0.00691651
109 2 -0.887811 7.62773 5.95693 11.6057 -0.00323241 -0.00168349 0.00126043
110 2 -0.928734 7.99698 7.58564 9.68567 0.000655124 0.000749258 -0.00431113
111 2 -0.860757 2.69901 9.58375 2.27761 -0.00146836 0.00277797 0.00208991
112 2 -0.8682 15.2628 7.72564 2.7775 0.000195163 0.0053411 0.00390346
113 2 -0.853772 14.5507 9.60951 15.0964 8.3245e-05 0.00316798 0.00604329
114 2 -0.861697 2.18169 10.9873 4.03599 -0.0042128 -0.00964912 0.00467273
115 2 -0.916232 4.46827 9.58728 3.98389 0.00464489 0.00338093 -0.000912479
116 2 -0.858962 4.08138 11.7257 2.60156 -0.0117498 -0.00526082 -0.00301832
117 2 -0.831552 2.40762 13.0519 5.44447 9.09294e-05 0.000277939 -0.000342669
118 2 -0.874723 14.6715 11.476 6.08743 0.000215331 -0.00303642 0.000134431
119 2 -0.897257 14.5018 12.8155 3.96883 0.00334218 0.00456289 0.000799162
120 2 -0.910584 3.95322 12.7526 7.5105 0.00315308 -0.00266921 0.005098
121 2 -0.968952 6.07493 9.38341 5.98186 -0.000969934 -0.00258749 -0.00494898
122 2 -0.906056 6.03343 11.3214 7.4482 -0.00253485 0.00729592 -0.00205613
123 2 -0.87418 7.96605 10.9666 5.87205 0.000802097 -0.00614815 -0.00444184
124 2 -0.940503 7.77119 9.56306 8.02318 -0.00385763 0.00600624 -0.000934077
125 2 -0.859266 6.26142 12.8136 2.50182 -0.00368372 -0.00081912 -0.00401407
126 2 -0.843799 4.47531 13.2201 14.6715 -0.00223652 -0.00372038 0.00249132
127 2 -0.839116 5.68811 11.2064 14.6426 0.00214916 0.00634444 -0.000403011
128 2 -0.916481 7.99402 14.6369 2.47864 0.00728992 -0.00707273 0.000275841
129 2 -0.921595 7.83771 13.0927 4.49375 -0.00142627 0.00372316 -0.00237676
130 2 -0.862682 2.38956 9.18417 9.38737 0.00130795 0.00644749 0.00239402
131 2 -0.86056 14.5193 7.71396 9.66891 0.000955752 -0.00131407 -0.00136621
132 2 -0.786208 14.5511 9.6467 7.87817 -0.00633393 -0.00105227 -0.00204241
133 2 -0.852253 2.41293 11.2594 10.8629 -0.00261038 0.000425951 -0.000993481
134 2 -0.940582 4.13241 9.51968 11.155 -0.00098997 -0.0036004 0.00130646
135 2 -0.888838 4.16712 10.8851 9.08308 0.000451001 0.00497667 0.00419471
136 2 -0.856859 2.69026 12.5202 12.9732 -0.00661595 0.000301497 -0.00152535
137 2 -0.843372 14.8677 10.8339 12.9522 0.0041649 0.000513825 0.000908477
138 2 -0.883638 14.6387 12.8884 11.5649 -0.00221217 -0.00132126 -0.00430445
139 2 -0.917657 6.0501 9.50929 12.634 0.0129508 -0.000120333 -0.00177941
140 2 -0.831782 7.98349 10.17 14.3119 2.12808e-05 0.00232425 0.00252651
141 2 -0.844383 7.29082 11.6718 12.6653 0.00477983 0.000820937 -0.00519681
142 2 -0.920529 5.63208 12.9054 9.4066 0.00230003 -0.00303147 0.00371638
143 2 -0.914248 7.27935 14.7387 9.11447 -0.0150329 0.00371694 -0.00670924
144 2 -0.917554 7.75979 13.1529 10.82 0.00429244 -0.000541968 0.00341441
145 2 -0.926608 9.39056 2.58422 2.09952 5.03437e-05 -0.000699018 -0.00478677
146 2 -0.911061 9.51247 15.0323 14.6421 -0.003853 -0.00310221 0.00204643
147 2 -0.942823 9.61216 4.3847 3.87441 -0.00223456 0.00302987 0.00180021
148 2 -0.948862 11.3467 2.5933 3.85148 0.000787352 0.00230474 0.00193206
149 2 -0.745492 11.1878 4.30235 2.07166 -0.00584473 -1.83494e-05 0.00277855
150 2 -0.877955 9.48966 5.94114 6.18034 -0.00540967 -0.000201175 0.00382338
151 2 -0.932429 11.3869 5.98834 7.76717 -0.00385023 -0.00222978 -0.00548162
152 2 -1.00115 11.5099 7.68785 5.99997 0.00510432 0.00102623 -0.0086027
153 2 -0.946362 9.63215 7.84998 7.77803 0.00298396 0.00370828 -0.00305103
154 2 -0.827521 12.7115 2.56198 6.1245 -0.00806858 0.000365943 0.00106793
155 2 -0.929023 10.9721 15.0502 5.74886 -0.0014287 -0.0028756 -0.000876701
156 2 -0.962236 13.0294 14.8764 4.36639 0.00173678 0.00117453 -0.00579079
157 2 -0.919776 13.1298 4.2065 7.86081 -0.00339461 -0.00101195 0.00257178
158 2 -0.83638 13.6337 5.80927 2.68578 0.00216882 -0.00189973 -0.00387649
159 2 -0.738365 10.9717 6.45083 15.1699 0.00294754 -0.00529202 0.000798197
160 2 -0.754501 13.4982 3.8887 15.2183 -0.0024577 0.00855871 0.00456996
161 2 -0.961001 13.1441 7.81363 4.13714 -0.000391962 0.00249523 -0.00601968
162 2 -0.873433 9.24319 2.17101 9.84592 6.2315e-05 0.0034129 -0.00404925
163 2 -0.937426 9.58522 14.8053 7.87406 0.00689722 -0.00076308 -0.00824613
164 2 -0.888694 9.57949 4.24449 11.3284 0.00440927 -0.0107618 -0.00276446
165 2 -0.92214 11.2998 2.38423 11.3603 -0.000491861 0.00171341 0.000129687
166 2 -0.909283 11.0474 3.91234 9.33234 -0.00615327 -0.00420837 0.000643918
167 2 -0.943796 9.33967 5.82412 13.3655 0.0015288 -0.00243535 0.00598379
168 2 -0.919486 9.25266 8.15045 14.6439 0.00375089 0.00410725 -0.00154558
169 2 -0.906929 11.0101 7.71376 12.9241 -0.00404104 -0.00400898 -0.000208419
170 2 -0.84888 12.8942 2.12774 13.26 0.00191169 -0.000277691 0.00495886
171 2 -0.921984 11.1993 14.4331 12.8571 0.00911776 0.00206026 0.00603319
172 2 -0.945217 13.0971 14.7822 11.2228 -0.00053466 -0.00200461 6.35814e-05
173 2 -0.981714 12.7667 5.78727 9.70278 0.00295645 -0.00151708 -0.00308296
174 2 -0.95263 12.8191 7.56156 11.3866 -0.00139672 0.00246158 -0.000639698
175 2 -0.967696 9.66534 10.0933 2.24018 0.000883514 -4.41076e-05 -9.81029e-05
176 2 -0.978333 9.92975 11.5495 4.30349 -0.00276236 0.00106437 0.00464156
177 2 -0.945918 11.2509 9.38177 4.06116 0.00226103 0.00245306 0.0033763
178 2 -0.842135 11.7044 11.2578 2.47798 0.00566603 0.00418862 -0.0042338
179 2 -0.915972 9.54463 12.9477 6.23458 0.00138706 -0.00492206 -0.00152663
180 2 -0.890711 11.4838 13.39 7.6353 0.000201679 -0.000398917 -0.00344655
181 2 -0.877677 12.9956 9.71192 5.74086 0.00687037 -0.00174301 0.00117541
182 2 -0.89744 13.011 11.4936 7.71993 -0.00350045 0.00122258 0.000209415
183 2 -0.919471 12.7737 13.5144 2.28675 0.00333833 -0.00619321 -0.00200733
184 2 -0.886884 11.019 12.8704 14.7943 -0.00750489 -0.0016986 0.0012981
185 2 -0.919112 13.0503 11.5879 14.5105 0.00171389 -0.00797632 0.000517673
186 2 -0.918739 9.55752 9.35011 9.64242 -0.00440358 -0.00165498 0.00181452
187 2 -0.958795 9.44275 11.3483 11.3289 -0.00233318 0.00228528 0.000591915
188 2 -0.899762 11.2789 9.65166 11.2658 -0.0016318 0.0022643 -0.0037146
189 2 -0.901759 11.0998 11.3248 9.26229 -0.000409722 0.00643327 -0.00221749
190 2 -0.92945 9.1495 13.1627 13.0091 -0.00698489 -0.0114045 -0.00120319
191 2 -0.886194 12.7616 9.44496 13.2614 0.00061923 -0.00410157 0.0049734
192 2 -0.926088 12.8594 13.019 9.71981 -0.00511932 0.00385596 0.0045231
193 2 -0.560113 3.17357 6.52975 10.3955 0.00156378 0.00134248 -0.00340406
194 2 -0.610634 6.83548 7.11409 14.174 0.0018716 0.000863898 0.0045122
195 2 -0.625508 14.3822 7.18954 7.05681 -0.0010454 -0.0030186 -0.000456278
196 2 -0.738189 8.07328 6.42259 2.49921 -0.000622151 0.00260697 0.00235122
197 2 -0.587437 12.2617 5.06722 5.05336 -0.00275801 0.0017315 0.00347278
198 2 -0.694435 2.46601 4.06746 9.46905 -0.000278809 -0.00443405 -0.00748364
199 2 -0.640842 13.5239 6.28863 14.4598 -0.00474145 0.000253226 0.00234094
200 2 -0.624875 3.11592 9.84962 6.48393 -0.00203066 0.0052774 0.000743081
201 2 -0.572029 11.9573 5.06281 12.3423 0.00308514 0.00274562 0.00616014
202 2 -0.61236 6.99081 7.19696 6.9555 0.00229282 0.002057 -0.0054856
203 3 0.468029 2.94729 3.50269 12.2451 -0.0143874 -0.0144999 -0.00877917
204 3 0.411109 3.05079 7.26612 11.0026 0.00303864 0.000328749 0.01475
205 3 0.42946 7.47716 7.1087 14.9348 0.0108016 0.00752607 -0.00582428
206 3 0.412797 7.24521 6.60736 13.4565 0.00272106 0.0389528 -0.0277083
207 3 0.399999 15.2001 6.59516 6.73644 0.0153205 -0.00381149 -0.00896104
208 3 0.392468 13.7613 6.49819 7.51575 -0.0319658 -0.00735151 0.00755445
209 3 0.495755 6.62794 8.98028 2.54218 0.00569654 -0.0223073 -0.0208934
210 3 0.405972 8.72701 5.76513 2.81515 0.017149 -0.0231505 -0.00134504
211 3 0.382495 12.2541 5.99412 4.77948 0.0178612 -5.00388e-05 -0.00825788
212 3 0.40149 11.895 4.61978 4.31669 -0.00920386 0.0194665 -0.00233639
213 3 0.418825 1.71359 3.75408 8.9432 -0.0153002 0.0211035 0.00642253
214 3 0.447381 2.61605 5.79981 10.7037 -0.0144587 0.00184943 0.0250815
215 3 0.410895 10.493 5.66396 1.6676 0.00356751 -0.0255463 0.0132035
216 3 0.405815 14.508 6.50248 14.679 0.0125576 -0.00800105 -0.0137627
217 3 0.422279 3.5398 10.3148 7.2407 -0.0170938 0.00885767 0.0346277
218 3 0.452133 3.08495 8.93713 6.64583 -0.00302702 -0.0278597 -0.0181326
219 3 0.424026 12.0772 5.98101 12.6047 0.0177187 -0.0468625 0.00684516
220 3 0.414188 11.2502 5.18095 11.7048 0.00185095 0.0204546 0.0304151
221 3 0.387011 6.34142 7.26016 6.26433 -0.0320946 -0.0111731 -0.0111186
222 3 0.43849 7.69609 6.73418 6.52016 0.0141594 0.0163009 0.00518414
ITEM: TIMESTEP
8000
ITEM: NUMBER OF ATOMS
222
ITEM: BOX BOUNDS pp pp pp
1.5226303660592713e+00 1.5637369633940718e+01
1.5226303660592713e+00 1.5637369633940718e+01
1.5226303660592713e+00 1.5637369633940718e+01
ITEM: ATOMS id type q x y z vx vy vz
1 1 1.78274 1.67801 15.3886 1.65534 3.47301e-05 -0.00049215 -0.0014184
2 1 1.79313 3.51364 2.96994 3.40984 -0.00189899 4.72619e-05 -0.00129066
3 1 1.81711 1.7095 4.8128 5.0733 0.000784622 0.000387589 0.00196838
4 1 1.67116 3.55683 6.67473 6.56929 0.00124944 0.000742884 -0.00296196
5 1 1.85406 5.44933 15.4412 5.02041 -0.0010291 -0.00127685 -0.0024449
6 1 1.77782 7.29479 3.11209 6.71279 0.000477705 -0.00239277 -0.000755361
7 1 1.83043 4.91525 4.95968 1.62139 0.00126152 -0.00477648 0.00280961
8 1 1.60729 6.86009 6.24011 3.64419 0.00106959 -0.00195739 0.0026882
9 1 1.6873 15.4607 15.2032 8.31965 -0.000265146 -0.00301589 0.00126935
10 1 1.55898 3.54283 2.76019 9.5543 -0.00148103 -0.00344415 -0.000521614
11 1 1.72671 1.66905 5.17125 12.4452 0.00419261 -0.00259944 0.0013437
12 1 1.79309 3.30016 7.01781 14.1562 -0.0050522 0.000136434 -0.00400028
13 1 1.69277 4.82481 15.6477 12.1124 -0.00202722 -0.0021538 -0.000260033
14 1 1.93811 6.58493 3.2352 13.8698 0.00325179 -0.00847633 0.00215785
15 1 1.66815 5.29155 4.80936 8.2434 0.00268316 -0.00370239 -0.00596048
16 1 1.73073 6.65559 6.67548 10.3597 0.00418776 0.00364325 0.000229269
17 1 1.76636 15.5962 8.85124 1.56257 0.00048351 0.00203695 0.000454975
18 1 1.81745 3.49913 10.481 3.20382 -0.00699293 0.000741293 0.00252122
19 1 1.73629 15.6416 12.0682 4.94643 0.000905963 -0.000258948 0.00217392
20 1 1.76318 3.36147 13.804 6.56792 0.00502527 0.00230822 0.00624439
21 1 1.67673 5.24691 8.53845 4.84609 -0.00243674 -0.00147902 0.00107631
22 1 1.78405 6.94246 10.3014 6.80003 0.00206014 -0.00212085 0.00318956
23 1 1.85437 5.10901 12.2218 15.5441 -0.000790509 -0.00226983 -3.82866e-05
24 1 1.83165 7.05482 13.6983 3.16483 0.00164092 0.00160048 -0.00030324
25 1 1.51795 15.4809 8.51066 8.63721 0.00440009 0.000916472 0.00693816
26 1 1.76003 3.17204 10.3006 10.2838 -0.00165145 0.00507593 -0.00166744
27 1 1.82361 15.5172 12.036 11.9349 -0.00242121 -0.000804553 -0.000708157
28 1 1.75947 3.21095 13.7081 13.7857 0.00213803 -0.00171016 -0.00393749
29 1 1.69078 4.9366 8.55494 12.0719 0.00452346 -0.00404922 -0.00629209
30 1 1.66942 6.69687 10.5841 13.489 0.00180959 0.00119138 -0.00196303
31 1 1.76832 5.03277 12.054 8.51169 -0.00277887 0.00154865 0.000637604
32 1 1.77221 6.53116 13.8987 10.2838 0.000346382 -0.00242241 -0.00430885
33 1 1.78602 8.47319 1.62062 15.5806 0.00414224 0.000209798 -0.00214391
34 1 1.70974 10.3741 3.31961 3.06279 -0.00721747 -0.00101835 -5.08793e-05
35 1 1.63529 9.11748 5.00702 5.23919 -0.00226257 -0.000125663 -0.000407614
36 1 1.77939 10.5277 7.1042 7.12331 0.00106088 -0.000244612 0.00436036
37 1 1.67263 12.1023 1.71227 5.08215 0.000308416 -0.000501507 0.000307371
38 1 1.80987 13.9457 3.33045 6.928 0.00211235 -0.00013273 -0.000944466
39 1 1.30551 12.6729 5.2158 15.526 -0.000188809 -0.000877247 0.00172161
40 1 1.77411 14.2283 6.83467 3.47099 0.00647669 -0.00489794 -0.00102549
41 1 1.77648 8.57752 15.5841 8.83991 -0.00559625 -0.00014666 0.000327663
42 1 1.66582 10.39 3.29828 10.4249 0.00326906 -0.0033405 0.000108814
43 1 1.72027 8.41981 4.98346 12.1709 -0.00426329 -0.0025477 0.00373367
44 1 1.55991 9.97788 7.06481 13.9335 -0.0018169 -0.000604738 -0.00251218
45 1 1.7592 12.1527 15.6004 12.1968 -0.00302578 0.00230447 0.00340952
46 1 1.74653 14.0978 3.05511 13.9728 -0.00746016 -0.00260098 -0.0022734
47 1 1.7661 12.1893 5.14032 8.71068 0.00219231 0.000155192 -0.00211828
48 1 1.63914 13.9387 6.82208 10.6043 0.00080264 0.00359858 0.00137928
49 1 1.75711 8.65209 9.31282 15.4471 0.00401344 0.00117 -0.000275154
50 1 1.96208 10.5838 10.4706 3.28661 0.000782155 -0.00234051 -0.00431877
51 1 1.95165 8.76156 12.0488 5.12496 -0.00151328 0.00306101 -0.00151255
52 1 1.75304 10.3168 14.001 6.82787 -0.00161497 0.00155091 0.00094934
53 1 1.75937 12.2088 8.55891 5.01816 0.00724328 -0.000972196 0.00253966
54 1 1.73201 13.903 10.3648 6.81281 -0.00643749 0.00192836 -0.00261507
55 1 1.74643 12.0762 12.3924 15.5949 0.00396082 0.00190742 0.00173789
56 1 1.83191 13.805 13.9594 3.38932 -0.00280106 -0.00154673 -0.000388652
57 1 1.92925 8.38096 8.56494 8.78121 -0.00128677 5.67373e-07 -0.00915119
58 1 1.6761 10.2152 10.279 10.3883 -0.00192898 0.00250054 -0.00124172
59 1 1.78295 8.56632 12.3649 11.852 -0.00141836 0.00511251 0.0018381
60 1 1.79468 10.2126 13.9535 13.8418 -0.00238307 0.000228021 -0.00105962
61 1 1.76025 11.9797 8.55266 12.2003 -0.000625947 0.00305748 0.000977714
62 1 1.78419 13.7501 10.4787 13.8553 -0.00398274 0.00354121 0.000701436
63 1 1.73802 11.94 12.0182 8.51572 0.00143428 0.000119899 -0.000433269
64 1 1.83675 13.6913 13.7502 10.3239 -0.00577149 -0.00304795 -0.00456671
65 2 -0.873975 2.70998 1.85981 2.6171 0.00407856 0.00243909 -0.00326758
66 2 -0.881241 2.3231 14.2387 14.9603 -0.000891386 -0.00282929 -0.0014374
67 2 -0.866013 15.2509 2.23998 14.6595 0.00387844 -0.00037037 0.00159213
68 2 -0.904928 14.6324 14.9548 2.54722 -0.00151999 0.00150165 -0.00444038
69 2 -0.897753 2.44549 3.74814 4.1792 -0.00538056 0.00253349 0.00299676
70 2 -0.917885 4.59093 2.40641 4.37082 -0.00196726 -0.00409619 0.00300551
71 2 -0.919788 4.06883 3.87934 2.29906 -0.00357988 -0.000897979 -0.00402017
72 2 -0.8846 2.75573 5.538 5.88169 0.00233016 0.00284711 0.0032298
73 2 -0.945594 15.0115 4.12429 6.16701 0.00567244 -0.00160608 0.00181431
74 2 -0.964324 15.085 5.97454 4.38829 0.00273131 0.0052906 -0.000729675
75 2 -0.890917 4.61829 5.89866 7.33151 0.00347783 -0.000936944 -0.00143438
76 2 -0.906922 4.28913 7.55003 5.47508 0.00353051 -0.00129975 0.00416546
77 2 -0.787307 2.60351 7.69717 7.17974 0.00127565 -0.00418184 0.00293946
78 2 -0.928536 6.50192 2.13053 5.83836 -0.00374235 0.0070704 0.00481035
79 2 -0.909961 4.53273 14.6322 5.92918 -0.00151469 0.00303214 -0.00313975
80 2 -0.976179 6.05111 14.5333 3.92793 0.00588967 -0.000837836 0.00157843
81 2 -0.839754 6.30176 4.19475 7.21913 -0.00669175 -0.0020287 -0.00429265
82 2 -0.852047 8.50754 3.80059 6.05954 0.00290986 -0.00210565 0.00079973
83 2 -0.899426 7.98107 2.54691 7.96445 0.00140476 -0.000736513 0.00495626
84 2 -0.876435 5.78822 5.55179 2.7566 0.00784767 0.00256744 -0.00398702
85 2 -0.897201 4.00989 6.0559 15.1889 -0.000650759 0.000983014 0.00397912
86 2 -0.951998 5.75414 4.31525 14.6054 0.00155981 -0.00605499 -0.0122051
87 2 -0.875444 6.22968 7.64307 4.02845 0.000328907 0.000644721 -0.000388906
88 2 -0.883023 7.75511 5.62068 4.7219 -0.00277146 -0.00451195 -0.0045768
89 2 -0.772839 7.41891 8.94989 2.18118 -0.00228634 -0.00334262 0.000591722
90 2 -0.822083 2.68265 1.55445 9.06537 0.000849629 -0.00220778 0.00268033
91 2 -0.855477 2.1687 14.5231 7.1842 0.0043066 0.00389217 -0.00463226
92 2 -0.951394 14.6906 2.33505 7.80165 0.000331677 0.00271003 -0.00219736
93 2 -0.901983 14.4719 14.3297 9.14059 -0.00552413 0.00456712 0.00416614
94 2 -0.836472 2.90941 4.54857 11.9372 0.00236804 0.00474406 0.000262358
95 2 -0.849402 4.18078 2.40724 10.9875 -0.00324713 0.00114775 0.000634711
96 2 -0.827588 4.52271 3.51912 8.60363 -0.00672992 0.000295964 -0.00167005
97 2 -0.910093 2.20186 6.1299 13.4546 -0.00581512 0.00755457 -0.00334081
98 2 -0.919516 14.792 4.15456 13.1682 0.00259859 0.00311741 -0.0021878
99 2 -0.902388 15.0799 5.98095 11.3456 0.00752384 0.00203196 0.000489596
100 2 -0.912399 2.51749 8.12677 14.7935 -0.000917698 0.00190332 -0.00256682
101 2 -0.882969 4.30256 7.60662 13.1515 -0.00017037 -2.68209e-05 -0.00579964
102 2 -0.947358 5.74733 2.54628 12.8633 -0.00103881 0.00200268 0.00255095
103 2 -0.87505 3.71279 14.9267 12.961 -0.00689551 0.00236948 0.0074065
104 2 -0.871266 5.68453 14.545 11.4103 0.000969342 0.00309554 0.00303303
105 2 -0.949481 7.2467 2.27726 14.8222 -0.0035437 0.000687621 0.00323756
106 2 -0.929786 7.64352 3.98606 13.107 0.00092096 0.00297323 0.00269193
107 2 -0.863858 5.84547 5.59713 9.51401 0.00220923 -0.0012823 4.01479e-05
108 2 -0.907902 5.57486 7.51636 11.0869 0.00153972 -0.00212552 0.00873598
109 2 -0.900786 7.35175 5.82364 11.5088 0.00359184 -0.000861919 0.000683989
110 2 -0.981363 7.6134 7.53774 9.57288 -0.000640752 0.0062317 0.00732144
111 2 -0.831673 2.40044 9.92593 2.22049 -0.00449653 0.000571238 0.00168343
112 2 -0.909546 15.0398 7.83804 2.62928 0.00483361 -0.00305605 -0.00939774
113 2 -0.899426 14.5712 9.69212 14.8638 -0.00316109 0.0022733 -2.27895e-05
114 2 -0.865255 2.53696 11.1471 4.17724 -0.00430872 -0.00257807 -0.00090954
115 2 -0.921461 4.41915 9.40394 3.80547 -0.00566979 0.00313648 0.00602178
116 2 -0.985639 4.20456 11.5501 2.39199 0.00185412 -0.00165716 -0.00385022
117 2 -0.868996 2.56521 13.1144 5.472 -0.00477876 0.0018505 0.00772023
118 2 -0.931113 14.9427 11.1956 6.04358 -0.00402313 -0.00168425 -0.00101389
119 2 -0.906213 14.6172 12.7794 4.02061 0.00065427 0.00233818 0.000778269
120 2 -0.841414 3.97649 12.8438 7.66945 -0.00546075 0.00319364 -0.0030759
121 2 -0.880781 6.06441 9.24334 5.99187 -0.000276118 -9.46305e-05 0.000969681
122 2 -0.87078 6.01253 11.394 7.46559 0.00495322 0.000682909 0.0039525
123 2 -0.939209 7.94064 11.0284 5.85882 -1.28722e-05 0.000599425 0.000993778
124 2 -0.94409 7.63038 9.61429 7.93868 0.0035088 -0.00439823 0.00475292
125 2 -0.906015 6.33544 12.8443 2.12038 0.0010217 0.00450168 0.00200985
126 2 -0.917461 4.45894 13.1347 14.4986 -0.00525878 0.000841945 -0.00640518
127 2 -0.853587 5.7263 11.1329 14.6128 0.00152502 0.00441996 -0.00100385
128 2 -0.910755 8 14.5395 2.28331 0.00433744 -0.00791187 -0.00530865
129 2 -0.926485 7.79567 12.7151 4.16121 -0.00609373 0.00115834 0.00881598
130 2 -0.851147 2.50445 9.27563 9.41035 0.00135279 -0.00767046 0.00357449
131 2 -0.785551 14.553 8.02845 9.78356 0.00262677 -0.00201586 -0.00095115
132 2 -0.874414 14.7847 9.54065 7.74836 0.00677781 0.000446476 -0.00150309
133 2 -0.889028 2.07728 11.2826 10.7912 0.00183831 -0.00208922 0.00157058
134 2 -0.874219 3.82066 9.47744 11.4356 -0.00293942 0.000968061 -0.00610614
135 2 -0.885868 4.25307 11.1358 9.51688 0.000213515 0.00495962 7.90261e-05
136 2 -0.924263 2.42877 12.7599 12.8477 0.00184097 0.00204584 -0.00157872
137 2 -0.890582 14.5713 10.9979 12.6899 0.00187842 0.00155197 0.000425261
138 2 -0.964702 14.6606 13.074 11.2809 0.00102467 -0.00673367 -0.00282718
139 2 -0.921187 6.07766 9.38689 12.6707 -0.0059326 -0.00392407 0.00238522
140 2 -0.854386 7.90554 10.193 14.3699 0.00852747 0.0019868 0.00148865
141 2 -0.857203 7.41051 11.5892 12.5282 -0.00440906 0.00377421 -0.00348776
142 2 -0.926051 5.62656 13.1557 9.33224 -0.000606269 -0.00676192 0.00169099
143 2 -0.851551 7.30157 15.0389 9.5448 0.000694057 0.00758796 0.00175496
144 2 -0.872777 7.74483 13.0014 10.6801 -0.00292698 0.00292661 0.00116922
145 2 -0.911945 9.16534 2.64931 2.43119 0.00070718 -0.00157957 -0.00392795
146 2 -0.906978 9.44669 15.048 14.6309 -0.00254364 0.000630318 0.0025534
147 2 -0.903298 9.8384 4.35363 4.06226 -0.000579396 0.00533091 0.0020679
148 2 -0.910128 11.4328 2.56208 3.88579 -0.000367479 0.00513811 0.00643576
149 2 -0.731277 11.014 4.26798 2.02464 -0.00333351 0.0003163 0.00443456
150 2 -0.888864 9.68403 6.20525 6.14745 0.00387276 0.00104323 -0.00307495
151 2 -0.960363 11.5571 6.16854 7.81498 -0.000750387 -0.00411203 -0.00634548
152 2 -0.885144 11.3294 8.00407 6.21697 0.0011667 -0.00303239 0.00369086
153 2 -0.944368 9.55103 7.97068 7.98705 0.000925714 0.0037626 0.00111092
154 2 -0.925644 12.8531 2.66416 6.05921 0.0024503 -0.00508858 0.000473681
155 2 -0.892022 11.0724 14.9383 5.86702 -0.00178751 -0.000431787 -0.00385876
156 2 -0.873881 13.1195 14.802 4.45018 0.00532516 -0.00265747 -0.00241263
157 2 -0.908261 13.2449 4.394 7.83548 -0.0013272 0.00272127 0.00211125
158 2 -0.823001 13.4726 5.72594 2.66597 -0.00198925 -0.00916657 -0.00832676
159 2 -0.710089 10.8191 6.48524 15.1765 -0.00208915 0.00298268 0.00447258
160 2 -0.813606 13.398 3.91998 15.0133 0.00321534 0.00493691 -0.00648738
161 2 -0.956433 13.1239 7.57784 4.2577 7.10428e-05 -0.00146638 0.00230712
162 2 -0.876199 9.44875 2.27759 9.84017 -0.000647598 -0.00477989 0.00464052
163 2 -0.885905 9.50301 14.6051 8.06995 0.00569482 -0.000978607 -0.00161507
164 2 -0.893034 9.42441 4.31778 11.1645 0.00138587 0.00142369 0.00457129
165 2 -0.881967 11.3481 2.69268 11.5178 0.00644038 -0.00229573 0.00412883
166 2 -0.886631 11.1971 4.09576 9.32312 -0.0028235 -0.00176254 0.00667304
167 2 -0.902534 9.1567 5.92306 13.1421 0.00324878 0.000848105 -0.00361539
168 2 -0.927818 9.01646 7.99633 14.6999 0.00297516 -0.00747183 -0.00318317
169 2 -0.925373 10.899 7.68993 12.8586 -0.00298998 0.00552567 0.00230506
170 2 -0.898914 13.1876 2.13249 13.0982 0.0013336 0.000830151 0.00170415
171 2 -0.900514 11.4127 14.606 13.0952 0.000598007 0.00577565 0.00372867
172 2 -0.898168 12.8684 14.8244 11.0361 -0.00291043 0.00101937 0.00777868
173 2 -0.909939 12.9325 5.89323 9.81558 2.60372e-05 -0.00356317 0.00428251
174 2 -0.874118 12.9988 7.54223 11.5944 -0.000265356 0.00602061 -0.00590332
175 2 -0.987519 9.66596 9.91675 2.21936 0.00165965 -0.00294981 -0.00467471
176 2 -0.990015 9.75523 11.3185 4.2506 0.00460226 0.00115822 -0.00298944
177 2 -0.931379 11.2117 9.38887 4.09857 -0.00715653 -0.000459277 -0.00501245
178 2 -0.905266 11.6135 11.2248 2.43923 0.000386007 -0.00657299 -0.00207974
179 2 -0.960669 9.38544 13.0937 6.0753 -0.00158292 0.000976791 0.000742793
180 2 -0.837287 11.3754 13.012 7.46234 0.000119217 0.00247108 -0.00157809
181 2 -0.873207 13.1983 9.48997 5.6849 -0.00733316 -0.00378786 -0.00324384
182 2 -0.876398 12.8247 11.0339 7.75427 -0.00187028 -0.000451958 0.00378019
183 2 -0.904105 12.7762 13.4613 2.4269 -0.00108576 0.00402511 0.00754249
184 2 -0.909905 10.8979 13.0104 14.8401 0.00182753 0.00169477 -0.000724816
185 2 -0.876257 13.0085 11.6654 14.582 -0.000179831 0.00332689 0.00585683
186 2 -0.875592 8.96877 9.41965 9.86154 -0.00379279 -0.00433216 -0.006655
187 2 -0.866191 9.60572 11.3526 11.3671 -0.000466693 0.00477152 -0.000134963
188 2 -0.876342 11.3274 9.4525 11.0992 -0.00234073 -0.00333268 0.00025154
189 2 -0.813841 10.7954 11.1226 9.22247 0.0024219 0.00214169 0.00170257
190 2 -0.927112 9.23852 13.3658 12.7748 0.00135282 -0.00181427 -0.000128014
191 2 -0.863965 12.7736 9.43896 13.1648 0.00366717 0.0036853 -0.000511119
192 2 -0.888594 12.6125 12.9027 9.56063 -0.000343758 0.00042824 0.00234525
193 2 -0.622064 3.22879 6.36065 9.91306 0.00170339 0.00173938 -0.000441579
194 2 -0.623928 6.74574 7.00763 14.1606 0.0016056 0.00219687 0.00439308
195 2 -0.661877 14.3314 7.07995 7.36744 -0.00195149 0.003997 -0.00362438
196 2 -0.695525 7.84483 6.30933 2.44832 0.00826153 -8.45545e-05 -0.00272655
197 2 -0.597264 12.0924 5.17447 5.03578 -0.000373592 -0.00178981 0.0089405
198 2 -0.752208 2.40827 3.81556 9.54279 0.000781003 0.00188515 -0.00529599
199 2 -0.595808 13.312 6.33264 14.4887 -0.000591537 -0.00288808 0.00363093
200 2 -0.584393 3.25886 10.083 6.65464 0.00139975 -0.00182154 -0.0111333
201 2 -0.615573 11.7822 5.10509 12.607 0.00144813 0.00476893 0.00395727
202 2 -0.622706 7.06536 7.06103 7.02978 0.00833751 -0.00129921 -0.000256687
203 3 0.474296 3.36884 3.70854 12.1309 -0.00229077 0.0254085 -0.0169621
204 3 0.451417 4.07892 6.44872 10.3659 -0.00598053 0.0278898 -0.0166226
205 3 0.413315 6.94382 7.83819 13.6823 -0.0265534 -0.0261846 0.0272151
206 3 0.423516 7.24063 6.30414 13.6787 0.0227107 0.000835517 0.00149927
207 3 0.401368 14.8054 6.87771 6.51064 0.00788477 -0.0105208 0.0195415
208 3 0.431453 13.5584 6.52818 7.18098 -0.0250252 0.00603297 -0.0340008
209 3 0.488951 6.5046 8.81314 2.45797 0.0208409 -0.00707233 -0.00652518
210 3 0.474678 7.63061 6.8478 1.64548 -0.015599 0.00494002 0.00110259
211 3 0.411573 12.1721 5.75076 4.23913 0.00349286 -0.0258126 -0.0118063
212 3 0.415399 11.8633 4.26741 4.72349 0.00390318 0.0240225 -0.0205143
213 3 0.439039 1.60609 3.65114 9.02514 -0.0198516 0.0173814 -0.00237661
214 3 0.475757 2.71987 5.6395 10.2911 0.0269795 -0.00835577 0.00793478
215 3 0.433614 10.2896 5.62288 15.5317 -0.0325499 0.0193165 -0.0074829
216 3 0.432294 13.9708 5.85753 13.977 -0.0318011 -0.0235933 0.0311165
217 3 0.455224 2.39866 10.3268 6.91124 0.00997502 -0.0145817 0.0057741
218 3 0.427685 3.29744 9.00591 6.67682 -0.00539002 -0.0351223 -0.0151683
219 3 0.435901 11.8552 5.97291 12.2577 -0.019466 -0.0141276 -0.0166378
220 3 0.407433 11.16 4.66051 12.0044 -0.0121118 -0.00492843 0.00419408
221 3 0.430483 6.28737 6.88101 6.54519 0.00141714 -0.00560551 -0.0251655
222 3 0.430305 7.75309 6.59994 6.52679 0.0116694 -0.00447719 0.028751
ITEM: TIMESTEP
9000
ITEM: NUMBER OF ATOMS
222
ITEM: BOX BOUNDS pp pp pp
1.5119438962104406e+00 1.5648056103789594e+01
1.5119438962104406e+00 1.5648056103789594e+01
1.5119438962104406e+00 1.5648056103789594e+01
ITEM: ATOMS id type q x y z vx vy vz
1 1 1.76854 1.67766 15.4578 1.37471 -0.0040854 -0.00608766 -0.00196155
2 1 1.82897 3.33689 3.00769 3.18117 0.00481611 -0.00125743 0.0013432
3 1 1.72638 1.82209 4.78142 5.15448 0.00654319 0.00463547 0.000188797
4 1 1.66615 3.67992 6.66755 6.67561 0.000224864 0.00205804 -0.00204563
5 1 1.83815 5.21571 15.5516 4.9683 0.000823003 -0.000190737 -0.000678274
6 1 1.79369 7.07795 3.13344 6.69798 -0.000337153 0.0031104 -0.00145954
7 1 1.78454 4.92899 4.91781 1.48625 0.00600272 -0.0032371 -0.000263016
8 1 1.55166 6.76696 6.37051 3.50107 -0.00430704 -0.00179732 -0.00650058
9 1 1.69568 15.4444 15.1984 8.49896 0.00136182 0.00206046 -0.00181475
10 1 1.55076 3.4937 2.79425 9.73327 0.000361416 -0.000127231 0.00248941
11 1 1.52633 15.5655 5.24767 12.416 -0.001782 0.000970229 -0.001492
12 1 1.66855 3.28205 7.04861 13.9788 -0.0045194 -0.00197441 0.00484097
13 1 1.67948 4.8477 1.46169 12.1377 -0.00191442 0.000930315 -0.00200306
14 1 1.88837 6.74865 3.08317 13.968 -0.00201906 -0.0033187 -0.0013716
15 1 1.73717 5.31605 4.85716 8.43037 0.00215949 -0.00528302 0.00212032
16 1 1.70935 6.7832 6.65083 10.3918 0.00166929 -0.00148626 0.00108441
17 1 1.71642 15.7124 8.78086 15.7446 0.00174929 -0.00072905 -0.000118652
18 1 1.81824 3.39674 10.4336 3.34072 0.00148629 0.0056047 -0.000399141
19 1 1.79292 15.6016 12.0734 5.02255 0.0053913 0.000769021 -0.00418766
20 1 1.78846 3.23621 13.8412 6.62343 -0.00237962 -0.00468974 -0.00141489
21 1 1.72116 5.21002 8.62447 4.88025 0.0037875 0.0012209 0.00140958
22 1 1.70769 6.84463 10.5234 6.78342 -0.0034211 0.00873783 -0.00606019
23 1 1.80122 5.11607 12.1521 15.6689 -2.42241e-05 -0.00146741 -0.00364579
24 1 1.83889 7.06945 13.8279 3.23218 -0.000481002 0.00275456 0.00505391
25 1 1.53026 15.4935 8.40975 8.52739 -0.00443293 -0.00224835 0.00437143
26 1 1.80612 3.17819 10.2663 10.103 0.00459117 0.0037404 -0.000556022
27 1 1.78587 15.5405 11.9223 11.9847 -0.000959796 0.00470763 0.000216179
28 1 1.85027 3.2152 13.5818 13.7508 0.000477525 0.00432231 0.00432483
29 1 1.77893 4.9551 8.53368 11.8902 -0.00492444 0.00389623 -0.00218535
30 1 1.66859 6.65914 10.4827 13.496 -0.000332421 0.00361993 -0.00674035
31 1 1.71182 4.91996 12.1644 8.47477 -0.00283427 0.00101413 -0.00324498
32 1 1.77275 6.69641 14.0264 10.2628 -0.000711727 -0.00563574 0.000609926
33 1 1.87993 8.69209 1.47909 1.45847 0.00268574 0.0036114 -0.00111312
34 1 1.67788 10.4652 3.32949 3.15689 0.00161177 0.000275201 -0.000711079
35 1 1.68151 8.90207 4.99686 5.1935 -0.00233896 0.000131337 0.00036162
36 1 1.68294 10.5077 6.9595 6.95139 -0.00429786 0.00250941 -0.00764142
37 1 1.82134 12.219 1.64259 5.00954 0.001713 0.00109574 0.00316492
38 1 1.69186 13.9974 3.26638 7.00556 -0.00445648 -0.00146499 -0.0044157
39 1 1.30361 12.6946 5.2211 15.7395 -0.00398288 -0.00400082 -0.00127765
40 1 1.70005 14.2863 6.84973 3.64016 -0.00170023 0.00636334 -0.00023826
41 1 1.86944 8.66311 15.5722 8.66131 0.00043129 -0.00118736 -0.00147742
42 1 1.7912 10.2983 3.2555 10.4651 -0.00141894 -0.000114474 -0.00280584
43 1 1.66432 8.41645 4.93353 12.2706 -0.00500806 -0.000288737 0.000403419
44 1 1.5692 9.94433 7.02455 13.9509 -0.00229351 -0.000814762 -0.00489316
45 1 1.77215 12.0514 15.5679 12.2835 0.00146751 0.00295372 -0.000152423
46 1 1.70608 14.0656 3.14389 13.988 0.00347158 0.00441045 0.00100453
47 1 1.77731 12.0978 4.91951 8.69437 -0.00494466 -0.000848607 0.00380281
48 1 1.73987 13.7359 6.84745 10.4899 9.06582e-05 -0.00446228 0.000267861
49 1 1.74723 8.70074 9.42494 15.4324 -0.00160708 0.00401044 -0.00156832
50 1 1.83231 10.6804 10.4824 3.31272 -0.00470833 0.00120495 -0.00154296
51 1 1.75247 8.75463 12.1678 5.11353 0.00244882 -0.00259838 0.0016997
52 1 1.87368 10.4733 14.059 6.77591 -0.00449547 -0.00208676 -0.0001379
53 1 1.83955 12.1929 8.54226 4.98643 0.00120228 0.000247036 -0.00402022
54 1 1.69655 13.7344 10.3679 6.81246 0.000569287 0.00197256 -0.00128494
55 1 1.81187 12.2572 12.2437 15.6405 0.00502724 -0.00290347 -0.00340208
56 1 1.86741 13.9679 14.0147 3.29286 -0.00407228 -0.00320379 -0.00388161
57 1 1.59601 8.45578 8.63815 8.51353 0.00136101 0.00562161 0.00169789
58 1 1.7326 10.2053 10.4218 10.2158 0.00256078 0.000106775 0.00510724
59 1 1.8895 8.49503 12.2918 11.9419 0.00454645 -0.00296292 -0.000255224
60 1 1.90052 10.3257 13.7521 13.9373 -0.00117179 0.00459403 0.00372015
61 1 1.80864 11.8302 8.5899 12.104 -0.00345663 0.00200411 0.0018533
62 1 1.73741 13.7209 10.2362 13.8768 -0.00251273 0.00189076 -0.00320295
63 1 1.86091 12.004 12.1983 8.4916 -0.000118572 0.00299224 -0.00424885
64 1 1.75437 13.7041 13.7484 10.4543 -0.00267502 0.00706965 0.00609772
65 2 -0.902123 2.74645 1.8277 2.31122 0.0056034 -9.29503e-05 0.00311997
66 2 -0.891063 2.14408 14.2449 14.5817 -0.0010966 -0.00398097 -0.00498776
67 2 -0.899881 15.2259 2.37521 14.5467 -0.00264443 0.00202675 0.00214527
68 2 -0.890535 14.6658 14.9213 2.28804 0.00171408 -0.00137029 0.00553988
69 2 -0.887595 2.29807 3.77739 4.05718 -0.00169775 -0.00203194 -0.00673041
70 2 -0.920147 4.34601 2.34659 4.13078 0.000115768 0.00317781 0.00383375
71 2 -0.920121 4.0111 3.96472 2.24506 0.00263121 9.06651e-06 -0.00965193
72 2 -0.883704 2.93911 5.47651 5.99732 -0.0028693 0.000589198 -0.000303251
73 2 -0.908641 15.076 4.02799 6.17622 0.00609685 -0.00447553 -0.00290568
74 2 -0.906505 15.2253 6.02642 4.60398 0.00245583 -0.000327108 0.00142819
75 2 -0.911198 4.72082 6.00978 7.61589 0.000529235 -0.00210327 -0.00342806
76 2 -0.904801 4.41025 7.57103 5.66681 0.00772522 0.0119624 0.00189712
77 2 -0.778155 2.718 7.72718 7.32071 -0.00788619 -0.00125356 0.000718708
78 2 -0.932275 6.25638 2.13685 5.82208 -2.0347e-05 -0.00723769 -0.00234849
79 2 -0.896187 4.22655 14.7948 5.93923 0.00723264 0.00273803 -0.00231792
80 2 -0.91943 5.94922 14.6215 3.98656 -0.00437954 -0.00416665 -0.00343146
81 2 -0.906529 6.28662 4.23027 7.39273 0.00448482 -0.003475 -0.00474214
82 2 -0.874096 8.13844 3.83415 5.78421 -0.00152016 0.000224184 0.00364095
83 2 -0.903783 8.01191 2.44088 7.72385 -0.000290206 -0.00265437 0.0068629
84 2 -0.859412 5.67783 5.59844 2.67028 -0.00104806 0.00309278 0.00263397
85 2 -0.844888 4.03513 6.07104 15.0189 -0.0025484 0.00149646 0.00127641
86 2 -0.958811 5.87713 4.08902 14.7603 -0.00521908 -0.00193414 0.00992199
87 2 -0.841127 6.1918 7.73916 4.0374 0.00106479 -0.000481043 0.00571466
88 2 -0.846821 7.62555 5.69514 4.56912 0.00498504 -0.00131025 0.00352258
89 2 -0.809872 7.52331 9.15962 2.14111 0.000285349 -0.00248332 -0.00314701
90 2 -0.854765 2.62482 1.69817 9.12471 -0.00335859 -0.000454305 -0.00107885
91 2 -0.857663 1.98903 14.5569 7.25887 -0.00426185 0.00272768 0.00200257
92 2 -0.900809 14.5396 2.24484 8.05506 0.00079008 0.00131546 -0.000555911
93 2 -0.912091 14.7116 14.1855 9.39861 -0.000642243 -0.00510955 -0.00358822
94 2 -0.750443 2.85204 4.66644 11.9743 -0.0045545 -0.00303673 0.00102634
95 2 -0.864651 3.91835 2.34043 11.1841 -0.00174358 -0.00746154 -0.00824193
96 2 -0.863617 4.60397 3.5604 8.92294 0.00292457 -0.0103982 -0.00211384
97 2 -0.792941 2.01323 6.326 13.4811 0.000964273 0.00142618 -0.00528626
98 2 -0.867834 14.7666 4.08361 12.9784 -0.00390109 0.00308339 0.00366428
99 2 -0.855057 14.7746 6.01497 11.2827 0.00233316 -0.00526962 -0.00452565
100 2 -0.848993 2.54593 8.16506 14.771 -0.00525791 0.000639542 0.0046328
101 2 -0.97129 4.10928 7.58863 12.8019 -0.00468379 -0.00279546 -0.00260057
102 2 -0.853638 5.58465 2.34662 13.2324 -0.00583704 -0.0103276 -0.00418929
103 2 -0.89245 3.9587 14.5397 12.8467 0.00337182 -0.00285029 -0.00617902
104 2 -0.876848 5.98819 14.9455 11.297 0.00595323 -0.00443095 0.000612148
105 2 -0.984284 7.57721 2.16973 14.826 0.00250396 0.00186264 -0.00515023
106 2 -0.969564 7.64216 3.82203 13.0328 0.00407314 -0.0053122 -0.00201222
107 2 -0.918568 6.19161 5.51903 9.46893 0.000771323 0.0059824 -0.00267051
108 2 -0.940921 5.70876 7.62662 10.9194 0.00327841 0.00796714 -0.00480081
109 2 -0.932726 7.51024 5.94714 11.5051 -0.000659518 0.00251352 -0.00612935
110 2 -0.769519 7.83012 7.56572 9.5648 -0.00188253 -0.00182039 -0.000346813
111 2 -0.869293 2.54817 9.79974 2.23282 0.00425051 -0.00335378 -0.000224482
112 2 -0.871154 15.1822 7.66468 2.60382 0.00337531 0.00600246 -0.00486219
113 2 -0.88255 14.5167 9.44429 14.9413 -0.00112527 -0.00324333 0.00571293
114 2 -0.889698 2.2301 10.999 4.23787 0.00202091 -0.00288283 0.00849089
115 2 -0.906395 4.32379 9.32736 3.8381 0.00439098 0.00190499 -0.00344462
116 2 -0.916074 4.38358 11.3664 2.67951 -0.00244774 -0.00140158 -0.00476232
117 2 -0.894978 2.59846 12.9104 5.53802 0.00370633 -0.000267546 0.0039202
118 2 -0.871819 14.6149 11.4664 6.0788 -0.000853591 0.00484188 -0.00188012
119 2 -0.92159 14.8716 13.0168 4.00039 0.000269274 -0.00602065 -0.00109258
120 2 -0.915961 3.90782 13.0198 7.70322 0.0018365 -0.00412627 -0.000942866
121 2 -0.843605 6.00821 9.67387 5.73062 -0.00670396 0.00334337 0.0032146
122 2 -0.85713 5.91027 11.606 7.41997 0.000808953 -0.0035948 0.00276813
123 2 -0.892008 7.93792 11.1419 5.90401 0.0006972 -0.000896906 0.000706648
124 2 -0.791638 7.28059 9.66923 7.97763 0.00426624 -0.0026145 0.00327292
125 2 -0.847167 6.21916 12.9478 2.23255 -0.00149953 0.00205788 0.00110635
126 2 -0.914235 4.26575 13.0474 14.7691 0.000343982 0.00266426 -0.000779028
127 2 -0.843958 5.7028 11.2488 14.563 0.000805423 0.00107383 -0.00590588
128 2 -0.970757 8.04653 14.5753 2.35091 -0.0026026 0.00217838 -0.0012468
129 2 -0.912959 7.77188 12.8103 4.08919 0.00627532 0.00478668 0.003212
130 2 -0.909136 2.27215 9.42495 9.21804 0.00345091 0.000922304 0.00532595
131 2 -0.82252 14.4964 7.936 9.65873 0.0026332 -0.000697408 0.00545236
132 2 -0.832549 14.7882 9.35103 7.52413 -0.000158828 0.00342406 0.00344418
133 2 -0.875464 2.31128 11.2761 10.9283 0.00147411 -0.000795022 0.00150821
134 2 -0.92487 3.99691 9.48222 11.1723 0.000703621 -0.00392117 0.00774696
135 2 -0.885954 4.19128 10.9769 9.23461 0.0035478 0.000488186 -0.00213978
136 2 -0.906881 2.48245 12.6778 12.7499 0.00300086 -0.000232921 0.00877397
137 2 -0.847469 14.7239 10.8344 12.8193 -0.00582362 -0.000834423 0.00342889
138 2 -0.903068 14.4485 12.8856 11.4589 0.0010263 0.00124671 0.0120505
139 2 -0.934943 5.97488 9.27048 12.7261 -0.00227094 -0.00330268 0.00653888
140 2 -0.830424 7.93099 10.2176 14.3102 -0.00223252 -0.00171347 -0.00354997
141 2 -0.880473 7.33962 11.4515 12.4738 0.00220218 6.03033e-05 0.00171373
142 2 -0.831228 5.61047 13.0825 9.60735 -0.00184838 -0.00809098 0.00173388
143 2 -0.931206 7.46783 14.7781 9.18822 0.00423213 -0.00190125 0.000515812
144 2 -0.926697 7.81928 13.2405 10.9996 0.00249541 -0.00129638 -0.00187706
145 2 -0.910054 9.36992 2.53264 2.42304 -0.00197179 -0.00308124 0.000476498
146 2 -0.973314 9.64617 14.9194 14.6262 0.00605486 -0.00119407 -0.00166703
147 2 -0.894083 9.8973 4.4158 4.10682 -0.00270078 -0.00220314 -0.00181166
148 2 -0.934223 11.5659 2.52658 3.92137 0.00478197 -0.0025266 0.00365951
149 2 -0.749778 11.1272 4.25854 2.1583 -0.00100923 0.00412859 0.000276997
150 2 -0.928684 9.54143 6.11564 6.06679 -0.000300497 -0.00713298 -0.000595576
151 2 -0.861606 11.1591 5.90814 7.94074 0.000998039 0.00145834 0.00344935
152 2 -0.9436 11.5657 7.61827 5.99327 0.00158233 -0.00646124 0.00206382
153 2 -0.843199 9.68951 8.0714 7.70553 -0.00451537 0.00465193 0.0046181
154 2 -0.863207 13.0287 2.5326 6.00953 -0.00111815 0.00135487 -0.000980542
155 2 -0.960968 11.1399 15.1068 5.89235 -0.00341553 -0.00195776 0.00228967
156 2 -0.951375 13.2066 14.8757 4.3267 -0.001147 0.00188304 -0.00340654
157 2 -0.947803 13.2346 4.29276 7.94711 0.00680403 -0.00438613 0.00177556
158 2 -0.861921 13.5074 5.82676 2.84422 0.00387843 0.000176009 -0.00201391
159 2 -0.745932 10.7699 6.28934 15.0902 0.00220525 -0.00615611 -0.0023406
160 2 -0.758655 13.5189 3.99795 15.1699 0.0046824 -0.00221365 0.00146502
161 2 -0.989533 13.3751 7.83616 4.37197 0.00509053 -0.00236769 0.00603283
162 2 -0.916835 9.34036 2.33082 9.72288 -0.0101103 0.00188211 0.00249431
163 2 -0.932851 9.7359 14.7294 7.95455 -0.00429027 0.00481263 -0.00126201
164 2 -0.87651 9.5325 4.37548 11.2663 -0.00145306 0.00146827 0.00289839
165 2 -0.87968 11.132 2.39767 11.4994 0.00229912 0.00475292 0.00825057
166 2 -0.91428 11.1731 3.94759 9.43745 0.00125921 0.00281443 0.00615428
167 2 -0.925182 9.16852 5.81048 13.3273 0.00181854 0.000586242 0.00265288
168 2 -0.858605 9.09987 8.1565 14.6035 0.00136967 -0.00198107 -0.00236014
169 2 -0.908271 10.8732 7.64766 12.8737 0.00142471 0.00488349 -0.000189863
170 2 -0.826435 12.8774 2.21634 13.3796 -0.00374335 -0.00976233 -0.00798573
171 2 -0.928252 11.2571 14.4805 12.9811 -0.00420175 -0.00256708 -0.00591796
172 2 -0.851804 13.076 14.9734 11.2695 0.000256822 0.00554013 0.00189951
173 2 -0.860622 12.7583 5.89878 9.76948 6.89028e-06 -0.00389407 -0.00172953
174 2 -0.907758 12.8622 7.64202 11.4638 -0.0013624 0.0123504 -0.00237366
175 2 -0.91219 9.81051 10.1462 2.07578 -7.18179e-06 -0.00634972 -0.000202632
176 2 -0.87742 9.9069 11.4035 4.30896 -0.00062709 0.000858555 0.000319783
177 2 -0.955271 11.191 9.25691 4.03359 0.000373055 -0.000475741 0.00241521
178 2 -0.893483 11.7961 11.2042 2.59539 0.00246038 0.0027868 -0.00189133
179 2 -0.921036 9.36516 13.2599 6.04052 0.00478364 0.00559662 0.00690392
180 2 -0.986687 11.4431 13.1028 7.42313 -0.00794899 0.00181611 0.000799711
181 2 -0.911767 12.8063 9.69328 5.84697 0.00319366 0.000718656 0.00734394
182 2 -0.884132 13.0099 11.259 7.87341 -0.00414366 0.00362687 0.00209796
183 2 -0.923983 12.9911 13.28 2.34858 0.000530933 -0.00344863 0.00738773
184 2 -0.960258 11.0613 12.7796 14.8715 0.000581463 -0.00346675 -0.00090752
185 2 -0.868128 13.1698 11.483 14.6274 -0.00170979 0.00244937 -0.00196601
186 2 -0.828812 9.11133 9.66814 9.46557 -0.00290102 -0.0010323 -0.00403558
187 2 -0.873037 9.55756 11.4261 11.2457 -0.00346093 0.00373003 0.000846032
188 2 -0.896254 11.1159 9.51912 11.1417 0.00314276 0.000837176 0.00387605
189 2 -0.866763 11.026 11.1684 9.09647 0.000343122 -0.00204237 0.00450478
190 2 -0.916915 9.3484 13.042 12.9662 0.00651737 0.00517064 0.00315256
191 2 -0.884556 12.5969 9.43986 13.1642 -0.00293224 -0.0031002 -0.000895678
192 2 -0.893803 12.5384 13.0011 9.70425 -0.00360606 -0.00880575 0.00621721
193 2 -0.619428 3.02341 6.65704 9.98377 -0.00437977 0.00130081 -0.00405051
194 2 -0.64415 6.69303 6.90055 14.2427 -0.00392696 0.000922088 0.00260368
195 2 -0.672122 14.4498 6.78001 7.24695 0.00802247 -0.0063916 0.00314581
196 2 -0.667905 7.95503 6.61379 2.47316 -0.00156471 0.00690955 -0.00348254
197 2 -0.609084 12.3569 5.03866 5.18412 0.00253744 -0.000811305 -2.27943e-05
198 2 -0.730122 2.39848 3.93137 9.66937 0.00201848 -0.00341306 -0.00393865
199 2 -0.614065 13.2102 6.38681 14.6937 0.00174505 -0.00151851 -0.0028036
200 2 -0.598604 3.09599 10.1226 6.61882 -0.00128369 -0.00109937 0.010243
201 2 -0.580405 11.972 5.1145 12.5113 6.87207e-05 0.00456504 -0.00378165
202 2 -0.654078 7.2002 7.27452 7.1676 0.00624037 7.8385e-05 -0.00281948
203 3 0.462944 2.85218 3.72754 11.9401 0.000482221 0.0222137 -0.0107515
204 3 0.399815 3.40351 7.22156 10.6799 0.027704 -0.033619 0.00790171
205 3 0.389909 6.02956 7.39272 13.6968 0.0187876 -0.0256112 0.00509504
206 3 0.397878 7.28191 6.56566 13.5384 -0.0316959 0.00672587 0.0161231
207 3 0.40646 15.0618 6.88185 6.436 -0.0425743 -0.021245 -0.020863
208 3 0.437046 13.9035 6.04251 7.09473 0.00111544 -0.00214501 -0.0153443
209 3 0.519474 6.70164 8.89283 2.45598 0.0262735 0.00660154 -0.0123575
210 3 0.401829 7.64984 6.20972 1.57148 -0.00677859 0.000543389 0.0114054
211 3 0.392649 12.1902 5.87195 4.78055 0.0123661 -0.0192345 0.0247624
212 3 0.414041 11.9771 4.41472 4.52976 0.0022019 0.00724329 0.013097
213 3 0.41351 15.7873 3.78758 8.97934 0.017589 -0.0267505 -0.0122527
214 3 0.442206 2.89023 5.76447 10.408 -0.00426002 -0.028984 0.00894694
215 3 0.436426 10.1966 5.55299 15.5534 -0.0373076 0.0338584 0.00592889
216 3 0.415135 13.9143 6.89029 15.2022 0.00240217 -0.00688045 -0.0051972
217 3 0.450744 2.39246 10.2607 7.21552 0.0100548 -0.00385834 0.0243299
218 3 0.436566 3.41729 9.18244 6.7676 -0.000154653 -0.000335574 0.00517904
219 3 0.444497 12.1746 6.00473 12.8926 0.0114642 0.0137898 0.012619
220 3 0.428945 11.0161 5.08278 12.3423 -0.0251465 0.0085408 -0.0087008
221 3 0.439524 6.7989 6.51476 7.56161 0.0370411 0.00643224 0.00712873
222 3 0.419011 7.76173 6.86699 6.43289 -0.0049456 0.00241021 -0.00572128
ITEM: TIMESTEP
10000
ITEM: NUMBER OF ATOMS
222
ITEM: BOX BOUNDS pp pp pp
1.5185158671506205e+00 1.5641484132849456e+01
1.5185158671506205e+00 1.5641484132849456e+01
1.5185158671506205e+00 1.5641484132849456e+01
ITEM: ATOMS id type q x y z vx vy vz
1 1 1.77125 1.69279 15.44 15.6245 0.00253696 0.00491294 0.00157478
2 1 1.79891 3.39057 3.00315 3.27646 0.00110806 0.00515031 0.000855833
3 1 1.70296 1.73817 4.90104 4.94733 -0.00218281 -0.00442038 0.00359802
4 1 1.67382 3.40218 6.67712 6.76334 0.00381272 -0.00425645 -0.000967872
5 1 1.78987 5.20656 15.5231 5.06569 -0.00263695 0.000632469 -0.0015305
6 1 1.73475 7.13126 3.15684 6.81301 -0.00684875 -0.00399631 0.00184837
7 1 1.734 4.9551 4.89365 1.57113 0.000208062 0.00346099 0.000963244
8 1 1.58101 6.69093 6.18711 3.66828 -0.00447928 0.00226683 -0.00151407
9 1 1.72645 15.3595 15.3538 8.24506 -0.0026752 0.00334254 -0.00296335
10 1 1.56425 3.38464 2.96162 9.61054 -0.00384942 0.00426462 2.48973e-05
11 1 1.64741 15.5372 5.16249 12.4968 0.000999787 0.00235349 0.00197569
12 1 1.81069 3.30125 6.90288 14.0372 0.00198051 0.000187963 0.00709191
13 1 1.74309 5.07106 1.54145 11.8443 0.00385434 -0.00143973 -0.00448636
14 1 1.83225 6.68306 3.16043 13.8971 -0.00272682 -0.00317927 -0.000708118
15 1 1.70616 5.32134 4.96432 8.4021 0.0029108 -0.00253495 -0.000290385
16 1 1.83051 6.97262 6.67596 10.3897 -0.000290175 0.00172841 -0.000791552
17 1 1.75544 1.60835 8.87992 15.5174 0.00362659 0.00269906 0.000335827
18 1 1.74756 3.35006 10.487 3.26606 -0.000263106 0.00157174 -0.00173732
19 1 1.69509 15.4739 12.1507 4.91438 0.000545341 0.00564156 -0.00253869
20 1 1.8297 3.30749 13.7885 6.60684 0.00514752 0.00243416 0.00309114
21 1 1.72219 5.02271 8.46925 4.83068 -0.00205151 -0.00116797 0.000369485
22 1 1.76028 6.76955 10.2321 6.63015 9.17881e-05 -0.00360225 -0.00235545
23 1 1.81431 5.08569 12.2726 15.5997 -0.00108331 -0.000919619 -0.00055672
24 1 1.86548 6.98549 13.7794 3.32018 -0.00268511 -0.00145757 0.00135013
25 1 1.58912 15.5415 8.33307 8.41252 -0.000651177 0.000537689 -0.00618635
26 1 1.70377 3.31093 10.2189 10.2373 0.00169567 -0.00588629 0.00145179
27 1 1.82661 1.58635 12.0761 11.8364 0.00458773 0.00238194 0.0017833
28 1 1.75543 3.31271 13.8288 13.6575 0.00328181 0.00311752 0.00283545
29 1 1.74144 5.04462 8.38022 12.0527 -0.000460607 -0.00511781 0.00504347
30 1 1.69583 6.55139 10.5628 13.536 -0.000494932 0.00211436 0.00417867
31 1 1.78145 5.01734 12.0339 8.40916 0.00354387 -0.000426607 -0.00321838
32 1 1.84161 6.71764 13.7793 10.1765 0.000537601 -0.00225 0.000449659
33 1 1.84704 8.57339 15.5471 1.5248 -0.00183673 -0.00239811 0.00247165
34 1 1.73793 10.3677 3.28439 3.09741 0.00582513 0.00286444 0.00717726
35 1 1.61084 9.00759 4.99111 5.19658 0.00116603 -0.00175067 0.000143156
36 1 1.73264 10.7075 6.82566 6.97878 -0.00157021 -0.00141528 0.002202
37 1 1.7641 12.0227 1.61497 5.0461 0.000376947 0.00168624 -0.000755108
38 1 1.76424 13.8275 3.37708 6.72381 -0.00473019 -0.00143964 -0.000285866
39 1 1.26608 12.6183 5.39739 1.57597 0.00313127 0.00185228 -0.00493247
40 1 1.65795 14.2902 7.09242 3.4869 -0.00251603 -0.00244829 -0.00495332
41 1 1.76239 8.62814 15.5608 8.78336 -0.00274648 0.00244453 -0.00410158
42 1 1.76716 10.2714 3.15916 10.6422 -0.000188853 0.00222959 -0.00210861
43 1 1.8905 8.50595 4.98193 12.3388 0.00280793 -0.00104049 -0.00275251
44 1 1.68777 10.0765 7.26812 13.8424 0.00552321 0.00213338 -0.00125939
45 1 1.77507 12.1632 15.5781 12.4151 -0.00126799 -0.00067096 -0.00117835
46 1 1.64054 14.023 3.21961 14.165 0.000393331 -0.00344955 -0.00484452
47 1 1.72702 12.1118 4.84389 8.8363 -0.00534911 -0.000633277 0.00423934
48 1 1.6886 13.83 6.74764 10.5709 0.00422774 -0.000519877 -0.00146625
49 1 1.7503 8.57571 9.36469 15.4848 3.27475e-05 -0.00251325 -0.00486079
50 1 1.7929 10.5917 10.4221 3.36121 0.00201641 0.000339526 -0.00426646
51 1 1.79639 8.67429 12.0028 5.08269 0.00302132 0.00164727 -0.00112695
52 1 1.75616 10.3062 13.9605 6.76559 -0.0046473 -0.00280641 0.00373856
53 1 1.76276 12.2619 8.66878 5.13277 0.00322763 -0.00653341 0.00197511
54 1 1.66613 13.8357 10.5186 6.97589 0.00287831 0.00362426 0.00265485
55 1 1.77094 12.1736 12.1708 1.54188 -0.000899016 -0.00467798 -0.00345401
56 1 1.79802 13.7739 13.9883 3.27315 0.00039277 0.00357137 0.00386425
57 1 1.66644 8.53648 8.42166 8.56552 -0.00472567 -0.00562268 -0.00258251
58 1 1.83864 10.3068 10.3691 10.251 -0.00528949 -0.000734678 0.000592147
59 1 1.83357 8.55526 12.1513 11.9674 -0.0045078 -0.00408757 -0.00309039
60 1 1.846 10.2978 13.7568 13.9133 0.000258604 0.00231589 0.0015059
61 1 1.79463 12.0834 8.75726 12.0851 0.000716962 0.00322796 -0.00272346
62 1 1.7821 13.8797 10.548 13.657 -0.000800796 0.001722 0.00218039
63 1 1.84762 12.0232 12.2962 8.58504 0.00734637 -0.00127097 -0.00564962
64 1 1.81874 13.7306 13.9273 10.4176 -0.000236063 -0.00896822 -0.00334579
65 2 -0.878866 2.76126 1.82278 2.51737 -0.00650882 -0.00721539 -0.00896359
66 2 -0.915782 2.2604 14.5367 14.5382 0.00368352 -0.000889239 -0.000940445
67 2 -0.839155 15.2238 2.49467 14.8489 -0.0030989 0.00149932 0.00269834
68 2 -0.876856 14.629 14.9847 2.44264 -0.00942595 -0.00734235 0.00729928
69 2 -0.894197 2.33551 3.83809 4.02035 -0.00454218 0.00298739 0.00559711
70 2 -0.91792 4.33054 2.47757 4.36636 7.18078e-06 -0.000252551 -0.00244689
71 2 -0.860924 3.94084 3.9062 2.14159 -0.00239073 -0.00651196 0.00385469
72 2 -0.910083 2.56959 5.59047 6.05991 0.00778715 -0.000188209 0.00167684
73 2 -0.914479 14.7736 4.20694 5.81438 0.00455154 -0.00588312 -0.00155654
74 2 -0.880384 15.357 6.1514 4.09807 0.000675892 -0.00163462 -0.00665185
75 2 -0.904357 4.60222 5.98006 7.44974 0.00901079 0.0017058 0.00314584
76 2 -0.918059 3.94401 7.76148 5.75749 0.000414957 0.00232648 0.00158222
77 2 -0.896348 2.44397 7.39153 7.78218 -0.00371615 -0.000617264 -0.000737299
78 2 -0.856996 6.35603 2.16134 5.87441 0.00109705 0.00795427 0.00466876
79 2 -0.962789 4.4024 14.636 6.05413 -0.00671263 -0.00301354 -0.00494455
80 2 -0.928419 5.87523 14.6309 4.05298 0.000366525 -0.000764285 -0.00487726
81 2 -0.878205 6.22306 4.263 7.38117 0.00351451 0.00272216 -0.00310597
82 2 -0.810926 8.2833 3.81877 5.98607 -0.00234136 -0.0045481 9.22116e-05
83 2 -0.886632 7.899 2.55563 7.98296 0.00102594 0.00536179 0.000812758
84 2 -0.855413 5.82705 5.21383 2.89136 0.00791938 0.00315506 -0.00230274
85 2 -0.903653 4.16851 6.03003 15.0183 -0.000814042 0.003866 0.00522151
86 2 -0.93627 5.72191 3.93255 14.7513 0.00290338 -0.000748221 0.00266891
87 2 -0.918941 5.809 7.45813 3.99923 -0.00141766 0.00230035 -0.00473463
88 2 -0.840284 7.70811 5.83683 4.80216 -0.00124665 -0.00402631 -0.00459325
89 2 -0.83008 7.54179 8.91836 2.36926 0.000131393 -0.00246403 0.00243476
90 2 -0.843915 2.49702 1.8762 8.97478 0.00185266 -0.00382519 0.00392105
91 2 -0.860188 2.05537 14.4848 7.26454 0.00686153 0.00104724 -0.0109542
92 2 -0.899446 14.7907 2.50326 7.53782 0.0062375 0.00228016 -0.000984709
93 2 -0.899175 14.4151 14.7034 9.24051 -0.00372408 0.00755149 -0.00352492
94 2 -0.745757 2.6302 4.27533 12.2279 -0.00661419 -0.00128811 -0.000939682
95 2 -0.841049 4.10708 2.49275 10.9669 -0.00246693 0.00431376 0.00721282
96 2 -0.848857 4.51812 3.70283 8.86276 -0.0033542 -0.00412284 0.00145321
97 2 -0.910349 2.1077 6.08458 13.5277 -0.00337872 0.000634729 -0.00326075
98 2 -0.86476 14.5809 4.06869 13.0034 0.000601752 -0.00845879 0.000989845
99 2 -0.922275 14.972 6.0561 11.2855 0.0019779 0.00503304 -0.00362652
100 2 -0.927863 2.6382 8.09482 14.6801 0.00241296 -0.00257663 0.00420469
101 2 -0.958677 4.20581 7.38226 12.8762 0.00226893 0.00951458 0.000167134
102 2 -0.892866 6.02839 2.42324 12.6918 -0.00334534 0.00629767 0.00281498
103 2 -0.861855 4.06664 14.9084 12.7614 -0.000881775 -0.00119934 -0.00335397
104 2 -0.937051 5.90307 14.6378 11.1554 0.000303124 -0.00287733 -0.00414832
105 2 -0.885195 7.50236 2.13882 14.7294 0.00300699 -0.00175434 0.000497179
106 2 -0.989122 7.64578 4.21827 13.2648 -0.00478986 0.00712374 -0.00440433
107 2 -0.90633 6.24749 5.76117 9.41487 -0.00111023 0.00161161 -0.00503424
108 2 -0.902309 5.98642 7.71965 11.0176 -0.00392891 0.00158119 0.00645521
109 2 -0.97578 7.5745 5.76149 11.4861 0.00385863 0.000385931 0.008457
110 2 -0.893268 8.04782 7.47309 9.70407 0.00800444 0.00179635 -0.00284996
111 2 -0.893014 2.36482 9.87233 2.30887 -0.00417344 0.000934988 0.00217211
112 2 -0.880852 14.933 7.87288 2.2432 -5.75358e-05 -0.0016888 -0.00304048
113 2 -0.873188 14.6577 9.53212 14.5462 -0.00500974 -0.00202307 0.00382014
114 2 -0.806904 2.26371 11.0873 4.20969 0.0102092 -0.00504503 -0.00411288
115 2 -0.912587 4.35971 9.42288 3.84693 -0.00201497 0.00408217 0.00276612
116 2 -0.90239 4.12196 11.6014 2.45417 -0.00236179 -0.00665232 0.00272352
117 2 -0.887999 2.45094 13.0284 5.58899 -0.00508381 0.000803073 0.00414904
118 2 -0.847891 14.4641 11.3806 5.84271 0.000416354 6.31513e-05 8.62595e-05
119 2 -0.880432 14.6065 12.8233 3.77458 -0.00679834 0.00632181 -0.00772242
120 2 -0.934776 3.94908 12.7889 7.60216 -0.000109371 0.0056444 0.00028813
121 2 -0.918471 6.07456 9.20444 5.72156 -0.00160801 0.00399397 0.00179275
122 2 -0.91845 5.96917 11.2428 7.47775 0.00112213 0.00246142 -0.000261681
123 2 -0.877568 7.89447 10.8622 5.80398 0.00988497 0.00105577 -0.00449083
124 2 -0.766649 7.59463 9.46886 7.7429 -0.00225807 0.00407237 0.000476766
125 2 -0.899136 6.21583 13.0652 2.21229 0.0072035 0.00544757 -0.00441426
126 2 -0.895175 4.35357 13.1924 14.6372 -0.00312515 -0.00211436 0.00142284
127 2 -0.874942 5.68198 11.1917 14.6761 -0.0031519 -0.00372214 -0.000325709
128 2 -0.987356 7.99745 14.6117 2.59155 -0.00128577 0.00179188 -0.0018333
129 2 -0.922758 7.55924 12.6965 4.22566 -0.00667512 0.0037385 0.00567805
130 2 -0.782127 2.4668 9.23315 9.33921 -0.000354126 -3.06097e-05 0.00484944
131 2 -0.784305 14.4843 7.70369 9.51133 0.00123534 0.00333532 -0.00412177
132 2 -0.825177 14.9424 9.51821 7.58081 0.0006684 0.000801156 0.00417487
133 2 -0.920282 2.40673 11.2613 10.8543 -0.00495407 -0.00174752 -0.00266902
134 2 -0.87682 4.02188 9.32061 11.2951 -0.00580579 -0.00434297 0.00279883
135 2 -0.882914 4.26854 10.9349 9.18801 0.00171343 0.00615656 -0.0016384
136 2 -0.889864 2.65932 12.7241 12.8103 0.00430605 -0.00114148 -0.00110245
137 2 -0.963111 14.7578 11.2123 12.5846 -0.00401336 0.00251846 -0.00294818
138 2 -0.901355 14.9175 13.1789 11.0188 -0.00265045 -0.00556089 -0.00648535
139 2 -0.925723 5.97944 9.26804 12.8743 -0.00344019 -0.00145236 -0.00200878
140 2 -0.829769 7.74937 10.2186 14.5008 0.00212159 -0.00259877 -0.00108925
141 2 -0.898439 7.34495 11.4744 12.5517 0.0113515 -0.00111209 0.00447608
142 2 -0.924856 5.71536 12.8628 9.53833 0.00416242 -0.000117545 -7.05184e-05
143 2 -0.896755 7.45083 14.6331 9.11582 0.00579646 -0.00323229 0.0149075
144 2 -0.89169 7.87941 13.0527 10.9387 -0.00407892 0.00184491 -0.00295124
145 2 -0.918709 9.37614 2.51244 2.21232 0.0011759 -0.00315388 0.00215421
146 2 -0.917965 9.51461 14.8866 14.6307 -0.00128545 -0.00458197 0.00350821
147 2 -0.892011 9.61761 4.32221 3.93793 -0.00051376 0.00107287 0.00281968
148 2 -0.952686 11.3667 2.51038 3.92345 -0.00223415 -0.00362854 -0.00578768
149 2 -0.714676 10.9768 4.4018 2.18498 0.00397646 0.00195365 -0.00120992
150 2 -0.893518 9.7725 5.78031 6.29229 -0.00251943 -0.00170964 0.00383511
151 2 -0.893407 11.5342 5.99751 8.01413 0.00771514 -6.91217e-05 -0.00552643
152 2 -0.89864 11.4183 7.58087 5.86723 -0.00232516 -0.00414641 0.000820474
153 2 -0.820794 9.73265 7.81355 7.72642 0.00649726 -0.00391787 -0.0029854
154 2 -0.917552 12.8811 2.33494 6.08144 -0.00517331 -0.000935727 0.000221205
155 2 -0.909062 10.8928 14.9572 5.74888 -0.00315497 -0.00284648 -0.00418769
156 2 -0.874704 13.0439 14.7096 4.42536 -0.00249882 0.000241964 0.00500619
157 2 -0.951336 13.1297 4.23157 7.84145 -0.00251977 0.00163106 -0.004299
158 2 -0.829755 13.2675 6.13537 2.83138 0.00130893 0.00224124 0.00268757
159 2 -0.764995 10.8186 6.5836 15.0118 0.00367437 0.00218426 0.005627
160 2 -0.756657 13.4762 4.10797 15.3177 0.00342 0.000552827 0.00176384
161 2 -0.930458 13.4928 7.99839 4.42135 0.00710057 -0.00266443 -0.00373634
162 2 -0.902886 9.34874 2.09836 9.97329 -0.00246923 -0.00303348 -0.00341645
163 2 -0.881707 9.62161 14.6615 7.97696 -0.00200164 0.00114639 0.00142239
164 2 -0.984075 9.48475 4.12354 11.531 0.00493625 -0.00211931 0.00594484
165 2 -0.938552 11.3213 2.47261 11.5624 0.000379711 -0.000630771 0.00246884
166 2 -0.922473 11.0268 4.00294 9.58322 -0.00159718 0.000227321 0.00424571
167 2 -0.934517 9.23968 6.15946 13.1139 0.00186782 0.00413138 0.00353507
168 2 -0.891573 9.10115 8.29181 14.462 -0.00426237 -0.003111 0.00177102
169 2 -0.868096 10.9421 8.20767 12.9912 0.00012273 0.00228271 -0.000267954
170 2 -0.836049 12.9939 2.13956 13.5216 -0.00319669 -0.00464172 -0.000836066
171 2 -0.919829 11.3935 14.4234 13.0844 -0.000590963 0.00355853 0.00488856
172 2 -0.903216 13.1788 14.9011 11.4908 -0.00051705 0.00580858 0.00205853
173 2 -0.904245 12.8623 5.69245 9.9145 -0.00280559 -0.00563736 0.00702684
174 2 -0.921738 12.9926 7.60725 11.55 0.000279 0.00199768 -0.00220708
175 2 -0.915043 9.65599 9.97566 2.21886 0.00589576 0.00120038 0.00282452
176 2 -0.933387 9.78607 11.4334 4.22964 0.00229508 0.00862579 -0.0035339
177 2 -0.913394 11.2435 9.31578 4.23512 -0.0063796 -0.00608676 -0.00275064
178 2 -0.87599 11.738 11.0479 2.51757 -0.00363657 -0.00511014 0.00227979
179 2 -0.887191 9.23524 13.0566 6.05762 -0.000504163 -0.00336707 -0.00708291
180 2 -0.900107 11.4086 13.0702 7.38829 0.00116572 0.00361207 0.00674986
181 2 -0.839094 12.7432 9.59502 6.30724 0.00394121 0.000679217 0.00249714
182 2 -0.87968 13.1814 11.4393 8.02877 -0.00129419 0.00260921 -0.000355966
183 2 -0.903561 12.7333 13.3243 2.39372 0.00387657 0.000124816 -0.00423322
184 2 -0.919648 11.0256 12.7777 14.839 0.00241496 -0.00463621 -0.00706023
185 2 -0.846534 13.2287 11.6341 14.62 0.00363906 0.00215969 -0.00110119
186 2 -0.794449 9.30803 9.45455 9.51032 0.00158992 0.00430735 0.000372346
187 2 -0.944272 9.54173 11.1591 11.232 -0.00494822 -0.00721342 -0.00177521
188 2 -0.897283 11.367 9.43833 10.9108 -0.00439583 -0.00170368 0.00385642
189 2 -0.893058 10.9557 11.3852 9.23423 -0.00611617 0.000335108 -0.00125141
190 2 -0.911716 9.26295 13.0641 13.0329 -0.00637341 0.00208015 -0.000730613
191 2 -0.915917 12.76 9.86004 12.8976 0.00460599 0.00388413 -0.00598548
192 2 -0.960966 12.6696 13.1396 9.63919 -0.00206381 -0.0033926 0.000849818
193 2 -0.606672 3.41417 6.31557 10.263 0.00765208 -0.00106774 -0.000129888
194 2 -0.679852 6.83523 7.05376 14.196 -0.00471504 0.00643281 0.000304106
195 2 -0.630429 14.196 6.84774 7.27762 0.0106051 0.000253843 -0.00133725
196 2 -0.666767 7.68324 6.44184 2.50495 -0.00763032 0.00968853 0.00782643
197 2 -0.61462 12.1987 5.02831 5.10874 -0.00412039 -0.000117468 0.00189491
198 2 -0.730888 2.20332 4.00844 9.62685 0.000282828 0.00452363 -0.00018907
199 2 -0.587158 13.3079 6.34339 14.587 -0.0041625 0.00439092 0.00176201
200 2 -0.594265 3.38704 10.2387 6.57586 -0.000880744 0.000206725 -0.00262656
201 2 -0.61097 11.9122 5.12349 12.6303 0.00494222 0.00147296 -0.000285186
202 2 -0.635928 7.28521 7.11011 7.14351 -0.0105289 0.00177013 0.00960189
203 3 0.489693 3.21216 3.51122 12.3724 0.000679338 -0.0146702 0.0272908
204 3 0.415975 3.38084 6.87576 11.0326 -0.00668613 -0.0243412 0.00979357
205 3 0.443838 7.18844 7.79904 13.7905 0.00680065 0.0149035 -0.00479424
206 3 0.420127 7.21814 6.30138 13.7084 0.0158326 -0.0215022 -0.0139859
207 3 0.375539 14.8669 6.47822 6.62754 -0.0271365 -0.0133876 -0.00846383
208 3 0.423078 13.5845 6.09333 7.36081 0.00146693 0.0256461 0.000740852
209 3 0.496586 6.853 8.82404 3.01418 -0.00974293 0.0133863 0.00484208
210 3 0.436839 7.29771 7.07168 1.73275 0.0136583 0.0145986 0.0229814
211 3 0.380337 12.719 5.82098 4.75769 0.0106121 -0.00781492 0.0343669
212 3 0.396278 11.6579 4.80165 4.34175 0.0163024 -0.0415072 0.00504685
213 3 0.438324 15.6279 3.72804 8.98857 -0.00383922 -0.00579271 -0.00887845
214 3 0.458341 2.57782 5.80344 10.2086 -0.0082206 0.0052697 0.00790994
215 3 0.439666 10.3864 5.67162 15.3695 -0.00255497 0.000790799 0.0340612
216 3 0.442731 14.1816 6.65776 14.9332 0.00240041 -0.0152579 0.00626223
217 3 0.414761 3.16094 10.6296 7.47571 -0.0249981 0.0169691 0.00220928
218 3 0.41756 3.45656 9.34023 6.7604 0.0186389 -0.0291686 0.0111326
219 3 0.407638 12.2315 5.68047 11.8858 -0.0201177 0.000521427 0.00774944
220 3 0.41648 11.4696 4.47532 12.1622 0.0202048 -0.00323678 0.0268135
221 3 0.430831 6.36295 6.81012 6.95442 -0.0101373 0.0163431 -0.0186003
222 3 0.432029 7.89324 6.38833 6.78942 0.00994905 -0.00401802 0.0059835
ITEM: TIMESTEP
11000
ITEM: NUMBER OF ATOMS
222
ITEM: BOX BOUNDS pp pp pp
1.5185885513974595e+00 1.5641411448602600e+01
1.5185885513974595e+00 1.5641411448602600e+01
1.5185885513974595e+00 1.5641411448602600e+01
ITEM: ATOMS id type q x y z vx vy vz
1 1 1.88675 1.67844 15.3547 1.60796 0.00327741 0.000809422 0.00150265
2 1 1.76908 3.33391 3.10127 3.31613 0.00316807 0.00786172 0.00223173
3 1 1.81922 1.75158 4.86574 5.21315 -0.00253735 -0.00341776 -0.00243701
4 1 1.68837 3.57527 6.78431 6.72267 -0.00182181 -0.00151034 -0.00358492
5 1 1.81587 5.1975 15.5067 5.0205 0.00172701 -0.00218689 0.00253279
6 1 1.77991 7.05473 3.06388 6.74266 0.000337273 -0.0060083 0.00194216
7 1 1.81597 4.95624 4.82287 15.5176 -0.00134976 0.00155271 0.00300411
8 1 1.5245 6.77166 6.25049 3.36509 0.00234878 -0.00708416 -0.00315137
9 1 1.66762 15.397 15.1415 8.33659 -7.46791e-05 -3.83989e-05 0.000744198
10 1 1.44839 3.26754 2.83925 9.79077 0.00320123 -0.00178123 0.00307731
11 1 1.57856 15.4311 5.17347 12.5217 0.000753695 -0.00014809 0.000378856
12 1 1.71698 3.25443 6.94349 13.9406 -0.00367911 -0.00309096 -0.0012474
13 1 1.68526 4.83298 15.5531 12.0248 -0.0035511 -0.000242361 -0.00235998
14 1 1.83561 6.66771 3.05131 13.8284 0.00270052 -0.00596556 0.000674363
15 1 1.61548 5.23231 4.74819 8.34833 -0.000435937 0.00259537 -0.00233326
16 1 1.70349 6.64563 6.72558 10.2823 -0.00250565 0.0035538 0.00011158
17 1 1.67977 15.5971 8.72976 1.55988 5.61868e-05 -0.00308919 -0.00369581
18 1 1.83282 3.41813 10.3838 3.29345 0.000152875 -0.00273784 -0.0040632
19 1 1.76457 15.6219 11.9943 4.93443 0.00425553 0.000524994 0.00235162
20 1 1.8591 3.33966 13.752 6.58128 -0.00186764 0.00248048 0.00127731
21 1 1.80944 5.23027 8.50932 4.86763 0.00427092 0.000646693 0.000886869
22 1 1.78424 6.9526 10.3546 6.55667 0.0025932 0.00235855 0.00291105
23 1 1.8878 5.15551 12.0991 1.53659 0.00369288 -5.5533e-05 0.00255208
24 1 1.87846 6.96709 13.7993 3.26528 -0.00498365 -0.00454641 -0.00171486
25 1 1.71842 15.6244 8.40454 8.47321 0.00315523 0.00121881 -0.00386198
26 1 1.74871 3.15872 10.3803 10.1638 0.00139517 0.00112103 -0.00272218
27 1 1.88535 1.56852 12.0547 12.1445 -0.00164206 0.000524785 0.00145611
28 1 1.82302 3.33178 13.7203 13.8558 -0.00287218 0.000219048 -0.00289208
29 1 1.79664 4.84674 8.57011 11.9438 -0.000784333 0.00334875 0.000879639
30 1 1.6489 6.60635 10.5799 13.5235 -0.00440932 0.00398766 -0.00467315
31 1 1.76849 5.15546 12.0373 8.36149 0.00296977 0.00334899 -0.00461045
32 1 1.72674 6.67565 13.8769 10.1925 0.0030853 0.00151471 -0.00738993
33 1 1.7721 8.56211 1.5694 1.55238 -0.000467012 0.00421393 0.0044788
34 1 1.6349 10.3914 3.29662 3.241 0.00055088 0.000530289 0.000867154
35 1 1.61719 8.77861 4.9254 5.20379 0.00359953 -0.00117439 -0.00164311
36 1 1.66642 10.4909 6.90576 6.89464 -0.00368639 -0.00218979 -0.0046664
37 1 1.76648 12.2045 1.61994 5.07488 -0.00376517 0.00401181 -0.00137242
38 1 1.73736 13.8689 3.30482 6.96199 0.00405943 0.00118551 0.00168879
39 1 1.38514 12.7003 5.21381 1.55133 -0.00534897 0.000427662 0.000389896
40 1 1.66992 14.1935 6.85975 3.55323 -0.00107763 -0.00209754 0.00450902
41 1 1.85137 8.67976 15.6386 8.78545 -0.000770933 0.00203568 0.00425374
42 1 1.81268 10.2756 3.36693 10.4845 0.00162579 -0.00115721 -0.00270225
43 1 1.67795 8.32683 5.06874 12.2016 -0.00420499 0.00454479 -0.000157999
44 1 1.62487 10.004 7.05816 13.8653 -0.000896271 0.00130153 -2.94894e-05
45 1 1.73705 12.082 1.55394 12.2119 -0.00550998 0.000929447 0.00195344
46 1 1.70617 14.012 3.00734 14.102 -0.00136013 -0.00700149 0.00207749
47 1 1.77463 12.0697 5.06217 8.77309 -0.00244743 -0.00101997 0.00195473
48 1 1.74269 13.8586 6.89805 10.5078 0.000111057 0.00180337 0.000422654
49 1 1.68304 8.7406 9.3913 15.3469 0.00399761 -0.00321487 9.13885e-05
50 1 1.77055 10.7403 10.5625 3.23018 -0.00182727 3.53486e-05 -0.00364718
51 1 1.84482 8.92037 12.2299 5.10299 0.00280759 0.000400103 0.000152721
52 1 1.86926 10.5406 14.0061 6.96573 -0.00193318 -0.00102434 0.00286451
53 1 1.63523 12.2372 8.69109 5.07887 0.000326262 -0.00505906 0.00482853
54 1 1.78247 13.889 10.4223 6.97384 -0.00109074 -0.00341738 -0.00116271
55 1 1.86707 12.2864 12.3642 15.471 0.000400507 0.00192789 0.00138931
56 1 1.85305 13.9444 13.926 3.35505 0.00350635 -0.00497893 -0.00285993
57 1 1.59715 8.46398 8.4995 8.5474 0.000562569 -0.00156728 0.000579404
58 1 1.7123 10.1749 10.433 10.2104 -0.00016578 0.00158805 0.00633306
59 1 1.66402 8.55701 12.3576 11.9843 0.000431562 -0.00389751 0.00375813
60 1 1.73815 10.3206 13.9302 13.9049 -0.00248156 0.0031484 -0.00148722
61 1 1.71631 11.9325 8.66839 12.0955 -0.0015786 -0.00118475 0.0037515
62 1 1.78136 13.8305 10.3633 13.7954 -0.00649173 -0.00175228 0.00315216
63 1 1.92268 12.1087 12.1264 8.70374 0.000341952 -0.00276787 0.00179492
64 1 1.85952 13.7837 13.8008 10.5393 -0.0032852 0.00524245 -0.000549876
65 2 -0.892864 2.79539 2.01963 2.33054 -0.00599457 0.000146029 -0.00992221
66 2 -0.94432 2.27749 14.2823 14.8641 -0.00362766 0.000203409 0.00258814
67 2 -0.926776 15.0731 2.13166 14.727 0.00313244 0.00101182 -0.00749592
68 2 -0.992237 14.8342 14.8894 2.70233 -0.00671383 0.00030988 -0.00655668
69 2 -0.920777 2.33154 3.89917 4.18723 0.00568615 0.00141333 -0.000693338
70 2 -0.895287 4.44765 2.46511 4.16493 -0.00269532 -0.00509867 -0.00505067
71 2 -0.832505 3.93405 4.09882 2.24832 -0.00572744 -0.00098476 0.00234022
72 2 -0.902408 2.83775 5.66904 5.87265 0.00587897 0.00191374 0.00529554
73 2 -0.92242 15.0807 4.05942 6.26046 0.00392911 -0.0072158 0.000477949
74 2 -0.905858 15.0348 6.01353 4.58329 0.00155929 -0.00384063 -0.0036052
75 2 -0.851185 4.55798 5.84937 7.54013 -0.00134854 -0.00266439 0.00249042
76 2 -0.938842 4.34457 7.82328 5.89624 0.00247681 0.0016399 0.00280211
77 2 -0.892882 2.64627 7.71943 7.61153 0.00576167 -0.00124452 -9.44151e-05
78 2 -0.91375 6.17247 2.01601 6.0142 0.00446959 -0.00126193 0.000712163
79 2 -0.920349 4.05891 14.7827 5.76513 -0.00472254 0.000593369 -0.00130092
80 2 -0.96961 6.00003 14.482 4.14157 -0.00243342 0.0016832 0.0059091
81 2 -0.920243 6.17935 4.11407 7.31393 -0.002865 0.00872695 0.000228479
82 2 -0.880574 8.01617 3.74128 5.73763 0.00151392 -0.00144337 -0.00474639
83 2 -0.881243 8.16791 2.5042 7.77299 0.000797239 0.00205685 0.00316059
84 2 -0.890313 5.79045 5.37797 2.53716 -0.00484073 0.00861778 -0.000900438
85 2 -0.854739 4.12164 6.0067 14.8569 -0.000614826 0.00580387 -0.00151448
86 2 -0.952615 5.56504 3.76283 14.6306 -0.00267182 -0.0026802 -0.00186002
87 2 -0.868415 6.11565 7.63627 3.98219 -8.57203e-05 0.000568822 0.00545727
88 2 -0.836914 7.65161 5.88185 4.62955 -0.0041661 0.00142055 0.000379305
89 2 -0.772888 7.69625 9.17692 2.34593 0.00634065 0.000938925 -0.00227445
90 2 -0.792726 2.48459 1.5946 9.21583 0.00752074 -0.00542101 -0.00235707
91 2 -0.890011 2.11712 14.5102 7.22045 -0.00172708 0.000698581 0.00217018
92 2 -0.878037 14.4528 2.21654 7.94012 -0.00173077 -0.00310256 -0.00862479
93 2 -0.902418 14.5055 14.3805 9.33032 0.00107969 -0.00438565 -0.000382443
94 2 -0.738824 2.65898 4.56736 11.9666 -0.00288573 -2.32203e-05 0.00145186
95 2 -0.821289 3.84096 2.36417 11.2526 0.00268397 0.000660807 -0.00291306
96 2 -0.778209 4.29304 3.46961 8.81712 0.00115236 -0.00292456 0.00549428
97 2 -0.847026 1.99562 6.16168 13.5177 0.00145598 0.00090932 -0.00558731
98 2 -0.925399 14.6315 3.97938 13.063 0.00106878 0.00196926 -0.00327324
99 2 -0.90448 14.7473 5.99359 11.3631 0.00312996 -0.00191623 0.00594679
100 2 -0.794861 2.489 8.09456 14.646 0.00335936 0.00176795 0.00311889
101 2 -0.937592 4.04837 7.55947 12.7411 -0.000889959 0.00607518 0.00249433
102 2 -0.860751 5.92602 2.32687 12.6671 0.0025707 0.00145722 -0.000865059
103 2 -0.918597 3.97138 14.8671 13.1049 -0.00529318 0.00435334 0.00968045
104 2 -0.862283 5.57493 14.4537 11.1145 -0.00551401 -0.0060502 0.00974078
105 2 -0.977279 7.59517 2.15349 14.6225 -0.00216776 -0.00160306 -0.00455541
106 2 -0.904989 7.3915 4.20029 13.1259 -0.000687822 0.000372611 -0.00442712
107 2 -0.879438 6.12958 5.54826 9.40183 -0.00466418 -0.00428866 0.00459388
108 2 -0.921467 5.67467 7.69372 10.9539 0.0028053 -0.00288892 0.00268549
109 2 -0.818898 7.22652 5.867 11.4549 -0.00216446 0.00448144 -0.00120828
110 2 -0.834895 7.81676 7.50268 9.65816 0.00129834 0.00188718 0.00178658
111 2 -0.84903 2.50865 9.6715 2.19111 0.0032925 -0.00259633 -0.000137544
112 2 -0.930691 15.0013 7.57741 2.433 0.00272193 0.00247082 -0.00128896
113 2 -0.887924 14.4671 9.34787 14.7996 -0.00300772 -9.5759e-05 -0.00102283
114 2 -0.90551 2.37412 10.8541 4.29251 0.00308761 -0.0103555 0.0041954
115 2 -0.91986 4.29832 9.31861 3.89532 -0.0045158 0.00723675 0.00455055
116 2 -0.970157 4.25679 11.4451 2.57375 0.00186659 -0.00171841 -0.00425998
117 2 -0.90285 2.63826 12.8307 5.59612 0.00847966 0.00355114 0.00552043
118 2 -0.848905 14.5897 11.4292 5.95934 -0.00108329 0.0018872 0.00444685
119 2 -0.923831 14.7595 12.6835 3.91405 -0.00178619 0.000621153 0.00438944
120 2 -0.915254 4.32933 13.0636 7.51708 0.00410533 0.00349756 -0.000505581
121 2 -0.932235 6.19712 9.5063 5.51509 0.000649061 -0.00265076 0.00366774
122 2 -0.862176 6.026 11.3425 7.27199 0.00118789 -0.00270194 0.00875323
123 2 -0.889373 8.062 11.2522 5.89694 -0.00270442 -0.00300947 0.00453981
124 2 -0.813087 7.49192 9.53702 7.73302 -0.00316955 0.00426876 0.0020308
125 2 -0.928673 6.29702 12.9593 2.13154 0.00188297 0.00127534 0.00158609
126 2 -0.928298 4.39068 12.9223 14.6591 -0.00101251 -0.00806099 0.00332714
127 2 -0.877116 5.77047 11.0297 14.7711 0.00410671 -0.00145691 -0.00280676
128 2 -0.909819 7.91546 14.7861 2.64363 0.000164628 0.000935299 0.00045318
129 2 -0.882489 7.87863 12.8461 4.13274 -0.00867014 0.00106373 -0.00296136
130 2 -0.888801 2.27673 9.42009 9.37588 -0.00768384 0.00291684 -0.00558719
131 2 -0.891718 14.6665 7.70994 9.4886 0.00207317 -0.00389422 -0.00402551
132 2 -0.946551 14.9389 9.45488 7.54423 -0.00111617 0.00347403 -0.00346119
133 2 -0.877932 2.25265 11.3298 10.9748 -0.00577998 -0.00189789 -0.000611685
134 2 -0.923923 3.89455 9.48154 11.1814 0.00225741 -0.00120941 0.00336701
135 2 -0.939366 4.19864 11.1301 9.1698 -0.00430035 0.0018109 -0.00178167
136 2 -0.945261 2.70748 12.653 12.8947 0.00518021 0.00129301 -0.00195974
137 2 -0.914202 14.9459 10.9482 12.8873 0.00374879 -0.00286308 0.00260211
138 2 -0.962758 14.7445 13.0791 11.4757 -0.00554586 0.00766435 0.0007589
139 2 -0.902211 5.8262 9.34955 12.8583 -0.00311944 0.00220268 -0.000569485
140 2 -0.865215 7.89781 10.0214 14.2215 -0.00111733 -0.000844423 -0.00633711
141 2 -0.809265 7.21236 11.6296 12.5696 0.000875276 0.00359561 0.00193952
142 2 -0.895587 6.19122 12.8479 9.16395 -0.000798275 -0.0024796 0.000867838
143 2 -0.886317 7.4034 15.0203 9.40406 0.000993666 -0.00376138 -0.00164876
144 2 -0.861262 7.89649 13.3261 11.0433 0.00512562 0.00274715 0.00329792
145 2 -0.874718 9.19472 2.65654 2.43956 0.00569308 -0.00386955 0.000326534
146 2 -0.865869 9.68357 14.7991 15.0468 0.00287228 0.00448956 -0.00561353
147 2 -0.852706 9.93135 4.37727 4.24418 0.00343496 -0.00106808 0.00382702
148 2 -0.864243 11.4063 2.35439 3.91413 0.0047074 -0.00668948 -0.00074403
149 2 -0.704889 11.2419 4.20723 2.32291 -0.000159813 -0.00191402 0.0024533
150 2 -0.87076 9.5987 5.78312 6.24941 -0.000880429 0.00160902 -0.006504
151 2 -0.867672 11.3935 6.20075 7.93798 -0.00155074 0.00303028 0.00278022
152 2 -0.897667 11.2277 7.69956 5.73552 0.00426326 -0.0046787 0.0030304
153 2 -0.844342 9.68167 7.90099 7.74385 -0.00190515 0.000270024 -0.00189042
154 2 -0.911684 12.9662 2.64064 5.97176 0.00409599 0.00332834 0.00246043
155 2 -0.887179 11.3021 14.993 6.0829 0.000762279 0.00512368 -0.00166661
156 2 -0.897331 13.0947 14.6446 4.43263 -0.000808943 0.00665447 -0.000416692
157 2 -0.919539 13.1121 4.28962 7.90682 0.00603626 0.00390527 -0.00262678
158 2 -0.865762 13.2624 5.84507 2.89629 0.00568411 0.00587808 0.00250785
159 2 -0.74876 10.7515 6.03079 14.8526 -0.00264356 0.000206642 -0.00270115
160 2 -0.780778 13.5484 4.01124 15.2575 0.00171261 -0.000181231 0.0037504
161 2 -0.91627 13.4318 7.80154 4.54337 -0.00146188 2.76642e-05 -0.00262909
162 2 -0.923791 9.59588 2.18865 9.81175 0.00573799 -0.000452615 -0.000751124
163 2 -0.924915 9.63678 14.7421 7.99856 -0.005261 -0.00189331 0.0030567
164 2 -0.892005 9.2674 4.2938 11.1995 0.000142858 0.00296759 -0.00317944
165 2 -0.86821 11.3693 2.72986 11.4111 0.00372046 0.00182461 0.00177
166 2 -0.921149 11.0273 4.14783 9.39668 0.00178042 0.00141651 0.00288312
167 2 -0.898876 9.05492 6.16904 13.0099 -0.00619325 0.000762587 0.00647074
168 2 -0.936286 9.22093 8.05855 14.7298 -0.000308018 -0.00666433 -0.00534107
169 2 -0.865349 10.8387 7.87072 12.8123 0.00181664 -0.00170345 0.000205506
170 2 -0.886546 12.8249 2.26979 13.4129 0.00153045 -0.00242682 0.00489313
171 2 -0.900537 10.975 14.7847 12.7961 -0.000255663 0.0080059 -0.00217623
172 2 -0.923783 13.085 14.9663 11.325 0.00102508 0.00448331 -0.0016041
173 2 -0.887705 12.9379 5.79966 9.81033 -0.00044081 0.00775934 -0.00211747
174 2 -0.925778 12.9109 7.64735 11.456 0.000363877 -0.000797577 -0.00332242
175 2 -0.874536 9.72855 10.1894 2.10247 0.00669921 -0.000106396 -0.00508595
176 2 -0.871719 9.95506 11.3156 4.3644 0.00130955 -0.00370443 0.000111467
177 2 -0.887809 11.5427 9.3947 3.86132 -0.00503833 0.00579182 -0.00157093
178 2 -0.939948 11.5394 11.5527 2.41394 -0.00190814 0.00243832 0.0041709
179 2 -0.92992 9.65294 13.2587 5.92942 -0.000790021 0.00312539 -0.0033791
180 2 -0.945122 11.523 13.0512 7.62352 0.00118644 0.000832338 0.00244614
181 2 -0.867381 12.7825 9.7536 6.12152 0.00510909 0.00327021 -0.000250215
182 2 -0.913456 13.2282 11.3389 7.94874 -0.00098803 -0.0014705 -7.1472e-05
183 2 -0.895687 13.0637 13.3934 2.19949 -0.00119574 -0.00230585 -0.00212866
184 2 -0.955072 11.4093 13.0517 14.4652 -0.00908639 -0.00295855 -0.00316777
185 2 -0.914586 13.2959 11.5574 14.6118 0.00300119 0.00279226 0.00282817
186 2 -0.79404 9.05337 9.60769 9.50586 0.00147705 -0.00584615 -0.00563561
187 2 -0.871374 9.55098 11.3637 11.3171 0.00341194 0.00414672 0.000549012
188 2 -0.808196 11.2418 9.51048 10.9236 0.00121734 -0.00380061 -0.000911201
189 2 -0.945845 11.0105 11.2672 9.21995 0.00243151 0.00142762 0.00123672
190 2 -0.821419 9.10675 13.1366 13.232 -0.00305637 0.000902846 -0.00523355
191 2 -0.900877 12.7333 9.72273 12.9416 -0.000400938 -0.00432524 -0.00433818
192 2 -0.955036 12.778 12.8604 9.85197 -0.00720738 -0.00223078 -0.000724817
193 2 -0.605247 3.15567 6.43763 10.0906 0.000446266 -0.000482472 0.00160869
194 2 -0.673219 6.72894 7.10187 14.1698 0.00217779 0.00158039 0.00174586
195 2 -0.651853 14.1284 6.80221 7.12867 0.00081106 -0.00678484 -0.00237992
196 2 -0.721094 7.85454 6.35363 2.26822 -0.00221649 0.0029744 -0.0025484
197 2 -0.61487 12.2993 5.17378 5.12126 -0.00286657 -0.00390626 0.000208462
198 2 -0.714568 2.09674 3.85203 9.63025 -0.00576986 0.00333535 0.00155807
199 2 -0.656712 13.3047 6.20996 14.6042 0.00542103 0.0049095 -0.000386908
200 2 -0.576786 3.20655 10.3459 6.79662 0.00401776 -0.00362195 -0.00718051
201 2 -0.576186 11.8711 5.10713 12.3351 0.00592212 -0.00324044 -0.000370122
202 2 -0.650845 7.18313 7.16925 7.20386 0.000543619 0.00164734 -0.0044163
203 3 0.457109 2.642 3.62864 12.0827 0.020276 -0.0202196 0.0118582
204 3 0.426206 3.48716 6.91501 10.8902 -0.00434742 0.0284206 -0.00530565
205 3 0.428481 6.82859 8.07756 13.9854 -0.0061572 0.00206329 -0.00805239
206 3 0.443028 7.23514 6.54947 13.599 -0.0146302 -0.0322801 0.00808021
207 3 0.428687 14.317 6.98745 6.23585 0.00132082 0.0305522 -0.0239783
208 3 0.421066 13.7625 5.92266 7.06601 0.0107645 0.0294269 -0.00205101
209 3 0.504394 7.12499 9.13962 3.07363 0.00193253 -0.0375028 -0.00584311
210 3 0.449183 7.57947 6.89566 15.6019 -0.007974 -0.0231037 -0.00312751
211 3 0.403162 12.0755 6.1121 5.09554 0.0258023 0.0167636 0.0188941
212 3 0.465437 12.0256 4.85446 4.29401 -0.00732712 -0.00234147 -0.0128943
213 3 0.423688 15.5537 3.45409 8.98506 -0.0113581 -0.0141773 0.0170461
214 3 0.467354 2.56404 5.69693 10.3295 -0.00960016 -0.00669213 -0.014215
215 3 0.420089 10.0865 5.52075 15.4852 -0.00437432 0.00300061 0.0128394
216 3 0.437231 14.0937 6.69288 14.9585 -0.020637 -0.0216974 0.00763133
217 3 0.409002 3.37114 10.1146 7.71934 -0.00130321 -0.00494007 0.00181055
218 3 0.430114 2.6149 9.62709 6.59253 0.0197384 0.0201346 -0.00995913
219 3 0.425596 12.3918 5.77288 11.8247 -0.00131555 0.00151139 0.00739777
220 3 0.416435 12.4961 4.40434 12.3962 0.00653112 0.00838456 -0.0326149
221 3 0.408397 6.76526 6.48287 7.73961 -0.00391946 -0.0238291 -0.00322498
222 3 0.413549 7.7316 6.65353 6.53002 -0.00755177 -0.0177675 0.0139804
ITEM: TIMESTEP
12000
ITEM: NUMBER OF ATOMS
222
ITEM: BOX BOUNDS pp pp pp
1.5283364823527501e+00 1.5631663517647336e+01
1.5283364823527501e+00 1.5631663517647336e+01
1.5283364823527501e+00 1.5631663517647336e+01
ITEM: ATOMS id type q x y z vx vy vz
1 1 1.72552 1.73681 15.3601 1.55588 0.00314515 -0.00360018 0.0014685
2 1 1.74917 3.37134 3.09579 3.28878 -0.000642421 -0.00130195 0.00263299
3 1 1.67497 1.76293 4.97657 5.12529 -0.00332345 -0.000504875 0.000681778
4 1 1.62952 3.59556 6.67981 6.84463 -0.00370063 0.0012448 -0.00663575
5 1 1.76654 5.38007 15.5894 4.88703 0.00395899 -0.000401624 0.00323173
6 1 1.77511 7.17166 3.10257 6.61929 0.000566438 7.24785e-05 0.00520048
7 1 1.77006 4.97086 5.07145 1.64716 -0.00248416 -0.00191681 0.00720675
8 1 1.53769 6.71216 6.51956 3.62554 -0.00236439 -0.00555558 -0.00216568
9 1 1.72776 15.5475 15.2926 8.2967 0.00165962 -0.0046156 0.00136723
10 1 1.50786 3.59139 2.94682 9.68239 -0.00657861 0.000565699 0.00194826
11 1 1.68382 15.6019 5.23001 12.5717 -0.001982 -0.00266112 -0.00286258
12 1 1.68698 3.29115 7.07791 14.1263 0.00377141 -0.00267606 0.00153574
13 1 1.6194 4.93893 15.6186 12.0859 -0.00308656 -0.00051574 -0.00177144
14 1 1.81238 6.59396 3.23826 14.0231 0.0072043 0.00468286 -0.000279537
15 1 1.71359 5.48271 4.84045 8.34543 0.00115697 0.00130639 -0.000445038
16 1 1.71684 6.83451 6.53764 10.396 -0.00387645 -0.00467363 -0.00227155
17 1 1.725 15.5115 8.90682 1.55144 -0.00418706 -0.000423934 -0.00197458
18 1 1.73903 3.32561 10.5679 3.25009 0.00205332 0.000209706 -1.95454e-05
19 1 1.78125 15.506 12.1858 5.00508 -0.00439256 -0.00409753 -0.00526444
20 1 1.6949 3.42789 13.9099 6.5408 0.00260618 0.00133916 0.00738993
21 1 1.71561 5.08889 8.74383 5.05547 -0.000915461 0.00555575 -0.00110835
22 1 1.74767 6.86772 10.4457 6.8966 -0.0027475 0.00272745 -0.000452968
23 1 1.80011 5.04989 12.1741 15.4163 0.00363574 6.26939e-05 -0.00562079
24 1 1.75893 6.93851 13.7007 3.11189 -0.00294826 0.000609916 -0.00433278
25 1 1.5848 15.4885 8.37318 8.40957 -0.00338336 -0.00109636 0.0070152
26 1 1.82134 3.2353 10.175 10.226 -0.0028639 -0.00235976 0.00227897
27 1 1.95943 15.4805 11.8389 11.9365 0.00361721 -0.00299764 -0.00130236
28 1 1.82293 3.15626 13.6506 13.5982 -0.00120002 0.00196687 0.00496215
29 1 1.62349 5.06997 8.46828 12.0418 -0.00139612 0.00439709 0.00413422
30 1 1.67731 6.72589 10.5284 13.4989 -0.000477545 0.00266708 -0.00139683
31 1 1.773 4.92584 12.1394 8.60224 0.00297505 0.000638146 0.00343859
32 1 1.74782 6.70442 13.8614 10.3181 -0.00819329 -0.00239306 -0.00375697
33 1 1.98264 8.5735 1.70573 1.53916 -0.00034831 -0.00220403 0.00461351
34 1 1.73369 10.4607 3.37297 3.12138 0.00326009 -0.00111821 -0.00189346
35 1 1.58792 8.90558 5.05505 5.14991 0.000202525 0.00133761 -0.00240056
36 1 1.68926 10.5048 6.86808 7.10978 -0.00245947 -0.00025345 0.00407959
37 1 1.73171 12.1411 1.61804 5.11786 0.000480511 0.00504582 -0.00309892
38 1 1.75146 13.9236 3.41374 6.93741 0.00115608 0.00203406 -0.000121216
39 1 1.34202 12.7574 5.35712 15.5895 -0.00381461 0.00376877 0.000217577
40 1 1.67928 14.2078 7.00969 3.56838 -0.000227176 -0.00124989 0.00128341
41 1 1.77207 8.53697 15.4817 8.6129 -0.00432474 0.000634789 -0.00261933
42 1 1.75311 10.3672 3.04987 10.4248 -0.000226492 0.000877756 0.00363842
43 1 1.70323 8.53049 4.758 12.2315 -0.000359508 0.00143553 0.00155985
44 1 1.64039 9.99708 7.0014 13.6937 -0.00188073 -0.00456743 -0.00379468
45 1 1.758 12.2097 15.4621 12.2214 0.0014851 0.00198581 0.00126014
46 1 1.72129 14.0225 3.09668 14.0784 0.00296398 5.01039e-05 -0.00123036
47 1 1.79598 12.1438 4.96893 8.84926 0.00254753 0.000160068 -0.00692658
48 1 1.68101 13.8922 6.76498 10.5811 0.00280658 -0.000900622 -0.00296609
49 1 1.63938 8.74157 9.17872 15.3903 -0.00561239 -0.00293817 0.0033934
50 1 1.82946 10.661 10.3999 3.28265 0.000741002 0.000599629 -0.000182945
51 1 1.72537 8.64355 11.9677 4.95494 0.00537117 0.00197792 0.00514255
52 1 1.78828 10.2893 13.8785 6.67376 0.00246843 -0.00727565 -0.000562865
53 1 1.74076 12.1924 8.63187 5.27791 -0.00333192 0.00213118 -0.00561671
54 1 1.79434 13.886 10.5021 6.8915 -0.00142853 0.00175661 0.00541101
55 1 1.8032 12.0177 12.3129 15.5039 -0.00515473 0.00399931 -0.00286721
56 1 1.80446 13.7265 13.9401 3.2442 0.00351842 0.00183188 0.0022423
57 1 1.74015 8.46775 8.56737 8.65151 -0.00287111 0.00194655 -0.00224045
58 1 1.81537 10.301 10.4197 10.2947 0.000127094 -0.00013938 0.00378219
59 1 1.80249 8.52375 12.2249 11.9192 -0.00234277 0.00237046 -0.000811097
60 1 1.83019 10.0989 13.9873 13.8278 0.00347605 0.00668372 0.00168722
61 1 1.94608 11.9437 8.50068 12.0135 -0.00020514 0.00166051 -0.00102659
62 1 1.84959 13.5603 10.3677 13.7082 -0.000347042 -0.0024409 -0.00464769
63 1 1.90919 11.9857 12.2129 8.48959 0.0054765 -0.000658416 0.00401312
64 1 1.81182 13.8048 13.7131 10.2738 0.0012507 -0.000525104 0.000633211
65 2 -0.873095 2.78567 1.91805 2.49343 -0.00010715 0.000748963 -0.00461197
66 2 -0.91494 2.25835 14.3526 14.6631 0.00108815 -0.00806223 -0.0045119
67 2 -0.832998 15.2158 2.38181 14.6647 0.00268032 0.00153307 -0.000981384
68 2 -0.865249 14.6371 14.9598 2.46512 -0.00492187 -5.89495e-05 -0.00290098
69 2 -0.862325 2.33496 3.82209 4.20808 0.00372127 -0.00601291 -0.00351687
70 2 -0.874112 4.61264 2.56305 4.04131 -0.00126382 -0.00123252 0.00214744
71 2 -0.868552 3.89951 4.11614 2.21985 0.000180765 0.00613825 0.00459362
72 2 -0.82394 2.90191 5.53418 5.97641 0.000980868 0.000554932 -0.00207888
73 2 -0.869952 14.9724 4.36689 6.29887 0.00172754 -0.000962331 -0.00398246
74 2 -0.901887 15.1807 6.21956 4.51569 -0.00142018 -0.00825821 -0.00806635
75 2 -0.887168 4.61027 6.01062 7.8241 0.0132455 0.00219044 0.00257929
76 2 -0.879925 4.40682 7.55342 5.85757 0.00459829 -0.00179704 0.0048846
77 2 -0.79342 2.45741 7.57151 7.47951 -0.000771776 -0.000437477 -0.000344778
78 2 -0.90993 6.45666 1.96729 5.88978 -0.00224169 -0.0051998 -0.00123893
79 2 -0.854553 4.23306 14.9759 5.70462 0.00420453 -0.00491485 -0.00134189
80 2 -0.902765 5.94598 14.455 4.0352 -0.000173215 -0.00541117 -0.0067975
81 2 -0.920655 6.40731 4.27421 7.27455 -0.00533775 0.000631864 -4.30409e-05
82 2 -0.801105 8.27381 3.72449 5.66585 -0.00215109 0.00162841 0.001684
83 2 -0.913559 7.97583 2.44753 7.73408 -0.00286699 -0.0031188 -0.00639437
84 2 -0.854943 5.81703 5.50101 2.85751 -0.00933099 0.00847941 0.00242274
85 2 -0.877975 4.27835 6.32003 15.1495 -0.000574202 0.00209333 0.00736414
86 2 -0.949384 5.81851 4.33296 14.6896 -0.00305214 -0.00168711 0.00461509
87 2 -0.854015 6.00237 7.83015 4.22275 -0.00392673 -0.00402046 -0.00168113
88 2 -0.840585 7.58615 5.84938 4.75102 -0.00282236 -0.00671545 0.00609247
89 2 -0.804667 7.57034 9.10554 2.25841 -0.00410464 0.00600236 0.00239606
90 2 -0.8155 2.6212 1.84923 9.1073 0.00728973 -0.00301322 4.2856e-05
91 2 -0.861008 2.22026 14.6641 7.13222 0.0016613 0.00567849 0.000540086
92 2 -0.90947 14.7392 2.4478 7.84617 0.000959604 0.00277285 0.0025419
93 2 -0.909764 14.761 14.3272 9.19278 0.00212289 -0.000578182 0.00499495
94 2 -0.795335 2.79458 4.53986 12.1896 0.00431775 0.00158403 0.000214206
95 2 -0.844737 4.16423 2.4727 11.0819 -0.00391263 0.00257725 -0.000708252
96 2 -0.814544 4.67038 3.4822 8.71724 -0.00200171 0.00203042 0.00339335
97 2 -0.892966 2.21081 6.18161 13.5959 -0.00262043 -0.00538495 0.0024409
98 2 -0.863454 14.6883 4.03609 13.0357 0.00636758 -0.00112761 0.00604997
99 2 -0.928142 14.9683 5.93148 11.3866 0.00330371 0.000767158 -0.00155763
100 2 -0.835609 2.40581 8.28329 14.6162 -0.00362105 -0.000119342 0.00189837
101 2 -0.927913 4.26152 7.57415 13.019 -1.496e-05 0.00154895 -0.00205008
102 2 -0.869195 5.5397 2.35993 13.2726 -0.00246225 -0.000514336 -0.00545958
103 2 -0.830188 3.77598 14.7737 12.7317 0.00132092 -0.00592924 -0.00137084
104 2 -0.865065 5.98454 14.6123 11.4541 0.000201985 -0.00433793 0.000399954
105 2 -0.973451 7.4281 2.44417 15.0357 -0.00206869 -0.000268399 -0.00211906
106 2 -0.911922 7.70479 3.76095 13.0391 0.00225916 -0.00248922 0.00168347
107 2 -0.943746 6.21621 5.49615 9.5153 -0.00165404 -0.00390512 -0.0054591
108 2 -0.899552 5.78145 7.46519 11.0602 0.00758258 0.00224354 0.00722674
109 2 -0.891803 7.55805 5.82808 11.5927 -0.0008559 0.000659028 0.00127474
110 2 -0.832308 7.88418 7.4934 9.61495 -0.00202841 -0.00100485 0.00091617
111 2 -0.87653 2.36636 9.83309 2.30351 0.00136626 -0.000498491 -0.00105748
112 2 -0.949637 14.8599 7.88359 2.49047 0.00405457 0.00280625 -0.0101857
113 2 -0.901185 14.3879 9.64395 14.8098 -0.000387994 -0.00761394 -0.00465048
114 2 -0.890307 2.24689 11.1352 4.24911 0.00678252 -0.00337885 -0.0057073
115 2 -0.885365 4.33815 9.5668 3.95389 -0.00322682 -0.00916088 -0.00248007
116 2 -0.910406 4.06169 11.6147 2.4207 -0.00383088 0.00261967 0.00564815
117 2 -0.883376 2.64088 12.9008 5.64358 0.00228933 -0.000545623 -8.42827e-05
118 2 -0.976794 14.5481 11.5201 5.96322 0.00382356 0.00317467 0.000269918
119 2 -0.930744 14.6047 12.976 4.02641 0.00342277 0.000806226 0.00412539
120 2 -0.872972 4.10728 13.1409 7.75327 0.00646041 -0.00320763 0.000569734
121 2 -0.916534 6.10434 9.56714 5.84795 0.0017985 0.00414281 0.00735651
122 2 -0.903847 5.86649 11.4575 7.60912 0.00179617 -0.00110726 0.000150263
123 2 -0.880827 7.97289 11.1868 6.13166 -9.93347e-05 8.35928e-05 -0.000760912
124 2 -0.893588 7.58408 9.65136 7.99992 0.0051416 0.00596499 -0.000126678
125 2 -0.900837 6.14062 12.9825 1.98689 -6.04318e-05 -0.0057084 0.00262401
126 2 -0.899922 4.29783 13.0197 14.3577 0.00456785 -0.00380453 -0.0021984
127 2 -0.897729 5.72201 11.1415 14.509 0.00245621 0.00433298 -0.00358923
128 2 -0.889421 7.91707 14.7319 2.48779 -0.000789476 0.00218737 0.00196119
129 2 -0.873771 7.6881 12.5776 3.93482 0.00164504 -0.000275817 0.00136702
130 2 -0.856318 2.45033 9.22011 9.30927 0.0034503 0.00402738 0.0012091
131 2 -0.84035 14.4956 7.66658 9.46436 0.00150877 0.00451049 0.0043088
132 2 -0.87401 14.9125 9.55839 7.4861 -0.0014097 -0.00746927 -0.001874
133 2 -0.928758 2.20899 11.0514 10.9183 0.00222559 -0.00366931 -0.000263681
134 2 -0.89074 4.21768 9.54388 11.2543 0.00156481 -0.00387444 -0.00635439
135 2 -0.939011 3.96612 11.1166 9.29396 -0.00339528 -0.00138087 -0.000552386
136 2 -0.947026 2.43124 12.5449 12.7902 -0.00125024 -0.000291131 0.00175491
137 2 -0.982106 14.5679 10.912 12.7102 0.000505036 0.000124285 -0.0112113
138 2 -0.974413 14.5859 12.8055 11.2225 -0.000510598 -0.00290511 -0.00370451
139 2 -0.86083 6.13808 9.14646 12.9605 0.0020626 0.0020062 -0.00494092
140 2 -0.758232 8.07916 10.1243 14.2947 0.00696561 -0.00280909 0.00292135
141 2 -0.926623 7.38163 11.389 12.4294 -0.00647673 0.00975806 -0.000941805
142 2 -0.872637 5.61094 12.906 9.75582 -0.0024825 0.00471321 0.00151689
143 2 -0.864003 7.30141 14.7192 9.14561 -0.00114539 0.000557569 -0.00733882
144 2 -0.905521 7.93229 13.1483 10.852 0.00728052 -0.00133179 -0.000408858
145 2 -0.990193 9.4247 2.53259 2.41234 -0.000399836 0.00104483 0.0035347
146 2 -0.978739 9.37257 15.119 14.5639 -0.00205661 0.0104957 -0.00655161
147 2 -0.886715 9.89013 4.45351 4.05379 0.00530403 -0.00508386 -0.010012
148 2 -0.872743 11.4416 2.52067 4.03869 -0.000191549 -0.00049252 0.00579868
149 2 -0.722374 11.2037 4.17774 2.05815 0.00365983 0.00615561 -0.00255539
150 2 -0.910827 9.77606 5.78338 6.23153 0.0050415 0.00200402 -0.00937834
151 2 -0.887184 11.3384 6.04449 8.19934 0.00558708 -0.000796501 0.000817953
152 2 -0.922991 11.448 7.5369 6.05157 -0.000125445 0.00219347 0.00781906
153 2 -0.870729 9.64358 7.93207 7.753 -0.00103941 -0.00206415 0.0153669
154 2 -0.902893 13.1758 2.47709 5.95288 -0.007037 -0.00524999 -0.00755756
155 2 -0.856206 11.0064 15.1374 6.02191 0.00921097 0.00198524 -0.00235789
156 2 -0.907027 12.8092 14.6824 4.26602 0.00348606 0.000499363 -0.00377294
157 2 -0.965929 13.114 4.38398 7.81685 0.00147571 0.00559281 -0.00314121
158 2 -0.819131 13.3874 5.90045 2.7854 -0.00238694 0.00399346 -0.000480257
159 2 -0.709051 10.8305 6.31795 14.9709 0.00504829 -0.00336062 0.00137993
160 2 -0.796997 13.406 3.98742 15.141 -0.00467481 -0.00621885 -0.00206915
161 2 -0.8904 13.4299 7.94067 4.53087 0.00590615 -0.00235878 0.0054701
162 2 -0.887973 9.51639 1.96505 9.75103 -0.00150809 0.00442351 -0.00789982
163 2 -0.864051 9.27623 14.4731 7.69472 0.00195051 0.00385416 0.00373534
164 2 -0.890136 9.52247 4.05275 11.2373 -0.00144538 0.00587511 0.00337979
165 2 -0.89978 11.4066 2.39819 11.4 0.00532148 -0.00486365 0.00710426
166 2 -0.893178 11.1712 3.868 9.37453 -0.00351464 0.00143105 0.00258274
167 2 -0.881953 9.20772 5.72627 13.2332 -0.00427566 0.00390544 -0.00469356
168 2 -0.870989 9.09296 7.98351 14.4921 -0.00426959 -0.00209002 0.00351062
169 2 -0.938741 10.7607 7.84986 12.7162 0.000263645 0.00717189 -0.00437239
170 2 -0.90631 13.0085 2.26237 13.205 -0.0076574 -0.000329355 -0.00183951
171 2 -0.930092 11.1775 14.5407 12.8396 -0.0057773 -0.00238784 -0.0012263
172 2 -0.855856 13.2793 14.8364 11.253 0.00371025 0.00174808 0.00135011
173 2 -0.898429 12.921 5.61442 10.0338 0.00145915 0.00156985 -0.00034606
174 2 -0.996203 12.9639 7.52262 11.5301 -0.00050507 0.00519031 0.00356351
175 2 -0.881819 9.94268 9.69776 2.18051 0.00498459 -0.00677761 0.00207841
176 2 -0.880348 9.48193 10.9974 4.04022 -0.00199345 -0.0022391 0.00101804
177 2 -0.902001 11.3776 9.31132 4.13993 -0.00355018 0.000727062 0.00300996
178 2 -0.916681 11.544 11.4756 2.62185 0.00208803 -0.000441517 -0.00160854
179 2 -0.891704 9.56456 13.0879 5.60352 -0.00283064 0.00354853 0.000345393
180 2 -0.985499 11.3357 13.0498 7.45377 -0.0115585 -0.0043078 0.0102646
181 2 -0.912221 12.7745 9.68762 6.21708 -0.0026294 0.00126401 -0.000361747
182 2 -0.890554 13.0693 11.2112 8.04309 0.00561309 -0.00378973 -0.000963514
183 2 -0.919499 12.9011 13.3346 2.1058 -0.0029138 0.00336821 0.00181487
184 2 -0.888471 10.7769 13.0056 14.8355 -0.00296275 -0.00244535 0.00131731
185 2 -0.92191 12.7611 11.4966 14.4529 0.00162585 0.000684355 0.00229401
186 2 -0.835446 9.29545 9.46481 9.62873 -0.000605452 0.00551224 0.000575771
187 2 -0.893305 9.73607 11.3838 11.3346 0.00159964 -0.00127174 0.00308228
188 2 -0.892508 11.2669 9.38148 10.9592 0.00326611 0.00537683 0.00203531
189 2 -0.895629 10.9818 11.2837 9.21027 -0.00242605 0.00649136 -0.00264737
190 2 -0.886658 9.10335 13.2007 13.004 0.00158621 0.000156752 -0.00381551
191 2 -0.967839 12.545 9.49183 12.9903 -0.000220166 -0.00376992 0.00268807
192 2 -0.962066 12.6176 13.1025 9.53824 0.00261301 0.00104663 -0.00579135
193 2 -0.585758 3.35438 6.49243 10.3196 -0.00277406 -0.0130231 -0.00478083
194 2 -0.637688 6.83966 6.86162 14.3518 -0.00441962 -0.00131788 0.00254383
195 2 -0.644057 14.1751 6.9727 7.10426 -0.00691431 0.00149776 3.24506e-05
196 2 -0.704804 7.85236 6.73153 2.57017 0.00243454 -0.000841052 0.00351265
197 2 -0.625809 12.2977 5.01752 5.16591 -0.000590427 0.00137393 -0.00274097
198 2 -0.706647 2.48467 4.12169 9.61565 0.00103972 0.00321587 0.00245807
199 2 -0.642624 13.3563 6.43042 14.5584 -0.000987042 0.0122584 0.00110638
200 2 -0.620988 3.44466 10.0657 6.6186 0.00402885 0.000407417 -0.00326046
201 2 -0.609754 11.8993 4.89969 12.5131 -0.00504486 -0.00458225 -0.00158315
202 2 -0.659148 7.1232 7.20804 7.17038 -0.00243557 0.00337853 -0.00595913
203 3 0.48345 3.37488 3.80807 12.4328 -0.0159358 0.00885247 0.00187108
204 3 0.418362 3.97608 6.61536 11.0264 0.0148181 -0.0343564 -0.00635521
205 3 0.437426 6.11345 7.36865 13.932 0.0106669 -0.0150495 0.00601212
206 3 0.442609 7.31829 6.49839 13.5915 0.00635937 0.00422212 -0.00503882
207 3 0.443281 14.1634 7.00946 6.10598 0.0153319 -0.016704 0.0118821
208 3 0.443619 14.2849 6.07338 7.33495 0.0189948 0.0278116 0.0149834
209 3 0.491658 6.87761 9.25086 2.88992 0.0182633 -0.0180649 0.0186713
210 3 0.481921 7.72005 7.22501 1.76721 0.00228118 -0.00135865 0.00624942
211 3 0.439608 11.6362 5.65595 5.35029 0.0251573 -0.00422083 -0.00400602
212 3 0.42451 11.8493 4.26833 4.80203 -0.0150357 0.0346016 -0.00380413
213 3 0.436057 1.69267 3.78571 9.12912 -0.0219616 -0.00843304 -0.0285818
214 3 0.463227 2.71258 5.75224 10.5352 0.0202061 -0.0107681 -0.00101274
215 3 0.443804 10.4342 5.4322 15.4468 0.0122323 0.0232322 0.00766939
216 3 0.407681 13.6196 7.27225 15.0247 -0.0249166 0.0223561 0.00287201
217 3 0.42212 3.34225 10.0757 7.65344 0.00418518 -0.0023338 0.0118407
218 3 0.423367 2.72627 10.5186 6.20166 -0.0035478 0.00325566 -0.0115328
219 3 0.450027 12.4664 5.42016 11.9783 -0.00582584 0.00295018 -5.57818e-05
220 3 0.43708 12.1738 3.96561 12.4175 0.00917373 -0.0234028 -0.00908126
221 3 0.419523 6.13744 7.17825 6.89182 0.0074499 -0.00646195 -0.00354024
222 3 0.434675 7.63678 6.76654 6.54942 -0.0395043 -0.0324952 0.0100927
ITEM: TIMESTEP
13000
ITEM: NUMBER OF ATOMS
222
ITEM: BOX BOUNDS pp pp pp
1.5074705647685187e+00 1.5652529435231568e+01
1.5074705647685187e+00 1.5652529435231568e+01
1.5074705647685187e+00 1.5652529435231568e+01
ITEM: ATOMS id type q x y z vx vy vz
1 1 1.81955 1.5709 15.4625 1.62544 -0.00227362 0.00128136 0.00179424
2 1 1.85933 3.38729 2.94795 3.40475 0.000970032 -0.00229909 -0.000927548
3 1 1.71706 1.77624 4.7647 5.22415 -0.000619355 0.00437406 0.00426445
4 1 1.69927 3.5353 6.59797 6.83369 0.00142308 0.00493336 0.00640239
5 1 1.83182 5.38648 15.5536 5.06133 -0.000386198 -0.00230046 0.000986198
6 1 1.73146 7.33159 3.21178 6.73517 -0.000507395 0.00236164 0.00441292
7 1 1.78138 4.86596 4.85956 1.55865 -0.00206502 -0.000414961 0.00206244
8 1 1.48581 6.58927 6.29226 3.53788 -0.00149837 0.000383691 -0.000985308
9 1 1.62317 15.4012 15.3343 8.4432 -0.000665596 0.00354947 0.00400579
10 1 1.49189 3.47229 2.84117 9.70851 -0.00121059 -0.00133573 0.00241129
11 1 1.60843 15.4883 5.1454 12.4618 -0.00118196 0.00077913 0.000725233
12 1 1.69509 3.26507 6.9005 13.9834 -9.34164e-05 -0.00120404 0.000190182
13 1 1.74026 4.76927 15.6899 12.1104 0.00117803 0.000388624 -0.00398315
14 1 1.75757 6.66191 3.11861 13.9819 0.000605345 0.0031208 -0.00394126
15 1 1.71145 5.42174 4.80344 8.38024 -0.00455251 0.000619787 -0.00400656
16 1 1.77056 6.78186 6.69333 10.4048 0.000940636 -0.00117282 -0.000860268
17 1 1.86487 1.4747 8.70451 1.49826 -0.000608433 0.00393935 0.00209261
18 1 1.69229 3.35003 10.4504 3.16232 -0.0038545 9.27104e-05 -0.00511705
19 1 1.73063 1.56625 12.2471 4.8438 0.00412618 0.00108455 -0.00127823
20 1 1.84352 3.29656 13.9833 6.5912 -0.00790255 0.00112633 0.000259515
21 1 1.50935 5.05662 8.64073 5.00626 0.00104518 -0.00200611 -0.00439778
22 1 1.67403 6.85526 10.5232 6.77682 0.00266899 -0.00550516 -0.000160635
23 1 1.75345 5.07986 12.2156 15.5323 -0.00279196 -0.00380409 0.00152587
24 1 1.88809 7.05234 13.7223 3.2811 -0.000208003 -0.000780846 -0.00336487
25 1 1.55724 15.6134 8.44677 8.33714 0.000791452 0.00240052 0.00500337
26 1 1.7686 3.1956 10.3444 10.0873 -0.000539825 0.00102058 -0.00075636
27 1 1.79824 15.651 11.8736 12.0678 -0.00421056 0.00110132 -0.000577006
28 1 1.77909 3.12049 13.7421 13.8296 -0.000294813 -0.00232903 -0.00170636
29 1 1.70133 4.9513 8.60271 11.9628 0.00240896 0.00263013 0.00429306
30 1 1.83267 6.56243 10.5299 13.5454 0.00636516 -0.00152861 0.00402231
31 1 1.81096 4.93386 12.2515 8.44074 0.00376414 0.00181011 0.000833991
32 1 1.87761 6.6168 14.0099 10.3137 -0.00224256 0.00201595 -0.00303695
33 1 1.90727 8.56313 1.54072 1.53977 0.00118069 -0.00353241 0.00123355
34 1 1.7536 10.4489 3.36421 3.04137 -0.000421999 -0.00184439 -0.00524565
35 1 1.64799 8.98183 5.13377 5.06115 0.00125753 0.00114913 -0.002652
36 1 1.79439 10.519 6.99261 6.96566 -0.00108184 0.00608511 -0.000900666
37 1 1.77134 11.9877 1.64068 5.10635 -0.0027817 -0.00356491 -0.0035778
38 1 1.76858 13.8022 3.3219 6.91154 -0.00164285 -0.00104647 -0.00156202
39 1 1.2966 12.6971 5.25451 1.54898 -0.00163401 -9.22905e-05 -0.00295275
40 1 1.6919 14.3647 6.80904 3.5587 -0.000715934 -0.00315965 0.000632931
41 1 1.82393 8.70534 15.5188 8.75071 -0.000634952 -0.00116868 0.000953447
42 1 1.70337 10.4079 3.19058 10.5074 0.00244217 -0.00193112 0.00110522
43 1 1.65481 8.51812 4.89274 12.1806 -0.000753692 -0.00164035 0.00483105
44 1 1.54103 9.97256 7.02276 13.7537 -0.00141266 -0.00275312 0.00202331
45 1 1.79105 12.1018 15.5698 12.3246 0.000933551 0.00190747 0.0023191
46 1 1.74949 14.0599 3.06492 14.0635 0.00144142 0.00511038 0.0038821
47 1 1.72984 12.121 5.09937 8.77048 0.00275702 0.00218351 -0.00200632
48 1 1.76352 13.821 6.89869 10.5244 0.0024119 -0.00286758 -0.00518723
49 1 1.75792 8.7194 9.30746 15.3374 -0.0044371 0.00270272 -0.00303886
50 1 1.79864 10.6738 10.3498 3.21608 0.00419973 0.000640827 -0.00425178
51 1 1.89306 8.80439 11.9729 5.00889 -0.00285793 -0.00146905 -0.00139222
52 1 1.73938 10.3487 13.8306 6.79952 0.000921236 0.000519668 -0.000395109
53 1 1.71782 12.2926 8.57965 4.99743 -0.00116327 0.0028615 0.000283827
54 1 1.64608 13.9739 10.5137 6.69277 -0.00309693 -0.000360762 -0.00324357
55 1 1.7545 12.1022 12.2533 15.6277 -0.00134181 -0.00338414 0.00334605
56 1 1.7315 13.6902 13.9891 3.29811 0.00354478 -0.000867543 0.00370855
57 1 1.61867 8.46937 8.51887 8.59495 -0.00132323 -0.00250939 -0.00397774
58 1 1.78267 10.3008 10.3977 10.3049 0.00141461 -0.00122082 -0.00437704
59 1 1.84209 8.47193 12.2041 11.9304 -0.00094291 -0.00150014 0.0022422
60 1 1.7708 10.1475 13.8421 13.8409 -0.00241788 0.00120918 0.00288782
61 1 1.83612 12.0492 8.68376 12.1452 -0.000119229 0.004785 0.00115942
62 1 1.87348 13.776 10.4037 13.9179 -1.91876e-06 0.00468002 -0.00168843
63 1 1.69573 12.1181 12.1148 8.53659 0.00122022 -0.00207401 -0.00221614
64 1 1.7751 13.7259 13.7471 10.4674 -0.000440317 -0.0013538 -0.00195239
65 2 -0.895483 2.64486 1.89163 2.584 -0.00304485 0.00842645 0.00127061
66 2 -0.917527 2.2272 14.3305 14.9577 -0.000263171 0.00260538 0.00336982
67 2 -0.953239 15.1226 2.31855 14.7951 0.00767508 0.00671264 -0.00946239
68 2 -0.866074 14.5231 15.0598 2.52782 -0.00310133 0.00243737 0.00535933
69 2 -0.913541 2.37123 3.64851 4.31419 -0.000236838 0.00304287 0.00025515
70 2 -0.943866 4.56744 2.31303 4.1262 -0.00191497 0.000730551 -0.00033616
71 2 -0.895325 3.90876 3.92699 2.32604 0.00700794 0.00367554 0.00152097
72 2 -0.899824 2.92663 5.51409 5.98498 -0.00640044 -0.000947924 0.000159824
73 2 -0.951779 14.8048 4.15282 6.11148 -0.00468993 -0.00125706 0.00131979
74 2 -0.884301 15.3116 6.01575 4.50816 -0.000512014 0.00278449 0.00293408
75 2 -0.891909 4.56184 5.9406 7.78176 0.00813201 0.000208993 0.00461877
76 2 -0.823108 4.48178 7.41932 5.88738 0.00194044 0.000461605 0.0035873
77 2 -0.888931 2.55926 7.60294 7.54132 -0.00316323 0.0011509 0.0023627
78 2 -0.881649 6.46846 2.10507 5.92723 -0.000265493 0.00978642 -0.00269615
79 2 -0.928681 4.34335 14.8636 5.95662 0.00257485 0.00139911 -0.00213008
80 2 -0.920099 6.0795 14.4841 4.1835 0.000341172 0.00769974 0.00105899
81 2 -0.94998 6.45038 4.28686 7.37541 0.00111734 -0.000160903 0.00132448
82 2 -0.865101 8.36301 4.0136 5.92848 -0.00234724 -0.00202322 -0.000888116
83 2 -0.883035 8.24345 2.43384 7.71887 0.00513867 0.000994636 0.00032746
84 2 -0.871764 5.51272 5.57411 2.76017 -9.98393e-05 0.000340146 0.00544947
85 2 -0.893107 4.20778 5.99304 14.8502 0.00186865 -0.00319134 -0.0039996
86 2 -0.923349 5.93936 4.04624 14.937 0.00716516 0.00551941 -0.00157394
87 2 -0.75881 6.0006 7.76157 4.04724 -0.000732903 -0.000395728 -0.00204473
88 2 -0.82262 7.61177 5.77839 4.64841 -0.00284991 -0.00462128 0.00172238
89 2 -0.806374 7.70825 9.0402 2.27512 0.000689642 -0.00148813 -0.000137877
90 2 -0.810769 2.4614 1.70459 9.30228 0.00174094 -0.00365053 -0.00217578
91 2 -0.849766 2.04607 14.7447 7.22661 -0.00419108 -0.00617961 0.000913555
92 2 -0.890332 14.638 2.50576 7.93505 0.00558317 0.00593695 -0.00237312
93 2 -0.859977 14.4687 14.438 9.31813 0.00542296 -0.000994733 -2.71389e-05
94 2 -0.726095 2.73704 4.52883 12.0471 -0.00241515 -0.00508872 0.00828001
95 2 -0.887153 3.95427 2.4065 11.141 0.00304118 0.00604609 0.00260131
96 2 -0.854556 4.57871 3.56238 8.81452 -0.00114806 0.00211981 -0.0048818
97 2 -0.861099 2.0323 6.10905 13.4628 -0.003429 -0.00618245 -0.00160796
98 2 -0.952687 14.7237 3.96412 13.0271 0.0049533 -0.000726761 -0.00525516
99 2 -0.884042 14.8052 5.95149 11.2764 0.00185262 0.00268783 -0.00334368
100 2 -0.86711 2.53088 8.0276 14.7987 0.000801188 0.00278173 -0.00476285
101 2 -0.878269 4.2049 7.61481 12.9466 0.00314711 0.000346107 -0.0016194
102 2 -0.866342 5.51918 2.34722 13.2021 0.0028064 -0.00237647 0.000815025
103 2 -0.85673 3.73218 14.7421 12.8103 0.00157608 0.000911591 0.00647064
104 2 -0.905135 5.73171 14.7228 11.3391 0.00176115 -0.00231594 0.00267141
105 2 -0.954228 7.45471 2.13841 14.8821 0.00291613 -0.00824864 -0.00177751
106 2 -0.848262 7.58868 3.75592 12.8804 0.00580316 -0.00307055 -2.52659e-05
107 2 -0.907265 5.93689 5.68796 9.5532 -0.00436613 0.00103024 0.00201667
108 2 -0.921724 5.75484 7.6218 11.0336 0.00115012 0.00284122 -0.00343796
109 2 -0.910619 7.53612 5.93752 11.499 -0.00317407 -0.00620707 -0.000518694
110 2 -0.852595 7.78568 7.47574 9.52758 0.000139762 -0.000740359 -0.0056466
111 2 -0.875212 2.31171 9.73211 2.16911 0.00225089 0.00165431 -0.00942976
112 2 -0.942712 15.1609 7.59971 2.44871 -0.000295883 -0.00170577 9.16521e-05
113 2 -0.940459 14.6012 9.39144 14.7159 0.00684301 0.00234914 0.00799401
114 2 -0.865315 2.3667 11.0983 4.21815 -0.00257986 -0.00294436 -0.000620434
115 2 -0.811679 4.12375 9.32343 3.90936 0.000824941 -0.00356955 -0.000750474
116 2 -0.904324 4.11999 11.5367 2.40427 0.0040035 0.00315315 0.00332666
117 2 -0.883442 2.65649 13.2088 5.43059 -0.00201629 0.00174968 0.00324568
118 2 -0.873064 14.9821 11.4953 5.99678 0.000154214 -0.0035106 -0.00191592
119 2 -0.890062 14.6759 12.9853 3.96372 -0.00295576 0.00566882 -0.00519081
120 2 -0.952623 4.00946 13.162 7.61533 -0.0032422 -0.0009338 0.00213972
121 2 -0.84478 6.17764 9.56261 5.7148 -0.010739 -0.00299547 0.00921658
122 2 -0.875437 5.91488 11.5866 7.40666 -0.00122906 0.00945273 -0.00265809
123 2 -0.912277 8.00599 11.2735 6.10297 0.00605004 0.00226259 0.00249891
124 2 -0.79732 7.36456 9.58349 7.935 0.00252124 -0.00889458 0.00022632
125 2 -0.879439 6.20646 12.9173 2.26981 -0.000763591 0.00418268 -0.00164943
126 2 -0.848745 4.35228 13.1969 14.554 -0.00482276 0.00416373 0.00306353
127 2 -0.939181 5.60328 11.2285 14.4871 0.00239527 0.00084838 -0.00311632
128 2 -0.944037 7.9759 14.6802 2.59311 -0.000796632 -0.00176492 -0.00183475
129 2 -0.96197 7.83172 12.6594 4.09912 0.0058936 -0.000584763 0.00122627
130 2 -0.850032 2.30326 9.56772 9.1119 0.00112115 0.000459789 0.00122855
131 2 -0.767547 14.777 7.72393 9.55479 0.00132426 0.00122102 -0.000299176
132 2 -0.820237 14.931 9.40629 7.189 -0.00543928 0.000308684 0.00593124
133 2 -0.869018 2.21695 11.2755 10.869 -0.00060994 -0.000898311 -0.000809985
134 2 -0.866941 3.87245 9.52938 11.2204 0.00214779 0.00625639 -0.000126973
135 2 -0.933157 4.17993 11.272 9.35654 -0.00125199 -0.0105243 -0.00233878
136 2 -0.903877 2.44443 12.5671 13.0911 0.00417684 0.000258567 0.000237622
137 2 -0.940249 14.5764 11.019 12.7703 0.00322324 0.00115841 0.00223089
138 2 -0.848871 14.8223 12.9876 11.3607 -0.000372384 0.00239771 -0.00291917
139 2 -0.976091 5.95619 9.38457 12.7986 -0.000475827 -0.00114363 -5.97038e-05
140 2 -0.879583 7.84433 10.1803 14.3884 0.00145116 -0.00433719 -0.00470225
141 2 -0.891108 7.2831 11.4338 12.4988 -0.00794453 -0.00149498 0.00141896
142 2 -0.914953 5.72669 13.2178 9.36839 0.00230391 0.00557721 -0.00330257
143 2 -0.943532 7.54699 14.9685 9.59439 -0.00517502 -0.00544326 -0.0052491
144 2 -0.888003 7.70767 13.0885 10.9451 -0.0048127 -0.00216339 0.000643904
145 2 -0.93264 9.34821 2.49813 2.38128 -0.00733477 0.0046254 -0.00198136
146 2 -0.920255 9.55432 14.8889 14.8151 -0.00406762 -0.00400392 -0.00207465
147 2 -0.900603 9.77277 4.43862 3.88157 -0.00186778 0.00140421 -0.00374019
148 2 -0.944318 11.3744 2.55685 4.0415 0.00268922 0.000360273 -0.000492962
149 2 -0.764365 11.0568 4.25409 1.9923 0.00640993 -0.00168084 0.00426829
150 2 -0.904688 9.81894 6.22013 5.80048 -0.000590488 -0.00248933 -0.00521725
151 2 -0.910583 11.1067 5.94114 7.89912 -0.00643535 7.12181e-05 -0.00202971
152 2 -0.899085 11.5067 7.79227 6.05826 0.000969521 0.00174348 0.00463474
153 2 -0.883793 9.60373 7.9966 7.62329 -0.00264364 -0.00198747 -0.000430017
154 2 -0.959806 12.7365 2.53215 6.05714 0.00383657 -0.00707857 0.00170994
155 2 -0.830531 10.8629 14.9889 5.88465 0.000944032 -0.000114351 -0.0010155
156 2 -0.848989 12.975 14.7479 4.48315 -0.00261491 0.00371862 0.0126887
157 2 -0.926815 13.0845 4.32439 7.82356 0.00441289 -0.0015558 -0.00349135
158 2 -0.79831 13.572 5.73123 2.79387 0.000326099 -0.00079753 0.00394222
159 2 -0.673567 10.8428 6.42847 15.0833 0.00638009 0.00151108 0.00584956
160 2 -0.759461 13.3987 3.93004 15.1771 0.00243716 0.00593993 -0.00437359
161 2 -0.914861 13.444 7.66913 4.45142 -0.00433346 -0.0015164 0.00288773
162 2 -0.904329 9.70339 2.06355 9.66259 -3.38432e-05 -0.00173446 -0.000670735
163 2 -0.893303 9.3583 14.4445 7.83661 -0.00717204 -2.2027e-05 0.000944252
164 2 -0.896511 9.44939 4.19632 11.1637 -8.40806e-05 -0.00895764 0.00313156
165 2 -0.920258 11.1609 2.43782 11.6584 -0.00440974 -0.00594429 -0.00108406
166 2 -0.912862 11.4677 4.12082 9.78048 0.00501105 0.000105498 0.00118654
167 2 -0.91861 9.14856 5.83235 13.2282 0.00130372 -0.00810451 0.00517742
168 2 -0.881617 9.11219 8.10419 14.4517 -0.000721078 0.00114845 0.00056092
169 2 -0.836589 10.9469 7.73479 12.7204 0.00606749 -0.00575089 0.0016641
170 2 -0.914598 12.8658 2.21434 13.3813 -3.96043e-05 -0.00353651 -0.00621125
171 2 -0.920233 11.2056 14.5019 12.9943 0.00205096 0.00459346 0.00313906
172 2 -0.904358 13.0658 14.8787 11.3337 -0.00350606 -0.00455078 -0.00330074
173 2 -0.947435 12.7782 6.1666 9.67983 0.0017879 0.00897123 0.00333213
174 2 -0.922276 13.1398 7.84114 11.4646 0.0039025 0.000117417 0.00163045
175 2 -0.915562 9.88307 9.9106 1.97883 0.00231424 -0.00230029 -0.00113934
176 2 -0.916196 9.61054 10.9331 4.19677 0.000996882 -0.00416451 0.00237103
177 2 -0.890533 11.452 9.16865 3.83866 0.00241126 -0.00866423 0.00833653
178 2 -0.901802 11.6702 11.372 2.6674 -0.00125903 0.00499306 0.00134024
179 2 -0.927688 9.79563 12.8846 5.72245 -0.00224058 0.000380802 0.00308315
180 2 -0.854313 11.5795 13.1856 7.50208 0.00199302 -0.00163717 0.00739679
181 2 -0.843592 13.1122 9.79236 5.59918 0.00215235 -0.00347286 -0.000794113
182 2 -0.87385 13.1448 11.1939 7.856 -0.00276919 4.70945e-05 -0.00323575
183 2 -0.883519 12.6923 13.437 2.26071 -0.00680584 0.00457316 0.00122596
184 2 -0.873441 10.9859 12.7544 14.6708 -0.00190457 0.00235202 5.17466e-05
185 2 -0.927967 13.2304 11.4578 14.8788 0.000869898 -0.00272479 0.00824828
186 2 -0.804244 9.26192 9.38269 9.71127 0.00152647 -0.000611654 0.00458236
187 2 -0.941008 9.53513 11.3496 11.2808 -0.00904814 0.00040534 0.00342208
188 2 -0.90828 11.3292 9.54241 11.098 0.00332523 -0.00554212 0.000379827
189 2 -0.888918 10.9953 11.2455 9.27246 -0.000777305 -0.00326868 0.00296368
190 2 -0.899602 9.00373 13.1882 13.0141 5.13192e-05 -0.00143881 0.00363871
191 2 -0.926631 12.7341 9.49994 13.2363 -0.00153032 0.00279876 -0.00431015
192 2 -0.895266 12.7171 12.9802 9.70034 0.000617387 0.00755686 -0.00388823
193 2 -0.603097 3.1342 6.74234 10.2574 -0.00503864 -0.00379746 0.000843799
194 2 -0.656554 6.74391 6.87753 14.1303 2.76946e-05 -0.00112862 -0.0101256
195 2 -0.63989 14.3867 6.91319 7.01732 0.00226966 -0.00164055 0.000639714
196 2 -0.672284 7.67339 6.48603 2.42914 0.00114625 0.00847855 -0.00339744
197 2 -0.597072 12.2601 5.07407 5.14799 0.00138837 -0.00505006 -0.00665624
198 2 -0.719605 2.316 3.94846 9.60611 -0.00183479 0.000791999 0.000779194
199 2 -0.608193 13.385 6.27649 14.6702 -0.00253487 -0.00592996 -0.00593628
200 2 -0.622472 3.4718 9.89311 6.15268 -0.00200275 0.00540061 -0.0047328
201 2 -0.597283 12.1887 4.97078 12.3169 -0.00694866 0.00311391 -0.0079803
202 2 -0.610771 7.29856 7.19043 7.08205 0.00748136 -0.000345472 0.00112852
203 3 0.452131 2.68386 3.58981 12.0755 -0.00523072 0.00223042 -0.00354089
204 3 0.435019 4.02537 6.55135 9.87683 -0.0148208 0.0015829 -0.00801604
205 3 0.435504 5.95079 7.15932 13.7034 0.011925 -0.0169281 0.0205697
206 3 0.437708 7.39845 6.74758 13.3887 -0.0163211 0.00271331 0.0134999
207 3 0.42646 14.4595 7.16246 6.06067 -0.0108111 -0.00520722 0.0057037
208 3 0.429469 14.1331 6.01954 6.84633 0.0364713 -0.000119185 0.022675
209 3 0.497395 6.94459 9.043 2.83758 0.000968528 -0.0143534 0.0124372
210 3 0.470263 7.30683 6.91455 1.66189 0.000149654 0.00716319 0.0264838
211 3 0.407003 11.4012 5.46333 4.79933 0.0160915 -0.0175561 0.000766633
212 3 0.419824 12.2126 4.12344 4.95661 0.048018 0.0120294 -0.0243245
213 3 0.448694 15.7095 3.72114 9.06275 0.0222011 -0.00341834 0.000565993
214 3 0.468087 2.68087 5.98919 10.5032 0.00824671 -0.0138717 -0.00995752
215 3 0.448141 10.3889 5.56927 15.3707 0.0155087 0.00812358 -0.000923649
216 3 0.435409 14.2821 6.56323 14.9158 0.00466931 -0.0209172 -0.0279887
217 3 0.385037 3.35472 9.27388 6.94728 -0.0125945 -0.0120352 -0.0279091
218 3 0.44627 2.5288 10.2578 6.09773 0.0177772 0.0068701 -0.0268096
219 3 0.426704 12.1467 5.16698 11.3538 0.0307796 0.00726903 -0.014655
220 3 0.418269 12.1395 4.02623 12.4707 0.00822468 0.0121391 0.00700916
221 3 0.410148 6.85366 7.74733 6.38769 0.0276618 -0.00640182 0.0197333
222 3 0.42891 7.24627 6.27557 6.65277 0.0330228 -0.0117527 0.029577
ITEM: TIMESTEP
14000
ITEM: NUMBER OF ATOMS
222
ITEM: BOX BOUNDS pp pp pp
1.5213030105911889e+00 1.5638696989408860e+01
1.5213030105911889e+00 1.5638696989408860e+01
1.5213030105911889e+00 1.5638696989408860e+01
ITEM: ATOMS id type q x y z vx vy vz
1 1 1.82797 1.64561 15.269 1.60763 0.00798477 0.00311483 0.00183529
2 1 1.7685 3.24982 2.96638 3.35677 -0.00658497 0.000478269 -0.000658271
3 1 1.69072 1.62776 4.76657 5.20703 -0.00281923 -0.00294139 -0.00789672
4 1 1.83712 3.37591 6.67003 6.82934 -0.00193629 -0.000351281 -0.0037651
5 1 1.68607 5.30718 15.456 4.86294 0.0026132 -0.000486611 0.000895745
6 1 1.77534 7.13524 3.06675 6.63548 0.00199567 -0.000170627 0.000555515
7 1 1.74203 4.72972 4.86457 1.58702 0.00132789 -0.00337714 0.000163666
8 1 1.5459 6.35804 6.24331 3.74907 -0.00610581 0.00111718 0.0050395
9 1 1.73304 15.575 15.1805 8.32631 0.00229868 0.00246365 -0.00211211
10 1 1.59272 3.48618 2.79865 9.7136 -0.00229221 -0.00208952 -6.65694e-05
11 1 1.50063 15.5815 5.164 12.4573 0.00496772 0.00195169 -0.00375267
12 1 1.66938 3.21439 7.03377 14.0747 -0.0069582 0.00360396 0.00339781
13 1 1.73813 5.00496 1.45111 12.0392 0.00344183 -0.00447499 -0.00225192
14 1 1.82733 6.63019 3.27607 13.9249 0.000778814 0.00107811 -0.00203025
15 1 1.69481 5.28179 4.86708 8.28147 -0.00130996 -0.0015136 0.00168785
16 1 1.67031 6.78037 6.59479 10.3275 0.00140084 0.000221788 -0.000591258
17 1 1.71531 15.5 8.78941 15.7332 -0.000278526 -0.000261504 0.00309259
18 1 1.79148 3.42482 10.5125 3.14338 0.00234967 -0.00141614 0.00313466
19 1 1.75257 15.5406 11.9815 4.87791 -0.000415583 -0.00171768 -0.00118589
20 1 1.69627 3.41198 13.7415 6.52334 -0.000189203 0.00219888 -0.00217955
21 1 1.58363 4.98502 8.70178 5.1368 0.00295139 -0.00283059 0.00173255
22 1 1.76045 6.9347 10.4331 6.86499 -0.00378434 -0.0011172 0.00187683
23 1 1.85277 5.19613 12.1248 15.4081 0.00186828 0.000494317 0.00155622
24 1 1.84742 7.09309 13.74 3.10538 0.000610853 0.000344238 -0.00262539
25 1 1.80352 1.61942 8.4312 8.58902 -0.00112214 0.000311641 -0.00530271
26 1 1.73212 3.30259 10.3944 10.169 0.00445842 0.00179447 0.000804682
27 1 1.8109 15.6078 12.0689 11.9945 -0.000368371 -0.000538151 0.00251641
28 1 1.84679 3.29976 13.7011 13.6719 -0.00191705 0.00294036 -0.00194509
29 1 1.76361 4.96606 8.50985 11.9869 0.00155106 -0.0039055 -0.000627322
30 1 1.80122 6.75181 10.4468 13.4101 -0.000455024 -0.00160999 -0.00456261
31 1 1.83602 5.0161 12.2117 8.47143 -0.0016295 -0.00300427 0.00230777
32 1 1.74637 6.75394 14.0091 10.1603 -0.00136702 0.000699019 0.00397615
33 1 1.88719 8.57762 1.6686 15.624 0.00274284 -0.000898717 -0.00184092
34 1 1.74521 10.4508 3.43424 3.05259 -0.00153589 -0.00229461 -0.0025442
35 1 1.62604 8.79867 5.00946 5.04587 -0.000744488 0.00157546 -0.00278125
36 1 1.71684 10.4492 6.87358 7.02434 -0.000634214 0.00312846 0.00345698
37 1 1.82314 12.0707 1.63009 5.0306 -0.00199373 -0.00289636 0.00245279
38 1 1.7633 13.8207 3.16712 7.00753 -0.000855734 0.000747398 -0.004795
39 1 1.33209 12.8044 5.35147 15.581 -0.0068796 0.00283891 0.00507596
40 1 1.88516 14.2583 6.87142 3.60707 0.000388339 -0.00286782 -0.00420597
41 1 1.82717 8.819 15.5832 8.64699 0.00352728 -0.00214442 0.00353924
42 1 1.82893 10.3075 3.28344 10.5716 -0.000251899 0.00173359 -0.0035497
43 1 1.78298 8.50632 5.04908 12.2936 0.00563189 0.000898304 -0.00325491
44 1 1.63488 10.1348 7.22108 13.7226 0.0016967 3.47866e-05 0.00241028
45 1 1.76485 12.178 1.57105 12.2936 -0.00529756 -0.00212886 -0.000888928
46 1 1.75678 14.1636 3.08041 14.0271 0.000577528 0.00132424 -0.00484156
47 1 1.78116 12.1082 5.022 8.77191 -0.00403529 0.00366074 0.00215495
48 1 1.81197 13.8606 6.8856 10.4589 0.00185592 -0.00155121 0.00184055
49 1 1.72149 8.66527 9.28828 15.4478 -0.00153654 -0.007367 -0.000762605
50 1 1.77686 10.5888 10.445 3.38807 0.00548041 0.0068992 0.00181255
51 1 1.91804 8.74724 12.1438 5.08005 0.00578007 0.00501979 -0.000909922
52 1 1.81925 10.5013 13.8787 6.88085 -0.000319665 0.00145568 -0.0041013
53 1 1.70838 12.2157 8.62232 5.0974 0.00150627 -0.00372593 -0.00307223
54 1 1.76414 14.0278 10.3298 6.92224 0.00599493 0.000303566 -0.000860395
55 1 1.7873 11.9472 12.2923 15.5703 0.00207632 -0.00136371 0.00144029
56 1 1.86915 13.7142 13.8525 3.31024 -0.00223246 0.00010827 0.00335716
57 1 1.60756 8.49197 8.47052 8.63831 -0.000671519 -0.000823917 0.00283093
58 1 1.83704 10.3203 10.4485 10.2912 -0.000808076 5.76113e-05 -0.00261887
59 1 1.8695 8.55272 12.276 11.8518 0.00375158 0.00924579 0.00194623
60 1 1.82826 10.1896 13.9386 13.7921 -0.00435495 -0.00183352 3.5446e-05
61 1 1.95784 12.0448 8.73817 12.0499 -0.00530568 3.72782e-06 -0.00290953
62 1 1.73505 13.7597 10.4912 13.8169 -0.000129963 0.0024602 0.000839535
63 1 1.64659 12.2075 12.1055 8.61084 -0.00213776 -0.00181806 -0.000525783
64 1 1.78907 13.8437 13.896 10.4653 0.00127832 -0.00131016 -0.00121008
65 2 -0.897873 2.61261 1.71025 2.66682 0.00251374 0.000339237 -0.00774555
66 2 -0.885252 2.19503 14.2688 14.6438 0.00192671 0.00095878 -0.00662358
67 2 -0.919664 15.2239 2.23346 14.8154 -0.00187813 0.00165165 0.00800419
68 2 -0.946217 14.637 14.7574 2.48296 -0.00159366 -0.000141817 0.00345688
69 2 -0.907241 2.25438 3.81104 4.18665 -0.00714446 -0.0100901 -0.000765107
70 2 -0.852164 4.36688 2.47359 4.33339 -0.00792391 -0.00232743 0.00380712
71 2 -0.88384 3.84642 3.75769 2.21085 -0.00290486 -0.00586095 0.00153512
72 2 -0.862844 2.76763 5.47268 6.07696 0.00413522 -0.000440995 0.00387234
73 2 -0.934778 14.6695 4.22135 6.21234 0.00368878 0.000893391 0.00426292
74 2 -0.895424 15.185 6.05351 4.46073 -0.00532194 -0.00160229 -0.0023801
75 2 -0.935311 4.52983 6.08587 7.6521 0.00144984 0.00187208 -0.00271937
76 2 -0.871881 4.05947 7.56865 5.84866 0.00145185 0.00285686 -0.00174803
77 2 -0.964302 2.40557 7.4631 7.67207 -0.000684373 0.00038747 -0.00343873
78 2 -0.841475 6.48581 2.10467 5.61227 0.00281005 -0.000224381 -0.00367359
79 2 -0.908937 4.54286 14.5512 5.89368 -0.00156136 -0.0018011 0.00135574
80 2 -0.885392 6.02306 14.6857 3.72738 -0.00308831 0.00111389 -0.00661063
81 2 -0.894632 6.23334 4.1208 7.31783 0.0012867 -0.00406691 -0.00625512
82 2 -0.802225 8.2507 3.75994 5.8588 0.00468329 -0.00457304 -0.00787449
83 2 -0.878629 8.10779 2.33633 7.5686 0.00200723 -0.0029813 0.00700314
84 2 -0.849871 5.46709 5.26615 2.84776 -0.00341457 0.00883783 0.00276969
85 2 -0.853745 3.94942 6.12627 15.2038 -0.00216431 0.00253998 -0.00138567
86 2 -0.912786 5.68508 4.2372 14.6665 -0.00138577 -0.00318187 0.000770713
87 2 -0.841684 5.80889 7.55971 4.40385 -0.00085494 -0.00758363 0.00558551
88 2 -0.826465 7.38669 5.62041 4.71575 0.00858372 -0.00312169 -0.00341117
89 2 -0.75753 7.54658 9.10023 2.31981 -0.000618584 0.0038559 -0.000715041
90 2 -0.856238 2.69654 1.59867 9.08166 0.00298192 0.00388925 -0.00105362
91 2 -0.829966 2.18249 14.5488 7.14397 -0.00101723 -0.00179416 0.00643537
92 2 -0.948146 14.708 2.21257 7.81722 -0.00341493 0.00715265 -8.56053e-05
93 2 -0.889356 14.6197 14.2795 9.22739 0.00642803 -0.00439218 0.00428088
94 2 -0.735672 2.87386 4.53046 12.0868 0.00317219 -0.00583383 0.00223843
95 2 -0.891579 4.16802 2.28619 10.9794 0.000694156 -0.000921736 -0.000118556
96 2 -0.854518 4.49588 3.65741 8.82193 -0.00300478 -0.00610256 0.00225757
97 2 -0.859761 2.04389 6.23359 13.5012 -0.00215417 -0.000386893 0.00483108
98 2 -0.925383 14.6928 4.01641 12.9781 0.00425898 0.00848181 -0.00527541
99 2 -0.849766 14.7372 5.92928 11.2979 0.00324793 0.00306507 -0.00353237
100 2 -0.845799 2.40645 8.08438 14.793 -0.00273502 0.00397531 0.00127975
101 2 -0.929486 4.26439 7.60234 12.9961 0.00468834 0.000143116 0.00278243
102 2 -0.90841 5.78309 2.50322 12.9092 -0.000829383 0.00262246 0.00289537
103 2 -0.918232 3.92505 14.7802 12.8039 -0.000879336 -0.00807056 -0.00509157
104 2 -0.857682 5.95977 14.5218 11.4405 0.0012567 0.00132762 0.00416797
105 2 -0.93194 7.35474 2.34895 14.9128 -0.00352625 0.00214766 0.00300908
106 2 -0.92154 7.61926 4.28428 13.2865 -0.00316635 -0.012274 0.000884886
107 2 -0.888427 5.96535 5.51782 9.55712 0.00115025 0.00371496 0.00608017
108 2 -0.865094 5.65656 7.58364 10.8876 0.00416363 0.000487852 0.00478736
109 2 -0.902192 7.50119 5.9138 11.5751 -0.000495721 0.0010772 -0.00499978
110 2 -0.831942 7.8657 7.3735 9.6299 0.00267283 0.00832602 0.00220515
111 2 -0.822467 2.46865 9.76895 2.20909 0.00228673 -0.00378509 -0.00592914
112 2 -0.940964 15.0648 7.77006 2.71409 -0.00151848 -0.0021984 0.00491502
113 2 -0.870589 14.4808 9.71287 14.9613 0.00315362 0.00185472 0.00317541
114 2 -0.920585 2.29005 11.2215 3.92373 -0.00412925 0.00634676 -0.00335271
115 2 -0.858208 4.36523 9.58248 3.96911 0.000318579 0.000349371 -0.00420053
116 2 -0.936115 4.30686 11.4987 2.36399 0.00169309 -0.00323802 -0.00139975
117 2 -0.851042 2.46412 12.983 5.48914 -0.00125004 -0.00413803 -0.00493636
118 2 -0.913853 14.9967 11.0491 5.99856 -0.00767273 0.000114863 -0.00254462
119 2 -0.898303 14.3897 12.7306 4.11307 0.00154642 -0.00376476 0.00557539
120 2 -0.941985 3.90464 12.7515 7.59421 0.00391342 0.00480747 0.00102821
121 2 -0.908303 6.09832 9.46536 6.06276 -0.0100055 -0.00105136 0.0082584
122 2 -0.900052 6.08929 11.5317 7.55958 -0.00368337 -0.00466085 -0.00496944
123 2 -0.897461 7.99159 11.1508 5.99216 -0.000769757 0.00682257 -0.00279111
124 2 -0.849282 7.69243 9.66541 8.0151 0.00132663 -0.00146941 -0.00131999
125 2 -0.883166 6.33643 12.958 1.94674 -0.00651243 0.00604777 -0.00700705
126 2 -0.926543 4.36125 13.0706 14.5902 0.00102046 -0.00571782 0.000701865
127 2 -0.889624 5.71225 11.0699 14.3957 -0.00242919 0.00346889 0.00487611
128 2 -0.938184 8.05333 14.706 2.41189 0.00196412 0.00745246 0.00138907
129 2 -1.00351 7.82684 12.8888 4.09138 0.00489551 -0.00428415 0.00752126
130 2 -0.916266 2.70553 9.44588 9.1197 0.00402778 0.00214278 -2.5674e-05
131 2 -0.92548 14.6873 7.67365 9.44113 -0.00487957 -0.000980141 -0.00187851
132 2 -0.917252 14.9803 9.43312 7.73583 -0.00179284 0.00316224 -0.00494352
133 2 -0.86729 2.249 11.3242 10.7918 0.00666823 0.00672369 0.00081595
134 2 -0.866998 3.99247 9.47541 11.2568 -0.00559491 0.000964842 0.00114562
135 2 -0.892195 4.45471 11.2399 9.48194 -0.0022415 -0.000799396 -0.00136938
136 2 -0.921348 2.63854 12.6264 12.8261 0.000212146 0.00316114 -0.00164495
137 2 -0.941019 14.711 11.1163 12.7799 0.00043962 -0.0053218 1.97508e-05
138 2 -0.939122 14.8331 13.2667 11.4387 0.00110365 0.000196257 0.00494715
139 2 -0.93799 6.04509 9.26343 12.7216 -0.00745463 0.00239802 0.00750797
140 2 -0.863881 7.95561 10.0843 14.3444 -0.000786988 -0.00419956 -0.00924407
141 2 -0.88181 7.37536 11.4763 12.4922 -0.00956406 0.00869541 0.00167628
142 2 -0.895659 5.68692 13.3577 9.23072 0.00312817 -0.00361527 -0.00167023
143 2 -0.904211 7.57481 15.1 9.42791 -0.00381528 0.00364661 0.00768094
144 2 -0.892517 7.72698 12.9859 10.7494 0.00349601 0.00501884 0.00684939
145 2 -0.946794 9.55575 2.67365 2.14352 -0.00378056 -0.00380681 0.00824692
146 2 -0.913016 9.46628 15.0431 14.6589 -0.00270862 -9.62111e-05 -0.00352534
147 2 -0.923807 9.66865 4.50895 3.90384 -0.00157331 0.00493649 0.000271032
148 2 -0.957694 11.325 2.61949 4.05469 -0.000107589 -0.00325126 0.0038653
149 2 -0.737667 11.1577 4.31011 2.03382 0.00176647 -0.0117821 0.00103619
150 2 -0.867503 9.42284 6.08221 6.07079 -9.58114e-05 0.000611556 0.0043788
151 2 -0.912773 11.1406 5.76401 7.8425 -0.000869794 -0.00191275 -0.00228538
152 2 -0.859074 11.4704 7.7247 6.21352 0.00107464 -0.00291546 0.00257796
153 2 -0.87468 9.69363 7.89795 7.82536 -0.00379186 -0.000979822 0.00236864
154 2 -0.980853 12.877 2.4535 6.00647 0.00200149 0.0054866 -0.00289945
155 2 -0.865953 11.072 15.0039 5.93458 0.00401576 0.00520714 -0.00146652
156 2 -0.940221 12.8503 14.6511 4.29413 0.00499076 -0.00434985 -0.00157497
157 2 -0.950758 13.1192 4.06944 8.07094 -0.00992712 -0.00235312 0.001083
158 2 -0.863098 13.4693 5.88643 2.79356 -0.0018814 -0.00978704 -0.00255026
159 2 -0.667598 10.9542 6.4227 14.969 0.00368406 0.0112831 -0.00124934
160 2 -0.826076 13.588 4.1 14.9909 0.000282953 -0.000995441 0.00341228
161 2 -0.929372 13.1785 7.63577 4.40451 0.00188554 -0.00402834 -0.00226482
162 2 -0.930722 9.70698 2.23147 9.6524 -0.00022624 -0.00413602 0.00290832
163 2 -0.947522 9.68208 14.5256 7.9793 0.00380146 -0.00441899 0.00166061
164 2 -0.923442 9.19223 4.02546 11.3373 0.000757422 0.000382515 -0.00143887
165 2 -0.94607 11.2461 2.61211 11.6041 -0.000803887 0.00719693 0.00298022
166 2 -0.932752 11.1695 4.267 9.77473 -0.00274486 -0.00375122 -0.00338978
167 2 -0.9301 9.39726 6.04437 13.0728 0.00311193 0.000932344 -0.000704997
168 2 -0.867772 9.16963 8.02023 14.6628 0.00408548 0.00791093 0.0042928
169 2 -0.94634 10.9126 7.95691 12.6559 0.00137037 0.00258805 -0.00270551
170 2 -0.942363 12.9522 2.34582 13.3615 -0.00130098 0.00192138 -0.00632141
171 2 -0.905956 11.3277 14.573 12.9124 -0.00318596 0.000754823 -0.00142283
172 2 -0.900592 13.0586 14.9802 11.1856 0.00312376 -0.00560329 0.000517286
173 2 -0.947798 12.8359 5.96533 9.71565 -0.00130664 -0.0073498 -0.00293227
174 2 -0.958226 13.0832 7.87151 11.3366 0.00503715 0.0040525 0.00365451
175 2 -0.880333 9.74883 10.0142 2.17423 0.000842087 -0.00188182 0.00153649
176 2 -0.944074 9.61616 11.1592 4.37129 -0.00210744 0.00749779 -0.00566362
177 2 -0.891677 11.1977 9.16813 4.05362 -0.00321309 0.00275553 0.000822933
178 2 -0.893755 11.5517 11.3854 2.68004 0.00364346 -0.00381803 -0.000815114
179 2 -0.957631 9.5662 13.0491 5.98569 -0.00306215 0.00491925 0.00398007
180 2 -0.834845 11.7098 13.1678 7.49927 0.00503057 -0.00423524 -0.00118127
181 2 -0.898641 13.0627 9.62085 5.90132 0.000405296 0.00663781 0.000948168
182 2 -0.851123 13.4003 11.4412 7.84199 -0.000664111 0.0031 0.00837727
183 2 -0.910389 12.8331 13.2577 2.21548 -0.00215023 -0.00042211 0.00493678
184 2 -0.915801 10.7728 12.9589 14.7612 -0.000831348 -0.00392277 -0.00412954
185 2 -0.847557 12.8301 11.6223 14.5219 -0.0024751 0.00696606 -0.00282751
186 2 -0.734712 9.43195 9.29225 9.79272 -0.00530898 0.00415621 -0.00207756
187 2 -0.976682 9.43872 11.2471 11.2257 -0.00256908 -0.00109202 -0.00514358
188 2 -0.941311 11.3969 9.68251 11.0601 -0.000342719 -0.000671168 0.00217436
189 2 -0.913133 11.0477 11.2741 9.19539 0.00973766 0.00403647 -0.00119476
190 2 -0.952702 9.19945 13.2109 12.8903 0.000173864 -0.00250672 -0.00101202
191 2 -0.931409 12.7198 9.57463 13.1129 0.00420516 -0.00413434 4.75135e-05
192 2 -0.810972 12.7088 12.9786 9.83295 -0.00276361 0.00403438 -0.000395742
193 2 -0.595147 3.27519 6.50153 10.1308 -0.00461995 -0.00351351 -0.00285957
194 2 -0.654313 6.79124 6.9067 14.137 -0.00253556 -0.000421815 0.00492064
195 2 -0.56411 13.6822 6.68501 7.02402 0.00104646 0.000852286 0.00520514
196 2 -0.734137 7.37078 6.66508 2.66139 0.00871807 -0.00111016 0.00251723
197 2 -0.64988 12.1412 5.03977 5.1669 -0.000520722 0.00237279 -0.0075492
198 2 -0.799715 2.21644 3.64857 9.88479 -0.00287313 0.00131036 0.0111866
199 2 -0.610835 13.3905 6.48559 14.6185 0.00278738 -4.42206e-05 -0.00449578
200 2 -0.642177 3.55666 10.0955 6.36019 0.00291236 -0.00102801 -0.00376968
201 2 -0.597653 12.0342 5.0931 12.328 0.0037686 -0.00495329 -9.88845e-05
202 2 -0.68264 7.15318 7.28512 7.21459 -0.000831639 -0.000843977 -0.00352952
203 3 0.438685 2.90915 3.58431 11.8252 -0.0232009 -0.0254666 -0.0104566
204 3 0.423216 4.19919 6.44872 9.88773 0.0376845 0.0373691 -0.00480977
205 3 0.418339 5.95172 6.78083 13.6253 -0.000205273 0.0124986 0.0042978
206 3 0.446793 7.50314 6.74084 13.553 -0.00871762 -0.00704125 0.0069436
207 3 0.443242 13.052 6.49363 6.28095 -0.00276488 0.0219404 0.0176568
208 3 0.405154 14.0078 5.75502 7.26845 0.0312801 -0.0153904 -0.00466836
209 3 0.473239 7.07493 8.58502 3.03944 7.32115e-05 -0.00881473 -0.0161909
210 3 0.469799 7.04445 6.75954 1.74991 0.00298589 -0.00579585 -0.00301154
211 3 0.395144 11.5086 5.2957 4.43679 0.0226268 -0.0188907 0.000854012
212 3 0.425826 12.2018 4.11698 5.06547 -0.000890798 -0.0244542 0.0216776
213 3 0.445309 1.36444 3.48699 9.45488 0.00643849 0.024027 0.00570517
214 3 0.412348 3.20942 5.63381 10.615 -0.0186958 -0.0126779 0.022169
215 3 0.4333 10.4145 5.50806 15.2323 -0.012876 -0.0119596 0.0171003
216 3 0.42187 14.3131 6.21046 14.355 0.0157653 -0.000799517 -0.0100826
217 3 0.424849 3.07377 9.57475 7.02915 -0.000418797 0.0086288 0.000914536
218 3 0.4099 2.93569 10.8787 6.29436 0.00843246 -0.0297109 0.00771036
219 3 0.445895 12.1345 5.07189 11.3889 7.27241e-05 -0.00430903 0.00140269
220 3 0.420393 12.0924 4.16294 12.6343 0.00446754 0.0163501 -0.0113797
221 3 0.434346 6.34904 7.58278 6.76809 0.0181586 0.0032445 -0.00230315
222 3 0.447193 7.76405 6.9525 6.57273 0.014376 -0.00580878 0.0170487
ITEM: TIMESTEP
15000
ITEM: NUMBER OF ATOMS
222
ITEM: BOX BOUNDS pp pp pp
1.5175715636368929e+00 1.5642428436363110e+01
1.5175715636368929e+00 1.5642428436363110e+01
1.5175715636368929e+00 1.5642428436363110e+01
ITEM: ATOMS id type q x y z vx vy vz
1 1 1.85936 1.7512 15.4005 1.70273 -0.00138242 7.05704e-05 0.000349927
2 1 1.92017 3.45479 3.1362 3.33909 -0.00122269 0.00445307 -0.00154479
3 1 1.75453 1.69231 4.76969 5.14056 -0.000152866 0.00397587 0.00132008
4 1 1.69117 3.29221 6.70752 6.91901 -0.00127992 0.00163304 0.00449301
5 1 1.82743 5.31174 15.5927 5.0918 -0.000965778 -0.00256232 -0.00507153
6 1 1.78226 7.17805 3.1882 6.7595 0.00180292 0.00231595 0.00291636
7 1 1.81104 5.03233 4.9615 15.6412 -0.00487591 -5.11895e-05 0.000645895
8 1 1.57568 6.63254 6.41036 3.60423 0.000915679 -0.000482843 -4.2564e-05
9 1 1.77532 15.5387 15.1831 8.41096 -0.00334772 0.00360361 0.00488976
10 1 1.50903 3.53414 2.82169 9.65067 -0.00402873 -0.00140652 -0.00412541
11 1 1.79988 15.5902 5.15632 12.4214 0.000952277 0.00105445 -0.00301253
12 1 1.74779 3.41737 6.9128 13.9102 0.00467981 0.00137361 -0.00211384
13 1 1.71207 4.83747 15.5919 12.0488 0.00279232 0.0025472 0.00144971
14 1 1.88999 6.73311 3.07774 13.8585 0.00191705 -0.00081305 0.00238678
15 1 1.68571 5.35205 4.92447 8.32599 -0.0013242 -0.00191293 0.00335354
16 1 1.68135 6.87168 6.62536 10.4037 0.000125296 -0.00159849 -0.00390771
17 1 1.82931 1.53776 8.73002 15.458 -0.00481277 -0.00289232 0.00183067
18 1 1.76691 3.27275 10.425 3.07009 -0.00232071 -0.00458059 0.0037582
19 1 1.74992 15.623 12.0885 4.91625 -0.00303407 -0.00393251 0.00402309
20 1 1.81328 3.32367 13.8106 6.54155 0.0024077 -0.00205373 0.00288518
21 1 1.52128 4.91441 8.63153 5.06665 -0.00184313 -0.00175101 0.00161638
22 1 1.65801 6.91184 10.3917 6.77347 0.00149808 -0.00216388 -0.00487822
23 1 1.8277 5.03103 12.1889 15.4287 0.00367231 -0.0050323 -0.00190699
24 1 1.80754 6.93384 13.7065 3.23803 0.0046154 -0.00577997 0.00181672
25 1 1.85677 15.5626 8.5334 8.59352 -0.000717284 -0.000183476 0.00408057
26 1 1.81487 3.20524 10.3929 10.2114 -0.00412618 -0.000180436 -0.000783533
27 1 1.85174 15.4273 11.9467 11.9644 -1.89597e-05 0.00366193 -0.00167362
28 1 1.89716 3.00191 13.663 13.7097 0.00184369 0.00104387 0.005617
29 1 1.69851 5.07856 8.5908 11.8851 -0.000250335 -0.000264581 0.002878
30 1 1.72144 6.78511 10.5174 13.4981 -0.0020881 0.00217983 0.00153486
31 1 1.76249 4.99622 12.1151 8.42967 -0.00448115 -0.00295397 0.00193611
32 1 1.83814 6.60243 13.9224 10.1899 -0.00282697 -0.000898241 -0.00070426
33 1 1.88061 8.47846 1.51606 1.54548 0.00310777 -0.0040604 -0.00206972
34 1 1.66588 10.3761 3.25065 3.17192 -0.00204747 0.00528494 -0.000791573
35 1 1.6793 8.94158 5.06882 5.17923 -0.00235301 -0.00279917 -0.00144358
36 1 1.74102 10.6907 6.90085 6.97682 0.00140747 -6.56876e-05 0.00182708
37 1 1.80399 12.0837 1.59738 5.10162 0.00683661 -0.00285332 -0.00247975
38 1 1.79022 13.9009 3.22374 6.95822 0.00147824 0.000824399 -0.00143177
39 1 1.34964 12.6539 5.22082 1.57002 -0.00383098 -0.00167703 0.002129
40 1 1.67476 14.3104 6.9092 3.40782 -0.000994706 0.00700816 0.00109254
41 1 1.7243 8.61197 15.6079 8.78402 2.30562e-05 -0.00166816 0.000947571
42 1 1.76308 10.3471 3.16849 10.5684 -0.000598087 0.00712254 0.00396519
43 1 1.81312 8.53993 4.91215 12.2565 -0.00306141 0.000525825 0.0063416
44 1 1.5476 9.98945 7.10834 13.9384 -0.00190744 -0.00285661 -0.0058327
45 1 1.74348 12.2169 15.5861 12.329 0.00120373 -0.00219136 -0.0011938
46 1 1.80062 14.0923 3.10278 14.1518 -0.000782788 2.72287e-05 -0.00250688
47 1 1.81448 12.2077 4.97762 8.83672 -0.00311495 -0.0014105 -0.00465797
48 1 1.81204 13.8984 6.85581 10.518 -0.00224101 -0.000205002 0.00309783
49 1 1.61341 8.72615 9.40347 15.4647 -0.00448448 0.00473785 -0.00688409
50 1 1.75917 10.7814 10.4748 3.24535 -0.00155324 -0.00328794 0.000528638
51 1 1.79104 8.76853 12.0826 4.99441 -0.00146988 -0.000494058 -0.00293223
52 1 1.79579 10.2859 13.9474 6.82569 0.00240349 0.000220228 0.00201006
53 1 1.71189 12.3428 8.59644 5.06805 0.00723999 -0.00520921 0.000175578
54 1 1.80466 13.927 10.4956 6.90506 -0.000903564 0.00120545 0.00562367
55 1 1.74346 12.1975 12.3207 15.4936 -0.00161255 -0.00183409 0.000432241
56 1 1.82559 13.803 13.9034 3.3346 -0.0031166 0.00160999 0.00106701
57 1 1.57961 8.57072 8.46193 8.58328 -0.00357697 -0.00612904 -0.00721417
58 1 1.79172 10.2441 10.4173 10.263 0.00118534 0.00396683 0.00032993
59 1 1.84136 8.54628 12.3173 11.9072 0.00608205 0.00456805 0.0035634
60 1 1.80671 10.1524 13.9573 13.907 0.0013291 -0.000423421 -0.00339745
61 1 1.78429 11.8285 8.57964 12.0483 0.000446729 0.00163339 -0.00164292
62 1 1.84258 13.7164 10.2848 13.735 -9.52824e-05 0.000866317 -0.00147683
63 1 1.76469 12.0217 12.1339 8.54129 -0.00158275 -0.000113077 -0.000337574
64 1 1.84878 13.6892 13.8394 10.4197 -0.0016236 0.00555838 -0.00288647
65 2 -0.934342 2.77462 1.9753 2.63822 0.0131938 0.00244805 -0.000951196
66 2 -0.96041 2.23688 14.4047 14.8062 -0.000449919 -0.0056938 0.000158857
67 2 -0.922488 15.0701 2.25529 14.9446 -0.00571178 -0.00536368 -0.00595042
68 2 -0.889036 14.7788 14.8837 2.69127 -0.00360204 0.0041243 -0.00269323
69 2 -0.961625 2.42723 3.79194 4.23949 0.00317822 -0.000110982 0.000295025
70 2 -0.904965 4.57046 2.52914 4.21906 -0.00521247 -0.00480219 0.00251148
71 2 -0.931709 4.05024 4.04629 2.28555 -0.00223778 0.00624568 0.00715757
72 2 -0.868687 2.58401 5.61832 6.10692 -0.00101291 -0.00372247 -0.000961914
73 2 -0.960646 14.8128 4.11046 6.08401 0.00124464 -0.00216919 -0.000608053
74 2 -0.833303 15.265 5.98682 4.23301 0.0110601 -0.00148595 0.00220023
75 2 -0.892609 4.45885 5.97422 7.6554 -0.00561859 -0.00331747 -0.00681508
76 2 -0.814921 3.97623 7.51025 5.76291 -0.00451813 0.006972 0.000306821
77 2 -0.947001 2.49233 7.71742 7.84288 -0.00247711 -0.00303287 -0.00839448
78 2 -0.906179 6.40848 2.094 5.96695 0.00585156 -0.00150018 -0.000565678
79 2 -0.929555 4.29134 14.9218 6.00881 -0.00150396 -0.00291059 -0.00368935
80 2 -0.910665 6.01934 14.6469 4.10598 -0.00381941 -0.00260129 0.00436029
81 2 -0.916172 6.38512 4.35228 7.35698 0.00356312 -0.00105558 0.0057958
82 2 -0.820949 8.24713 3.85382 5.8014 0.00113397 -0.00249479 0.00419664
83 2 -0.891002 8.06454 2.56491 7.80447 0.00327249 -0.00641137 -0.000737264
84 2 -0.915449 5.8257 5.4633 2.70835 0.00143939 -0.00669131 -0.00305504
85 2 -0.918305 4.33928 6.08327 14.8861 -0.00241428 0.00385624 0.000446451
86 2 -0.899423 5.83149 4.09156 14.5565 0.00738583 0.000213017 -0.00517402
87 2 -0.808189 5.96848 7.69382 4.23162 -0.00226662 -0.00285782 -0.00345005
88 2 -0.845097 7.61761 5.78082 4.67784 0.00081818 0.00452612 -0.00052889
89 2 -0.690609 7.44667 9.46487 2.32502 7.40522e-05 0.00736784 -0.00142127
90 2 -0.840543 2.66964 1.59016 9.18604 -0.00652081 0.00246358 0.00111966
91 2 -0.895171 2.10548 14.4567 7.26581 0.00318412 -4.40608e-05 0.00139242
92 2 -0.934353 14.7101 2.3081 7.89083 -0.00133764 -0.000961596 0.00501636
93 2 -0.929707 14.5863 14.4899 9.33881 0.00120557 -0.000391997 -0.00783239
94 2 -0.826939 2.63362 4.2678 12.0938 0.00374749 -0.00670827 -0.00180554
95 2 -0.860667 4.21084 2.50917 11.0682 -0.00156073 0.00324644 0.00114177
96 2 -0.841154 4.47521 3.64417 8.75095 -0.00212409 -0.00387463 0.00148064
97 2 -0.937342 2.25524 6.05692 13.3083 -0.00815778 0.00149248 0.00233095
98 2 -0.910022 14.6068 4.16705 13.0991 -0.00801341 0.00106614 0.000615053
99 2 -0.955242 14.8803 6.01616 11.3438 -0.000326462 -0.00209884 0.00634953
100 2 -0.888943 2.63969 8.04548 14.6359 0.00214808 -0.00331782 0.00159403
101 2 -0.8907 4.40572 7.53183 12.9099 0.00213606 -0.00356827 -0.00456124
102 2 -0.881351 5.6538 2.26717 13.1076 -0.000623696 0.00199824 -0.00416781
103 2 -0.873616 3.80391 14.7133 12.8708 0.00292422 0.00624977 -9.27756e-05
104 2 -0.889648 5.87504 14.7628 11.2429 0.00573944 -0.00828356 -0.00113662
105 2 -0.968436 7.3612 2.24267 14.9343 0.0045651 0.00484783 -0.00692089
106 2 -0.960506 7.75772 3.84535 13.0407 -0.000641658 0.00612013 -0.00144397
107 2 -0.904019 6.06428 5.56347 9.56815 0.00062322 0.00203234 -0.00874467
108 2 -0.923322 5.83926 7.66352 10.9482 0.000888968 -0.00272954 0.000553736
109 2 -0.951213 7.54404 5.86321 11.5934 0.000339177 -0.00319532 -0.0051301
110 2 -0.81679 7.91995 7.45798 9.60753 -0.00324283 0.00287854 -0.00153276
111 2 -0.896199 2.26748 9.83537 2.07932 0.000446848 0.00319341 -0.00360762
112 2 -0.879332 15.1826 7.77385 2.45553 0.00533268 0.00266424 -0.00357942
113 2 -0.914152 14.5172 9.2316 14.5702 -0.00236008 -0.00241854 -0.000504384
114 2 -0.888754 2.22575 11.1624 3.94768 0.0021077 0.00245782 0.00419199
115 2 -0.84111 4.09942 9.41447 3.93473 0.000109792 0.0034081 -0.000728096
116 2 -0.902093 4.18017 11.4533 2.34404 -0.00307921 0.000153142 0.000414964
117 2 -0.923711 2.63421 13.0412 5.43857 0.000889953 -0.00184586 0.00189302
118 2 -0.930219 14.9815 11.3182 6.08253 -0.00488796 0.00108247 -0.00015439
119 2 -0.912196 14.5403 12.7888 4.03677 -0.00676484 0.00326493 0.00353405
120 2 -0.906053 3.91942 12.8866 7.58787 0.000537382 -0.00403982 -0.00274046
121 2 -0.818272 6.04008 9.30647 5.98773 -0.00471183 -0.00054776 0.00553928
122 2 -0.874609 5.97066 11.4375 7.4374 0.00254281 0.00242916 -0.00136107
123 2 -0.863452 8.04464 11.1067 5.94907 0.00520989 -0.000983167 0.00168162
124 2 -0.739403 7.51184 9.61543 7.95777 -0.00363724 -0.00212957 0.000947372
125 2 -0.863003 5.97519 13.0532 2.19079 0.00560641 0.00132107 0.00601178
126 2 -0.907124 4.13501 13.0178 14.5093 -0.00257628 -0.00141172 0.00407515
127 2 -0.867814 5.79288 11.2188 14.4878 0.00256177 -0.00141058 -0.0011874
128 2 -0.934297 7.93498 14.4984 2.39744 -0.00620255 -0.000931782 -0.00122954
129 2 -0.919067 7.72597 12.6131 3.95699 -0.000458148 -0.00102229 -0.00131641
130 2 -0.942275 2.21728 9.57082 9.40547 -0.00412979 0.00473613 0.00475297
131 2 -0.89658 14.4699 7.76603 9.38358 9.8042e-05 -0.00192618 0.0118424
132 2 -0.921311 14.8364 9.44978 7.62204 0.00216681 0.000860792 0.000121785
133 2 -0.883711 2.38237 11.4909 10.9031 0.00425222 0.00118724 -0.00155137
134 2 -0.868345 3.90993 9.46077 11.2551 0.00250238 0.000895194 -0.00183025
135 2 -0.880233 4.25722 11.0188 9.30562 -0.000754909 0.00631705 0.000209944
136 2 -0.959848 2.20613 12.6095 13.0001 -0.000848289 0.00509865 0.00117037
137 2 -0.963777 14.5818 10.8645 12.6131 -0.00253843 -0.000155945 0.00363178
138 2 -0.959347 14.6379 13.1031 11.3496 0.00265018 -0.00101418 0.00406899
139 2 -0.945185 6.02408 9.41488 12.7705 0.010616 -0.00140981 -0.00260044
140 2 -0.825757 8.10117 10.22 14.2864 -0.00518207 0.000810458 0.00148702
141 2 -0.848557 7.29386 11.6137 12.5014 0.0044037 -0.00110274 -0.00497075
142 2 -0.930452 5.56284 13.1304 9.44317 -0.00335346 -0.00241913 0.00296288
143 2 -0.87085 7.29397 14.9491 9.257 -0.00181691 0.00264544 0.00040164
144 2 -0.891011 7.74361 13.0997 10.8283 0.00296041 -0.00449537 -0.00199705
145 2 -0.887397 9.17053 2.53039 2.51393 0.00122832 -0.00723176 -0.000631302
146 2 -0.977278 9.47357 15.0583 14.695 -0.00366076 0.00216735 0.000391244
147 2 -0.866016 9.78621 4.34495 4.11632 0.00578225 -0.00304212 -0.00582729
148 2 -0.959737 11.4401 2.49629 4.06061 -0.00510292 -0.00153957 -0.000167811
149 2 -0.737508 10.9635 4.27422 2.20524 -0.00194576 0.00433781 0.00288588
150 2 -0.929707 9.68385 5.9699 6.19404 -0.00490977 -0.00322233 -0.000394298
151 2 -0.919622 11.5574 6.02232 7.92153 0.00186657 -0.00303027 0.0021997
152 2 -0.891175 11.356 7.84289 5.9092 -0.00193584 -0.00165574 -0.00377429
153 2 -0.847811 9.80119 7.87794 7.73937 -0.000481726 0.00409547 0.00012921
154 2 -0.963095 12.8866 2.49835 6.05001 0.00660075 0.00111996 0.000910745
155 2 -0.917468 11.0141 15.0042 5.97273 -0.000501245 -0.00192637 -0.0015843
156 2 -0.911516 13.0292 14.6817 4.42257 0.00148778 -0.00543752 -0.000922339
157 2 -0.929297 13.1806 4.21735 7.91905 0.00690036 -0.00253705 -0.00156165
158 2 -0.822786 13.3152 5.80148 2.87409 -0.000945694 -0.00120784 0.00364582
159 2 -0.738549 10.8015 6.38287 15.0902 0.000233553 0.000522307 -0.00183898
160 2 -0.867027 13.4319 4.03709 15.0976 0.00774882 0.00774219 0.0020669
161 2 -0.935965 13.5196 7.82259 4.38274 0.00855263 0.00124689 0.00292673
162 2 -0.904975 9.53594 2.05158 9.90404 0.00368269 0.00366555 0.00234562
163 2 -0.871212 9.35134 14.5211 7.90688 -0.00315556 0.00552591 0.00150304
164 2 -0.959588 9.37519 4.07454 11.2988 0.00438857 -0.00208465 0.00192111
165 2 -0.873951 11.368 2.57493 11.6274 -0.0020386 -0.00276486 0.00130106
166 2 -0.929232 11.2785 3.97935 9.59928 0.00370867 0.000308654 -0.00326456
167 2 -0.895321 9.28952 5.81055 13.2624 -0.00456209 -0.000880816 0.000886792
168 2 -0.889491 9.2036 8.22387 14.6351 -0.00205002 -0.0072203 0.00376947
169 2 -0.882832 10.7624 7.65723 12.6611 0.00819081 -0.00501767 -0.00293233
170 2 -0.903883 13.0801 2.16162 13.3699 0.00526657 -0.000853284 0.00610258
171 2 -0.891934 11.2135 14.588 13.0006 -0.00234485 -0.00911522 -0.00337127
172 2 -0.911729 12.9804 14.9623 11.1073 -0.00575333 0.0062478 0.00293364
173 2 -0.920127 13.0144 5.83678 9.81224 0.00522658 0.00313731 0.00138056
174 2 -0.923933 12.8094 7.60943 11.3233 -0.00415065 -0.00141005 -0.00517163
175 2 -0.882888 9.9168 10.0403 2.0678 -0.000734263 -0.00295148 0.0023597
176 2 -0.886659 9.84576 11.257 4.26789 0.00536924 0.00594054 0.00477027
177 2 -0.861388 11.4201 9.2873 3.97884 0.000448739 0.00151906 0.00134036
178 2 -0.896925 11.7768 11.357 2.46913 -0.00324949 0.00333968 -0.00351135
179 2 -0.91823 9.35839 13.1538 5.90757 0.00185822 0.00746972 -0.0021197
180 2 -0.906346 11.3596 12.989 7.47107 -0.00188906 -0.0010422 -0.00348047
181 2 -0.883199 12.9259 9.73271 6.0173 0.00805402 0.0073244 -0.00239618
182 2 -0.913748 13.2111 11.4023 7.8817 -0.00326752 -0.00128987 -0.00106007
183 2 -0.896986 12.9753 13.4387 2.11248 -0.00530992 0.000630528 0.00638099
184 2 -0.89523 10.9788 12.904 14.7565 0.00539773 0.00147483 -8.16355e-05
185 2 -0.892309 13.1924 11.449 14.5432 0.00379266 -0.00136995 0.00303561
186 2 -0.769231 9.11623 9.48005 9.65696 -0.00325333 -0.00240009 -0.00642386
187 2 -0.94942 9.53556 11.4132 11.2356 -0.00219299 0.00302284 0.00194404
188 2 -0.911715 11.2067 9.52671 10.9969 -0.0046478 0.00323799 0.0029822
189 2 -0.879205 11.0047 11.0868 9.11542 -0.00836727 0.0074961 -0.00124492
190 2 -0.915971 9.1424 13.2811 12.9283 3.15444e-05 0.00384628 0.00178416
191 2 -0.913873 12.6167 9.46638 13.0291 0.00334405 0.000457353 -0.00105896
192 2 -0.889943 12.5801 12.9313 9.79092 0.00301949 -0.00360894 -0.00301528
193 2 -0.601656 3.36564 6.46558 10.1443 -0.00230721 0.00485469 -0.000982696
194 2 -0.688279 6.88059 6.97584 14.1683 -0.00133112 0.00697675 -0.00240885
195 2 -0.589557 14.1806 6.61932 6.95997 0.0108066 0.00130203 -0.00307003
196 2 -0.766583 7.67394 6.99819 2.62557 -0.00395262 0.00208887 -0.00351062
197 2 -0.630058 12.3206 5.07005 5.17368 0.00288206 -0.00143134 -0.00405466
198 2 -0.710845 2.30894 3.85369 9.67485 -0.00621439 -0.00652983 0.00402981
199 2 -0.600387 13.2285 6.2975 14.6555 0.00534379 0.00597475 0.00351619
200 2 -0.642856 3.61703 10.0484 6.36706 -0.00645223 -0.00719048 -0.00171916
201 2 -0.658684 12.2027 5.20551 12.6098 -0.00219419 -0.00104011 -0.00474494
202 2 -0.632157 7.24989 7.28922 7.06084 0.0102424 0.00599159 0.00156714
203 3 0.499046 3.4737 3.99055 12.1676 0.0189818 0.0135178 -0.00250613
204 3 0.418249 4.29105 6.44214 10.1346 0.000985633 -0.0137765 -0.0148465
205 3 0.433933 6.19577 7.45066 13.6623 -0.00955597 0.0024041 0.0215579
206 3 0.421417 7.43401 6.62511 13.4953 -0.0077138 0.00869813 -0.00339906
207 3 0.392455 14.2606 7.04191 6.06571 0.0109876 -0.00218124 0.0016327
208 3 0.451231 13.7812 5.77722 6.7531 0.0101735 -0.00547862 -0.00587882
209 3 0.445499 7.44355 8.85219 3.08875 0.00749784 -0.0328925 0.00424427
210 3 0.453041 7.37687 7.03078 1.66232 0.0221173 0.0111587 0.0028635
211 3 0.41626 11.9856 5.38893 4.31002 0.0124862 0.0177614 0.00698144
212 3 0.423154 12.2008 4.09252 5.07171 -0.0228154 0.00646094 0.0443973
213 3 0.438182 1.58544 3.58401 9.06101 -0.00921171 -0.0133377 -0.0105396
214 3 0.413127 3.09488 5.51619 10.1956 -0.0136901 0.00401727 0.0112111
215 3 0.446695 10.2823 5.61335 15.5602 0.014462 -0.0359015 0.000484372
216 3 0.454632 13.3273 5.88779 13.7151 0.00854601 -0.00936913 -0.00806956
217 3 0.413374 3.06824 9.41164 6.84266 0.0318089 -0.00657553 -0.00286051
218 3 0.398159 2.96225 10.6411 5.97939 0.00455401 -0.023591 -0.000305771
219 3 0.421077 11.8596 5.93027 12.0112 0.00848533 0.0162261 -0.00142321
220 3 0.432926 12.0627 4.40996 12.0932 -0.0112229 0.00616684 -0.0339576
221 3 0.425484 6.50316 7.38433 6.38579 -0.00703759 -0.0038873 0.000695855
222 3 0.420931 7.88919 6.71423 6.59871 0.0130192 -0.00357874 0.00698009
ITEM: TIMESTEP
16000
ITEM: NUMBER OF ATOMS
222
ITEM: BOX BOUNDS pp pp pp
1.5151622237375202e+00 1.5644837776262470e+01
1.5151622237375202e+00 1.5644837776262470e+01
1.5151622237375202e+00 1.5644837776262470e+01
ITEM: ATOMS id type q x y z vx vy vz
1 1 1.82445 1.61776 15.4341 1.63866 -0.000834809 -5.77212e-05 0.00199234
2 1 1.82641 3.37829 3.00376 3.37897 -0.000278646 -0.00459023 -0.00131932
3 1 1.86334 1.70088 4.81461 5.16055 0.00161853 -0.00108054 -0.000395712
4 1 1.73667 3.34484 6.65616 6.8753 0.00191353 -0.0056193 0.000670483
5 1 1.66921 5.3238 15.4279 5.04648 -0.00383195 -0.000141242 0.00600765
6 1 1.71965 7.14612 3.04745 6.82103 0.0013999 0.0035518 -0.00345926
7 1 1.85438 4.84687 4.88327 1.53386 -0.00304487 -0.00162301 0.00621314
8 1 1.5386 6.48968 6.28821 3.7157 0.00112804 -0.000653189 -0.00249174
9 1 1.78943 15.5457 15.2296 8.23775 0.000263514 -0.00173742 0.000602045
10 1 1.50824 3.57608 2.77209 9.61116 0.00223496 -0.00240678 -0.00264097
11 1 1.54716 15.5934 5.17858 12.3113 -0.00279168 0.000790899 -0.00471476
12 1 1.72487 3.19094 6.93756 14.05 0.00281443 -0.00497449 -0.00450204
13 1 1.79305 5.02197 1.47851 12.0138 -0.000829897 -0.00200185 0.00214213
14 1 1.7626 6.67211 3.26927 13.8931 -0.00095684 0.000892327 9.74177e-05
15 1 1.69735 5.36378 4.92284 8.42688 0.0033913 -0.00106163 -0.00304644
16 1 1.74799 6.82908 6.65964 10.4922 0.00122888 0.00106536 0.00123455
17 1 1.72085 15.5363 8.82304 15.6443 -0.0038878 0.00280876 -0.00232027
18 1 1.59238 3.34026 10.4655 3.06666 0.00252061 0.00280582 -0.000475891
19 1 1.7487 15.5028 12.1062 4.81638 -0.00146307 0.000694536 -0.00608296
20 1 1.71392 3.29693 13.6592 6.52728 0.000726931 0.00158705 -0.00307686
21 1 1.63258 4.90089 8.64325 4.99984 0.00131709 -0.000603758 -0.00440496
22 1 1.75375 6.85618 10.3543 6.78367 0.00134895 0.00113269 0.00338949
23 1 1.82402 5.24954 12.1857 15.6068 0.00127173 0.00173085 -0.00247874
24 1 1.76956 7.15417 13.7114 3.27932 0.000794629 0.00120012 0.00120734
25 1 1.75656 1.54766 8.58787 8.58614 -0.00310457 0.00778103 0.00263515
26 1 1.85972 3.27338 10.3651 10.3003 0.000235657 -0.00212994 -0.00107341
27 1 1.79 15.7606 12.0625 12.1309 0.00093889 -0.0070068 0.0017726
28 1 1.78144 3.32757 13.8424 13.9386 0.00504002 -0.00171289 -0.00321559
29 1 1.79615 4.96291 8.47734 12.0183 -0.00322999 0.00230487 0.000356968
30 1 1.76241 6.61512 10.5155 13.5649 -0.00288548 0.00274719 -0.000792286
31 1 1.79567 4.98011 12.056 8.47991 0.00293241 0.000453219 -6.21539e-05
32 1 1.79645 6.69973 13.8775 10.1715 -0.00260881 -0.00264555 0.000736822
33 1 1.7655 8.56338 15.6984 1.43663 -0.000955579 0.000153898 0.00271372
34 1 1.74482 10.4306 3.35037 2.99471 0.00114336 -0.000682288 0.00450015
35 1 1.6734 8.79828 4.86526 5.10657 -0.000224141 0.00188538 -0.000449476
36 1 1.77506 10.3917 6.86894 6.91627 -0.000867909 -0.00119975 0.00173981
37 1 1.77754 11.9965 1.7301 5.0411 0.00161357 0.00112014 -0.000105622
38 1 1.76029 13.8273 3.34094 6.89484 0.00385989 0.00373771 -0.00072309
39 1 1.38837 12.7854 5.25078 15.5804 0.00288814 -4.89674e-05 -0.000997375
40 1 1.65274 14.3174 6.88293 3.57507 0.00413596 0.00264625 0.000960928
41 1 1.86844 8.77539 1.47341 8.80587 0.002289 -0.00051707 0.00101606
42 1 1.81884 10.4049 3.33083 10.5294 -0.00530291 0.00163917 -0.00410385
43 1 1.72325 8.61024 5.04985 12.3204 0.00149125 0.00272516 -0.000769778
44 1 1.59839 10.0956 7.14507 13.9391 0.00176826 -0.00326895 -0.00350648
45 1 1.88896 12.2018 1.42367 12.1654 0.00265107 -0.00292836 -0.00558914
46 1 1.68379 14.0779 3.05974 13.9333 -0.00183775 -0.00237656 -0.00211621
47 1 1.77154 12.1316 5.18117 8.74328 0.000379742 -0.000358453 -0.000641122
48 1 1.75558 13.9141 6.94937 10.4624 0.00361059 -0.0034536 0.00270704
49 1 1.61318 8.59938 9.24491 15.4682 -0.000865904 -0.00266388 -0.00244103
50 1 1.78625 10.6367 10.5021 3.17903 0.0021269 0.00287943 -0.00227724
51 1 1.80188 8.81968 12.0063 5.13825 0.00150088 -0.00457414 -0.000665887
52 1 1.7404 10.4091 13.9162 6.88667 -0.00311864 0.000787129 0.00371797
53 1 1.79491 12.1543 8.55211 5.04907 -0.00182469 -0.00269632 0.000376682
54 1 1.83778 13.9137 10.3563 6.79044 -0.00387314 0.00527581 -0.0033102
55 1 1.8206 12.057 12.3869 15.4011 0.00245476 0.00180212 0.000899515
56 1 1.79447 13.6543 14.0516 3.22937 0.00113781 -5.17853e-05 -0.00227902
57 1 1.64884 8.40134 8.50431 8.59738 -0.000807683 -0.0054721 -0.00229203
58 1 1.71434 10.334 10.3637 10.2349 0.00735086 6.15738e-05 0.00145522
59 1 1.82816 8.48192 12.1416 11.8355 -0.00421219 0.00433025 -0.000466447
60 1 1.83794 10.1265 13.9162 13.6628 3.68686e-05 -0.00261999 0.00260435
61 1 1.71307 12.0802 8.6724 12.1323 -0.000287075 0.00434397 0.00490301
62 1 1.82002 13.8132 10.5306 13.8864 0.00178965 0.000112928 -0.000121192
63 1 1.8925 12.1642 12.1001 8.53452 -0.00211152 -0.00283222 0.00629526
64 1 1.86371 13.9109 13.7309 10.4216 0.00315895 -0.00480459 -0.00290334
65 2 -0.944404 2.49021 1.98316 2.68816 3.13796e-05 -0.0082277 -0.00810954
66 2 -0.934382 2.27134 14.4242 14.8391 0.00186042 0.0059288 0.0026039
67 2 -0.816725 15.2222 2.3511 14.6957 -0.00170436 0.00280958 -0.0036445
68 2 -0.932681 14.4623 14.9353 2.30706 0.00251841 -0.000780612 -0.00289225
69 2 -0.92512 2.44607 3.79347 4.37177 -0.00762841 0.00275048 -0.00385738
70 2 -0.855494 4.53664 2.39085 4.19778 -0.00603579 0.010169 0.00215394
71 2 -0.912956 3.96537 3.91341 2.26033 -0.0075272 0.000925813 -0.000594051
72 2 -0.941815 2.63753 5.52729 6.1945 0.00207478 0.00463716 0.00036238
73 2 -0.981514 14.6945 4.08767 5.92637 -0.00122116 -0.000884127 -0.00578992
74 2 -0.91394 15.3646 5.93233 4.25759 0.0031232 -0.00220881 0.00304038
75 2 -0.914693 4.38008 5.92474 7.82612 0.00640629 0.000655147 0.00348103
76 2 -0.847436 4.09949 7.51145 5.80024 -0.000937768 -0.00120414 -0.00146118
77 2 -0.904362 2.53789 7.69009 7.73308 0.00397834 -0.00210584 0.00781851
78 2 -0.859474 6.26303 1.9435 6.11555 -0.00294582 -0.000177352 0.0114901
79 2 -0.871116 4.29309 14.6815 5.91016 -0.00689291 0.00198872 0.00365367
80 2 -0.845849 5.9628 14.4352 3.94436 -0.0088621 -0.00187885 -0.000322837
81 2 -0.859631 6.40532 4.2943 7.44771 0.00470618 0.00456387 0.00789936
82 2 -0.845981 8.03581 3.69726 5.80745 0.00406949 0.0104066 0.000828961
83 2 -0.889869 8.18755 2.50911 7.85948 -0.00202083 0.00573075 0.00970302
84 2 -0.867901 5.52279 5.46003 2.83451 -0.00340966 0.00682926 -0.00171941
85 2 -0.886541 4.02216 6.10862 15.0985 0.00136208 0.00481592 0.00716541
86 2 -0.969785 5.72161 4.19539 14.7012 -0.000964015 0.00463524 -0.000573643
87 2 -0.822116 5.92319 7.60981 4.33875 -0.00387379 0.00446044 -0.005651
88 2 -0.833942 7.50338 5.60964 4.71058 -0.00534714 -0.00153632 0.0043976
89 2 -0.700136 7.55629 9.38947 2.49081 -0.00244382 -0.00423121 -0.00210336
90 2 -0.847276 2.61944 1.66605 8.95898 -0.00450834 0.00398752 0.00535252
91 2 -0.863366 2.07846 14.3601 7.20725 0.00067435 0.000773159 -0.000928646
92 2 -0.892353 14.6415 2.24855 7.66763 0.00201886 0.00570613 -0.0115608
93 2 -0.869256 14.658 14.3844 9.23245 0.00226292 0.00295047 -0.0040087
94 2 -0.694989 2.92291 4.69203 11.9791 0.00037121 -0.00760038 0.00210339
95 2 -0.865903 4.26109 2.31154 10.9604 -0.00193434 -0.00226958 -0.000134825
96 2 -0.856958 4.62008 3.64506 8.83831 -0.00469652 0.00334842 -0.00397529
97 2 -0.861707 2.03477 6.18703 13.3914 -0.00421715 0.00173571 0.00374395
98 2 -0.846351 14.8701 3.93776 12.8585 -0.000523125 0.00449357 0.00097347
99 2 -0.877258 14.9145 5.92818 11.1432 0.00685706 0.00189441 0.00308497
100 2 -0.854428 2.34411 8.09081 14.6481 0.00134646 -0.000436921 -0.00817608
101 2 -0.906429 4.21128 7.52107 13.009 -0.00227782 -0.00398013 0.00288191
102 2 -0.888206 5.85905 2.5215 12.8103 0.00197429 -0.00577469 0.00156604
103 2 -0.882666 4.04781 14.9405 12.997 0.00197914 -0.000286362 0.00556881
104 2 -0.91137 5.92034 14.5982 11.2929 -0.00946944 -0.00143737 0.00714979
105 2 -0.869387 7.33548 2.34488 14.9955 0.00654679 0.00225092 0.0025801
106 2 -0.89754 7.83626 4.04794 13.2515 -0.0022796 -0.00165185 0.000972373
107 2 -0.88387 5.97618 5.55739 9.72928 -0.00489823 0.00270249 -0.000324896
108 2 -0.926119 5.72302 7.5929 11.0695 -0.00184951 0.00831047 -0.00375238
109 2 -0.943084 7.57095 5.9639 11.6489 0.00787089 0.000448805 -0.00133766
110 2 -0.869529 7.76128 7.53408 9.66677 0.000713497 0.00295114 -0.000124326
111 2 -0.84755 2.43598 9.89113 1.97139 -0.00834918 -0.00502393 0.00325365
112 2 -0.863403 15.0249 7.98518 2.74978 -0.000380722 -0.000187072 -0.00431297
113 2 -0.898262 14.409 9.56496 14.8923 -0.00090222 0.00264498 -0.00164404
114 2 -0.85109 2.21109 10.9401 4.18185 -0.00420735 -0.00421988 -0.0068598
115 2 -0.836526 4.31774 9.42908 3.82662 -0.00229134 -0.00480005 0.00205214
116 2 -0.860455 4.32581 11.5521 2.55174 7.0275e-06 -0.000161809 -0.00272624
117 2 -0.912592 2.41616 12.9584 5.43119 -0.0016109 -0.00453511 -0.00335315
118 2 -0.916906 14.6694 11.4158 5.92989 0.00114609 -0.00116873 -0.00281976
119 2 -0.883049 14.5492 12.9265 3.88082 0.00529207 0.00054525 -0.00589395
120 2 -0.895292 3.89176 12.7325 7.6607 -0.000928008 -0.000383876 -0.00118199
121 2 -0.857862 6.01996 9.34636 5.89219 0.0023503 -0.00325536 -0.000261044
122 2 -0.882584 6.021 11.4541 7.46458 -0.00204646 0.000472886 -0.00425672
123 2 -0.902203 7.92964 11.0155 5.91805 -0.00425295 -0.00127996 -0.00124894
124 2 -0.843463 7.42972 9.54157 7.96105 -0.00218083 -0.00525363 -0.00114566
125 2 -0.882754 6.46337 12.749 2.20538 -0.00237467 -0.0042365 -0.000606807
126 2 -0.879659 4.35571 13.2831 14.9784 0.00596054 -0.000964093 -0.000844257
127 2 -0.95367 5.60283 11.2681 14.4767 -0.00148472 0.00228104 0.00266591
128 2 -0.889738 8.0801 14.7213 2.56893 0.000928805 -0.0031176 0.00429748
129 2 -0.924552 7.89786 12.9159 4.32508 -0.00504695 0.00624479 0.00534363
130 2 -0.967636 2.4036 9.65586 9.29171 -0.0043568 -0.000648896 0.000272442
131 2 -0.919842 14.72 7.89864 9.56843 0.000996916 -0.00640399 0.00395042
132 2 -0.942814 14.8048 9.35282 7.48888 0.00478659 -0.000423951 0.00274538
133 2 -0.920501 2.64347 11.4518 11.1928 -0.000765327 0.00113021 0.00220717
134 2 -0.910735 3.96223 9.30863 11.2061 7.9482e-05 -0.000749678 0.00400767
135 2 -0.904312 4.38264 11.0645 9.5056 0.0120296 -0.00446511 0.000331248
136 2 -0.891172 2.64162 12.7885 13.082 -0.000605464 0.00288842 0.00243946
137 2 -0.927335 14.7729 11.0182 12.8073 0.00664587 -0.00338817 -0.000121995
138 2 -0.949539 14.8913 13.0689 11.3266 -0.00204008 -0.00260814 0.000416585
139 2 -0.923997 6.01739 9.25411 12.8302 -0.00197638 0.00110746 -0.00434917
140 2 -0.846624 7.79376 10.0774 14.4149 -0.000876214 -0.00125068 -0.000743766
141 2 -0.866299 7.2987 11.3627 12.461 0.00212303 0.000197392 0.00226568
142 2 -0.887552 5.63425 13.2008 9.27328 -4.61888e-05 -0.00152637 0.00223347
143 2 -0.908772 7.54757 14.9896 9.49785 0.00183259 -0.00152992 0.00203692
144 2 -0.905264 7.72684 12.8396 10.7035 0.00463372 0.00381337 -0.0125185
145 2 -0.887174 9.60848 2.51972 2.00011 -0.00110696 -0.00142027 -0.0036755
146 2 -0.922901 9.36327 14.917 14.4762 -0.00450691 0.0009333 0.00353094
147 2 -0.889182 9.42543 4.1588 3.85718 -0.00414471 0.0015704 0.00739109
148 2 -0.977002 11.3751 2.51068 3.91708 -0.00013099 -0.00548424 -0.00839066
149 2 -0.792525 11.127 4.37225 2.14904 -0.000861485 -0.0016984 0.0022109
150 2 -0.909361 9.43854 5.885 6.09417 0.000734888 0.00483593 -0.0031454
151 2 -0.944111 11.1594 6.04774 7.99846 -0.00769397 -0.00369957 -0.00355592
152 2 -0.932846 11.1578 7.7214 5.9144 -0.00243759 -0.00296301 -0.00679674
153 2 -0.858578 9.51606 7.90227 7.57166 0.00471874 8.96009e-05 0.00137761
154 2 -0.914899 12.7094 2.528 6.14743 0.00187146 0.00920402 0.000189907
155 2 -0.844679 10.9481 15.0427 5.86626 -0.00241165 0.00820646 0.00242575
156 2 -0.888175 12.9921 14.9022 4.33085 0.00405464 -0.0030514 -0.000892806
157 2 -0.91854 13.0819 4.42668 7.78184 0.0045548 0.00945115 -0.00420733
158 2 -0.831118 13.5601 5.82883 2.66094 5.87856e-05 -0.000538761 0.00230268
159 2 -0.677269 10.8972 6.51365 15.2693 0.00389486 0.00119382 0.0028381
160 2 -0.834513 13.5734 4.08122 15.023 0.0102318 -0.00132601 -0.00758163
161 2 -0.925858 13.267 7.64902 4.47994 -0.00146643 -0.00826598 -0.00250333
162 2 -0.928216 9.54306 2.28702 9.8501 0.00167544 0.000729252 0.00902941
163 2 -0.911274 9.6254 14.608 8.04494 0.00777264 -0.000195433 0.00405664
164 2 -0.940651 9.56026 4.31476 11.3231 -0.00565804 -0.00015324 0.00774409
165 2 -0.916836 11.4562 2.53998 11.3467 0.00481478 -0.00116797 0.00118561
166 2 -0.881864 11.2484 4.05467 9.42736 0.00120816 0.000779977 -0.00132819
167 2 -0.913206 9.39218 5.97176 13.3182 0.00089602 -0.00523186 -0.00267094
168 2 -0.873225 9.01783 8.02529 14.6016 -0.00108922 -0.000960674 0.00301449
169 2 -0.867757 11.0963 7.68672 12.9011 -0.000850122 0.00315877 0.004067
170 2 -0.913828 13.1376 2.07496 13.2012 0.0043964 0.0022557 0.00149092
171 2 -0.962186 11.2374 14.5668 12.7817 0.000716619 -0.00101447 0.00118962
172 2 -0.932078 13.1073 14.7882 11.2571 0.00704492 0.0072854 -0.00106656
173 2 -0.954787 12.8654 6.08899 9.74538 -0.00725269 -0.00595786 0.00306907
174 2 -0.905413 13.0477 7.62432 11.5696 0.00193235 0.00352285 -0.000382496
175 2 -0.879455 9.83449 9.88913 2.04559 0.000465788 -0.00564013 0.00183084
176 2 -0.939231 9.93281 11.3616 4.20276 0.00331565 -0.000573225 -0.000251854
177 2 -0.875911 11.4676 9.39866 3.95635 0.000978994 -0.00740751 0.00553674
178 2 -0.835057 11.674 11.2839 2.29609 -0.00106317 8.21467e-05 0.0027155
179 2 -0.88175 9.42653 12.9258 6.22377 0.00221183 0.00547034 -0.00228637
180 2 -0.903782 11.5576 13.1726 7.59717 0.000149789 0.00492089 0.00223106
181 2 -0.946055 12.9742 9.43452 5.96061 0.00189149 -0.00516122 -0.00735688
182 2 -0.957193 13.0344 11.1122 7.77187 0.0025931 -0.0021402 -0.000239912
183 2 -0.88838 12.5846 13.3843 2.31533 5.87043e-05 -0.00164122 -0.00672382
184 2 -0.919496 10.8587 12.9855 14.669 -0.000852501 -0.00359539 -0.00367109
185 2 -0.950641 13.0213 11.741 14.4218 -0.0123492 -0.00278771 0.00502808
186 2 -0.778468 9.22782 9.56881 9.53986 0.0034624 -0.00462153 -0.00282537
187 2 -0.881242 9.54599 11.1368 11.3421 0.000892849 0.00672238 0.00635181
188 2 -0.87911 11.3557 9.39811 10.9688 -0.00145662 0.00443392 0.00267198
189 2 -0.908966 11.0466 11.3617 9.25812 -0.00225572 -0.0057025 -0.0024854
190 2 -0.944379 9.09109 13.1276 12.8098 0.0055642 -0.00500527 0.00382855
191 2 -0.849304 12.7969 9.5586 13.202 -0.000764763 0.00286376 0.00293963
192 2 -0.932397 12.9725 12.7883 9.62548 0.00295513 0.00146896 0.00230547
193 2 -0.565131 3.23398 6.74491 10.0701 0.0053639 -5.71475e-05 -0.00114919
194 2 -0.685339 6.62266 6.81487 14.3018 -0.00268419 -0.00183924 -0.0028805
195 2 -0.606542 13.9956 6.77639 7.03719 0.000338906 -0.00339546 -0.00521166
196 2 -0.74043 7.52891 6.81621 2.66136 0.0010166 0.00345877 0.00278268
197 2 -0.657079 12.0305 5.0539 5.08482 -0.00659769 -0.00313965 0.00336518
198 2 -0.7167 2.31356 3.7168 9.75669 -0.00520704 -0.00235337 -0.00134031
199 2 -0.62052 13.2548 6.27954 14.4858 -0.000341542 0.00483951 0.000272319
200 2 -0.667889 3.51971 10.0358 6.43676 -0.00372706 -0.00212634 -0.00505253
201 2 -0.626598 12.164 5.08824 12.3294 -0.00410554 0.00918836 0.00694978
202 2 -0.64661 7.16901 7.16062 7.22075 -0.00305568 0.00187234 -0.00335478
203 3 0.436119 2.91286 3.72829 11.646 0.0160368 -0.003818 0.00382651
204 3 0.436154 4.19885 6.69496 9.83327 0.00200644 -0.00782722 -0.00623566
205 3 0.439188 6.03897 7.34414 13.7764 -0.00857817 0.0233872 0.00396902
206 3 0.428275 7.30752 6.46617 13.6755 -0.0159402 0.0102183 0.024791
207 3 0.419514 13.8586 7.57306 6.47904 -0.0273636 0.0193917 0.00891558
208 3 0.412444 13.3506 6.10769 6.73359 -0.0395909 0.00655847 0.00511367
209 3 0.460362 7.26667 8.57174 2.9485 -0.00278408 -0.00575456 -0.00660041
210 3 0.44039 7.14766 6.63381 1.69226 0.00472767 0.0114451 -0.0174798
211 3 0.39929 12.2705 5.3133 4.18445 0.00237256 0.0162195 0.00215723
212 3 0.393282 12.0364 4.10775 5.11388 0.00142756 0.00785694 0.0290324
213 3 0.389475 16.1633 4.0871 8.83818 -0.012362 0.0159662 0.00880612
214 3 0.422967 2.91058 5.84536 10.4331 -0.0183404 -0.0183195 -0.0106619
215 3 0.43598 10.351 5.65591 15.6148 -0.0467124 0.0116189 -0.0179748
216 3 0.41036 14.2151 6.0181 14.2495 -0.00642425 0.00119448 0.0127573
217 3 0.426001 2.98226 9.55486 7.04748 0.00976018 0.014003 0.00500941
218 3 0.417262 2.97514 10.6514 5.94934 -0.0163822 -0.0160772 0.0247557
219 3 0.473936 12.1007 6.00621 12.4306 -0.0115966 -0.0133221 0.00729892
220 3 0.409614 12.1726 4.92432 11.4026 0.00100555 0.0244518 -0.0146828
221 3 0.43802 6.76774 7.59467 6.44506 -0.0229163 -0.0135793 -0.00708306
222 3 0.432857 7.6335 6.36322 6.78328 -0.023831 -0.0337724 0.00669871
ITEM: TIMESTEP
17000
ITEM: NUMBER OF ATOMS
222
ITEM: BOX BOUNDS pp pp pp
1.5247939744659114e+00 1.5635206025534089e+01
1.5247939744659114e+00 1.5635206025534089e+01
1.5247939744659114e+00 1.5635206025534089e+01
ITEM: ATOMS id type q x y z vx vy vz
1 1 1.84428 1.59802 15.3561 1.67428 0.00280544 -0.00242524 0.00123063
2 1 1.91298 3.26916 3.11354 3.34645 0.00265734 -0.00477056 -0.000997516
3 1 1.79507 1.61767 4.96214 5.15389 0.00377263 -0.00437493 0.0036301
4 1 1.68204 3.50901 6.58762 6.97818 0.0012081 0.00187925 0.00429615
5 1 1.74016 5.22144 1.49059 4.95217 0.00172411 0.00327619 0.00303285
6 1 1.76435 7.2874 3.00702 6.65656 -0.00429022 0.00122421 -0.0038473
7 1 1.80141 4.76522 4.92777 15.6525 -0.00109533 -0.00330566 0.00410239
8 1 1.51287 6.68167 6.33423 3.46418 -0.0011691 0.00230973 -0.00315692
9 1 1.65456 15.4286 15.2498 8.27016 -0.00152019 -0.00233854 -0.00377426
10 1 1.49512 3.57452 2.66612 9.70149 -0.00128344 0.00128785 -0.00104997
11 1 1.5085 15.4875 4.98037 12.3666 0.00506179 0.00323702 0.00293093
12 1 1.71475 3.20281 6.90262 13.9118 -0.00198483 -0.00281963 -0.00278105
13 1 1.7711 4.94308 15.4308 12.1142 0.00194282 -0.00156457 0.00127962
14 1 1.77145 6.59877 3.21196 13.8798 0.00175983 -0.00236796 -0.00100903
15 1 1.69501 5.42461 4.70672 8.37493 0.000718757 -0.00253683 0.00307381
16 1 1.79812 6.71232 6.62684 10.4179 -0.000414625 -0.00196182 -0.00137619
17 1 1.78889 1.52842 8.86017 15.5257 -0.00520782 -2.00106e-05 0.00482288
18 1 1.71098 3.45086 10.379 3.14185 -0.000337673 -0.00456873 0.00141046
19 1 1.71558 15.6337 11.9458 4.97782 -0.0018071 -0.000348974 -0.00279648
20 1 1.79666 3.32488 13.8234 6.50207 -0.000186218 -0.00322565 -0.00223779
21 1 1.48085 4.99913 8.55757 4.99799 -0.000146868 0.000828468 0.00167478
22 1 1.71581 6.99943 10.4229 6.61948 -0.000843884 0.0037116 0.00294469
23 1 1.87984 5.24361 12.0912 15.5604 0.0025308 0.00207586 0.000862976
24 1 1.7701 6.99676 13.8985 3.19103 -0.000327486 -0.00666164 -0.00605991
25 1 1.79856 1.60175 8.41852 8.55997 0.000236099 0.00011533 0.000144876
26 1 1.88375 3.25153 10.4547 10.133 0.00458287 -0.00411591 -0.00407255
27 1 1.75836 15.6295 12.02 12.0934 -0.000430711 -0.00039829 -0.00519095
28 1 1.85782 3.24791 13.7451 13.9003 -0.00200632 0.00270325 -7.84853e-05
29 1 1.73793 4.88513 8.59927 11.9022 0.00240206 -0.00322315 -0.00110805
30 1 1.77785 6.68516 10.5158 13.4611 0.000325131 0.000802649 -0.00263234
31 1 1.93348 5.08328 12.1074 8.35065 0.00253415 0.00300946 0.00245797
32 1 1.73288 6.66972 13.867 10.2229 -0.000425655 0.00406465 -0.00146959
33 1 1.88719 8.66292 1.51368 15.5118 0.000445508 0.00493174 0.000441421
34 1 1.7639 10.4247 3.32644 3.03897 0.000311347 0.00155819 -0.000596188
35 1 1.7547 8.88381 5.00197 5.05874 0.00110956 -0.00212197 0.00233412
36 1 1.76665 10.4749 6.8738 6.86798 -0.00258151 9.10921e-05 -0.00332068
37 1 1.78007 12.029 1.62471 5.10611 0.010038 -0.00160378 -0.00545102
38 1 1.72875 13.804 3.38025 6.9183 -0.00135831 0.000535595 -0.00166586
39 1 1.31175 12.7617 5.36955 15.62 0.000883104 0.00333304 -0.00728047
40 1 1.69278 14.2983 7.08653 3.55176 0.000496012 -0.00416283 -0.000510886
41 1 1.83927 8.73903 15.5985 8.83611 -0.00427769 -0.000887989 0.000160983
42 1 1.7858 10.2548 3.40262 10.6709 0.00352859 -0.00349755 0.00193646
43 1 1.80156 8.40613 5.1345 12.4121 -0.00303424 -0.00184475 0.00105745
44 1 1.5798 10.0192 7.2189 13.9147 0.000539072 -0.00249967 -0.00124545
45 1 1.8334 12.1163 1.56842 12.1973 0.000584624 -0.0014456 -0.00282488
46 1 1.7194 13.9415 3.00623 14.1357 0.000804769 0.00287556 0.00145875
47 1 1.74257 12.012 4.99268 8.78102 -0.00121913 0.000260205 0.00180685
48 1 1.71877 13.8823 6.80037 10.4651 0.00279126 -8.04761e-05 -0.000537596
49 1 1.58312 8.71787 9.50875 15.4831 -0.00621661 0.00582372 -0.0027013
50 1 1.7992 10.6079 10.649 3.36455 0.00429656 -0.00276844 0.000408185
51 1 1.80022 8.77467 12.3231 5.0923 -0.00242741 0.00180893 -0.00122409
52 1 1.82934 10.4826 14.0079 7.02026 -0.00152503 0.00471414 0.00335458
53 1 1.86542 12.228 8.76694 5.12104 0.003345 0.000122782 0.00767322
54 1 1.84839 14.0086 10.3081 6.94927 -0.00333536 -0.0023432 0.00201522
55 1 1.7014 12.0974 12.3749 15.518 0.00185701 -0.00138702 0.00557511
56 1 1.72411 13.7635 13.8352 3.45089 -0.000664819 0.000401794 0.000953421
57 1 1.74129 8.44844 8.41189 8.51343 -0.00337283 0.00360704 0.000746947
58 1 1.81749 10.3122 10.2685 10.2077 0.000808583 0.0027974 -0.00109172
59 1 1.88619 8.61272 12.1155 11.8595 -0.00302 0.000746376 0.000375413
60 1 1.89423 10.2504 13.8706 13.6724 0.00677036 0.00182766 0.0013539
61 1 1.74497 11.998 8.5931 12.0649 -0.00304033 0.00173765 -0.000686148
62 1 1.7663 13.6866 10.3749 13.8131 -0.00104783 0.00103105 0.000194714
63 1 1.73216 12.2103 12.1307 8.64606 -0.00168122 0.000821417 0.00477866
64 1 1.72967 13.8333 13.8376 10.4954 0.000807769 0.00094174 -0.00283064
65 2 -0.931809 2.72502 2.05845 2.42048 0.00440228 -0.00239566 -0.0062999
66 2 -0.934032 2.1897 14.288 14.8644 -0.00337858 -0.00779057 -0.0118084
67 2 -0.933477 14.9803 2.1726 14.8729 -0.00664138 0.00140161 -0.00566635
68 2 -0.897234 14.833 14.7641 2.83252 -0.00187883 -0.00170112 0.00115678
69 2 -0.902895 2.22223 3.79961 4.25273 0.00154052 0.00812097 0.00211685
70 2 -0.919405 4.38742 2.60273 4.19089 0.00536267 0.00222655 -0.0103244
71 2 -0.925762 3.77316 4.22296 2.44733 -0.00192582 0.00300527 0.000726972
72 2 -0.859812 2.74763 5.49461 6.06321 -0.000428008 0.00097968 0.00163744
73 2 -0.965281 14.6874 4.34231 6.06936 -0.00013198 0.00254491 -0.00718973
74 2 -0.92919 15.1436 6.18477 4.49808 -0.0029528 0.00231701 0.00433599
75 2 -0.935084 4.48996 5.83833 7.88216 0.00439281 0.00435894 0.00129403
76 2 -0.830679 4.46601 7.35371 6.00587 0.000264801 0.00627219 -0.00750707
77 2 -0.96136 2.61423 7.60889 7.6707 0.00613793 0.00478321 0.000500812
78 2 -0.887072 6.47229 2.13057 5.67092 -0.00151596 -0.0010347 -0.00663483
79 2 -0.918927 4.23914 14.9472 5.96293 0.00239845 -0.00327236 0.00754312
80 2 -0.889251 5.84902 14.6788 3.8955 0.00224209 -0.00550858 0.000283352
81 2 -0.89024 6.47017 4.13422 7.39001 -0.000958191 -0.00370038 0.00148349
82 2 -0.842482 8.39361 3.83856 5.9187 0.00103417 -0.00304315 0.0112694
83 2 -0.920099 8.09488 2.3088 7.73921 -0.00227148 -0.00144163 0.00232749
84 2 -0.8745 5.68006 5.54275 2.58785 0.00167646 0.00433155 0.00391419
85 2 -0.909342 4.09395 6.10373 14.9097 -0.00058091 9.51871e-05 0.00209807
86 2 -0.929444 5.51029 3.96611 14.6109 -0.00218045 -0.00646022 -0.00309998
87 2 -0.73684 5.88742 7.63584 3.94092 -0.000435809 -0.00145398 0.00631141
88 2 -0.875208 7.52229 5.58535 4.53528 0.00350259 -0.000902349 0.00328798
89 2 -0.668412 7.59696 9.49949 2.50708 0.000937396 -0.00106548 -0.00563967
90 2 -0.798636 2.63412 1.53232 9.06479 0.000222799 0.00199162 0.000428979
91 2 -0.845772 2.08528 14.3067 7.32777 -0.00246012 -0.00297403 -0.00298788
92 2 -0.927852 14.7191 2.405 7.76345 0.00257844 9.50875e-05 0.003886
93 2 -0.84363 14.5549 14.3763 9.25266 0.00286321 -0.00590232 0.00909226
94 2 -0.739857 2.74467 4.41903 11.9582 -0.0103365 0.000726759 0.00742739
95 2 -0.882144 4.07232 2.19424 11.096 -0.00116231 -0.00466799 -0.00303614
96 2 -0.839431 4.69544 3.47295 8.97313 0.00062456 0.00642793 -0.000897847
97 2 -0.820673 2.02645 5.97061 13.438 0.000934661 0.00159041 -0.00659157
98 2 -0.882681 14.747 3.74471 13.0323 -6.92698e-05 -0.000689993 -0.00183302
99 2 -0.911559 14.65 5.77548 11.3277 0.000573351 0.000467126 -0.0014852
100 2 -0.887172 2.34539 7.96366 14.565 -0.0106402 0.00162665 0.00628066
101 2 -0.907668 4.03057 7.59115 12.7633 -0.00430239 0.000252328 -0.00539063
102 2 -0.871574 5.93986 2.2201 12.8717 0.00143042 0.00358188 0.000831008
103 2 -0.95759 4.05744 14.7605 13.1559 0.00191909 -0.00647006 0.00091787
104 2 -0.891289 5.7388 14.3561 11.3573 -0.000691239 0.00680755 0.0021946
105 2 -0.900331 7.5016 2.39768 14.8963 0.000694963 0.00381072 0.00117276
106 2 -0.966235 7.44212 4.16442 12.9822 0.000841944 -0.0060007 -0.00551613
107 2 -0.901513 6.03137 5.52573 9.57922 -0.00568901 -0.0050166 -0.00198754
108 2 -0.932562 5.66419 7.64086 10.94 0.00153356 -0.00132902 0.00185055
109 2 -0.950474 7.45608 6.07781 11.5927 0.00136036 0.00594846 0.000928942
110 2 -0.842813 7.7116 7.39769 9.51862 -0.00738876 6.12319e-05 -0.00274753
111 2 -0.851019 2.53789 9.91141 1.97105 0.000786673 -0.00410332 0.00887947
112 2 -0.876895 15.1978 7.98949 2.62947 0.00279039 -0.00355812 0.00034871
113 2 -0.912757 14.4454 9.39859 14.7736 -0.00214401 0.00224219 0.00097316
114 2 -0.872059 2.34346 11.0711 3.98132 -0.00457414 0.00552415 0.00123709
115 2 -0.847088 4.03996 9.20036 3.93735 0.00258072 -0.000803715 0.000973745
116 2 -0.920511 4.4748 11.4393 2.52883 -0.00528091 -0.00213128 0.00112466
117 2 -0.902626 2.53481 12.9786 5.52905 -0.00224895 -0.00645195 0.00484145
118 2 -0.932786 15.0171 11.0935 6.15769 0.000122108 0.00627456 -0.00190239
119 2 -0.85008 14.4683 12.6688 4.19996 0.0012473 0.00578275 0.0107456
120 2 -0.918899 4.26277 12.9052 7.33717 0.00380362 0.00157894 0.00139295
121 2 -0.757802 6.14188 9.60939 5.55513 0.00420266 0.00249569 0.00588721
122 2 -0.913518 6.21279 11.4544 7.52348 -0.00769091 0.00250613 -0.00193931
123 2 -0.872201 8.05938 11.1062 5.80863 0.00269126 0.00763589 -0.00482865
124 2 -0.852177 7.61965 9.35989 7.57809 -0.00130389 0.00123028 0.00237029
125 2 -0.872978 6.32582 12.9978 2.13243 -0.00213763 0.00481235 0.00541701
126 2 -0.863399 4.27625 13.0998 14.8363 -0.00277352 -0.0014908 0.00582277
127 2 -0.971251 5.77668 11.2392 14.4423 0.00206646 -0.00257967 -0.00067802
128 2 -0.916357 8.13268 14.6891 2.44976 -0.00427341 -0.000661711 -0.00157602
129 2 -0.878656 7.65747 12.9848 4.2589 -0.0044222 0.000894894 0.00779844
130 2 -0.955026 2.57133 9.40335 9.28659 0.00471281 0.00194874 -0.000775765
131 2 -0.902534 14.7398 7.75597 9.6054 -0.00233144 -0.000784962 -0.00436127
132 2 -0.954494 14.7789 9.18533 7.66751 -0.00245483 0.00046892 -0.00387384
133 2 -0.904272 2.27414 11.3524 10.8772 -0.00820803 0.00197934 -0.00565814
134 2 -0.919878 4.09553 9.66537 11.1594 0.0029543 0.00286053 -0.00233352
135 2 -0.980592 4.22673 11.2494 9.21477 0.000818566 -0.000451432 -0.00209247
136 2 -0.884545 2.64209 12.6312 12.9759 -0.00130527 -0.00337001 0.000530374
137 2 -0.869341 14.7867 10.9239 12.843 0.000288835 0.00566949 -0.00151991
138 2 -0.905817 14.7396 13.141 11.6092 0.00499441 -0.00157146 -0.00231166
139 2 -0.909551 5.88007 9.33032 12.8638 -0.00217912 -0.00986219 -0.00619073
140 2 -0.834104 7.97288 10.1381 14.313 0.00716707 -0.00407422 0.00609328
141 2 -0.914671 7.43604 11.3157 12.3657 -0.00339039 -0.00419161 0.00140467
142 2 -0.914618 5.70101 13.0818 9.30811 -0.00217371 -0.0067699 -0.000159983
143 2 -0.888071 7.5018 14.8859 9.39914 -0.00208832 0.00608394 0.00261384
144 2 -0.854214 7.87981 12.9427 10.7947 0.00569903 0.00352074 0.00247407
145 2 -0.933792 9.45078 2.44541 2.27351 0.00804506 0.000324609 0.00229181
146 2 -0.987476 9.55274 14.9294 14.4959 -0.00137442 -0.00295305 0.000604076
147 2 -0.915323 9.60853 4.26044 3.93242 -0.00926473 0.00529964 -0.000151167
148 2 -0.923783 11.3744 2.52146 3.99404 -0.00820911 0.00126308 0.0050348
149 2 -0.793297 11.0839 4.36264 2.13578 -0.000615567 -0.00304851 -0.00530173
150 2 -0.921291 9.50451 6.14958 5.87368 0.0040578 -0.00236136 0.00407001
151 2 -0.902058 11.0403 5.83154 7.8341 0.00523224 0.00112875 0.00231078
152 2 -0.914178 11.4103 7.76399 5.9366 0.000325481 -0.000600553 0.000453471
153 2 -0.875769 9.64583 7.77845 7.79048 -0.00703591 -0.00270114 -0.00367228
154 2 -0.951888 12.8951 2.57737 5.95468 0.00289038 -0.00467529 -0.00587926
155 2 -0.889372 10.9693 15.135 6.07838 0.000687546 -0.0115272 -0.00111029
156 2 -0.892226 12.742 14.6094 4.40292 7.59857e-05 -0.0024478 -0.00454598
157 2 -0.932588 13.086 4.19371 8.02253 -0.00367355 0.001498 0.00296053
158 2 -0.80371 13.4296 6.01863 2.78386 -0.00375765 0.00582057 0.00413785
159 2 -0.676993 10.8761 6.56027 15.1892 0.000103637 -0.000464657 -0.00185817
160 2 -0.819892 13.524 4.07697 15.2075 0.00387527 -0.00169616 0.00526488
161 2 -0.946456 13.2022 7.90088 4.32778 -0.00295853 -0.00325765 0.0106375
162 2 -0.896205 9.36045 2.33159 9.97292 0.00482828 0.00479564 0.00234159
163 2 -0.934583 9.77113 14.6091 8.19119 -0.00767351 0.00248341 -0.0019527
164 2 -0.893005 9.43735 4.48548 11.4604 -0.00439087 0.00301396 -0.00188477
165 2 -0.916804 11.2318 2.60326 11.5555 -0.000810237 0.00237682 0.000221715
166 2 -0.881027 11.1871 3.98636 9.58381 0.00170771 0.000424296 -0.00610745
167 2 -0.927776 9.18893 6.00898 13.432 0.00730407 0.00414603 0.0033045
168 2 -0.817857 9.10317 8.1869 14.6896 0.00874886 0.000972334 -0.0024696
169 2 -0.875375 10.8754 7.81407 12.7957 0.000609305 0.00386216 -0.0018267
170 2 -0.907604 12.8259 2.15757 13.4741 -0.0084256 0.00153126 -0.00164379
171 2 -0.945391 11.1921 14.5752 12.6765 -0.00441273 -0.00165786 -0.00155657
172 2 -0.879706 13.0946 15.0696 11.188 0.00531772 -0.00424322 -0.00704747
173 2 -0.879235 12.8457 5.75044 9.83945 -0.00171013 0.00149318 0.00311391
174 2 -0.913062 12.963 7.53781 11.4287 -0.00162488 -0.00974276 0.00314621
175 2 -0.892009 9.94176 10.1057 2.13946 0.00105407 -0.00209272 0.00146447
176 2 -0.906141 9.78386 11.7266 4.12385 -0.00483318 -0.00657141 0.000767888
177 2 -0.916136 11.2418 9.54505 4.25449 -0.00875664 -0.0027346 0.00197389
178 2 -0.813541 11.7262 11.4722 2.65616 -0.00374181 0.00333422 -0.00393682
179 2 -0.908982 9.47742 13.2132 6.1402 -0.000192388 0.00449153 -0.00356397
180 2 -0.894605 11.5747 13.0595 7.55031 0.00172637 0.00377453 -0.00587271
181 2 -0.965969 12.9114 9.77895 6.04447 0.00199035 -0.00065473 0.00441231
182 2 -0.847301 13.3642 11.3488 7.92762 -0.00243004 0.00374556 0.000192583
183 2 -0.851008 12.9431 13.3775 2.20986 -0.000856084 0.00120471 0.00639273
184 2 -0.92288 10.902 12.9064 14.6774 0.00176818 -0.00479546 0.00669374
185 2 -0.863314 13.0929 11.5775 14.588 0.00395694 -0.00067196 -0.00475967
186 2 -0.826678 9.20826 9.41735 9.46327 0.00286874 0.00190192 -0.00211684
187 2 -0.948682 9.62874 11.1362 11.2654 -0.00075042 -0.0100882 6.41662e-05
188 2 -0.861595 11.2034 9.25795 10.9228 -0.00336861 0.0103958 0.00270241
189 2 -0.896724 11.2746 11.0255 9.29857 0.00075894 -0.00140572 0.00133847
190 2 -0.962681 9.23574 13.0874 12.8387 0.00601942 -0.00524852 0.00213127
191 2 -0.914315 12.6119 9.71952 12.9728 0.00227892 0.00289246 -0.0032835
192 2 -0.888937 12.8039 12.9858 9.78465 -0.00179865 0.000173029 0.00230842
193 2 -0.582625 3.22191 6.42339 10.2078 0.00229845 0.000778953 -0.000859647
194 2 -0.647182 6.51474 7.14956 14.3194 0.00104847 -0.00465932 -0.00201424
195 2 -0.605141 13.68 6.79559 7.0185 -0.00149343 0.00438218 0.000531747
196 2 -0.737091 7.80496 6.89072 2.47182 0.00412672 0.00896713 -0.00455853
197 2 -0.628282 12.1053 5.09659 4.81472 0.0100925 -0.0045997 -0.00231839
198 2 -0.741788 2.42557 3.79094 9.52502 0.00183827 0.00530006 0.00750706
199 2 -0.690301 13.3376 6.32639 14.5594 0.000205973 -0.000721131 -0.000242358
200 2 -0.663995 3.66615 9.81521 6.37534 0.00603785 -0.00724912 -0.00573142
201 2 -0.588993 12.0929 5.15486 12.487 0.000577759 -0.000690349 -0.00457088
202 2 -0.632629 7.03528 7.10356 7.07027 -0.000693176 0.00584642 -0.00667007
203 3 0.439151 2.85965 3.41418 12.0051 0.022348 -0.00292961 -0.0140936
204 3 0.436191 4.20841 6.42302 10.1187 0.0244346 -0.00658099 -0.0199659
205 3 0.418668 5.70523 7.42142 13.896 -0.0186413 -0.000366902 -0.00821057
206 3 0.392003 7.00007 6.69806 13.5851 -0.016021 0.0293123 -0.0186835
207 3 0.424765 13.2585 6.78923 6.1448 0.0191509 0.0261503 0.015188
208 3 0.390594 13.9708 5.86189 7.24463 0.00362183 -0.0193556 -0.00864347
209 3 0.457816 7.15599 8.62188 2.60362 -0.0205469 -0.00391291 -0.00611522
210 3 0.448946 7.66815 6.63114 1.55102 0.0119957 -0.0127442 0.00532419
211 3 0.420241 11.9013 5.42274 3.90909 0.0149788 0.00497375 -0.0103542
212 3 0.418685 12.2498 4.14343 4.76073 0.0182583 0.0136695 -0.00720477
213 3 0.444725 1.69336 3.51339 9.03982 -0.00659522 0.00732293 -0.0211717
214 3 0.451103 2.87863 5.50175 10.4272 -0.00527591 0.00863446 -0.017888
215 3 0.423874 10.4828 5.54659 15.3767 -0.00440504 -0.000665427 0.00316419
216 3 0.416571 14.266 6.04003 14.2832 -0.01185 0.0119504 -0.0167731
217 3 0.411766 3.44099 9.33653 7.25553 -0.018874 -0.00477921 0.00375099
218 3 0.415618 2.87423 9.89105 5.89516 -0.00540671 -8.77419e-05 0.0320591
219 3 0.421705 12.4675 5.9724 12.8527 -0.0067838 -0.0156418 0.00748482
220 3 0.432144 12.6937 4.97641 11.7153 0.0159238 0.0134378 -0.0296539
221 3 0.427135 6.14781 6.74913 6.92649 0.0347053 0.020681 -0.0126579
222 3 0.428689 7.48458 6.77427 6.29078 0.0281756 -0.0155514 -0.00801251
ITEM: TIMESTEP
18000
ITEM: NUMBER OF ATOMS
222
ITEM: BOX BOUNDS pp pp pp
1.5201314437676992e+00 1.5639868556232322e+01
1.5201314437676992e+00 1.5639868556232322e+01
1.5201314437676992e+00 1.5639868556232322e+01
ITEM: ATOMS id type q x y z vx vy vz
1 1 1.83181 1.72412 15.4296 1.57695 -0.000887833 -0.00455278 -0.000707156
2 1 1.7948 3.46447 2.92556 3.36349 -0.00249289 0.00158997 5.04984e-05
3 1 1.75308 1.80928 4.83747 5.16074 0.00104154 -0.0045916 0.00157264
4 1 1.707 3.37489 6.76436 6.88462 0.000857735 -0.00259636 0.00452076
5 1 1.91088 5.37676 15.5228 5.14721 0.000904505 -0.00106035 0.00323467
6 1 1.85794 7.20887 3.11003 6.78681 0.000594326 0.00280339 -0.00384022
7 1 1.80472 4.77554 4.94304 1.57247 0.00178988 -0.00436352 0.00224265
8 1 1.583 6.3884 6.51484 3.65834 0.00284377 -0.00101618 -0.00168928
9 1 1.75097 15.5037 15.2679 8.50104 0.00255224 0.00125661 -0.000814327
10 1 1.52038 3.52631 2.88836 9.75609 0.00205695 -0.000985218 -0.000648887
11 1 1.53197 15.5923 5.14196 12.3531 -0.00444241 -0.000496671 -0.00132802
12 1 1.69117 3.26564 7.02358 13.8881 0.00424362 0.00151745 0.00271167
13 1 1.72205 4.92375 1.56321 12.1431 -0.00477718 -0.00155473 0.00105644
14 1 1.8827 6.6384 3.26703 14.039 8.73237e-05 0.000929697 -0.00420927
15 1 1.71135 5.31513 4.90173 8.29321 0.0046326 0.000750368 -0.00151526
16 1 1.67794 6.83761 6.67142 10.2925 0.00511376 -0.00119168 0.000150635
17 1 1.82263 15.7365 8.84694 15.6404 -0.00241899 0.00287299 -0.00465621
18 1 1.86354 3.39258 10.5987 3.18837 0.00301321 0.00367154 0.000937426
19 1 1.78432 15.524 12.1633 4.93758 -0.000561344 0.00322518 0.00378314
20 1 1.82815 3.36317 13.8767 6.65695 -0.00148283 0.0028824 -0.00532714
21 1 1.56441 5.01274 8.87321 5.26108 0.00329067 0.000930617 0.000774386
22 1 1.74247 7.00674 10.4755 6.94675 0.00418979 0.000246836 0.00298161
23 1 1.85094 5.13709 12.3013 15.5774 -0.00123127 -0.000942222 -0.00424753
24 1 1.87162 7.02067 13.7944 3.28344 -0.00075989 -0.00184696 -0.00120754
25 1 1.84055 15.5575 8.4811 8.51537 0.00197498 -0.000379032 -0.00177307
26 1 1.80614 3.20876 10.3 10.1678 0.00262273 -0.00359085 0.000692863
27 1 1.87268 15.4921 11.852 12.0191 -0.00372179 0.00427895 -0.000646967
28 1 1.78299 3.15755 13.6929 13.6531 0.00485008 0.000254764 0.00108618
29 1 1.67488 4.99158 8.53043 11.9012 -0.00366415 0.000202244 0.0014989
30 1 1.6777 6.66618 10.527 13.5807 -0.00463111 0.00221664 -0.00610186
31 1 1.78936 5.04862 12.2242 8.56312 -0.00707114 -0.00128514 0.000632825
32 1 1.80431 6.71746 13.9991 10.4136 0.000531787 0.000897088 -0.00271196
33 1 1.87069 8.55305 1.63069 15.6851 -0.000109253 -0.000836219 0.00120297
34 1 1.76299 10.3359 3.46382 3.10577 -0.00264058 0.00111484 -6.84316e-05
35 1 1.75699 8.68909 5.06983 5.11424 0.00066555 -0.00150892 -0.000740275
36 1 1.74929 10.4944 6.85399 6.84735 0.00114973 0.00208662 -0.00428031
37 1 1.84002 12.0372 1.63327 4.91263 0.00497485 -0.000260234 -0.0059029
38 1 1.79775 13.9055 3.20339 6.78427 -0.00251274 -0.00106391 0.000627259
39 1 1.3498 12.6452 5.322 15.6132 0.000430772 0.00606092 0.000735019
40 1 1.67747 14.3774 6.90399 3.48342 0.0045371 -0.00527805 -0.00043754
41 1 1.86991 8.72751 15.4733 8.72639 -0.00141659 -0.00269367 0.00105749
42 1 1.7288 10.3502 3.2114 10.3845 0.00395928 -0.000835923 0.0004781
43 1 1.74179 8.38667 4.8785 12.1579 -0.00219961 0.00109729 0.00033813
44 1 1.6217 9.93857 7.01611 13.8224 -0.00511104 -0.00423932 -0.00101393
45 1 1.86593 12.1253 15.6213 12.1943 -0.0070324 0.00408261 0.000589416
46 1 1.69641 13.9949 3.09101 14.0337 -0.00457004 -0.00271012 0.00177164
47 1 1.69407 12.1266 4.94595 8.61394 -0.00229949 0.00195676 -0.00116475
48 1 1.70944 13.833 6.74561 10.3475 0.00456705 -0.00218209 0.0021373
49 1 1.71204 8.78457 9.36699 15.4109 0.00313109 -0.00330175 -0.000135626
50 1 1.7899 10.7411 10.442 3.2776 -0.0015023 -0.00023017 0.00114843
51 1 1.93628 8.87468 11.9497 5.04397 -0.00112937 0.00298578 -0.000830747
52 1 1.91323 10.4627 13.8826 6.76725 0.00499147 0.000237185 0.00331866
53 1 1.76118 12.2693 8.54069 5.0404 -0.000341376 0.00493013 -0.000485028
54 1 1.84799 13.8636 10.3761 6.80541 -0.00553149 0.00097365 -0.000225935
55 1 1.80619 12.1725 12.2585 15.5085 5.69502e-05 -0.000151261 -0.00441894
56 1 1.96746 13.8227 13.9676 3.24437 0.00605886 0.00191906 -0.00016154
57 1 1.72143 8.64714 8.55285 8.71658 -0.00212947 0.00795442 0.002708
58 1 1.75165 10.3111 10.4242 10.3159 -0.00542516 -2.76471e-05 -2.32934e-05
59 1 1.85257 8.58298 12.2337 11.9927 -0.00163151 -0.000445066 0.00235923
60 1 1.78996 10.2249 13.9478 13.837 0.00128942 -0.00207825 0.00328228
61 1 1.72 11.941 8.5058 12.0682 -0.00334904 0.000752495 -0.00297665
62 1 1.80942 13.723 10.2332 13.8372 0.00258619 0.00411659 -0.00404269
63 1 1.87452 12.0702 12.0524 8.52981 1.253e-05 -0.000915936 0.00149223
64 1 1.86507 13.7429 13.7074 10.4294 -0.00113241 0.0053983 -0.00620296
65 2 -0.891559 2.78511 1.81543 2.55027 0.00296295 -0.00151183 -0.00324873
66 2 -0.898932 2.23291 14.4139 14.6649 -0.00276392 0.000525945 0.00260059
67 2 -0.867407 15.1241 2.41628 14.8869 -0.00202231 0.00810941 -0.00525375
68 2 -0.961255 14.8527 14.8346 2.63119 -0.000483974 -0.000581756 -0.00440236
69 2 -0.867424 2.42441 3.75742 4.18958 -0.00644117 -0.00993188 0.00163874
70 2 -0.96172 4.59736 2.39445 4.29032 0.0081049 0.00788016 0.0059038
71 2 -0.898878 3.86918 3.87206 2.237 -0.00418885 0.00229683 -0.00196947
72 2 -0.894706 2.85304 5.64668 5.9372 -0.00128194 0.00967666 0.00545571
73 2 -0.983847 14.9183 4.11978 6.10063 -0.000360653 -1.73923e-05 -0.00289156
74 2 -0.881488 15.2996 5.94824 4.32079 0.00379558 -0.00210967 -0.00825453
75 2 -0.914432 4.23988 5.95658 7.84896 -0.00115845 -0.00787347 -0.0058225
76 2 -0.872325 4.3474 7.74964 6.1553 -0.00451031 -0.00142853 -0.00308374
77 2 -0.925001 2.27766 7.39811 7.82966 -6.16157e-05 -0.00393791 -0.00504303
78 2 -0.998768 6.47597 2.1399 5.92772 -0.000578952 -0.000236161 0.0102566
79 2 -0.981602 4.42703 14.7342 5.99445 0.006762 6.16963e-05 0.00149976
80 2 -0.936367 6.13493 14.4481 4.2847 -0.00103721 0.00164682 0.00485992
81 2 -0.940125 6.31852 4.14673 7.44156 0.00816772 0.00154762 0.00632325
82 2 -0.914333 8.27262 3.89886 5.96811 -0.00292013 0.00320265 -0.0049963
83 2 -0.895753 8.10402 2.48181 7.9449 0.00147861 0.00136754 0.00338279
84 2 -0.893799 5.4116 5.81121 2.70455 -0.00385075 0.00268237 -0.0122233
85 2 -0.826919 4.07812 6.12177 14.9035 -0.00161877 0.00270852 0.00709947
86 2 -0.97561 5.83799 4.22875 14.9242 0.00193541 -0.00345176 -0.00466007
87 2 -0.833609 5.97252 7.77826 4.39772 0.00482003 -0.00188651 0.00164662
88 2 -0.881941 7.33998 5.71269 4.55529 -0.000789587 -0.00386102 -0.00311615
89 2 -0.737074 7.77545 9.26756 2.43783 -0.00307085 -0.00561213 0.00289277
90 2 -0.887707 2.56863 1.79309 9.19148 -0.00327872 -0.00319583 -0.00172816
91 2 -0.898024 2.19745 14.5951 7.41047 0.000934569 0.000179714 -0.00115679
92 2 -0.895114 14.4833 2.2456 7.84723 -0.00206155 -0.0037461 0.00866336
93 2 -0.927478 14.7936 14.2884 9.44236 0.000219729 -0.00506835 -0.000819299
94 2 -0.692022 2.79102 4.35663 12.4484 0.000813042 -0.000801589 -0.000415356
95 2 -0.866926 4.32325 2.51135 11.0542 -0.00351664 0.00641055 -0.00044806
96 2 -0.793101 4.49203 3.63567 8.7573 -0.00659441 0.00901112 -0.00160955
97 2 -0.84186 1.98949 6.22716 13.3803 -0.00385 -0.00464953 0.00399879
98 2 -0.83084 14.6192 4.02531 12.971 0.0050158 -0.00112928 -0.00252112
99 2 -0.840316 14.7905 5.7405 11.1715 -0.0038864 0.00617908 -0.00401733
100 2 -0.863178 2.58159 8.21266 14.6399 0.0112373 -0.00644564 0.00265501
101 2 -0.912555 4.34112 7.56925 12.9546 -0.00163884 0.00242611 0.00171188
102 2 -0.857376 5.50991 2.47684 13.2927 -0.00710965 -0.00143359 0.00094535
103 2 -0.855616 3.85802 14.597 12.5806 0.00197095 -0.00391522 -0.00335002
104 2 -0.899763 5.99048 14.8112 11.5194 0.0021161 -0.00673267 0.00322475
105 2 -0.937878 7.39409 2.27654 14.9 0.00141329 -0.00623385 -0.00413823
106 2 -0.954633 7.60579 3.84267 13.0555 -0.00427643 -0.000910157 0.00369468
107 2 -0.885329 5.95022 5.59848 9.55586 0.00425756 -0.00215029 -0.00520416
108 2 -0.883361 5.86724 7.77617 10.8389 0.00155931 0.000995215 0.00217009
109 2 -0.906153 7.43444 5.87918 11.4871 0.00411391 0.00215648 -0.000173406
110 2 -0.869925 7.93552 7.47794 9.52409 -0.002956 0.00293632 0.00300222
111 2 -0.89784 2.52289 9.90254 2.10372 0.00889652 -0.00670832 -0.00140976
112 2 -0.879128 15.2772 7.84316 2.62012 -0.000308954 -0.00435106 -0.002725
113 2 -0.910907 14.5474 9.48327 14.8768 0.00526716 0.000104714 0.000884109
114 2 -0.920071 2.304 11.2416 4.10291 0.0056094 -0.000313125 -0.00329297
115 2 -0.856726 4.18113 9.60731 4.02003 -0.00406502 0.00239193 0.00217769
116 2 -0.973009 4.21342 11.6161 2.47416 0.00123103 -0.00213539 0.00113985
117 2 -0.86127 2.4539 13.17 5.56728 -0.00587949 0.000428076 -0.00382879
118 2 -0.93633 14.8084 11.4092 6.06525 -0.00300227 0.00780976 -0.00215734
119 2 -0.932867 14.5215 12.8147 4.00409 -0.00435595 0.00390309 0.00656779
120 2 -0.959177 4.13527 12.9021 7.5152 -0.00326642 -0.0033689 -0.00374619
121 2 -0.834215 6.17924 9.70555 5.88282 -0.0061456 -0.000988619 -0.00440184
122 2 -0.912039 6.1379 11.4688 7.78292 2.99081e-05 -0.000581098 0.00613613
123 2 -0.912544 8.09707 11.1832 6.06404 0.000874894 -0.00277706 0.00485603
124 2 -0.866948 7.63818 9.34647 7.79549 0.00370455 -0.00066219 0.00279454
125 2 -0.93958 6.13904 13.2114 2.15305 -0.000530632 0.00356166 0.000307922
126 2 -0.851895 4.31602 13.2216 14.6118 0.00136734 0.00444726 -0.00599817
127 2 -0.894591 5.71729 11.2891 14.5868 -0.00346467 -0.000163809 -0.000537191
128 2 -0.959307 7.99286 14.7918 2.61324 0.00429459 -0.0051126 -0.00360746
129 2 -0.903551 7.85076 12.7855 4.12659 0.00136154 0.000549083 0.000921286
130 2 -0.966141 2.50068 9.30405 9.19187 -0.00194697 0.00305085 0.00200814
131 2 -0.92715 14.5653 7.82655 9.51726 -0.00381853 0.00161543 -0.000949419
132 2 -0.948651 14.8234 9.39635 7.49197 -0.00111667 -0.00390635 0.00251466
133 2 -0.932295 2.13897 11.2021 10.8968 0.0032218 0.00819557 0.00386889
134 2 -0.914511 3.97146 9.50069 11.1845 0.00443496 -0.00669983 0.00275559
135 2 -0.927885 4.14091 11.1468 9.29006 0.00217198 0.00515692 0.00398006
136 2 -0.941767 2.26035 12.6937 12.9798 0.00182644 0.000482932 0.00554748
137 2 -0.914809 14.7233 10.7581 12.8062 0.00221619 -0.00245476 0.00352662
138 2 -0.950153 14.4423 12.7483 11.3591 -0.00408753 3.5117e-06 0.00028827
139 2 -0.887375 6.03099 9.29544 12.7507 -0.00348218 0.00433749 0.00220701
140 2 -0.848396 7.9185 10.1626 14.4349 -0.00329122 0.00319372 0.00332244
141 2 -0.875306 7.38416 11.4883 12.6208 0.00279895 0.00368345 -0.00437927
142 2 -0.922327 5.71559 13.0871 9.64027 -0.000785749 -0.00273325 -0.00346987
143 2 -0.908256 7.46181 14.9591 9.46442 0.00211085 -0.00149884 -0.00350615
144 2 -0.903453 7.87811 13.1516 10.9497 -0.00214398 0.00248031 -0.000667888
145 2 -0.950751 9.47468 2.7006 2.13731 -0.000810476 0.00691407 -0.00191754
146 2 -0.898588 9.46074 15.035 14.6698 -0.00223826 -0.00191808 0.00346646
147 2 -0.895577 9.43554 4.42782 3.95071 0.00776606 -0.00451826 -0.00127306
148 2 -0.986905 11.3222 2.59817 3.99662 -0.00402104 0.000623838 0.00296359
149 2 -0.746231 11.034 4.46743 2.23312 0.00605611 -0.000179493 0.00036102
150 2 -0.938483 9.44992 6.17193 5.9093 0.000486321 0.000435049 -0.00323096
151 2 -0.899969 11.0895 5.84353 7.88893 0.00153391 -0.0040894 0.00194885
152 2 -0.950225 11.5375 7.62401 6.06665 0.00143957 -0.00108317 0.00103425
153 2 -0.829646 9.73593 7.93523 7.70768 0.000884952 -0.0018804 -0.00399394
154 2 -0.966021 13.0726 2.43678 5.71896 0.00190474 -0.00343657 0.0069525
155 2 -0.942417 11.1707 14.9183 5.91814 -0.00704245 0.00418951 0.00464182
156 2 -0.95457 12.8149 14.6862 4.08705 -0.00439381 -0.00348999 -0.001161
157 2 -0.935307 13.0341 4.17253 7.57117 -0.00762968 -0.000831002 -0.00645416
158 2 -0.836076 13.6547 5.89343 2.57519 0.000935598 -0.00124523 0.00273013
159 2 -0.761929 10.7341 6.42254 14.9918 0.00638635 0.00385733 3.61695e-05
160 2 -0.800229 13.2328 3.97676 15.036 -0.00262545 -0.00323439 -0.00750989
161 2 -0.918548 13.4186 7.79664 4.37875 0.000743691 -0.00376287 0.00228953
162 2 -0.902327 9.75394 2.02029 9.61177 -0.000730949 0.00206324 0.00280725
163 2 -0.954895 9.51239 14.5168 7.82546 -0.00137649 0.000247713 -0.00366081
164 2 -0.870136 9.28925 4.2332 11.0846 0.000679212 0.000335147 -0.000176503
165 2 -0.885762 11.2559 2.50931 11.4777 0.00207304 -0.00164613 -0.000408893
166 2 -0.88097 11.3603 3.86236 9.46675 0.0055213 -0.00503845 -0.00657673
167 2 -0.905495 9.09704 5.87954 13.1091 -0.00118517 0.00176447 -0.00364947
168 2 -0.873643 9.10537 8.08521 14.579 -0.000449951 -0.00267632 8.96879e-06
169 2 -0.887283 10.7775 7.76939 12.7463 -0.00332628 0.000162518 0.00153075
170 2 -0.899439 13.1088 2.03625 13.2597 -0.00255601 -0.00306241 0.00295463
171 2 -0.906836 11.1668 14.6258 12.7992 0.00253592 0.000766469 0.00379978
172 2 -0.908417 12.972 14.8321 11.1772 0.00430949 -0.00388352 0.00061262
173 2 -0.960622 13.0231 5.71404 9.61807 -0.00226312 0.00376728 -0.00310689
174 2 -0.903158 12.8246 7.41052 11.3512 0.00390034 -0.00256668 0.0055454
175 2 -0.89347 9.96517 10.0435 2.01245 -0.00404855 -0.000515195 0.00283423
176 2 -0.968174 9.72662 10.9961 4.3029 -0.0042588 -0.00859157 -0.000252979
177 2 -0.865313 11.3209 9.14616 3.95004 -0.00360723 -0.0038447 -0.00105803
178 2 -0.895555 11.7134 11.4431 2.6569 -0.000102714 0.00187651 0.00236673
179 2 -0.958842 9.70236 12.9444 5.80815 -0.00143724 -0.000187397 -0.00177191
180 2 -0.930147 11.4646 12.9721 7.43317 0.000848449 -0.00244063 0.00629542
181 2 -0.926293 12.9155 9.7258 5.80675 0.00215619 -0.000693706 0.000563266
182 2 -0.960712 13.0515 11.1043 7.8555 0.000185533 0.00552843 0.00298719
183 2 -0.91095 13.0202 13.3268 2.13988 -0.00305496 0.00519598 -0.00485268
184 2 -0.90916 11.035 12.9318 14.7214 0.00176726 0.000638981 0.00354917
185 2 -0.908463 13.0473 11.4615 14.5497 0.00374695 0.00391261 0.00228131
186 2 -0.900057 9.33691 9.41267 9.79195 0.00473593 0.00187543 0.00498713
187 2 -0.913955 9.61062 11.2654 11.4781 0.0045354 0.00490639 0.00156693
188 2 -0.843186 11.3978 9.49621 10.9691 0.00161143 -0.00181612 0.00637409
189 2 -0.918969 10.9164 11.2995 9.17446 -0.00181888 -0.00315942 -0.00318706
190 2 -0.914731 9.22171 13.189 12.978 0.00354138 0.00120886 0.000684022
191 2 -0.895582 12.6913 9.27438 13.1695 0.00386915 0.00076217 0.00183682
192 2 -0.929506 12.6848 12.9388 9.63514 -0.00205069 0.000946794 0.00523768
193 2 -0.613386 3.40555 6.58796 10.4461 0.00307526 -0.00549446 -0.00404351
194 2 -0.648026 6.58151 6.85441 14.1786 -0.000413975 -0.00330127 -0.00247882
195 2 -0.643372 14.1826 6.69798 6.94296 -0.00248901 0.00355672 -0.00248974
196 2 -0.705203 7.50442 6.89746 2.61673 0.00192577 -0.00472149 -0.00175577
197 2 -0.637459 12.2625 5.00664 5.00795 -0.00352358 -0.00266272 0.00904808
198 2 -0.749387 2.42698 4.0315 9.92179 -0.00164682 0.000509155 -0.00112268
199 2 -0.622293 13.2792 6.24694 14.4647 0.00134149 0.00720943 -0.00366175
200 2 -0.645793 3.45959 10.1141 6.51786 0.00603253 -0.00562633 0.00318963
201 2 -0.599514 11.8472 5.02378 12.185 -0.0022913 -0.00383434 0.00339727
202 2 -0.60922 6.76421 6.78601 6.90441 -0.00373142 0.00049292 0.00363425
203 3 0.447423 3.30798 4.26677 11.6589 -0.0139603 0.0198973 -0.0150304
204 3 0.415932 4.34887 6.60134 10.2689 -0.016289 0.00689506 -0.00191509
205 3 0.443442 6.21371 7.61586 13.764 -0.0106822 -0.000736376 0.0151653
206 3 0.410433 7.25344 6.56598 13.4541 -0.0176012 0.0169292 -0.00180794
207 3 0.421809 13.3936 6.90786 6.54277 0.00994505 0.0073162 -0.0225918
208 3 0.424433 14.1488 5.78426 7.05992 -0.00642114 0.000535064 0.0294594
209 3 0.497304 7.42665 8.67416 3.13181 -0.0120816 0.00981838 -0.00586032
210 3 0.447467 7.12005 6.68269 1.64286 -0.00793504 0.00764536 0.0212048
211 3 0.380626 13.019 5.15762 4.41917 0.00140343 0.00110728 -0.0202387
212 3 0.423037 12.1735 4.09327 5.0468 0.00363488 0.00747539 0.00666873
213 3 0.424871 1.56092 3.86509 9.54768 0.00242424 0.0227735 0.0156736
214 3 0.4342 3.07619 6.56885 9.50744 -0.000754075 -0.012485 -0.0048876
215 3 0.445883 10.1792 5.69803 15.556 -0.0034015 -0.0169243 0.0195623
216 3 0.442949 14.146 5.9951 14.1799 0.00859863 0.00448608 -0.00140179
217 3 0.425682 3.49001 10.2715 7.49001 0.0172038 0.0139248 -0.0128498
218 3 0.40523 2.61941 10.5573 6.18762 0.00218682 0.000960453 0.00259721
219 3 0.427055 11.7421 5.98681 12.1675 0.0158908 0.00854749 0.0179795
220 3 0.432386 12.3304 4.80901 11.396 -0.0218751 -0.00892947 0.00198666
221 3 0.434558 6.16683 6.88982 6.14569 0.0115469 0.0225774 -0.0165253
222 3 0.426579 7.64103 6.77422 6.54796 0.00753023 0.0117667 0.00586943
ITEM: TIMESTEP
19000
ITEM: NUMBER OF ATOMS
222
ITEM: BOX BOUNDS pp pp pp
1.5299593048290294e+00 1.5630040695171022e+01
1.5299593048290294e+00 1.5630040695171022e+01
1.5299593048290294e+00 1.5630040695171022e+01
ITEM: ATOMS id type q x y z vx vy vz
1 1 1.82399 1.58508 15.3952 1.50054 -0.00142403 0.00282807 -0.00398235
2 1 1.77822 3.24224 2.96616 3.39097 0.00186309 0.00459362 -0.00695429
3 1 1.70506 1.70912 4.77571 5.26873 -0.00370071 0.0020927 -0.00758831
4 1 1.74889 3.47044 6.72044 6.86796 -2.37404e-05 -0.00153335 0.000777606
5 1 1.82657 5.36028 15.59 4.93233 0.00171138 0.0036193 -0.00263884
6 1 1.76146 7.21941 3.09267 6.6408 -0.00308129 0.00176605 0.00308097
7 1 1.77287 4.71501 4.75259 1.44894 0.0011216 0.00151163 0.00373384
8 1 1.56926 6.47839 6.26172 3.46764 0.000834866 -0.00290673 -0.00242285
9 1 1.76459 15.603 15.1538 8.39842 -0.000342359 -0.00119616 0.00245941
10 1 1.66657 3.43592 2.93222 9.70554 -0.00174572 -0.00252296 0.0030055
11 1 1.59026 15.3623 5.33618 12.4999 -0.000379228 0.000334885 0.00236616
12 1 1.65769 3.34423 6.95829 13.9818 0.000581083 0.00350623 0.00389887
13 1 1.7873 4.84635 1.73596 12.0346 0.0023907 -0.000994343 -0.00034849
14 1 1.77496 6.70983 3.1464 13.9314 0.00201687 -0.00240188 -0.00163686
15 1 1.67356 5.35275 4.80876 8.33708 -0.000338572 0.00542794 0.00136998
16 1 1.74581 6.84658 6.69649 10.3859 -0.00148091 0.000748295 0.00356808
17 1 1.73691 1.4998 8.67114 1.6361 2.25284e-06 -0.0037354 -0.003223
18 1 1.89605 3.47028 10.4694 3.07207 -0.00543762 0.00241192 0.00260941
19 1 1.78378 15.6271 12.0937 4.8261 -0.00109224 -4.37967e-05 -0.00631647
20 1 1.74598 3.40074 13.7738 6.43871 -0.000952827 -0.00401901 -0.000732717
21 1 1.52042 4.90165 8.81898 5.15979 0.00184346 -0.000742418 0.0040871
22 1 1.74151 6.99992 10.31 6.85315 0.00287734 -0.00175624 0.00590571
23 1 1.73585 5.17024 12.2177 15.4396 0.000936637 0.000408738 -0.00196667
24 1 1.78281 7.01425 13.6791 3.24884 -0.00217455 0.00292096 0.00161119
25 1 1.74248 1.54392 8.46495 8.53106 0.00226487 0.00420667 -0.000759506
26 1 1.81765 3.32206 10.2945 10.1742 0.00272302 -0.000883768 -0.000425741
27 1 1.75834 1.59896 12.005 12.0834 -0.000645071 -0.00144694 -0.00140789
28 1 1.7837 3.2983 13.8201 13.7279 0.00181027 0.00120918 0.0010826
29 1 1.75148 5.066 8.59126 12.0087 0.00243657 -0.000645495 0.00359319
30 1 1.71834 6.8076 10.6586 13.4681 -0.00366607 0.00270993 0.0034265
31 1 1.76682 4.99438 12.0594 8.40771 -0.00232261 -0.00397185 -0.000322197
32 1 1.7824 6.52787 14.0007 10.2638 -0.00566573 0.0012604 0.00290259
33 1 1.83114 8.64151 1.42249 1.55007 -0.00310622 -0.00685811 0.0032703
34 1 1.63997 10.3749 3.38393 3.11241 -0.00115596 0.000175879 0.010127
35 1 1.65369 8.77645 5.12197 5.13812 -0.00151011 -0.0025003 -0.00546352
36 1 1.78534 10.3702 6.96653 7.01508 -0.00412019 -0.000131749 0.00172821
37 1 1.70768 12.0162 1.56729 5.00173 0.000384144 0.00029076 -0.000224097
38 1 1.79502 13.8942 3.1058 6.92616 -0.0016762 0.00322689 -0.00418071
39 1 1.3704 12.71 5.40651 15.5628 -0.00553568 0.00180158 -0.00135204
40 1 1.72868 14.1875 6.87453 3.69378 -0.00285493 0.000359633 0.00117756
41 1 1.81812 8.59299 15.523 8.75807 -0.000978959 0.00911637 0.001239
42 1 1.85416 10.3417 3.24889 10.5432 -0.000332489 -0.00262838 0.00410273
43 1 1.78162 8.5679 5.00896 12.2919 -0.0015582 -0.000876676 -0.00195555
44 1 1.71876 9.98885 7.20466 13.8565 0.00287475 0.0023412 0.00108244
45 1 1.76667 12.1405 1.47671 12.2794 4.67732e-05 0.00334523 -0.0044425
46 1 1.87053 13.9221 3.16477 14.0812 0.00392693 0.000329397 -0.00646697
47 1 1.81255 12.087 4.94246 8.64593 -0.00206068 0.00885119 -0.00558036
48 1 1.76682 13.8217 6.84224 10.3363 -0.000185036 -0.000669302 0.00149277
49 1 1.76103 8.62753 9.36483 15.5332 0.00263129 -0.000751296 0.00574513
50 1 1.7903 10.6486 10.4734 3.38993 0.000759602 0.00068479 0.00413532
51 1 1.82439 8.7807 12.0886 5.14139 -0.000722164 0.0057239 -0.000981463
52 1 1.82006 10.3288 13.9844 6.87724 0.00272114 -0.000431677 -0.00489141
53 1 1.72351 12.1751 8.68569 5.24631 0.00180883 0.00591567 -0.00247765
54 1 1.82939 13.9957 10.5591 6.86666 -0.00161916 -0.00434412 0.000410188
55 1 1.83053 12.2604 12.0091 15.516 0.00200079 -0.00235324 -0.000793508
56 1 1.8135 13.8067 13.8588 3.23898 -0.000164531 0.00510109 -0.00633651
57 1 1.87985 8.52707 8.58891 8.79399 -0.00463599 -0.000278539 0.00382641
58 1 1.87972 10.2969 10.531 10.2361 0.00405539 -0.0047138 -0.00128948
59 1 1.85424 8.64464 12.5223 11.8126 -0.00031877 -0.000973957 -0.00105576
60 1 1.77566 10.3812 13.7881 13.9399 -0.00466435 -0.00211084 -0.00127537
61 1 1.84611 11.8892 8.62447 11.9101 -0.000357322 0.00164206 0.00265994
62 1 1.80603 13.8586 10.1701 13.7582 -0.0017237 -0.000110869 -0.00270586
63 1 1.85435 12.2077 12.212 8.58402 0.00463713 0.00127088 -0.00292452
64 1 1.83823 13.8768 13.808 10.4959 -0.00208554 0.000886858 -0.00138254
65 2 -0.859974 2.68499 1.85731 2.45453 -0.000336701 -0.0025276 0.00258846
66 2 -0.877856 2.22826 14.2941 14.7177 0.000952086 -7.55676e-05 -0.00199757
67 2 -0.931869 15.076 2.3524 14.7087 -0.00200683 -0.00581719 0.00756047
68 2 -0.92696 14.5826 14.8373 2.44795 0.00227846 -0.00149526 0.00436683
69 2 -0.892151 2.304 3.64644 4.3994 0.000389897 -0.00314219 0.000825746
70 2 -0.896167 4.47961 2.54317 4.23957 0.000835603 0.000444495 -0.00205326
71 2 -0.872789 3.76555 3.86942 2.25643 9.72562e-06 0.00319288 -0.00399899
72 2 -0.880866 2.84305 5.67833 5.9372 0.00310168 -0.00259639 -0.00262579
73 2 -0.925244 14.9002 4.04311 6.3091 0.000888675 0.00177586 -0.000682697
74 2 -0.909774 14.9167 5.70421 4.36381 -0.00305543 -0.0044217 0.00745548
75 2 -0.923348 4.27651 5.77775 7.80853 0.00253788 0.00294453 -0.00180029
76 2 -0.945184 4.32484 7.67592 6.01956 -0.0045308 0.00494239 0.00399807
77 2 -0.953419 2.5241 7.43459 7.85346 0.000127646 -0.00142741 0.0023494
78 2 -0.944525 6.41561 2.02369 5.9017 -0.00641623 -0.000784603 -0.00376309
79 2 -0.892838 4.34651 14.7762 5.78499 0.00116829 0.00823486 -0.00381497
80 2 -0.907255 5.90886 14.5399 3.97191 -0.000800398 0.00866389 -0.00272808
81 2 -0.884578 6.23069 4.15298 7.21291 0.00499074 0.00259679 -0.00661622
82 2 -0.863695 8.30611 3.85292 5.87248 -0.00449229 -0.00583289 0.00543092
83 2 -0.883509 8.06621 2.46266 7.83025 -0.00292966 0.00828739 -0.00226667
84 2 -0.874823 5.39258 5.544 2.67038 0.00492817 -0.000573604 -0.0017964
85 2 -0.882341 4.02547 5.65934 14.5291 -0.00459695 -0.00269787 -0.00429395
86 2 -0.931433 5.81173 3.90471 14.8617 0.00446345 0.00313185 0.00176707
87 2 -0.74962 6.14445 7.64254 4.01844 0.00121455 -0.000809374 0.00258234
88 2 -0.839121 7.34379 5.49824 4.49276 -0.00234916 -0.0028719 0.00105888
89 2 -0.751623 7.51121 9.12459 2.43773 -0.00587072 -0.000720014 0.0111239
90 2 -0.902712 2.71557 1.72262 9.0933 0.00870793 0.00535856 0.00251733
91 2 -0.862711 2.18997 14.3071 7.29494 0.000501077 -0.00693328 -0.00271753
92 2 -0.966087 14.7536 2.23215 7.83096 -0.0071378 -0.00158657 -0.00246583
93 2 -0.942282 14.8437 14.3345 9.45877 -0.00621726 0.000915599 0.00058276
94 2 -0.644304 2.60075 4.59444 12.1492 -9.59599e-05 0.00150547 -0.00173402
95 2 -0.898861 4.07811 2.6103 11.0558 0.00151674 0.00101263 0.000306061
96 2 -0.855822 4.52823 3.6132 8.88339 -0.00272989 0.00568164 -0.00367346
97 2 -0.801184 2.02394 6.47468 13.2991 -0.00413034 0.0069027 0.00261744
98 2 -0.890658 14.5368 4.19803 13.0896 0.00372563 -0.00199458 0.00417531
99 2 -0.927416 14.5836 5.93676 11.2662 0.00113339 -0.0024915 0.00639813
100 2 -0.823938 2.49113 7.69971 15.1121 0.000457409 0.0025819 0.00171409
101 2 -0.928947 4.33534 7.84177 13.1396 0.000698359 0.00837483 0.00612422
102 2 -0.893668 5.90318 2.59603 12.7401 -0.00193133 -0.000480122 0.000661161
103 2 -0.885366 3.93869 15.0487 13.0511 0.000163854 -0.000184501 0.00246695
104 2 -0.898404 5.60116 14.6847 11.2781 0.00178328 0.0012066 -0.000454847
105 2 -0.875823 7.50899 2.05523 14.7429 0.00244666 -0.00314921 0.00631021
106 2 -0.866396 7.81154 4.09645 13.2418 -0.00542031 0.00299417 -0.00243628
107 2 -0.902524 6.0919 5.64467 9.48758 -0.00348951 -0.001058 0.000177298
108 2 -0.959262 5.83455 7.62955 11.079 -0.00184259 -0.00262926 0.000573279
109 2 -0.909057 7.55114 5.85298 11.4697 -0.0071964 0.0045341 0.000943913
110 2 -0.923507 7.97105 7.57446 9.81833 -0.0022514 -0.00179005 -0.0082433
111 2 -0.890657 2.55333 9.69986 2.1151 0.00402368 -0.00278846 -0.00302564
112 2 -0.924471 14.899 7.95507 2.81247 -0.00580002 -0.0018763 0.00023917
113 2 -0.91145 14.6887 9.12199 14.5394 0.00223885 -0.0023786 0.000468505
114 2 -0.887065 2.36396 11.0706 3.96224 0.00520047 -0.00144924 -0.00638948
115 2 -0.911673 4.24382 9.51015 3.93528 0.000695718 0.0053687 0.00319157
116 2 -0.949138 4.30453 11.5098 2.39698 0.00327482 -0.000342297 0.00111207
117 2 -0.881386 2.62326 13.0837 5.3067 -0.00455477 -0.00700802 0.00256988
118 2 -0.973207 14.7626 11.5379 5.99364 0.00140385 0.0039292 0.00430373
119 2 -0.925248 14.7821 12.8293 3.82998 -0.00145647 -0.00199832 0.00361093
120 2 -0.949879 4.02924 12.6882 7.38678 0.00800369 0.0017331 -0.00449151
121 2 -0.8575 6.01908 9.70163 5.79604 0.000936717 -0.00426948 -0.00195223
122 2 -0.870136 6.04179 11.3571 7.48671 -0.00116117 -0.000415507 0.00163649
123 2 -0.894282 8.09289 11.0475 6.04194 0.00583336 -0.00328016 -0.00411216
124 2 -0.9383 7.47089 9.28933 7.92477 0.00258411 0.000817764 -0.00553893
125 2 -0.855444 6.35482 12.8328 2.14397 -0.00285691 8.74655e-05 -0.00585597
126 2 -0.846796 4.44062 13.3728 14.6764 -1.09792e-05 8.19756e-05 0.00661135
127 2 -0.879607 5.64395 11.1828 14.3523 0.00430482 -0.00441722 -0.00240296
128 2 -0.948571 8.05861 14.5047 2.49248 -0.000135526 -0.00294949 -0.00461184
129 2 -0.863711 7.6068 12.662 4.23653 -0.00171009 0.00369418 -0.00484093
130 2 -0.912487 2.42734 9.33435 9.40266 0.0026334 -0.00216624 -0.000528519
131 2 -0.870789 14.6341 7.92877 9.61595 -0.000202037 -0.00461913 -0.00551325
132 2 -0.898233 14.9924 9.52308 7.56869 0.000932048 -0.00480818 -0.00365458
133 2 -0.840881 2.33078 11.3097 10.8083 0.00633732 -0.000831631 0.00205391
134 2 -0.899297 4.13601 9.6032 11.2873 -0.00928793 0.00446038 0.000218177
135 2 -0.931046 4.34663 10.9546 9.26353 -0.00436485 -0.00360124 -0.00047213
136 2 -0.946981 2.65371 12.6615 12.9334 -7.01461e-05 -0.0059352 -0.00359457
137 2 -0.866623 14.8588 10.9525 12.8203 0.000756766 0.00396066 -0.00192825
138 2 -0.897907 14.584 12.9794 11.5431 0.00306974 -0.000788343 -0.00521618
139 2 -0.88213 6.18202 9.47192 12.6431 0.0052201 -0.00754118 0.00479849
140 2 -0.878695 7.93673 10.1313 14.3932 -8.70617e-05 -0.00646838 5.94319e-05
141 2 -0.89892 7.57163 11.6642 12.5693 0.00055061 0.00378726 -0.0068048
142 2 -0.897104 5.6192 13.0583 9.41415 -0.00199155 0.00208933 -0.00708782
143 2 -0.881715 7.26373 14.9806 9.34076 -0.00658841 -0.00192746 0.00123894
144 2 -0.912464 7.81952 13.3301 10.8262 -0.00323349 -0.00278528 0.00843445
145 2 -0.872255 9.28598 2.54724 2.41518 0.00517453 -0.00683616 -0.00569112
146 2 -0.929631 9.72016 14.8185 14.8818 0.00597711 -0.00377934 0.0115397
147 2 -0.807112 9.58202 4.43268 3.97912 0.000300897 0.00599261 0.00581459
148 2 -0.89982 11.399 2.46905 3.93161 -0.00242112 0.0022908 0.0010807
149 2 -0.707843 11.0554 4.33721 2.11407 0.010688 0.00662367 -0.00334201
150 2 -0.864779 9.45867 6.25174 5.97957 -0.00671458 0.00193509 -0.0023566
151 2 -0.897902 11.0403 5.81323 7.91831 0.00066624 0.00157337 -0.00438573
152 2 -0.939762 11.3718 7.75676 6.21618 -0.00635211 -0.0136108 -0.00219706
153 2 -0.944463 9.51994 7.91387 7.91618 0.00273174 -0.000526023 0.00123809
154 2 -0.915719 13.1103 2.40188 5.79055 0.000757764 -0.00404177 0.00414046
155 2 -0.915996 11.0155 15.0818 6.06158 -0.00109736 0.00423667 -0.0045568
156 2 -0.869415 12.8179 14.5442 4.28532 0.00193358 -0.00149592 -0.00276052
157 2 -0.940518 12.9011 4.03555 7.72413 0.0031055 0.00588682 0.000523748
158 2 -0.848909 13.418 5.99019 2.7935 0.00541909 0.00657317 0.00144045
159 2 -0.741181 10.8247 6.4912 14.974 -0.00498569 -0.00453493 -0.000175115
160 2 -0.860237 13.3362 4.07932 15.0976 0.00351751 0.00128749 0.00707467
161 2 -0.910321 13.0865 7.64221 4.4697 0.00132725 0.00220734 0.00497789
162 2 -0.87446 9.40237 2.25475 9.84897 0.00574949 -0.000223381 8.19625e-05
163 2 -0.925459 9.57696 14.5563 8.11127 0.00479867 0.00540716 -0.00481704
164 2 -0.931983 9.45314 4.20114 11.3176 0.00659018 -0.00844787 0.000239942
165 2 -0.896558 11.2173 2.47892 11.5536 -0.00594447 0.00134978 0.00483169
166 2 -0.903873 11.3241 3.91944 9.55001 -0.000282952 -0.00137423 0.00570875
167 2 -0.936213 9.19521 6.04925 13.2834 0.00326875 0.00113007 0.00185556
168 2 -0.891894 9.10465 8.24314 14.6069 -0.00285076 -0.00432717 -0.0012557
169 2 -0.961065 10.8474 7.82789 12.7407 0.00501024 0.00732325 0.00555126
170 2 -0.913782 12.9577 2.3143 13.2867 0.00389303 0.00183606 0.00121859
171 2 -0.895987 11.484 14.4227 13.0925 -0.00437514 -0.00525961 0.00133174
172 2 -0.853426 13.2285 15.0345 11.2653 0.00189032 0.000689119 -0.000728183
173 2 -0.978315 13.0232 5.8328 9.38907 0.00577845 -0.0018279 0.00164685
174 2 -0.962099 12.7828 7.67134 11.1679 0.00435439 -0.00705895 -0.00501534
175 2 -0.912274 9.83303 9.84112 2.28906 -0.002464 -0.00361814 0.00247007
176 2 -0.95207 9.7193 11.4723 4.13755 -0.000704837 -0.00224319 0.000266488
177 2 -0.891958 11.1691 9.33522 4.28114 0.00329474 0.00226019 -0.000562009
178 2 -0.885548 11.8687 11.13 2.62312 0.000922606 -0.00137789 0.00537708
179 2 -0.983193 9.40079 13.1581 6.06637 -0.00430905 0.00372551 0.00187791
180 2 -0.896669 11.4957 13.1002 7.54013 -0.00134014 -0.0043618 -0.00221052
181 2 -0.941608 13.0983 9.72385 5.98181 -0.00179827 -0.00206778 -0.0058706
182 2 -0.928556 13.2401 11.2546 7.98163 -0.00512226 0.00114664 -7.57963e-05
183 2 -0.87488 12.9466 13.1719 2.12699 0.00633317 0.00257153 0.000777265
184 2 -0.92006 11.0844 12.7015 14.7886 0.00247341 -0.0032776 0.00266522
185 2 -0.964036 13.1767 11.1461 14.6515 0.00178187 0.00529154 0.00811656
186 2 -0.952741 9.20388 9.73124 9.61357 -0.00269352 0.0013003 0.00408699
187 2 -0.955765 9.64924 11.6772 11.0676 -0.00395588 0.00113531 -0.0047967
188 2 -0.96444 11.2858 9.64844 10.9559 0.000633839 -0.00448705 -0.00464141
189 2 -0.869452 11.1605 11.2221 9.10625 0.00020785 0.00545797 -0.000559245
190 2 -0.907309 9.29717 13.4426 12.828 0.00158789 -0.00796667 0.00237177
191 2 -0.873068 12.7002 9.43888 12.9686 -0.000969919 5.90469e-05 -0.00387974
192 2 -0.957766 12.8433 12.9873 9.72311 0.00442787 -0.00738123 -0.00515894
193 2 -0.659568 3.47321 6.37975 10.3838 0.00669795 0.00161151 0.00578702
194 2 -0.660298 6.59773 6.7892 14.0342 8.65499e-05 -0.00152363 -0.00332665
195 2 -0.634907 13.9721 6.74246 7.05137 0.00541517 -0.00484771 -0.00595196
196 2 -0.692845 7.55944 6.668 2.42153 -0.00354323 0.00126148 0.0034874
197 2 -0.614765 12.0358 4.93708 5.27754 -0.000650883 -0.00637264 0.00108679
198 2 -0.754704 2.2774 3.99416 9.65221 0.00158012 -0.00404537 0.00308229
199 2 -0.66355 13.2942 6.39912 14.491 -0.00140355 0.000732321 -0.00273564
200 2 -0.654679 3.49031 10.066 6.37403 0.00447646 0.00146702 -0.00170531
201 2 -0.578052 11.9306 5.21848 12.377 0.00111697 0.000184367 -0.000428045
202 2 -0.599735 6.8775 6.99865 6.87597 -0.00204379 -0.00531114 -0.0017123
203 3 0.471628 3.03894 4.98024 11.3609 0.00549689 -0.0181188 -0.00191139
204 3 0.406381 4.42855 6.43005 10.1597 0.0118496 0.0110822 -0.0293637
205 3 0.397046 6.16754 7.6965 13.8332 -0.0178125 0.00970874 0.00245115
206 3 0.43681 7.19181 6.63778 13.3096 -0.0183672 -0.0141611 0.00582434
207 3 0.403633 13.2446 6.97627 6.46502 -0.0168045 0.00138389 -0.0303321
208 3 0.397637 13.7539 5.8805 7.47662 0.00571665 -0.0210122 0.0212942
209 3 0.530485 6.92688 8.75596 3.22482 -0.0106809 -0.0076801 0.0271166
210 3 0.454587 7.22447 6.54662 15.5653 -0.0119076 0.00151236 0.00216743
211 3 0.416191 12.5506 5.50693 4.73289 0.00817951 0.0166609 0.0118685
212 3 0.411969 12.3121 4.02896 5.01805 -0.0092675 -0.00533564 0.00337382
213 3 0.439114 1.614 3.69039 9.05332 0.00109849 -0.00129545 0.00838338
214 3 0.442573 3.12959 6.37237 9.49206 0.0261298 -0.0394291 0.00484409
215 3 0.444615 10.4191 5.66227 1.58873 0.0179812 -0.0272898 -0.0130022
216 3 0.426244 13.9752 6.99998 14.8451 0.00682082 0.0209991 -0.0161228
217 3 0.405428 2.62655 10.1787 6.81691 -0.0163637 -0.00297609 -0.0141246
218 3 0.407501 3.80166 11.0144 6.37717 0.0248168 -0.0215564 -0.00395031
219 3 0.423968 12.8512 5.12784 12.1246 0.0105358 -0.00339908 0.0306338
220 3 0.408273 11.7777 6.16736 12.1735 0.0144099 0.00361847 -0.0166644
221 3 0.403468 6.27118 7.67646 6.64095 0.00089641 0.00103526 -0.000319562
222 3 0.401974 6.61382 6.23502 6.29794 -0.00863246 0.0214222 0.0188533
ITEM: TIMESTEP
20000
ITEM: NUMBER OF ATOMS
222
ITEM: BOX BOUNDS pp pp pp
1.5267957383472721e+00 1.5633204261652782e+01
1.5267957383472721e+00 1.5633204261652782e+01
1.5267957383472721e+00 1.5633204261652782e+01
ITEM: ATOMS id type q x y z vx vy vz
1 1 1.78066 1.664 15.5178 1.75387 -0.00226558 -0.00109668 0.00471347
2 1 1.88235 3.47287 3.07234 3.37142 -0.00182418 0.000260686 0.000866291
3 1 1.78801 1.76752 4.86298 5.12627 0.000107141 -0.000491793 -0.00169859
4 1 1.74595 3.43351 6.75706 6.88762 -0.00428324 0.00109736 0.00607729
5 1 1.81486 5.3069 15.52 5.1517 -0.000187818 -0.0041603 -0.000177782
6 1 1.76076 7.17201 3.21296 6.74845 -0.00134827 0.00374965 -3.54485e-06
7 1 1.80848 4.89384 4.837 15.4881 0.00610368 0.000143815 -0.000140932
8 1 1.51087 6.60601 6.44455 3.38837 -0.00202896 -0.00281557 -0.00111932
9 1 1.66868 15.5114 15.1503 8.27935 0.00489505 0.00357367 0.00239896
10 1 1.57635 3.56639 2.68161 9.65815 0.000457214 0.000726257 -0.000637337
11 1 1.6172 15.4697 5.05595 12.4031 0.00372537 -0.00411579 -0.00329347
12 1 1.727 3.24596 6.85429 13.8958 -0.00280468 -0.00131111 0.00316454
13 1 1.91247 4.93993 1.49095 12.1068 0.00397361 -0.00246902 2.40836e-05
14 1 1.80617 6.83153 3.08988 13.8701 0.00238417 0.000104821 -0.000397922
15 1 1.68353 5.30227 4.86824 8.44836 0.00378889 -0.000442078 0.00121442
16 1 1.73279 6.72659 6.78909 10.3714 0.00135821 0.00295106 -0.00327169
17 1 1.8388 1.59966 8.69813 1.52872 0.00054724 0.000196618 -0.0019364
18 1 1.73922 3.35172 10.5667 3.02972 -0.00508772 -0.00412093 0.00111708
19 1 1.67138 15.5546 12.0473 4.9002 0.004848 -0.000223222 -0.00191939
20 1 1.77915 3.3982 13.6347 6.54864 0.00581084 -0.00157628 0.00144997
21 1 1.42259 4.9556 8.82953 5.08295 0.000918038 -0.00130494 0.00472863
22 1 1.75752 6.98137 10.3508 6.8397 0.000136519 0.00378241 0.00157313
23 1 1.88046 5.11861 12.2882 15.4604 0.000438259 0.000432057 -0.00383275
24 1 1.76318 6.90936 13.8597 3.16232 0.00277696 -0.000775919 0.000888891
25 1 1.86932 1.53743 8.42207 8.54276 0.00742059 -0.000276196 0.00785334
26 1 1.82182 3.17724 10.3951 10.3168 -0.00640353 -0.00253944 -0.00137011
27 1 2.05901 1.44155 12.0994 12.0155 0.00071872 0.00469671 0.00221513
28 1 1.93343 3.15449 13.8671 13.7687 -0.00375669 0.000532461 0.00238261
29 1 1.83037 4.97547 8.65978 12.0756 -0.00190525 -0.000593258 -0.0064652
30 1 1.75856 6.68345 10.7265 13.5026 0.00284706 -0.00353023 0.00385428
31 1 1.71884 5.05132 12.0372 8.58763 0.00235617 -0.000917632 0.00453462
32 1 1.80922 6.61946 13.9453 10.2526 -0.000598822 -0.000496284 -0.00364257
33 1 1.78838 8.73192 15.6544 15.6225 0.00377063 0.00265529 0.000669432
34 1 1.71352 10.464 3.41141 3.09821 0.00461904 -0.00377119 -0.00426784
35 1 1.72106 8.70215 5.04186 4.95455 0.00376069 0.000888954 0.00304708
36 1 1.82706 10.3946 6.7798 6.81838 -0.00760994 -0.00114951 -0.00015981
37 1 1.84617 11.9229 1.63797 5.12667 0.000847368 0.00144964 0.00392774
38 1 1.77389 13.8878 3.2383 6.88527 -0.0052213 -0.00130956 -0.00368469
39 1 1.40922 12.5082 5.27845 1.57016 -0.00473449 0.00178622 3.71349e-05
40 1 1.61922 14.2661 6.93603 3.51589 -0.000517256 -0.00471279 -0.00164461
41 1 1.6809 8.66832 1.59303 8.85658 0.00101285 0.00186918 0.00141276
42 1 1.84352 10.4198 3.35046 10.6636 -0.00236637 0.00112616 -0.00239459
43 1 1.70878 8.48842 5.10704 12.2014 0.00111164 -0.00509793 0.00151117
44 1 1.6197 10.0188 7.29944 13.8487 -0.00414061 -0.00356909 -0.00166603
45 1 1.92251 12.103 15.5069 12.2431 -0.000318978 -0.00152996 -0.000922286
46 1 1.66759 13.9481 3.01786 14.1538 0.0032571 -0.000429318 -0.00644022
47 1 1.75721 12.0691 4.93927 8.63549 -0.00184921 -0.00328302 -0.000822594
48 1 1.77099 13.8505 6.69617 10.3743 -0.00485944 0.00765962 0.00155972
49 1 1.76911 8.6569 9.52877 15.3968 -0.00267242 -0.00184851 -0.00115293
50 1 1.80702 10.5656 10.5719 3.363 0.000992948 -0.000508089 -0.00525049
51 1 1.79158 8.65743 12.2046 5.08593 0.00113782 0.00318197 0.00468171
52 1 1.69378 10.2675 13.9249 6.94515 0.0022649 -0.00115974 0.0020277
53 1 1.64104 12.2013 8.61023 4.94066 0.000255975 -0.00401189 6.61658e-05
54 1 1.77374 13.9252 10.2577 6.82239 -0.000840743 -0.00213671 0.00267973
55 1 1.83643 12.3147 12.1821 1.47966 -0.00218551 -0.000240982 -0.00578784
56 1 1.79845 13.7135 13.9897 3.42417 -0.00406881 -0.00535268 0.00170263
57 1 1.82369 8.64671 8.45992 8.58831 0.00149954 0.00305578 -1.44791e-05
58 1 1.79707 10.2942 10.3235 10.217 0.00267287 0.00455435 0.00193678
59 1 1.78371 8.61276 12.2518 11.7702 2.01026e-05 -0.000605153 0.00209909
60 1 1.7551 10.3201 13.7423 13.8591 -0.00414038 -0.000657185 -0.00215783
61 1 1.80662 12.1192 8.56549 12.0415 0.000851084 0.00101196 0.000350976
62 1 1.80859 13.9599 10.2606 13.7733 0.0013754 0.00118422 0.00661594
63 1 1.76056 12.152 12.0084 8.56029 0.0046055 -0.00331029 -0.00259403
64 1 1.88591 13.7224 13.8109 10.4012 -0.00291609 0.000889587 0.00189465
65 2 -0.925788 2.81498 1.92015 2.60876 0.00124287 0.00617642 -0.00338784
66 2 -0.87415 2.10811 14.6088 14.6839 -0.0116338 0.000134072 0.000663309
67 2 -0.881192 15.0398 2.49012 15.0419 0.00230749 -0.000801367 0.0001157
68 2 -0.892934 14.728 15.0061 2.81458 0.00433995 0.00483933 0.00064588
69 2 -0.962949 2.4889 3.88316 4.22095 -0.00391912 -0.00390002 -0.00235323
70 2 -0.925138 4.5372 2.46992 4.30285 0.00409515 -0.003806 0.000654222
71 2 -0.923658 4.01058 3.98234 2.26075 -0.000292557 -0.000735582 -0.00447312
72 2 -0.871848 2.74737 5.63049 6.03934 -0.000908929 0.0049084 -0.000240767
73 2 -0.940879 14.7919 4.20246 6.07117 -0.000619754 0.000457746 -0.00148718
74 2 -0.888013 15.1666 6.03892 4.46446 -0.00259939 -0.000895995 -0.00303397
75 2 -0.909916 4.3634 5.95641 7.78609 0.00235956 -0.00666236 -0.00270026
76 2 -0.809774 4.35415 7.53634 5.90861 0.00105689 0.00199927 -0.00317024
77 2 -0.999006 2.49408 7.49209 7.88753 -0.00177143 0.00179084 -0.000810444
78 2 -0.911499 6.35739 2.11249 6.03734 0.0010099 -0.00230664 -0.00539982
79 2 -0.929987 4.35068 14.7321 6.0722 0.00636648 0.000420721 0.0093539
80 2 -0.895527 5.90511 14.49 4.17956 -0.00338116 -0.00327351 0.00750991
81 2 -0.902981 6.36699 4.3518 7.41763 0.00805319 -0.0032477 0.00117113
82 2 -0.846857 8.15433 3.83511 5.75332 0.00303154 0.00134014 0.00232954
83 2 -0.841416 8.16035 2.59882 7.79967 0.00386354 0.00491606 -0.000600789
84 2 -0.817829 5.53631 5.78133 2.46583 0.00363095 -0.00304212 0.00538543
85 2 -0.920766 4.1643 5.77895 14.4997 -0.0026429 0.00159617 -0.00732002
86 2 -0.888319 6.01134 3.92401 14.9563 -0.00132829 -0.00359748 0.00549539
87 2 -0.750599 6.16728 7.7841 4.0208 -0.00340169 -0.00518797 0.00124869
88 2 -0.879275 7.34975 5.58916 4.42975 -0.00701801 -0.00362503 0.00250282
89 2 -0.823701 7.75228 9.15089 2.44601 0.00656879 0.00548993 -0.00297314
90 2 -0.859685 2.62552 15.7003 9.0961 -0.000658141 -3.6565e-05 -0.000129564
91 2 -0.844295 2.14033 14.2768 7.18773 -0.00323345 0.000404649 -0.000192195
92 2 -0.9353 14.8599 2.34651 7.70008 -0.004782 0.00252373 -0.00389831
93 2 -0.905273 14.5727 14.3261 9.2281 -0.00679287 0.00191784 -0.00118152
94 2 -0.701563 2.6052 4.12663 12.2409 -0.00499865 -0.0029364 0.0104771
95 2 -0.899089 4.22968 2.26955 10.9527 -0.000227294 0.00180162 0.00201643
96 2 -0.868227 4.61157 3.60326 8.96172 0.0034922 0.000691149 -0.00101631
97 2 -0.882721 1.97993 6.18002 13.264 -0.00258438 0.00916403 0.0023567
98 2 -0.879841 14.4686 4.18148 13.2387 -0.00624929 0.00274371 -0.000380197
99 2 -0.881649 14.7514 5.70258 11.2175 -0.00748938 -0.00414622 -0.00175493
100 2 -0.86371 2.61333 7.68688 15.0386 -0.00137184 0.0057317 -0.00329677
101 2 -0.936202 4.20034 7.80627 13.0489 0.00139085 0.00336776 0.000604792
102 2 -0.931704 5.78121 2.4186 12.9686 0.000169394 0.00297804 7.62551e-05
103 2 -0.999507 3.95863 14.9189 13.0403 0.000895272 0.00800322 0.00214073
104 2 -0.95114 5.87339 14.625 11.4045 0.00136999 0.000555844 -0.00288383
105 2 -0.925246 7.80859 2.13978 14.5688 -0.00308522 0.00232211 -0.00173035
106 2 -0.881782 7.70332 4.01791 13.0163 -0.00399793 0.00154912 -0.00495214
107 2 -0.885025 6.0227 5.67302 9.62678 -0.000654182 0.00194585 -0.00140938
108 2 -0.99382 5.74411 7.76857 11.1116 0.00200272 -0.00150814 0.0025775
109 2 -0.883649 7.40088 5.91534 11.4487 -0.00466403 -0.00255358 0.00203762
110 2 -0.869035 7.72308 7.47388 9.37911 -0.00130688 0.00312045 0.00213831
111 2 -0.876407 2.47104 9.84406 1.93324 -0.00437741 -0.00245183 -0.0026531
112 2 -0.894608 15.099 7.99194 2.76285 -0.00164699 0.00272819 -0.00478582
113 2 -0.939529 14.7311 9.22275 14.5954 -0.00431136 -0.00133357 -0.00297046
114 2 -0.876066 2.23849 11.2241 3.83941 0.00752929 -0.00575703 0.000673049
115 2 -0.78002 4.04927 9.441 3.92306 -0.00439625 -0.00161421 -0.00351269
116 2 -0.953282 4.46753 11.4261 2.42353 -0.00149665 0.0075953 -0.00461041
117 2 -0.892111 2.6353 12.8724 5.49727 0.00100408 -0.00529542 -0.00314246
118 2 -0.844037 14.9726 11.1739 6.06687 -0.00167245 -0.00106043 -0.00641158
119 2 -0.87979 14.351 12.9538 4.31122 -0.00211637 -0.00493706 -0.00117023
120 2 -0.913964 4.03643 12.6017 7.5483 -0.00335659 0.00380135 0.0101849
121 2 -0.840947 6.01043 9.71984 5.82883 -0.0055747 -0.00175639 0.00300987
122 2 -0.890958 6.14551 11.3744 7.64307 0.00746221 0.00227603 0.000383159
123 2 -0.839007 7.78454 11.0523 5.72879 0.00233477 -0.000952173 0.00521834
124 2 -0.948596 7.85881 9.53261 7.80868 0.00507108 0.000204261 -0.00375476
125 2 -0.937762 6.26048 13.1305 1.99779 -0.000886793 -0.00548161 -0.00657217
126 2 -0.939022 4.02634 13.1824 14.7854 -0.00438526 -0.00585865 -9.94554e-05
127 2 -0.950467 5.58776 11.5393 14.278 -0.000562473 -0.000886497 -0.00033674
128 2 -0.861053 7.82793 15.04 2.69164 -0.000578356 0.00600044 -0.00463149
129 2 -0.89652 7.76541 12.8836 4.03316 -0.000588228 -0.00288777 0.0034063
130 2 -0.898793 2.2314 9.40743 9.55054 -0.00945606 0.00535191 0.002826
131 2 -0.917279 14.7187 7.55272 9.37792 0.00282845 -0.00799754 -0.00380679
132 2 -0.947337 14.9033 9.37462 7.55586 0.00203594 0.00270306 -0.00748428
133 2 -0.99974 2.33471 11.4761 10.9852 0.000763455 -8.13709e-05 -0.00360513
134 2 -0.93211 3.9421 9.51614 11.3359 0.00140587 -0.000341423 -0.000619519
135 2 -0.933881 4.30505 10.945 9.41591 -0.00301425 -0.00198222 0.00434248
136 2 -0.992517 2.32259 12.8614 13.0215 0.000466023 0.00444232 -0.00205096
137 2 -0.999206 14.7971 11.0205 12.6773 0.000479264 -0.00164737 0.000152569
138 2 -0.986023 14.721 13.1603 11.3894 -0.00461819 0.00160839 0.00184726
139 2 -0.909362 6.01337 9.43012 12.9223 0.00252707 -0.00112331 0.0020253
140 2 -0.892593 7.77621 10.4213 14.5435 0.00165059 0.00379692 0.000802993
141 2 -0.893655 7.52083 11.3532 12.3765 0.000824287 -0.00423525 -0.00624721
142 2 -0.95305 5.64119 13.212 9.35653 0.00174703 0.00560486 -0.0055681
143 2 -0.836083 7.34628 15.0964 9.50919 0.00473365 0.000584741 -0.00244868
144 2 -0.933342 7.84648 13.1496 10.8318 -0.000709557 0.00484932 0.00188632
145 2 -0.88496 9.64091 2.61651 2.01734 0.00188703 0.00570686 -0.000108003
146 2 -0.890068 9.69782 14.6093 14.9827 0.000765748 0.00557529 -0.000320866
147 2 -0.886291 9.49277 4.30276 3.84618 -0.00310332 0.0020917 -0.00518221
148 2 -0.945458 11.3423 2.54958 4.04532 0.000697769 -0.00604385 0.000141013
149 2 -0.769267 11.3386 4.50944 2.31362 0.00831669 0.00310533 0.00671525
150 2 -0.97677 9.44461 6.01316 5.94209 0.00207123 -0.00116181 0.0015453
151 2 -0.87585 11.0434 5.81552 7.82075 -0.0011529 0.00231831 0.00186777
152 2 -0.850504 11.2996 7.78825 6.04621 0.00442877 0.000245522 -0.0028341
153 2 -0.920701 9.68278 7.64349 7.89231 -0.00336265 0.0069328 -0.00230026
154 2 -0.975188 12.8618 2.55009 5.94917 -0.000963377 -0.00356357 -0.00357537
155 2 -0.910139 10.998 15.0699 6.11055 0.00362673 0.000977036 -0.003019
156 2 -0.917097 12.6256 14.7126 4.23813 0.00174587 0.00511195 -0.000525327
157 2 -0.949954 13.185 4.15143 7.88418 -0.0015325 -0.00128645 0.00752597
158 2 -0.785681 13.51 5.72163 2.70515 0.00112726 0.00647679 -0.00251221
159 2 -0.753511 10.5673 6.66557 15.1747 -0.000830556 0.0025712 0.00732561
160 2 -0.762472 13.1456 3.91487 15.1843 -0.00149758 -0.00412482 0.00391424
161 2 -0.904386 13.0364 7.55952 4.18353 -0.00278861 -0.000462526 -0.000670048
162 2 -0.866852 9.58041 2.33091 9.9313 -0.00280395 -0.00750889 0.000703637
163 2 -0.828176 9.52905 14.6106 8.14032 -0.0065753 0.000607549 0.00613663
164 2 -0.879983 9.4675 4.43538 11.1976 0.00213109 -0.00345063 0.00270304
165 2 -0.910084 11.1196 2.51131 11.7782 -0.000793952 0.000910188 -0.00162202
166 2 -0.898551 11.3151 3.9688 9.59337 -0.000795525 0.00182042 0.00713697
167 2 -0.87042 9.14592 6.20039 13.1622 -0.00315606 -2.5655e-05 -0.00337201
168 2 -0.948628 9.09752 8.40307 14.4374 0.00398737 0.00365734 -0.00019134
169 2 -0.903271 11.0675 7.72067 12.7561 0.00212862 -0.00261338 -0.00299406
170 2 -0.912259 13.0162 2.08733 13.248 0.0103329 0.00929699 -0.00442967
171 2 -0.968003 11.2299 14.4822 12.8804 -0.00353246 0.00539823 -0.00277565
172 2 -0.998057 12.945 14.8426 11.1616 0.00581908 0.00455288 -0.00165346
173 2 -0.936338 12.8744 5.92017 9.47934 -0.00959853 -0.00251762 -0.00583828
174 2 -0.957847 13.1125 7.61176 11.3474 0.00616849 0.00284416 8.03326e-06
175 2 -0.895785 9.82964 10.1431 2.05965 0.00210766 -0.00312184 0.0057473
176 2 -0.91641 9.81694 11.4003 4.44933 -0.00387378 -0.00295976 -0.00305695
177 2 -0.888116 11.1913 9.36662 3.97194 0.00654396 0.000662409 -0.0101936
178 2 -0.879534 11.6475 11.3927 2.62645 -0.00788448 7.12415e-05 -0.00120605
179 2 -0.939813 9.2293 13.0956 6.15563 0.00014416 0.00268833 0.00854343
180 2 -0.851365 11.3972 13.1017 7.72219 -0.000489887 -0.00899421 0.00364848
181 2 -0.865239 13.1733 9.67311 5.57172 -0.00421989 0.00112666 8.37446e-05
182 2 -0.921088 13.1758 11.1483 7.79798 0.00408588 -0.00254316 0.00320315
183 2 -0.92371 13.0543 13.2313 2.21939 0.000743463 0.00116403 -0.00269159
184 2 -0.878497 11.2837 12.7376 14.5786 0.00266557 -0.00330508 0.000487947
185 2 -0.879929 13.3133 11.2625 14.7805 0.00484294 0.00497612 -0.00480456
186 2 -0.896246 9.33455 9.23346 9.76496 -0.00264398 0.00410852 -0.00296083
187 2 -0.944741 9.68587 11.3982 11.09 -0.00110905 0.00131894 -0.00409668
188 2 -0.832307 11.4292 9.53614 11.0254 -0.00338078 0.00176367 0.00714101
189 2 -0.882209 11.1343 10.9742 9.09948 0.00159349 0.00441688 0.00241815
190 2 -0.835552 9.18175 12.9287 13.1101 0.00362338 -6.19676e-05 0.00107652
191 2 -0.889651 12.8381 9.42941 13.0595 0.00115217 -0.00308696 0.00114754
192 2 -0.893887 12.8161 12.7178 9.78288 -0.00541453 -0.00766438 0.00601757
193 2 -0.644603 3.47399 6.18004 10.4445 -0.0016054 -0.00484728 0.00246637
194 2 -0.640438 6.72001 6.92239 14.1871 -0.00184956 -0.00549928 -0.00364586
195 2 -0.601241 13.9715 6.74485 6.88321 0.00214688 0.000332766 0.002074
196 2 -0.698441 7.87453 6.65487 2.39539 0.00699411 -0.00368092 -0.0035214
197 2 -0.652714 12.1025 5.13152 5.15034 0.00398248 0.00269622 -0.0014468
198 2 -0.679835 2.34036 3.80764 9.6647 -0.000613829 -0.000413978 -0.00085411
199 2 -0.680707 13.0194 6.30941 14.4606 0.0022382 0.0016799 0.0025499
200 2 -0.646271 3.49193 9.89559 6.51743 0.00370383 -0.00344007 -0.00182771
201 2 -0.589757 11.9649 5.17736 12.4573 0.00232773 0.00153349 -0.00531913
202 2 -0.62547 6.93381 7.02267 6.77937 0.00220193 0.000173797 -0.000636127
203 3 0.455623 3.05241 4.30746 11.4437 0.00576516 -0.0208429 0.00510146
204 3 0.39988 4.37634 6.35218 10.6757 0.016641 0.0253487 -0.0169948
205 3 0.417685 6.02277 6.78516 13.5283 -0.00367882 0.010946 -0.00718454
206 3 0.422682 7.49712 7.14578 13.6536 -0.0197789 0.00741297 0.0272477
207 3 0.423185 13.9173 6.03726 6.24038 0.0199636 -0.0033988 0.0239391
208 3 0.413519 13.8428 6.24562 7.68502 -0.0205866 0.00242222 0.00500025
209 3 0.514863 7.03707 8.89445 3.04318 0.00748931 0.00741503 -0.0068034
210 3 0.434473 7.64743 7.20852 1.62209 0.012262 -0.0113179 -0.0245963
211 3 0.428822 12.417 5.62076 4.41268 0.0128966 -0.0435397 0.00012006
212 3 0.416661 12.345 4.22547 4.88548 0.00266662 0.00698915 0.0184431
213 3 0.440872 1.68902 3.58294 8.95292 -0.0266837 -0.0210402 0.0102829
214 3 0.438816 3.39998 6.52695 9.56166 -0.00243384 8.95254e-05 0.0114252
215 3 0.443901 9.90348 6.58785 15.9332 0.00657639 -0.00942142 0.0122543
216 3 0.4154 13.9436 6.08925 14.232 0.0165222 -0.0273388 0.0508317
217 3 0.434414 2.5874 10.2722 6.73415 -0.014069 0.0343816 -0.00237536
218 3 0.400993 4.0645 10.663 6.76283 0.00504748 0.0349485 -0.00122021
219 3 0.401525 12.415 4.83694 13.2199 -0.0219863 0.00520533 5.52989e-05
220 3 0.438679 12.2998 6.06949 12.3711 -0.0147466 -0.0084211 -0.00149342
221 3 0.440446 6.41971 6.85228 6.0255 0.00217277 0.0272296 0.00983662
222 3 0.428368 7.45673 6.25376 6.8371 0.00269788 0.0109918 0.0138878
