LAMMPS data file via write_data, version 29 Aug 2024, timestep = 68, units = real

216 atoms
3 atom types

0 17.16 xlo xhi
0 17.16 ylo yhi
0 17.16 zlo zhi

Masses

1 28.0855
2 15.9994
3 1.008

Atoms # charge

2 1 0.8649922817354495 2.138253143234813 2.1948193318599767 2.100781279579799 0 0 0
3 1 0.8486033329028441 17.153320346881554 4.302464988243815 4.255729191116413 -1 0 0
4 1 0.9185256258389539 2.130584496682181 6.459996077805697 6.374299718517422 0 0 0
5 1 0.8142826510769162 4.275867175809566 0.035798585365835175 4.130676354013014 0 0 0
6 1 0.8532086880153348 6.443498778883533 2.179628649945949 6.451762355121513 0 0 0
7 1 0.9686329679484702 4.297390697497167 4.356225201736375 17.122657245210775 0 0 -1
8 1 0.9044246487034703 6.446253462714971 6.433293649086828 2.137432278859119 0 0 0
15 1 0.9267736703591146 4.302843886652524 4.278440631362829 8.619442408598017 0 0 0
17 1 0.822585578310344 17.158856971119476 8.575952652805908 0.02120458952056679 -1 0 0
21 1 0.9297710609860339 4.294637186463375 8.601819625600209 4.264521307358435 0 0 0
65 2 -0.4448353290844413 1.2455071879857735 1.1425549984799264 1.1371953656262073 0 0 0
69 2 -0.4508508910589815 0.9487730175610316 3.2619699212428057 3.336073315159698 0 0 0
70 2 -0.4539115673597703 3.385251212614132 1.0756571824083834 3.1618695268200896 0 0 0
71 2 -0.450614931964329 3.2405206970221023 3.3148945657362248 0.8857980575456065 0 0 0
72 2 -0.4642846416689767 1.1422014592034917 5.401406501259245 5.459688122055869 0 0 0
75 2 -0.4379964021401586 3.1368020933835656 5.3123816235173065 7.476852223185816 0 0 0
76 2 -0.4697611810741233 3.3946101567607636 7.552241373594868 5.228010594339334 0 0 0
77 2 -0.4738866330138226 1.0827074989953338 7.348326804232826 7.39191483568222 0 0 0
78 2 -0.4773107686953148 5.295851903528652 1.046081057923649 5.429798792452096 0 0 0
81 2 -0.461208037935293 5.369547927322043 3.3904246840125243 7.637504471459054 0 0 0
82 2 -0.4482163553654335 7.375627302655246 3.083629038373819 5.372125638081475 0 0 0
83 2 -0.4639817671491888 7.586222845107237 0.9196819109338794 7.4976971812600866 0 0 0
84 2 -0.4801008950030259 5.344415853264684 5.219910245333096 1.005804813207245 0 0 0
87 2 -0.4576878851465756 5.31210728132555 7.68348656991598 3.256748273079762 0 0 0
88 2 -0.4649872237959962 7.474159836619994 5.4277208573814075 3.0543565877380177 0 0 0
89 2 -0.4907970100278482 7.502591944473934 7.301475915422272 1.1167965480687374 0 0 0
201 3 0.3964512833299313 8.35318937629825 17.008614233115804 2.947138097196705 0 -1 0
34 1 0.9127670859483012 10.713111513845616 2.185659800043136 2.1754878730560927 0 0 0
35 1 0.8553334379438688 8.554603866361754 4.3058527266582205 4.284705924891982 0 0 0
36 1 0.964419342156277 10.73496253123117 6.421237618814458 6.4516546357056095 0 0 0
38 1 0.8811450194594604 15.01207022484539 2.1654008798161337 6.410661722433839 0 0 0
40 1 0.9286685934545525 15.013291136590677 6.415370486272454 2.1198446106634825 0 0 0
73 2 -0.4684692862076601 16.035198307720574 3.200858516504221 5.490308934232041 0 0 0
74 2 -0.4598143927562154 16.088047099628806 5.474800930365445 3.032793128570714 0 0 0
92 2 -0.4817987315039647 16.02199491338778 1.139647157597877 7.28647572844045 0 0 0
112 2 -0.4551881315008244 15.95927889736807 7.35475684025955 1.074655336015542 0 0 0
145 2 -0.4977529145023442 9.69954603795374 1.3013921451214232 1.1408699277644065 0 0 0
147 2 -0.4645498314355984 9.563624896737227 3.418632921580311 3.2688838790671606 0 0 0
148 2 -0.4595118972689939 11.910060096536576 0.9605362004950402 3.2451987656354535 0 0 0
149 2 -0.4771841955029258 11.623595106013404 3.1749338570544534 1.15108148799933 0 0 0
150 2 -0.4525220201491029 9.67374006861706 5.531981487965534 5.379123253658003 0 0 0
151 2 -0.4625466953505025 11.883949220037655 5.195544463576354 7.567322817426713 0 0 0
152 2 -0.4694068657663895 11.739656499687838 7.446970198433088 5.516966194294622 0 0 0
153 2 -0.4596695564841732 9.79419322097664 7.471837616125297 7.434884696663 0 0 0
154 2 -0.4542763802406547 13.778427473907367 1.097207831894737 5.2286610896062395 0 0 0
157 2 -0.5162368589751585 14.068909776427315 3.3890328460425483 7.725950045919493 0 0 0
158 2 -0.4608066871383389 13.872531275503734 5.179625600310376 1.0406830407064869 0 0 0
161 2 -0.4685886240556917 13.901650391273613 7.5362571683965065 3.3607623585285844 0 0 0
18 1 0.9197562711733362 2.11971986750537 10.71033824001372 2.1501435103249937 0 0 0
19 1 0.8772150055197334 17.09174089061844 12.80995953557862 4.2504960284676585 -1 0 0
20 1 0.8540315423590239 1.9657912438313851 14.937947202185526 6.383152591899325 0 0 0
22 1 0.9274329841349511 6.426404506712086 10.703837801308783 6.4258663735678185 0 0 0
23 1 0.9403877719600836 4.306215853601837 12.822153106004958 0.025754400426617932 0 0 0
24 1 0.8940992636323362 6.430666322219008 14.981493006857534 2.126643935133347 0 0 0
31 1 0.8855765381714353 4.2556268477518 12.801653306017203 8.512121474362528 0 0 0
79 2 -0.4950757656517979 3.180469071016861 15.950374146024435 5.219393994202111 0 0 0
80 2 -0.5002861331540025 5.548655077879041 16.066338512371445 3.0831074151055575 0 0 0
91 2 -0.4669376309782309 0.8893019172797594 16.063439337292113 7.637332298512431 0 0 0
111 2 -0.4781341686225363 1.2254588185999313 9.70531271139395 1.1138578787315123 0 0 0
114 2 -0.4634947361237865 0.9319247022811671 11.917287504855498 3.246242739658316 0 0 0
115 2 -0.464683912182822 3.0314665390036137 9.685300327922116 3.144857045796107 0 0 0
116 2 -0.458265895985062 3.3126776007556495 11.895400077377197 1.0621309522969624 0 0 0
117 2 -0.4565997049245208 0.9907461864778087 14.046108042655618 5.372679638477559 0 0 0
120 2 -0.4384808413831265 3.0389666848261565 13.751690412902098 7.402728959176903 0 0 0
121 2 -0.4571679941658588 5.494723169423344 9.76786155122237 5.368177958378487 0 0 0
122 2 -0.4565949635786682 5.158638552204323 11.821259232699187 7.499816110900554 0 0 0
123 2 -0.4446699330338221 7.331459976097809 11.737790744735129 5.410101651602676 0 0 0
124 2 -0.4511268042501999 7.662100075922748 9.553429438432422 7.540348717587443 0 0 0
125 2 -0.467301666797917 5.239887596948909 13.758180416887054 1.0553475044962886 0 0 0
128 2 -0.4850231892946441 7.647663144781621 16.103398461308416 1.1291125340074701 0 0 0
129 2 -0.4768099341052208 7.413167631966703 14.07590782384572 3.191925556414873 0 0 0
193 2 -0.5834785503995595 8.41997462673525 17.079521341747174 3.9029038577713777 0 0 0
198 2 -0.5674001358788292 5.324830004155872 15.53048428294527 6.4533228560181035 0 0 0
202 3 0.393384198756904 7.658378933397075 16.58390121409631 4.192342829216894 0 0 0
211 3 0.3965099372083234 5.321417623213637 16.495568334981805 6.534251175705582 0 0 0
212 3 0.406931522552551 4.461991641062278 15.307875504186757 5.90076842020556 0 0 0
1 1 0.8696000708300975 0.022621257994684504 0.020539808255525333 0.011192831977140827 1 1 0
37 1 0.9312374243967605 12.835398731862155 0.023418115865184694 4.317357714605147 0 1 0
50 1 0.8586140787616857 10.699264864559428 10.728887012446098 2.1350357648637788 0 0 0
51 1 0.8557352038042964 8.555621961366736 12.843709394358179 4.287753024462954 0 0 0
52 1 0.9338890613258455 10.708635868762125 14.943987637638823 6.460159087946656 0 0 0
53 1 0.9618465055791047 12.879317064727795 8.545617983718422 4.2804253408245 0 0 0
54 1 0.9348383194868135 15.011672316026155 10.675819740770894 6.404551780605946 0 0 0
55 1 0.9227413789488768 12.859259329137249 12.863308147076795 0.004781528814656316 0 0 0
56 1 0.9271702885695303 15.037173095892461 14.969403408288136 2.0964323720493527 0 0 0
63 1 0.916131914702109 12.889403632516357 12.810532159741307 8.546216905569974 0 0 0
68 2 -0.4484787593633587 16.13448550779095 15.912384480180265 1.1479504773772429 0 0 0
118 2 -0.4630501238509109 16.056871487268204 11.617826006064854 5.469870684076158 0 0 0
119 2 -0.459970542296157 15.909569684075482 13.902599440933596 3.082523383457319 0 0 0
132 2 -0.4661088885396632 16.09086509289502 9.51318316497092 7.6269578980609705 0 0 0
155 2 -0.4518636819756153 11.665693025621179 16.06641578010244 5.517386254146441 0 0 0
156 2 -0.4286627125452607 14.041498259689662 16.1382814790759 3.234045639081639 0 0 0
163 2 -0.4978211688831205 9.620792348470399 15.812908273419126 7.473704338405141 0 0 0
175 2 -0.4500845755435017 9.47860217063802 9.60060567545489 1.0235644457134199 0 0 0
176 2 -0.4501276245843011 9.520727326631231 11.820045446520792 3.3540733552072437 0 0 0
177 2 -0.4426085440743772 11.926085146745823 9.586934993385663 3.168336404692605 0 0 0
178 2 -0.4590571108499448 11.64137808715004 11.668454555620162 1.1000967564695676 0 0 0
179 2 -0.4663560104272021 9.784340755440002 13.913192528224737 5.423205803220815 0 0 0
180 2 -0.4864660672655805 11.800981717737413 13.778998755309178 7.666778063726541 0 0 0
181 2 -0.467071131043046 13.90172355845868 9.574949859141187 5.165848296824058 0 0 0
182 2 -0.4635031815751793 14.019532509676402 11.725277257795248 7.289525276462612 0 0 0
183 2 -0.4713570860933036 13.789025122321277 13.911810499058287 0.9420350611426449 0 0 0
216 3 0.3967870538407403 9.32917530282444 13.829572353520515 8.398137305870296 0 0 0
10 1 0.8657626313961287 2.167220982881433 2.1812153266575085 10.76299046638253 0 0 0
11 1 0.9327477727991947 0.023135827378837227 4.2692254538474295 12.947831252726079 0 0 0
12 1 0.9057559985487198 2.1293428898965625 6.467255171742871 15.041109140642972 0 0 0
13 1 0.9077365312752812 4.320161242079245 0.09379139463979241 12.84211423964393 0 0 0
14 1 0.9166448885321413 6.445303524461017 2.187295745536981 15.007400891251995 0 0 0
16 1 0.8657373526100837 6.41944529314553 6.444358033754396 10.710737103217273 0 0 0
33 1 0.9121007323007915 8.633425715574472 0.06995138905500937 17.137892866616536 0 0 0
43 1 0.925612244841165 8.550590889069376 4.3171887485160685 12.829882613188895 0 0 0
85 2 -0.4709383336307195 3.198476511733727 5.608662210358861 16.024884133521972 0 0 0
86 2 -0.4713544160616216 5.3075684239872 3.4278079144587874 16.085229299939954 0 0 0
90 2 -0.4439589714408966 1.134057478596144 0.9920466713900383 9.669128708797471 0 0 0
94 2 -0.4590781372874714 1.015070920560752 3.2608299356656 12.009382906936453 0 0 0
95 2 -0.4604955273591093 3.3932191312900444 1.0461779922197334 11.816499145989923 0 0 0
96 2 -0.4686523781873818 3.0750721501631557 3.1175136548517464 9.714017570435065 0 0 0
97 2 -0.4600689368895688 1.069758522158137 5.210174272180096 13.881723623542639 0 0 0
100 2 -0.5005831977813097 0.9969935334033186 7.701908262918907 16.14144363350947 0 0 0
101 2 -0.5017121242206615 3.0648117695313166 7.525222188730624 14.10021219476727 0 0 0
102 2 -0.4548926534240212 5.402344018571632 1.2825987494729325 14.03309940407058 0 0 0
105 2 -0.474290585732075 7.538973954877554 0.9764640665035995 16.185353631861226 0 0 0
106 2 -0.4675294256776955 7.462486336453986 3.070010023580024 13.982570438828104 0 0 0
107 2 -0.4577568097191349 5.204688957909032 5.344465394483812 9.588104978280235 0 0 0
108 2 -0.4535109672709789 5.2833231008362365 7.512962246822295 11.969705927804169 0 0 0
109 2 -0.4594972559558725 7.416605543670726 5.4252553867329345 11.589042913491356 0 0 0
110 2 -0.45670589096283 7.520772899052721 7.57688429275752 9.473625812175841 0 0 0
39 1 0.9278634132506156 12.882876020659547 4.260338438702906 0.025446973755892992 0 0 1
42 1 0.9317209417415877 10.73011973096335 2.1779505609771626 10.768744512073967 0 0 0
44 1 0.9227677224713277 10.653745009342787 6.298544420741238 15.106181799574601 0 0 0
45 1 0.8485654020233414 12.822639080092195 0.032546973027852484 12.937362600160528 0 0 0
46 1 0.9822447798051226 14.993648141690958 2.127320759364803 15.047928230768482 0 0 0
47 1 0.8757765717719046 12.875906329994052 4.334583028573212 8.661622425249467 0 0 0
48 1 0.8854617087397467 14.975120964409928 6.51598723186046 10.739244361823582 0 0 0
49 1 0.8403444320047859 8.581358416149104 8.578946242615762 0.033450250047846235 0 0 1
61 1 0.9176750366791683 12.847307388699564 8.553914686574112 12.904688310531695 0 0 0
67 2 -0.4540803880356498 15.926492804203432 1.1278286257782797 16.107220672128616 0 0 0
98 2 -0.4588961522868591 16.090907420678796 3.109565225097621 14.150208418939169 0 0 0
99 2 -0.4204968858949233 16.03335274934633 5.4650417223386665 11.888086954379364 0 0 0
131 2 -0.4629184845257927 16.16610767309149 7.702764179631292 9.62631611052204 0 0 0
159 2 -0.4554309662698265 11.993698807804574 5.311941401456635 16.192033376413104 0 0 0
160 2 -0.4633249745837387 14.102024299379211 3.170771036266038 16.048212899264513 0 0 0
162 2 -0.4209865008753849 9.671291271054189 1.1037763622141716 9.57180015920794 0 0 0
164 2 -0.4610753235224274 9.603058601241568 3.4216412109236978 11.868359467038635 0 0 0
165 2 -0.4610465924113252 11.628254879038087 1.1118665823895781 11.742563603401607 0 0 0
166 2 -0.4585485915595335 11.814015262240416 3.0732654346482695 9.80605691715863 0 0 0
167 2 -0.4530879003003568 9.556821437935838 5.3435505073141485 13.73722776741076 0 0 0
168 2 -0.4756374765851686 9.772081928426879 7.481213125862468 16.0528011363341 0 0 0
169 2 -0.4126385224647325 11.777638708341254 7.379517886211837 14.111027933180535 0 0 0
170 2 -0.4771279722222442 13.731881689694452 1.0667282260656001 13.881133292162184 0 0 0
173 2 -0.4720715602996216 13.937616842154036 5.590128669676804 9.7955720977386 0 0 0
174 2 -0.4509754391045659 13.830274513958601 7.545333457119978 11.978423606374994 0 0 0
195 2 -0.5811422272912383 16.36458224926821 3.8682374164615614 9.041694412093582 0 0 0
196 2 -0.6206859416715905 9.323899704258658 5.053625131859568 16.369027033279078 0 0 0
205 3 0.4131422847925695 15.494980526385072 3.732081634785135 8.518023920969009 0 0 0
206 3 0.3836280300257084 17.086384540475883 3.9081515429946454 8.42047662765227 0 0 0
207 3 0.3750968037449665 9.064940868816386 4.258580536519704 16.89868151350008 0 0 0
208 3 0.3817835442447431 8.909313159244677 5.810068613449616 16.875482610313522 0 0 0
26 1 0.9696822914561171 2.1297350622858406 10.710911197224762 10.673863684809557 0 0 0
28 1 0.8870541012339018 2.1419378634879482 15.109794237379514 14.978837331354441 0 0 0
29 1 0.865577088549748 4.283226802774671 8.535444739047376 12.85412522264358 0 0 0
30 1 1.008656255588057 6.490325719608832 10.725344719913025 15.04595761046021 0 0 0
32 1 0.7575089474436052 6.287959513746789 14.978717032383114 10.679523387627771 0 0 0
57 1 0.9190203455087108 8.585975645392633 8.572863678380266 8.58544960088183 0 0 0
59 1 0.8764844122578356 8.708236068010445 12.825939767961698 12.91607592694678 0 0 0
66 2 -0.4488474372411863 0.9791351897019248 16.317646461873935 16.098544800009815 0 0 0
103 2 -0.46599584532938 3.1824079598635944 15.995354280853784 13.951790817561312 0 0 0
104 2 -0.4935077664713605 5.353830791858084 16.402994210964696 11.76489189267888 0 0 0
126 2 -0.4241944309045734 3.192745220238291 14.019909420724245 16.16123367381741 0 0 0
127 2 -0.4747737758288688 5.435151225102844 11.696345070249917 15.963022736346074 0 0 0
130 2 -0.4667789564208089 1.1779872555804822 9.787487890359028 9.612035718173498 0 0 0
133 2 -0.4642403735762456 0.9793693255122791 11.930119402950382 11.792354573714709 0 0 0
134 2 -0.4423891751652984 3.1633840389883185 9.589885137015072 11.616660004839414 0 0 0
135 2 -0.451467074942541 3.1978465039005535 11.624547846758606 9.707403144107786 0 0 0
136 2 -0.4364050623705633 1.154425100927478 14.038785850024565 13.859219896673928 0 0 0
139 2 -0.4342952762144351 5.4562844196432225 9.681531789873697 13.85803822598275 0 0 0
140 2 -0.4688728217589421 7.375735785190334 9.676137582956118 16.06740957154456 0 0 0
141 2 -0.4858242306156764 7.517822513189398 11.765505095417772 14.13866503383847 0 0 0
142 2 -0.4357618708370484 5.4639822022453615 14.073582760761015 9.500949373039397 0 0 0
143 2 -0.4215313048781671 7.369790506180008 16.224171651552915 9.641801178601419 0 0 0
144 2 -0.5084516641191843 7.626599993607664 13.9711964308354 11.715476873844286 0 0 0
197 2 -0.5869583282533843 2.119074110493672 10.203816661592255 14.978438405816116 0 0 0
199 2 -0.5201457278863583 5.242143748219328 13.583404180437768 12.00694372424906 0 0 0
209 3 0.4064948543483404 2.2233179923690676 9.24387597014901 14.910726509804176 0 0 0
210 3 0.3952305415920174 1.3192436138102368 10.304368845665508 15.49034157696123 0 0 0
213 3 0.3240595011096375 5.0688894214916145 14.650319996317922 11.816935985084848 0 0 0
214 3 0.3803109451490713 6.271048271490826 13.521113432136353 12.407921833595694 0 0 0
9 1 0.9112737036746449 17.097524414890547 17.121334735141097 8.52855948260905 0 0 0
25 1 0.9211926203097593 17.150159844031467 8.580923276056714 8.553205965509662 0 0 0
27 1 0.9195055647098584 17.143790036287367 12.81762533387846 12.828740151393147 0 0 0
41 1 0.8752513365185209 8.516300496152368 17.11960926579978 8.532275335394443 0 0 0
58 1 0.9132770647145761 10.763216968558828 10.688215342199333 10.728536352777718 0 0 0
60 1 0.925744945793 10.75271951764353 15.026081134084972 15.0416543548597 0 0 0
62 1 0.8955252325005838 15.028921865866783 10.72440949657593 15.037591771336409 0 0 0
64 1 0.8195473233290798 15.042922510050714 14.902369251185979 10.64284123297507 0 0 0
93 2 -0.4887150085949621 16.16467413712341 16.172876896536046 9.57720482036071 0 0 0
113 2 -0.4800370538028507 16.119593009467604 9.801930453167106 16.018030441159965 0 0 0
137 2 -0.4691012266794876 16.07480426494321 11.630282658115995 14.057603504606282 0 0 0
138 2 -0.4727126830693703 16.11224398376037 13.682458967621603 11.806780677755803 0 0 0
146 2 -0.4706499785657857 9.596307268140118 16.28416955656248 16.107964003126753 0 0 0
171 2 -0.4605359384623013 11.808642923663864 15.963577533915357 14.125238726636718 0 0 0
172 2 -0.494645071206432 14.079959661247134 16.066898594542987 11.90227229652867 0 0 0
184 2 -0.4609060234114851 11.690311097497652 13.966223196998145 15.977571959395677 0 0 0
185 2 -0.4593523492003634 13.943816763081173 11.955720506207461 16.210057192045824 0 0 0
186 2 -0.4530051580075078 9.68334527877765 9.703753012815069 9.830064632923749 0 0 0
187 2 -0.4783244129045148 9.731328901367172 11.8606168965479 11.979488302214929 0 0 0
188 2 -0.4572392618835192 11.704627730301352 9.634304261520258 11.650572595080106 0 0 0
189 2 -0.4654246543265171 11.98180444328186 11.756660518046106 9.52769782224792 0 0 0
190 2 -0.4649043938319006 9.690965609643436 13.883915835364848 13.800234540062318 0 0 0
191 2 -0.4500203717566883 13.93839921986236 9.528768986370691 13.841028865242274 0 0 0
192 2 -0.4619052939252267 13.97163931633623 14.029837333276888 9.705798782549934 0 0 0
194 2 -0.5642684397049442 16.378205725027016 16.656425838895544 12.984633988897897 0 0 0
200 2 -0.5838307682129226 8.928169860247143 13.146024050151945 8.935838879639531 0 0 0
203 3 0.4112523429334446 15.392768436006348 16.38991142839394 12.699390365835326 0 0 0
204 3 0.3811247091006273 16.912278330292335 16.58094923583501 12.195489149442961 0 0 0
215 3 0.3936459253059866 8.98079515795571 13.489128989242058 9.825559095080015 0 0 0

Velocities

2 0 0 0
3 0 0 0
4 0 0 0
5 0 0 0
6 0 0 0
7 0 0 0
8 0 0 0
15 0 0 0
17 0 0 0
21 0 0 0
65 0 0 0
69 0 0 0
70 0 0 0
71 0 0 0
72 0 0 0
75 0 0 0
76 0 0 0
77 0 0 0
78 0 0 0
81 0 0 0
82 0 0 0
83 0 0 0
84 0 0 0
87 0 0 0
88 0 0 0
89 0 0 0
201 0 0 0
34 0 0 0
35 0 0 0
36 0 0 0
38 0 0 0
40 0 0 0
73 0 0 0
74 0 0 0
92 0 0 0
112 0 0 0
145 0 0 0
147 0 0 0
148 0 0 0
149 0 0 0
150 0 0 0
151 0 0 0
152 0 0 0
153 0 0 0
154 0 0 0
157 0 0 0
158 0 0 0
161 0 0 0
18 0 0 0
19 0 0 0
20 0 0 0
22 0 0 0
23 0 0 0
24 0 0 0
31 0 0 0
79 0 0 0
80 0 0 0
91 0 0 0
111 0 0 0
114 0 0 0
115 0 0 0
116 0 0 0
117 0 0 0
120 0 0 0
121 0 0 0
122 0 0 0
123 0 0 0
124 0 0 0
125 0 0 0
128 0 0 0
129 0 0 0
193 0 0 0
198 0 0 0
202 0 0 0
211 0 0 0
212 0 0 0
1 0 0 0
37 0 0 0
50 0 0 0
51 0 0 0
52 0 0 0
53 0 0 0
54 0 0 0
55 0 0 0
56 0 0 0
63 0 0 0
68 0 0 0
118 0 0 0
119 0 0 0
132 0 0 0
155 0 0 0
156 0 0 0
163 0 0 0
175 0 0 0
176 0 0 0
177 0 0 0
178 0 0 0
179 0 0 0
180 0 0 0
181 0 0 0
182 0 0 0
183 0 0 0
216 0 0 0
10 0 0 0
11 0 0 0
12 0 0 0
13 0 0 0
14 0 0 0
16 0 0 0
33 0 0 0
43 0 0 0
85 0 0 0
86 0 0 0
90 0 0 0
94 0 0 0
95 0 0 0
96 0 0 0
97 0 0 0
100 0 0 0
101 0 0 0
102 0 0 0
105 0 0 0
106 0 0 0
107 0 0 0
108 0 0 0
109 0 0 0
110 0 0 0
39 0 0 0
42 0 0 0
44 0 0 0
45 0 0 0
46 0 0 0
47 0 0 0
48 0 0 0
49 0 0 0
61 0 0 0
67 0 0 0
98 0 0 0
99 0 0 0
131 0 0 0
159 0 0 0
160 0 0 0
162 0 0 0
164 0 0 0
165 0 0 0
166 0 0 0
167 0 0 0
168 0 0 0
169 0 0 0
170 0 0 0
173 0 0 0
174 0 0 0
195 0 0 0
196 0 0 0
205 0 0 0
206 0 0 0
207 0 0 0
208 0 0 0
26 0 0 0
28 0 0 0
29 0 0 0
30 0 0 0
32 0 0 0
57 0 0 0
59 0 0 0
66 0 0 0
103 0 0 0
104 0 0 0
126 0 0 0
127 0 0 0
130 0 0 0
133 0 0 0
134 0 0 0
135 0 0 0
136 0 0 0
139 0 0 0
140 0 0 0
141 0 0 0
142 0 0 0
143 0 0 0
144 0 0 0
197 0 0 0
199 0 0 0
209 0 0 0
210 0 0 0
213 0 0 0
214 0 0 0
9 0 0 0
25 0 0 0
27 0 0 0
41 0 0 0
58 0 0 0
60 0 0 0
62 0 0 0
64 0 0 0
93 0 0 0
113 0 0 0
137 0 0 0
138 0 0 0
146 0 0 0
171 0 0 0
172 0 0 0
184 0 0 0
185 0 0 0
186 0 0 0
187 0 0 0
188 0 0 0
189 0 0 0
190 0 0 0
191 0 0 0
192 0 0 0
194 0 0 0
200 0 0 0
203 0 0 0
204 0 0 0
215 0 0 0
