ITEM: TIMESTEP
0
ITEM: NUMBER OF ATOMS
216
ITEM: BOX BOUNDS pp pp pp
0.0000000000000000e+00 1.7160000000000000e+01
0.0000000000000000e+00 1.7160000000000000e+01
0.0000000000000000e+00 1.7160000000000000e+01
ITEM: ATOMS id type q x y z
1 1 0.876698 17.1046 17.1483 0.00845356
2 1 0.87635 2.13686 2.11965 2.15001
3 1 0.889635 0.00404566 4.27523 4.2474
4 1 0.8896 2.09727 6.48149 6.42357
5 1 0.830283 4.30742 0.0321073 4.31697
6 1 0.872353 6.41777 2.10738 6.45658
7 1 0.909258 4.32442 4.2676 0.0161842
8 1 0.871653 6.4227 6.45909 2.17535
9 1 0.882241 17.1079 17.1119 8.63112
10 1 0.838204 2.11495 2.10594 10.7294
11 1 0.904463 0.00499245 4.34999 12.9182
12 1 0.868991 2.10851 6.40406 15.0334
13 1 0.909631 4.32653 0.0552523 12.8345
14 1 0.885449 6.40189 2.20038 14.9625
15 1 0.880033 4.33672 4.27186 8.57131
16 1 0.884769 6.40872 6.48483 10.7666
17 1 0.843105 0.039164 8.54707 0.0158814
18 1 0.897707 2.14812 10.7357 2.11335
19 1 0.880395 0.0528832 12.8595 4.30273
20 1 0.845366 2.16999 14.9704 6.38339
21 1 0.892306 4.24157 8.57629 4.28177
22 1 0.885723 6.38207 10.7254 6.41065
23 1 0.89331 4.33612 12.9155 0.0314436
24 1 0.898584 6.46076 14.9909 2.19843
25 1 0.889832 17.1391 8.60167 8.58859
26 1 0.89245 2.11711 10.724 10.6735
27 1 0.875596 17.1521 12.8111 12.9218
28 1 0.848059 2.19092 15.0509 15.0734
29 1 0.889633 4.24861 8.59143 12.8194
30 1 0.916276 6.49148 10.7082 14.9799
31 1 0.923356 4.34332 12.915 8.54366
32 1 0.844091 6.47245 14.9781 10.7775
33 1 0.856891 8.54983 0.0520827 17.1008
34 1 0.861466 10.7021 2.1977 2.10702
35 1 0.85546 8.63056 4.29824 4.32425
36 1 0.895502 10.7475 6.39785 6.3884
37 1 0.906008 12.8345 17.1441 4.3153
38 1 0.878581 15.0747 2.0866 6.47552
39 1 0.89571 12.917 4.3389 17.1124
40 1 0.89984 14.9698 6.44042 2.1949
41 1 0.864565 8.62718 17.1504 8.60503
42 1 0.902018 10.7665 2.1216 10.7582
43 1 0.896407 8.55969 4.32324 12.9041
44 1 0.915134 10.709 6.44779 14.9935
45 1 0.89856 12.8865 0.0506632 12.914
46 1 0.899427 15.0595 2.19881 14.9825
47 1 0.87395 12.889 4.23329 8.62797
48 1 0.918158 14.9807 6.399 10.7017
49 1 0.84903 8.60235 8.56838 17.1578
50 1 0.902656 10.7784 10.7457 2.1848
51 1 0.872022 8.61088 12.841 4.24818
52 1 0.889378 10.6765 15.0271 6.41968
53 1 0.914458 12.8857 8.63434 4.25161
54 1 0.882086 14.9866 10.7384 6.41294
55 1 0.904171 12.911 12.8482 0.0109874
56 1 0.899666 14.9555 15.0211 2.13781
57 1 0.89203 8.52547 8.58516 8.62157
58 1 0.88742 10.7818 10.7627 10.7797
59 1 0.882113 8.52392 12.8239 12.8183
60 1 0.866725 10.7316 15.0291 15.0402
61 1 0.925852 12.8701 8.53813 12.8403
62 1 0.874579 14.9803 10.6971 15.0201
63 1 0.894001 12.9151 12.9078 8.55629
64 1 0.861538 15.0418 14.9559 10.6656
65 2 -0.43452 1.09227 1.07812 1.07133
66 2 -0.450652 1.04736 16.1302 16.1332
67 2 -0.452112 16.0603 1.07153 16.0433
68 2 -0.452179 16.0638 16.0498 1.08372
69 2 -0.448652 1.06144 3.27133 3.26631
70 2 -0.441864 3.21892 1.11262 3.26393
71 2 -0.442414 3.2089 3.27405 1.02854
72 2 -0.45023 1.05121 5.39396 5.36943
73 2 -0.457557 16.0397 3.25451 5.37213
74 2 -0.445674 16.1015 5.39973 3.17761
75 2 -0.433475 3.18239 5.31113 7.48359
76 2 -0.450368 3.27491 7.49123 5.38124
77 2 -0.462888 1.0731 7.45674 7.4948
78 2 -0.514643 5.39606 1.08524 5.30755
79 2 -0.635407 3.24784 16.0441 5.34544
80 2 -0.479842 5.31479 16.0398 3.16418
81 2 -0.451755 5.41637 3.2509 7.54531
82 2 -0.435376 7.45738 3.16242 5.39068
83 2 -0.451105 7.5251 1.04976 7.54539
84 2 -0.46439 5.32387 5.39891 1.03515
85 2 -0.431518 3.25553 5.39572 16.0844
86 2 -0.47955 5.32346 3.26989 16.0645
87 2 -0.440151 5.33048 7.54326 3.17268
88 2 -0.45748 7.52204 5.40466 3.1811
89 2 -0.464753 7.53087 7.50798 1.11297
90 2 -0.473945 1.08132 1.03361 9.59713
91 2 -0.421345 1.01278 16.0706 7.56543
92 2 -0.49549 16.0362 1.11107 7.46771
93 2 -0.476212 16.1291 16.0283 9.67674
94 2 -0.43485 1.04835 3.21944 11.846
95 2 -0.457081 3.27681 1.03534 11.8236
96 2 -0.439695 3.19412 3.19979 9.67905
97 2 -0.468974 1.05115 5.34381 13.9787
98 2 -0.463977 16.1119 3.21567 13.9433
99 2 -0.432555 16.0868 5.36034 11.7503
100 2 -0.497678 1.05568 7.51008 16.0987
101 2 -0.468072 3.19313 7.54098 13.9555
102 2 -0.457631 5.37475 1.11236 13.9198
103 2 -0.43105 3.21287 16.0808 13.9268
104 2 -0.402722 5.4002 16.1081 11.7996
105 2 -0.471157 7.50682 1.11335 16.0749
106 2 -0.461736 7.51312 3.17655 13.8969
107 2 -0.430909 5.33961 5.35832 9.64092
108 2 -0.465922 5.38222 7.55933 11.8284
109 2 -0.439314 7.47904 5.30258 11.7549
110 2 -0.452493 7.46197 7.50373 9.59842
111 2 -0.475596 1.12477 9.6645 1.07932
112 2 -0.429705 16.035 7.45702 1.03013
113 2 -0.457432 16.043 9.63999 16.1238
114 2 -0.456164 1.08804 11.8137 3.20717
115 2 -0.451134 3.19611 9.69313 3.20014
116 2 -0.450568 3.22277 11.8443 1.05796
117 2 -0.454186 1.03833 13.9801 5.35059
118 2 -0.443706 16.1462 11.7721 5.39693
119 2 -0.426039 16.03 13.9644 3.21674
120 2 -0.450042 3.21646 13.9231 7.47461
121 2 -0.447354 5.32811 9.68083 5.37947
122 2 -0.459139 5.30292 11.7898 7.54624
123 2 -0.438757 7.46992 11.7911 5.39927
124 2 -0.432545 7.5471 9.66438 7.54237
125 2 -0.454673 5.39025 13.8951 1.09906
126 2 -0.448586 3.1874 13.896 16.1365
127 2 -0.42838 5.41578 11.7656 16.0431
128 2 -0.444619 7.52555 16.0721 1.06808
129 2 -0.45424 7.47366 13.9731 3.21884
130 2 -0.460428 1.06314 9.6564 9.62554
131 2 -0.442891 16.144 7.47312 9.68684
132 2 -0.439367 16.108 9.62284 7.48675
133 2 -0.43583 1.08092 11.8122 11.83
134 2 -0.443167 3.19898 9.65206 11.7571
135 2 -0.419117 3.21282 11.8356 9.63702
136 2 -0.443832 1.04924 13.9544 13.9277
137 2 -0.472069 16.076 11.7746 13.993
138 2 -0.480767 16.0881 13.8954 11.8463
139 2 -0.428757 5.34994 9.70291 13.9314
140 2 -0.445456 7.46663 9.597 16.0319
141 2 -0.474412 7.51807 11.7557 13.9021
142 2 -0.425319 5.37542 13.928 9.64009
143 2 -0.467162 7.47578 16.0762 9.64236
144 2 -0.580371 7.46937 13.931 11.7885
145 2 -0.473956 9.65623 1.1015 1.10731
146 2 -0.437736 9.65484 16.1338 16.0841
147 2 -0.476819 9.59397 3.19829 3.20204
148 2 -0.424388 11.8087 1.03796 3.26292
149 2 -0.445669 11.7531 3.27223 1.10258
150 2 -0.461648 9.63048 5.35763 5.40502
151 2 -0.422869 11.7914 5.32617 7.51644
152 2 -0.436477 11.8181 7.50748 5.38903
153 2 -0.411031 9.68234 7.5178 7.494
154 2 -0.42541 13.9288 1.06227 5.38087
155 2 -0.449787 11.7493 16.1381 5.41983
156 2 -0.44506 13.9782 16.1094 3.25978
157 2 -0.48059 13.8851 3.24092 7.50347
158 2 -0.448482 13.9896 5.3068 1.0462
159 2 -0.44062 11.778 5.31235 16.1132
160 2 -0.446175 13.9191 3.16587 16.0924
161 2 -0.467078 13.887 7.45687 3.25371
162 2 -0.447103 9.70337 1.08751 9.62222
163 2 -0.49453 9.68534 16.0409 7.54812
164 2 -0.421024 9.61666 3.25409 11.7478
165 2 -0.464747 11.7558 1.07517 11.8531
166 2 -0.449933 11.8215 3.21728 9.70398
167 2 -0.45092 9.60413 5.32067 13.9889
168 2 -0.460948 9.71039 7.52153 16.0336
169 2 -0.459481 11.8385 7.46565 13.9101
170 2 -0.444783 13.8945 1.05956 13.913
171 2 -0.451648 11.8074 16.0308 13.9166
172 2 -0.430421 13.9952 16.1119 11.8043
173 2 -0.470559 13.9246 5.42059 9.69145
174 2 -0.460987 13.8926 7.51903 11.8509
175 2 -0.42739 9.67305 9.66844 1.08414
176 2 -0.457124 9.59966 11.7499 3.26014
177 2 -0.479676 11.8565 9.69569 3.22473
178 2 -0.451379 11.7652 11.7629 1.07375
179 2 -0.467236 9.70151 13.9763 5.4207
180 2 -0.470054 11.7662 13.8826 7.56592
181 2 -0.457447 13.8877 9.60545 5.38841
182 2 -0.450024 13.922 11.7824 7.49102
183 2 -0.466741 13.9238 13.9329 1.04085
184 2 -0.433824 11.7683 13.9133 16.1201
185 2 -0.462198 13.988 11.8548 16.114
186 2 -0.417601 9.60274 9.6548 9.70331
187 2 -0.466554 9.63442 11.7516 11.8424
188 2 -0.454371 11.7578 9.61916 11.7613
189 2 -0.452278 11.8562 11.7533 9.64596
190 2 -0.430963 9.62925 13.9145 13.9065
191 2 -0.451169 13.9884 9.60891 13.8953
192 2 -0.474587 13.9612 13.9494 9.63817
193 2 -0.575223 8.42675 16.5729 3.60382
194 2 -0.567746 15.8008 16.6967 12.6237
195 2 -0.579299 16.256 4.24978 9.34114
196 2 -0.583766 9.17343 4.88129 16.5124
197 2 -0.579361 2.25418 10.1338 14.8543
198 2 -0.592701 4.63651 15.4789 6.26774
199 2 -0.565847 5.447 14.3828 11.7069
200 2 -0.577883 8.88095 13.1444 9.29407
201 3 0.381373 8.18486 0.156472 3.04694
202 3 0.369735 7.82451 16.6251 4.34959
203 3 0.390566 15.5632 15.8212 12.9378
204 3 0.375028 16.7339 16.6296 12.4081
205 3 0.381441 15.6084 3.87659 8.73863
206 3 0.369919 17.1028 4.06448 8.92872
207 3 0.368269 9.0174 3.98909 16.8306
208 3 0.375183 8.62778 5.4359 17.0748
209 3 0.398561 2.1486 9.1866 14.9691
210 3 0.378545 1.56901 10.5205 15.4044
211 3 0.399896 4.45967 16.3737 6.56701
212 3 0.492499 4.00685 15.334 5.55771
213 3 0.233522 5.97796 14.8922 11.0903
214 3 0.454132 6.08055 13.8295 12.1696
215 3 0.376626 9.37718 13.6855 9.91256
216 3 0.3804 9.12504 13.4824 8.42936
ITEM: TIMESTEP
68
ITEM: NUMBER OF ATOMS
216
ITEM: BOX BOUNDS pp pp pp
0.0000000000000000e+00 1.7160000000000000e+01
0.0000000000000000e+00 1.7160000000000000e+01
0.0000000000000000e+00 1.7160000000000000e+01
ITEM: ATOMS id type q x y z
1 1 0.8696 0.0226213 0.0205398 17.1712
2 1 0.864992 2.13825 2.19482 2.10078
3 1 0.848603 -0.00667965 4.30246 4.25573
4 1 0.918526 2.13058 6.46 6.3743
5 1 0.814283 4.27587 0.0357986 4.13068
6 1 0.853209 6.4435 2.17963 6.45176
7 1 0.968633 4.29739 4.35623 17.1227
8 1 0.904425 6.44625 6.43329 2.13743
9 1 0.911274 17.0975 17.1213 8.52856
10 1 0.865763 2.16722 2.18122 10.763
11 1 0.932748 0.0231358 4.26923 12.9478
12 1 0.905756 2.12934 6.46726 15.0411
13 1 0.907737 4.32016 0.0937914 12.8421
14 1 0.916645 6.4453 2.1873 15.0074
15 1 0.926774 4.30284 4.27844 8.61944
16 1 0.865737 6.41945 6.44436 10.7107
17 1 0.822586 -0.00114303 8.57595 0.0212046
18 1 0.919756 2.11972 10.7103 2.15014
19 1 0.877215 17.0917 12.81 4.2505
20 1 0.854032 1.96579 14.9379 6.38315
21 1 0.929771 4.29464 8.60182 4.26452
22 1 0.927433 6.4264 10.7038 6.42587
23 1 0.940388 4.30622 12.8222 0.0257544
24 1 0.894099 6.43067 14.9815 2.12664
25 1 0.921193 17.1502 8.58092 8.55321
26 1 0.969682 2.12974 10.7109 10.6739
27 1 0.919506 17.1438 12.8176 12.8287
28 1 0.887054 2.14194 15.1098 14.9788
29 1 0.865577 4.28323 8.53544 12.8541
30 1 1.00866 6.49033 10.7253 15.046
31 1 0.885577 4.25563 12.8017 8.51212
32 1 0.757509 6.28796 14.9787 10.6795
33 1 0.912101 8.63343 0.0699514 17.1379
34 1 0.912767 10.7131 2.18566 2.17549
35 1 0.855333 8.5546 4.30585 4.28471
36 1 0.964419 10.735 6.42124 6.45165
37 1 0.931237 12.8354 0.0234181 4.31736
38 1 0.881145 15.0121 2.1654 6.41066
39 1 0.927863 12.8829 4.26034 0.025447
40 1 0.928669 15.0133 6.41537 2.11984
41 1 0.875251 8.5163 -0.0403907 8.53228
42 1 0.931721 10.7301 2.17795 10.7687
43 1 0.925612 8.55059 4.31719 12.8299
44 1 0.922768 10.6537 6.29854 15.1062
45 1 0.848565 12.8226 0.032547 12.9374
46 1 0.982245 14.9936 2.12732 15.0479
47 1 0.875777 12.8759 4.33458 8.66162
48 1 0.885462 14.9751 6.51599 10.7392
49 1 0.840344 8.58136 8.57895 0.0334503
50 1 0.858614 10.6993 10.7289 2.13504
51 1 0.855735 8.55562 12.8437 4.28775
52 1 0.933889 10.7086 14.944 6.46016
53 1 0.961847 12.8793 8.54562 4.28043
54 1 0.934838 15.0117 10.6758 6.40455
55 1 0.922741 12.8593 12.8633 0.00478153
56 1 0.92717 15.0372 14.9694 2.09643
57 1 0.91902 8.58598 8.57286 8.58545
58 1 0.913277 10.7632 10.6882 10.7285
59 1 0.876484 8.70824 12.8259 12.9161
60 1 0.925745 10.7527 15.0261 15.0417
61 1 0.917675 12.8473 8.55391 12.9047
62 1 0.895525 15.0289 10.7244 15.0376
63 1 0.916132 12.8894 12.8105 8.54622
64 1 0.819547 15.0429 14.9024 10.6428
65 2 -0.444835 1.24551 1.14255 1.1372
66 2 -0.448847 0.979135 16.3176 16.0985
67 2 -0.45408 15.9265 1.12783 16.1072
68 2 -0.448479 16.1345 15.9124 1.14795
69 2 -0.450851 0.948773 3.26197 3.33607
70 2 -0.453912 3.38525 1.07566 3.16187
71 2 -0.450615 3.24052 3.31489 0.885798
72 2 -0.464285 1.1422 5.40141 5.45969
73 2 -0.468469 16.0352 3.20086 5.49031
74 2 -0.459814 16.088 5.4748 3.03279
75 2 -0.437996 3.1368 5.31238 7.47685
76 2 -0.469761 3.39461 7.55224 5.22801
77 2 -0.473887 1.08271 7.34833 7.39191
78 2 -0.477311 5.29585 1.04608 5.4298
79 2 -0.495076 3.18047 15.9504 5.21939
80 2 -0.500286 5.54866 16.0663 3.08311
81 2 -0.461208 5.36955 3.39042 7.6375
82 2 -0.448216 7.37563 3.08363 5.37213
83 2 -0.463982 7.58622 0.919682 7.4977
84 2 -0.480101 5.34442 5.21991 1.0058
85 2 -0.470938 3.19848 5.60866 16.0249
86 2 -0.471354 5.30757 3.42781 16.0852
87 2 -0.457688 5.31211 7.68349 3.25675
88 2 -0.464987 7.47416 5.42772 3.05436
89 2 -0.490797 7.50259 7.30148 1.1168
90 2 -0.443959 1.13406 0.992047 9.66913
91 2 -0.466938 0.889302 16.0634 7.63733
92 2 -0.481799 16.022 1.13965 7.28648
93 2 -0.488715 16.1647 16.1729 9.5772
94 2 -0.459078 1.01507 3.26083 12.0094
95 2 -0.460496 3.39322 1.04618 11.8165
96 2 -0.468652 3.07507 3.11751 9.71402
97 2 -0.460069 1.06976 5.21017 13.8817
98 2 -0.458896 16.0909 3.10957 14.1502
99 2 -0.420497 16.0334 5.46504 11.8881
100 2 -0.500583 0.996994 7.70191 16.1414
101 2 -0.501712 3.06481 7.52522 14.1002
102 2 -0.454893 5.40234 1.2826 14.0331
103 2 -0.465996 3.18241 15.9954 13.9518
104 2 -0.493508 5.35383 16.403 11.7649
105 2 -0.474291 7.53897 0.976464 16.1854
106 2 -0.467529 7.46249 3.07001 13.9826
107 2 -0.457757 5.20469 5.34447 9.5881
108 2 -0.453511 5.28332 7.51296 11.9697
109 2 -0.459497 7.41661 5.42526 11.589
110 2 -0.456706 7.52077 7.57688 9.47363
111 2 -0.478134 1.22546 9.70531 1.11386
112 2 -0.455188 15.9593 7.35476 1.07466
113 2 -0.480037 16.1196 9.80193 16.018
114 2 -0.463495 0.931925 11.9173 3.24624
115 2 -0.464684 3.03147 9.6853 3.14486
116 2 -0.458266 3.31268 11.8954 1.06213
117 2 -0.4566 0.990746 14.0461 5.37268
118 2 -0.46305 16.0569 11.6178 5.46987
119 2 -0.459971 15.9096 13.9026 3.08252
120 2 -0.438481 3.03897 13.7517 7.40273
121 2 -0.457168 5.49472 9.76786 5.36818
122 2 -0.456595 5.15864 11.8213 7.49982
123 2 -0.44467 7.33146 11.7378 5.4101
124 2 -0.451127 7.6621 9.55343 7.54035
125 2 -0.467302 5.23989 13.7582 1.05535
126 2 -0.424194 3.19275 14.0199 16.1612
127 2 -0.474774 5.43515 11.6963 15.963
128 2 -0.485023 7.64766 16.1034 1.12911
129 2 -0.47681 7.41317 14.0759 3.19193
130 2 -0.466779 1.17799 9.78749 9.61204
131 2 -0.462918 16.1661 7.70276 9.62632
132 2 -0.466109 16.0909 9.51318 7.62696
133 2 -0.46424 0.979369 11.9301 11.7924
134 2 -0.442389 3.16338 9.58989 11.6167
135 2 -0.451467 3.19785 11.6245 9.7074
136 2 -0.436405 1.15443 14.0388 13.8592
137 2 -0.469101 16.0748 11.6303 14.0576
138 2 -0.472713 16.1122 13.6825 11.8068
139 2 -0.434295 5.45628 9.68153 13.858
140 2 -0.468873 7.37574 9.67614 16.0674
141 2 -0.485824 7.51782 11.7655 14.1387
142 2 -0.435762 5.46398 14.0736 9.50095
143 2 -0.421531 7.36979 16.2242 9.6418
144 2 -0.508452 7.6266 13.9712 11.7155
145 2 -0.497753 9.69955 1.30139 1.14087
146 2 -0.47065 9.59631 16.2842 16.108
147 2 -0.46455 9.56362 3.41863 3.26888
148 2 -0.459512 11.9101 0.960536 3.2452
149 2 -0.477184 11.6236 3.17493 1.15108
150 2 -0.452522 9.67374 5.53198 5.37912
151 2 -0.462547 11.8839 5.19554 7.56732
152 2 -0.469407 11.7397 7.44697 5.51697
153 2 -0.45967 9.79419 7.47184 7.43488
154 2 -0.454276 13.7784 1.09721 5.22866
155 2 -0.451864 11.6657 16.0664 5.51739
156 2 -0.428663 14.0415 16.1383 3.23405
157 2 -0.516237 14.0689 3.38903 7.72595
158 2 -0.460807 13.8725 5.17963 1.04068
159 2 -0.455431 11.9937 5.31194 16.192
160 2 -0.463325 14.102 3.17077 16.0482
161 2 -0.468589 13.9017 7.53626 3.36076
162 2 -0.420987 9.67129 1.10378 9.5718
163 2 -0.497821 9.62079 15.8129 7.4737
164 2 -0.461075 9.60306 3.42164 11.8684
165 2 -0.461047 11.6283 1.11187 11.7426
166 2 -0.458549 11.814 3.07327 9.80606
167 2 -0.453088 9.55682 5.34355 13.7372
168 2 -0.475637 9.77208 7.48121 16.0528
169 2 -0.412639 11.7776 7.37952 14.111
170 2 -0.477128 13.7319 1.06673 13.8811
171 2 -0.460536 11.8086 15.9636 14.1252
172 2 -0.494645 14.08 16.0669 11.9023
173 2 -0.472072 13.9376 5.59013 9.79557
174 2 -0.450975 13.8303 7.54533 11.9784
175 2 -0.450085 9.4786 9.60061 1.02356
176 2 -0.450128 9.52073 11.82 3.35407
177 2 -0.442609 11.9261 9.58693 3.16834
178 2 -0.459057 11.6414 11.6685 1.1001
179 2 -0.466356 9.78434 13.9132 5.42321
180 2 -0.486466 11.801 13.779 7.66678
181 2 -0.467071 13.9017 9.57495 5.16585
182 2 -0.463503 14.0195 11.7253 7.28953
183 2 -0.471357 13.789 13.9118 0.942035
184 2 -0.460906 11.6903 13.9662 15.9776
185 2 -0.459352 13.9438 11.9557 16.2101
186 2 -0.453005 9.68335 9.70375 9.83006
187 2 -0.478324 9.73133 11.8606 11.9795
188 2 -0.457239 11.7046 9.6343 11.6506
189 2 -0.465425 11.9818 11.7567 9.5277
190 2 -0.464904 9.69097 13.8839 13.8002
191 2 -0.45002 13.9384 9.52877 13.841
192 2 -0.461905 13.9716 14.0298 9.7058
193 2 -0.583479 8.41997 17.0795 3.9029
194 2 -0.564268 16.3782 16.6564 12.9846
195 2 -0.581142 16.3646 3.86824 9.04169
196 2 -0.620686 9.3239 5.05363 16.369
197 2 -0.586958 2.11907 10.2038 14.9784
198 2 -0.5674 5.32483 15.5305 6.45332
199 2 -0.520146 5.24214 13.5834 12.0069
200 2 -0.583831 8.92817 13.146 8.93584
201 3 0.396451 8.35319 -0.151386 2.94714
202 3 0.393384 7.65838 16.5839 4.19234
203 3 0.411252 15.3928 16.3899 12.6994
204 3 0.381125 16.9123 16.5809 12.1955
205 3 0.413142 15.495 3.73208 8.51802
206 3 0.383628 17.0864 3.90815 8.42048
207 3 0.375097 9.06494 4.25858 16.8987
208 3 0.381784 8.90931 5.81007 16.8755
209 3 0.406495 2.22332 9.24388 14.9107
210 3 0.395231 1.31924 10.3044 15.4903
211 3 0.39651 5.32142 16.4956 6.53425
212 3 0.406932 4.46199 15.3079 5.90077
213 3 0.32406 5.06889 14.6503 11.8169
214 3 0.380311 6.27105 13.5211 12.4079
215 3 0.393646 8.9808 13.4891 9.82556
216 3 0.396787 9.32918 13.8296 8.39814
