ITEM: TIMESTEP
0
ITEM: NUMBER OF ATOMS
222
ITEM: BOX BOUNDS pp pp pp
0.0000000000000000e+00 1.7160000000000000e+01
0.0000000000000000e+00 1.7160000000000000e+01
0.0000000000000000e+00 1.7160000000000000e+01
ITEM: ATOMS id type q x y z
1 1 0.867633 0.0576145 17.1523 0.0112129
2 1 0.847017 2.0867 2.10327 2.10556
3 1 0.853005 17.1586 4.34365 4.31942
4 1 0.858543 2.17689 6.44787 6.44896
5 1 0.887201 4.26779 0.0203813 4.31286
6 1 0.880162 6.39589 2.0991 6.38357
7 1 0.874025 4.30263 4.34987 17.1287
8 1 0.900203 6.46319 6.46723 2.17053
9 1 0.917113 0.0236445 17.1543 8.62452
10 1 0.868627 2.11812 2.20212 10.7147
11 1 0.892358 0.0228367 4.23891 12.9
12 1 0.88151 2.11954 6.48655 14.9967
13 1 0.896753 4.23813 0.0598633 12.9144
14 1 0.877783 6.40281 2.17753 15.0712
15 1 0.780073 4.25763 4.25158 8.56098
16 1 0.90301 6.39407 6.43451 10.7495
17 1 0.893354 0.00942364 8.61847 0.0174903
18 1 0.920273 2.11954 10.6988 2.08569
19 1 0.870487 0.0323406 12.8587 4.26819
20 1 0.879796 2.13574 15.0026 6.4772
21 1 0.874623 4.2589 8.57429 4.23553
22 1 0.889809 6.46804 10.6811 6.47564
23 1 0.898512 4.27699 12.8862 0.0430486
24 1 0.890796 6.46494 14.9578 2.1978
25 1 0.89825 0.0321929 8.61509 8.54224
26 1 0.915207 2.18056 10.7658 10.7387
27 1 0.913428 17.1561 12.8978 12.8311
28 1 0.864171 2.18167 15.0085 15.0616
29 1 0.873904 4.32395 8.59113 12.8388
30 1 0.878735 6.45528 10.7694 15.055
31 1 0.896302 4.33944 12.9083 8.56552
32 1 0.902738 6.49261 15.0145 10.7643
33 1 0.894809 8.61972 17.1209 0.0377396
34 1 0.827962 10.68 2.12538 2.16314
35 1 0.901132 8.53289 4.29318 4.34715
36 1 0.850104 10.7387 6.45763 6.45424
37 1 0.92547 12.8454 17.1022 4.28845
38 1 0.852981 14.9682 2.15389 6.43533
39 1 0.900734 12.8785 4.25662 17.1293
40 1 0.762927 15.0305 6.4107 2.10344
41 1 0.90182 8.61783 0.00714141 8.58942
42 1 0.879416 10.7007 2.19852 10.6669
43 1 0.88213 8.61173 4.31538 12.9083
44 1 0.893092 10.7209 6.39117 15.0565
45 1 0.874093 12.9081 0.0496531 12.9153
46 1 0.901688 14.9794 2.14529 15.0573
47 1 0.887001 12.9059 4.31848 8.53745
48 1 0.899133 14.9992 6.39152 10.6806
49 1 0.90703 8.6388 8.52881 0.0547399
50 1 0.896049 10.6921 10.6774 2.11673
51 1 0.904807 8.55446 12.8179 4.29821
52 1 0.88395 10.765 15.0189 6.37931
53 1 0.838592 12.8874 8.61556 4.25361
54 1 0.89736 15.0676 10.7303 6.42645
55 1 0.881507 12.8702 12.86 0.0187571
56 1 0.763374 15.0696 15.0362 2.17917
57 1 0.907591 8.53031 8.54756 8.55021
58 1 0.809339 10.7184 10.7652 10.7099
59 1 0.899445 8.60024 12.8413 12.8241
60 1 0.896286 10.6788 15.0198 15.0704
61 1 0.761705 12.8397 8.53806 12.8702
62 1 0.864301 14.9682 10.6995 15.0483
63 1 0.870081 12.822 12.8144 8.62585
64 1 0.84397 15.0552 15.0205 10.7097
65 2 -0.554409 1.09781 1.05599 1.10033
66 2 -0.464366 1.05821 16.0786 16.0681
67 2 -0.474919 16.133 1.08257 16.1379
68 2 -0.608214 16.0429 16.1047 1.05725
69 2 -0.445889 1.13014 3.18832 3.18309
70 2 -0.451051 3.22372 1.02398 3.15815
71 2 -0.438254 3.23359 3.2736 1.05988
72 2 -0.452684 1.03015 5.35327 5.36923
73 2 -0.450335 16.0378 3.26723 5.39016
74 2 -0.427185 16.0591 5.40677 3.17319
75 2 -0.478722 3.27603 5.32183 7.55553
76 2 -0.44696 3.21396 7.53743 5.39834
77 2 -0.442177 1.09707 7.4685 7.55984
78 2 -0.480575 5.39106 1.021 5.34999
79 2 -0.444254 3.27672 16.0515 5.37802
80 2 -0.423786 5.35383 16.0811 3.21193
81 2 -0.459963 5.41457 3.17473 7.51091
82 2 -0.464657 7.51854 3.24423 5.37767
83 2 -0.437337 7.51982 1.08942 7.55
84 2 -0.432841 5.39524 5.39538 1.037
85 2 -0.44974 3.24556 5.39122 16.1395
86 2 -0.473602 5.39931 3.22876 16.1152
87 2 -0.459638 5.42095 7.48489 3.23839
88 2 -0.444947 7.51296 5.331 3.16108
89 2 -0.461637 7.53051 7.56649 1.09289
90 2 -0.456906 1.04021 1.01422 9.61928
91 2 -0.475385 1.06223 16.1288 7.44781
92 2 -0.455355 16.0341 1.04786 7.54142
93 2 -0.45881 16.1149 16.1334 9.60542
94 2 -0.463648 1.11423 3.25467 11.7893
95 2 -0.445332 3.18205 1.04751 11.8291
96 2 -0.447992 3.27584 3.24686 9.6722
97 2 -0.451748 1.06431 5.3249 13.9134
98 2 -0.443779 16.0425 3.19368 13.8917
99 2 -0.409279 16.0555 5.38711 11.8177
100 2 -0.433518 1.12631 7.56166 16.1458
101 2 -0.439034 3.16159 7.44993 13.9149
102 2 -0.457576 5.31651 1.11933 13.9535
103 2 -0.448187 3.26911 16.1407 13.9331
104 2 -0.422749 5.36484 16.0364 11.8067
105 2 -0.428235 7.55669 1.06054 16.1353
106 2 -0.434818 7.50541 3.22908 13.9771
107 2 -0.406164 5.36716 5.35964 9.59915
108 2 -0.461054 5.41974 7.46467 11.7946
109 2 -0.444889 7.56272 5.39484 11.8213
110 2 -0.447858 7.4685 7.50078 9.64745
111 2 -0.476335 1.12324 9.64072 1.06896
112 2 -0.439461 16.1424 7.48307 1.07524
113 2 -0.452309 16.0641 9.66932 16.0757
114 2 -0.454903 1.10331 11.7877 3.25391
115 2 -0.448234 3.24568 9.65043 3.16007
116 2 -0.460153 3.17537 11.7917 1.13057
117 2 -0.450887 1.11608 13.9518 5.38854
118 2 -0.449685 16.0652 11.8335 5.37307
119 2 -0.465445 16.0742 13.966 3.24661
120 2 -0.450426 3.27326 13.8844 7.49934
121 2 -0.42444 5.32998 9.65564 5.42001
122 2 -0.438344 5.33122 11.7698 7.53943
123 2 -0.455056 7.53049 11.8146 5.37171
124 2 -0.460592 7.56745 9.66804 7.50153
125 2 -0.448905 5.31266 13.958 1.07919
126 2 -0.454191 3.26938 13.9301 16.0845
127 2 -0.44703 5.36256 11.8308 16.1123
128 2 -0.437501 7.53415 16.0709 1.06236
129 2 -0.464362 7.52998 13.951 3.21427
130 2 -0.443325 1.01824 9.70149 9.62788
131 2 -0.442325 16.1087 7.47537 9.6283
132 2 -0.464111 16.1417 9.69676 7.53821
133 2 -0.457914 1.09897 11.7531 11.827
134 2 -0.446799 3.20742 9.69601 11.7966
135 2 -0.449062 3.21337 11.7405 9.69522
136 2 -0.42998 1.02197 13.9281 13.9031
137 2 -0.443968 16.1049 11.8529 13.91
138 2 -0.476599 16.1402 13.8907 11.7385
139 2 -0.433016 5.36077 9.62421 13.915
140 2 -0.428227 7.55933 9.70094 16.0399
141 2 -0.43629 7.47623 11.8425 13.9318
142 2 -0.445194 5.35006 13.9721 9.67369
143 2 -0.442167 7.53256 16.0604 9.63585
144 2 -0.458432 7.52519 13.9709 11.8019
145 2 -0.453377 9.7122 1.03376 1.13123
146 2 -0.469747 9.63724 16.0486 16.0767
147 2 -0.534127 9.6316 3.27297 3.18985
148 2 -0.494115 11.8547 1.0711 3.2323
149 2 -0.376871 11.7678 3.2533 1.05663
150 2 -0.447613 9.61828 5.39334 5.33228
151 2 -0.495966 11.8347 5.41495 7.56264
152 2 -0.431307 11.7883 7.50981 5.35013
153 2 -0.470608 9.62368 7.56747 7.47926
154 2 -0.404994 13.9774 1.02588 5.3708
155 2 -0.488213 11.8569 16.0835 5.33744
156 2 -0.459876 13.9591 16.0788 3.24447
157 2 -0.464347 13.9052 3.18003 7.50833
158 2 -0.452485 13.907 5.39509 1.06084
159 2 -0.449843 11.8353 5.3494 16.0955
160 2 -0.477952 13.9609 3.22892 16.0296
161 2 -0.551301 13.9089 7.47509 3.1608
162 2 -0.452343 9.63523 1.01257 9.71124
163 2 -0.441746 9.65872 16.0866 7.54448
164 2 -0.441184 9.71207 3.24131 11.8525
165 2 -0.406219 11.8297 1.04628 11.7807
166 2 -0.442368 11.8037 3.21957 9.63702
167 2 -0.458464 9.68874 5.39885 13.954
168 2 -0.461361 9.66148 7.55148 16.1339
169 2 -0.473731 11.8027 7.48529 13.9085
170 2 -0.46103 13.9672 1.10363 13.9848
171 2 -0.439082 11.7975 16.0601 13.9847
172 2 -0.426047 13.8897 16.0513 11.7994
173 2 -0.472306 13.9035 5.32449 9.68703
174 2 -0.465365 14.0021 7.50984 11.7923
175 2 -0.485599 9.68523 9.64105 1.08571
176 2 -0.441023 9.65349 11.7782 3.21775
177 2 -0.481354 11.8458 9.70448 3.19581
178 2 -0.437962 11.8277 11.8449 1.10861
179 2 -0.430662 9.61264 13.9314 5.35401
180 2 -0.420016 11.7586 13.903 7.45191
181 2 -0.431976 13.9473 9.70896 5.41975
182 2 -0.438573 13.9145 11.8119 7.55919
183 2 -0.436496 13.8902 13.9905 1.11315
184 2 -0.446187 11.7508 13.9197 16.077
185 2 -0.450168 13.9686 11.7473 16.0282
186 2 -0.465425 9.60816 9.6055 9.62025
187 2 -0.465531 9.65325 11.7759 11.779
188 2 -0.474114 11.8424 9.64014 11.8275
189 2 -0.615177 11.8516 11.7398 9.64479
190 2 -0.4376 9.67572 13.894 13.9321
191 2 -0.539838 13.9504 9.63716 13.946
192 2 -0.462878 13.9062 13.9227 9.61275
193 2 -0.582514 13.4091 10.5099 10.2763
194 2 -0.559407 13.0388 9.03354 8.68406
195 2 -0.553573 1.66352 3.55304 0.457235
196 2 -0.559277 15.2255 15.0597 16.9597
197 2 -0.571957 15.0138 0.242612 4.56704
198 2 -0.57272 12.6526 11.0141 14.8956
199 2 -0.509359 5.12211 5.00209 7.06463
200 2 -0.503192 12.6972 6.87955 2.42403
201 2 -0.57761 11.8359 3.70839 2.73997
202 2 -0.553931 12.4001 6.19384 11.3095
203 3 0.451539 12.7919 11.2437 10.2298
204 3 0.373888 14.2697 10.9101 10.1324
205 3 0.381013 12.1379 9.26825 8.91827
206 3 0.349888 13.1026 8.09657 8.88314
207 3 0.390226 2.27671 3.13867 17.0058
208 3 0.367064 1.03825 2.85884 0.678007
209 3 0.444299 15.8782 15.0001 0.501121
210 3 0.409454 14.6265 15.7528 0.086854
211 3 0.366694 15.6559 0.00788439 3.89308
212 3 0.377145 15.3344 16.9742 5.36409
213 3 0.431003 12.7539 10.1728 14.4445
214 3 0.377564 13.1051 11.6454 14.3313
215 3 0.293976 4.67193 4.52677 7.76678
216 3 0.394725 4.67799 4.72132 6.26119
217 3 0.386537 12.514 7.81429 2.30437
218 3 0.423642 13.6505 6.80825 2.33644
219 3 0.378557 12.4383 3.31486 3.37541
220 3 0.416822 10.963 3.5522 3.10769
221 3 0.380568 12.4111 6.96792 11.8772
222 3 0.34436 11.9383 6.4822 10.5188
ITEM: TIMESTEP
18
ITEM: NUMBER OF ATOMS
222
ITEM: BOX BOUNDS pp pp pp
0.0000000000000000e+00 1.7160000000000000e+01
0.0000000000000000e+00 1.7160000000000000e+01
0.0000000000000000e+00 1.7160000000000000e+01
ITEM: ATOMS id type q x y z
1 1 0.832553 0.0470286 17.2436 0.00425287
2 1 0.881978 2.22448 2.29285 2.13947
3 1 0.86653 17.1902 4.35263 4.29969
4 1 0.884272 2.11123 6.4201 6.49851
5 1 0.89744 4.2783 -0.0298638 4.32929
6 1 0.885968 6.39807 2.09788 6.50639
7 1 0.894839 4.41032 4.3942 17.1861
8 1 0.916571 6.43597 6.46218 2.19053
9 1 0.953097 -0.00744823 17.182 8.65032
10 1 0.893345 2.0728 2.17314 10.7856
11 1 0.898714 3.56892e-06 4.30901 12.893
12 1 0.877864 2.17849 6.48977 14.9714
13 1 0.930506 4.2585 0.0219012 12.9203
14 1 0.900024 6.40713 2.20087 15.0924
15 1 0.684916 4.30018 4.28085 8.65146
16 1 0.952413 6.37877 6.4289 10.7378
17 1 0.86107 0.00368431 8.59524 -0.00741113
18 1 0.940977 2.1331 10.7181 2.08359
19 1 0.862972 0.026872 12.8381 4.2713
20 1 0.883514 2.11854 15.011 6.46913
21 1 0.86184 4.27175 8.57925 4.26775
22 1 0.873673 6.43488 10.6943 6.42657
23 1 0.906017 4.31177 12.8754 0.0464655
24 1 0.893505 6.47686 14.9537 2.21122
25 1 0.921846 0.010175 8.63796 8.55855
26 1 0.940443 2.19363 10.7724 10.7009
27 1 0.92481 17.1882 12.9008 12.8955
28 1 0.846038 2.14712 15.0384 15.0257
29 1 0.863784 4.32041 8.61136 12.8814
30 1 0.874667 6.46487 10.7071 15.0459
31 1 0.915471 4.29244 12.8887 8.57451
32 1 0.917469 6.47892 15.0088 10.7622
33 1 0.902258 8.54984 17.1143 0.0562682
34 1 0.848449 10.7601 2.08295 2.07384
35 1 0.906784 8.48364 4.30301 4.37578
36 1 0.84257 10.7256 6.45338 6.43116
37 1 0.903444 12.9408 17.1851 4.354
38 1 0.903006 14.9112 2.25129 6.51412
39 1 0.913183 12.849 4.24992 17.101
40 1 0.843586 15.0987 6.48522 2.18083
41 1 0.931215 8.61578 -0.000471379 8.58738
42 1 0.884673 10.7383 2.19287 10.7183
43 1 0.88267 8.56044 4.31952 12.8961
44 1 0.883678 10.6929 6.39817 15.019
45 1 0.868597 12.8438 0.0421662 12.8818
46 1 0.923263 14.9691 2.14751 15.0272
47 1 0.91324 12.8584 4.35268 8.55451
48 1 0.87018 15.0701 6.42951 10.7138
49 1 0.922373 8.58557 8.51999 0.017851
50 1 0.907407 10.7003 10.6677 2.13213
51 1 0.917695 8.55332 12.7928 4.31904
52 1 0.883397 10.7492 14.9971 6.42491
53 1 0.803832 12.9756 8.54621 4.29739
54 1 0.907938 15.0193 10.7338 6.38904
55 1 0.939452 12.8352 12.835 0.0981025
56 1 0.814903 14.9822 14.9977 2.14865
57 1 0.93188 8.54987 8.56543 8.5552
58 1 0.795626 10.5965 10.7418 10.7845
59 1 0.884647 8.56124 12.8569 12.8952
60 1 0.927622 10.691 15.0228 15.093
61 1 0.842645 12.8867 8.63914 12.9034
62 1 0.861115 14.9249 10.791 15.103
63 1 0.87288 12.8955 12.9305 8.4909
64 1 0.814542 15.0343 15.0315 10.7159
65 2 -0.514021 1.06714 1.15421 1.08929
66 2 -0.468122 1.06889 16.042 16.0649
67 2 -0.501425 16.1687 1.09854 16.208
68 2 -0.529323 16.2219 16.2887 1.28679
69 2 -0.464161 1.19184 3.14113 3.23823
70 2 -0.428296 3.17267 1.04417 3.15915
71 2 -0.465367 3.57986 3.19638 1.2022
72 2 -0.465807 0.955025 5.30282 5.35292
73 2 -0.435949 16.0152 3.31414 5.37731
74 2 -0.444785 15.9424 5.42194 3.16406
75 2 -0.452655 2.923 5.38173 7.63428
76 2 -0.440704 3.21918 7.56241 5.41168
77 2 -0.440018 1.12787 7.46529 7.53626
78 2 -0.455126 5.39386 1.01153 5.34763
79 2 -0.447522 3.29855 16.0663 5.35705
80 2 -0.428154 5.34939 16.0947 3.21614
81 2 -0.455774 5.37601 2.82882 7.64963
82 2 -0.466315 7.58272 3.29145 5.37522
83 2 -0.449092 7.54285 1.09903 7.54481
84 2 -0.47419 5.39292 5.38717 0.96649
85 2 -0.452463 3.26824 5.38998 16.1598
86 2 -0.48364 5.44808 3.16778 16.0774
87 2 -0.470055 5.47003 7.42425 3.22571
88 2 -0.453086 7.46698 5.36335 3.16394
89 2 -0.465413 7.56277 7.61805 1.0699
90 2 -0.467655 1.01776 0.977484 9.59274
91 2 -0.470441 1.07341 16.0963 7.42261
92 2 -0.458355 16.0308 1.02194 7.54688
93 2 -0.474494 16.1408 16.1683 9.55311
94 2 -0.472507 1.17031 3.22988 11.7464
95 2 -0.446661 3.1696 1.01363 11.8541
96 2 -0.397244 3.24372 3.14771 9.65392
97 2 -0.451294 1.04727 5.25589 13.9018
98 2 -0.443896 16.06 3.19183 13.8821
99 2 -0.432111 16.0443 5.42547 11.8195
100 2 -0.425909 1.10354 7.60542 16.161
101 2 -0.457512 3.13372 7.42045 13.946
102 2 -0.451447 5.28631 1.14283 13.9206
103 2 -0.463904 3.33213 16.1649 13.9184
104 2 -0.4332 5.35778 16.0267 11.8124
105 2 -0.438469 7.58563 1.05031 16.1455
106 2 -0.442824 7.49118 3.20355 13.9541
107 2 -0.453891 5.36481 5.39153 9.80202
108 2 -0.458952 5.46725 7.42403 11.7772
109 2 -0.45259 7.59546 5.37521 11.8303
110 2 -0.455491 7.46288 7.53426 9.69027
111 2 -0.465411 1.17869 9.67045 1.09516
112 2 -0.450956 16.0584 7.42133 1.1301
113 2 -0.427085 16.0574 9.69051 16.0287
114 2 -0.455587 1.05934 11.8069 3.29617
115 2 -0.444754 3.29085 9.64091 3.1543
116 2 -0.470938 3.12114 11.7692 1.1798
117 2 -0.45213 1.16862 13.9847 5.37984
118 2 -0.454045 16.0259 11.8163 5.39347
119 2 -0.449197 16.0429 14.0113 3.25234
120 2 -0.457844 3.31232 13.8346 7.5352
121 2 -0.43812 5.33078 9.66362 5.43407
122 2 -0.433756 5.3178 11.7694 7.56634
123 2 -0.47111 7.55461 11.8798 5.33348
124 2 -0.446836 7.57627 9.66638 7.51018
125 2 -0.453926 5.27851 13.9221 1.04071
126 2 -0.4304 3.29105 13.9179 16.0857
127 2 -0.443513 5.35083 11.86 16.0998
128 2 -0.449842 7.53386 16.1031 1.00382
129 2 -0.470435 7.49284 14.0022 3.17162
130 2 -0.453695 0.984513 9.68145 9.61208
131 2 -0.447705 16.1236 7.43762 9.63238
132 2 -0.464075 16.2008 9.67726 7.56708
133 2 -0.449794 1.12998 11.7455 11.8192
134 2 -0.442285 3.17059 9.72295 11.7948
135 2 -0.477606 3.20589 11.7037 9.71924
136 2 -0.459571 0.969015 13.9457 13.882
137 2 -0.440167 16.0437 11.8837 13.9202
138 2 -0.455429 16.1632 13.8554 11.7583
139 2 -0.452181 5.35195 9.55017 13.902
140 2 -0.451208 7.55316 9.72541 16.0277
141 2 -0.443592 7.46805 11.8598 13.9268
142 2 -0.44275 5.33233 13.9792 9.67203
143 2 -0.443361 7.52303 16.0531 9.60944
144 2 -0.457056 7.50198 14.0443 11.7936
145 2 -0.446642 9.78124 1.00906 1.17717
146 2 -0.467143 9.65012 16.0082 16.0155
147 2 -0.483043 9.52409 3.18209 3.19725
148 2 -0.472019 11.848 1.01035 3.25214
149 2 -0.431428 11.7797 3.13168 0.783261
150 2 -0.460639 9.61592 5.36654 5.29794
151 2 -0.504604 11.8807 5.40372 7.62264
152 2 -0.428851 11.7394 7.45771 5.36553
153 2 -0.469326 9.61575 7.61234 7.49966
154 2 -0.433078 13.5748 1.37764 5.55611
155 2 -0.447124 11.9281 16.1172 5.29209
156 2 -0.441823 13.8708 15.9357 3.0827
157 2 -0.479873 13.9561 3.16502 7.49163
158 2 -0.432117 14.1331 5.31207 0.95636
159 2 -0.450139 11.8836 5.33491 16.1076
160 2 -0.471353 13.9934 3.20214 15.9635
161 2 -0.461871 14.4184 7.68893 3.45747
162 2 -0.444768 9.60378 0.998246 9.67457
163 2 -0.445622 9.65661 16.0891 7.59428
164 2 -0.43389 9.7193 3.24471 11.8572
165 2 -0.432277 11.8386 1.03389 11.7749
166 2 -0.443458 11.7875 3.16239 9.6388
167 2 -0.455488 9.72436 5.45002 13.9815
168 2 -0.468548 9.62399 7.58711 16.1848
169 2 -0.467039 11.8156 7.49504 13.8884
170 2 -0.465269 14.0362 1.11791 14.0144
171 2 -0.444462 11.8089 16.0482 13.9883
172 2 -0.423697 13.8933 16.0484 11.8218
173 2 -0.468282 13.9466 5.2795 9.59143
174 2 -0.480239 14.0383 7.58967 11.8172
175 2 -0.478145 9.7501 9.69209 1.0966
176 2 -0.443086 9.66342 11.7837 3.23294
177 2 -0.463552 11.8662 9.66391 3.12844
178 2 -0.462157 11.8536 11.8869 1.08855
179 2 -0.42537 9.58601 13.9398 5.35554
180 2 -0.449891 11.7279 13.9301 7.38762
181 2 -0.435121 13.9482 9.7495 5.44197
182 2 -0.469773 13.9307 11.8518 7.58954
183 2 -0.417412 13.7219 13.8381 1.20134
184 2 -0.452527 11.7087 13.9569 16.0585
185 2 -0.451773 14.2007 11.7615 16.2334
186 2 -0.476405 9.61428 9.54816 9.59477
187 2 -0.467163 9.70851 11.7264 11.7706
188 2 -0.491598 11.7802 9.58887 11.9144
189 2 -0.491737 11.6635 11.8991 9.56657
190 2 -0.438985 9.67488 13.871 13.9143
191 2 -0.518139 14.0114 9.47287 13.8366
192 2 -0.466407 13.8643 13.9177 9.62152
193 2 -0.585144 13.6576 10.5035 10.4228
194 2 -0.582603 12.9749 8.95011 8.55471
195 2 -0.57503 1.41358 3.50175 0.451694
196 2 -0.566345 15.0379 14.8742 17.0193
197 2 -0.642339 15.1764 0.0874507 4.54442
198 2 -0.587433 12.6343 11.1212 14.8857
199 2 -0.539973 5.30236 5.16094 6.75655
200 2 -0.556577 12.4245 6.9415 2.36286
201 2 -0.567755 11.9069 3.7903 2.88131
202 2 -0.565787 12.1183 6.04979 11.2815
203 3 0.38155 12.846 11.1524 10.2929
204 3 0.391239 14.4323 10.9111 10.075
205 3 0.375146 12.1506 9.25116 8.92613
206 3 0.357158 13.0958 8.0858 8.9148
207 3 0.368244 2.1856 3.21203 17.0113
208 3 0.391306 0.774023 2.69542 0.515167
209 3 0.36977 16.0136 15.0063 0.208085
210 3 0.36521 14.6677 15.7878 -0.0408691
211 3 0.389574 15.7625 -0.0109323 3.75762
212 3 0.377113 15.5248 16.7869 5.35276
213 3 0.375791 12.7111 10.1518 14.5148
214 3 0.367234 12.965 11.7158 14.2012
215 3 0.29816 4.91777 4.73787 7.57541
216 3 0.364475 4.70899 4.81913 6.05874
217 3 0.380535 12.3479 7.87723 2.18224
218 3 0.322264 13.4283 6.68524 2.24829
219 3 0.379578 12.4921 3.19689 3.39279
220 3 0.388552 10.8814 3.81363 3.3573
221 3 0.391354 12.4573 6.77645 11.8428
222 3 0.346876 11.921 6.44572 10.4372
