ITEM: TIMESTEP
0
ITEM: NUMBER OF ATOMS
228
ITEM: BOX BOUNDS pp pp pp
0.0000000000000000e+00 1.7160000000000000e+01
0.0000000000000000e+00 1.7160000000000000e+01
0.0000000000000000e+00 1.7160000000000000e+01
ITEM: ATOMS id type q x y z vx vy vz
1 1 0.94362 17.0443 0.250033 16.9744 0.000307669 1.40846e-06 -0.00244563
2 1 0.888087 2.13739 2.08505 2.02859 0.00140274 -0.00574178 0.00056399
3 1 0.899726 0.118599 4.10738 4.15855 -0.00301919 0.00504164 0.000704953
4 1 1.05416 2.82432 5.78704 5.78745 -0.00162601 -0.00570152 -0.0016688
5 1 0.908388 4.24952 0.0473416 4.27133 -0.00147812 0.00431091 -0.00317855
6 1 0.892875 6.51614 2.02795 6.35041 -0.00162415 0.00236947 -0.00396467
7 1 0.989857 4.28863 4.24075 17.1245 0.000235682 5.89538e-05 0.00291152
8 1 0.906 6.57629 6.3226 2.04622 0.00326682 0.00064698 0.000571451
9 1 0.93306 17.1177 17.1295 8.56094 0.00240603 0.00583823 0.00331924
10 1 0.883322 2.14997 2.12009 10.6094 0.000909912 -0.0042572 0.00306131
11 1 0.847997 17.0508 4.5107 12.9035 0.00240557 0.00151536 -0.00401657
12 1 0.95823 2.07228 6.56378 15.0089 0.00564472 0.00225132 0.00455077
13 1 0.922269 4.19517 0.00852551 12.8404 -0.00150009 0.00100339 0.00460547
14 1 0.925567 6.3721 2.1159 14.934 0.00103574 -0.00301911 0.0015124
15 1 0.944367 4.45304 4.00403 8.42411 0.00208574 -0.000933958 -0.000260654
16 1 0.842523 6.44971 6.38002 10.5549 -0.000158536 -0.00292631 0.00210175
17 1 0.886195 0.100736 8.62431 0.167012 0.00739205 -0.00384152 0.000657294
18 1 0.884206 2.31839 10.5742 2.31813 0.000241223 -0.00239139 -0.00082701
19 1 1.10911 0.555961 12.2031 5.05794 0.00459502 0.00276195 0.000136951
20 1 0.974474 2.24446 14.9256 6.69442 0.000924424 -0.00322819 0.00117903
21 1 0.975263 4.62498 8.41942 4.11508 0.00173514 -0.00177367 0.00338051
22 1 0.92365 6.53124 10.6338 6.40156 -0.0013229 0.00287087 -0.00106012
23 1 0.864023 4.03866 13.0366 0.14376 -0.00282092 0.00309593 -8.3396e-05
24 1 0.89835 6.29717 15.1054 2.04248 0.00132025 0.00200182 0.00224745
25 1 1.08969 16.4494 9.17786 9.35047 -0.004615 -0.00528491 -0.00135252
26 1 0.976471 1.97893 10.9772 10.9517 -0.0016796 -0.00179229 4.0367e-06
27 1 0.94868 17.0466 12.9611 13.0455 -0.00272083 -0.00191219 -0.00221025
28 1 0.860917 1.99993 15.1385 15.0429 0.000235785 -0.0016798 0.0041089
29 1 0.906792 4.10899 8.70252 12.8273 -0.00338198 0.00533096 -0.000798194
30 1 0.868162 6.4464 10.6358 14.7724 0.00316131 0.0030617 0.00122445
31 1 0.961071 4.27399 12.8683 8.73441 -0.00193519 0.000592628 0.000650397
32 1 0.942414 6.3659 15.038 10.7275 0.000338857 0.00105983 -0.00270208
33 1 0.875061 8.43517 17.1387 17.049 0.000532158 -0.000434042 0.000730586
34 1 0.975085 10.491 2.12756 2.05271 -0.00161492 -0.00276469 0.000494351
35 1 0.945127 8.56373 4.2574 4.26294 -0.00322787 0.00501403 -0.00636552
36 1 0.941451 10.729 6.3935 6.42085 -0.00230095 -0.000285236 0.00246463
37 1 0.89415 12.6457 0.23618 4.16454 0.00722774 -0.00125303 -0.0104711
38 1 0.905534 14.9269 2.21676 6.33576 -0.00266692 0.004201 -0.000845055
39 1 0.930923 12.5619 4.30483 0.00880788 -0.00104746 -0.00143693 0.00212539
40 1 0.879261 15.2888 6.57288 2.39014 0.00267524 -0.00134015 0.00660158
41 1 0.886648 8.5141 17.1103 8.55136 -0.00143432 -0.00264327 -0.00524638
42 1 0.953132 10.6058 2.13161 10.5994 -0.000399108 -0.00181159 0.00845223
43 1 0.888809 8.54035 4.19482 12.7682 0.00225223 -0.00182854 -0.000720558
44 1 1.01581 10.5916 6.36165 14.8627 0.00142654 -0.00190569 0.00799771
45 1 0.87179 12.5904 17.0976 12.6378 0.000499058 0.00359283 0.00279204
46 1 0.863733 15.0234 2.4231 15.0036 0.00410474 -0.00141327 -0.0014066
47 1 0.905773 12.7949 4.33808 8.6133 -0.000933403 0.00375678 -0.000325928
48 1 0.888538 14.6953 6.54408 10.9461 0.00045777 -0.00171461 0.00159959
49 1 0.918741 8.70366 8.4238 17.135 0.00114708 -0.000626536 -0.00487489
50 1 0.891434 10.7718 10.6686 2.08384 -0.000252174 -0.0043262 0.00391123
51 1 0.755316 8.5995 12.8481 4.27175 -0.00116429 0.00257724 0.00392836
52 1 0.909022 10.7004 15.0309 6.53001 0.00126744 -0.00312613 0.00860484
53 1 0.913891 12.9936 8.54978 4.48557 -0.00321297 0.0040556 -0.000981319
54 1 0.987048 14.9321 10.6854 6.84202 0.000911275 -0.00140737 0.00289303
55 1 0.957575 12.6328 12.985 17.0191 -0.00140758 -0.000722481 0.0005891
56 1 1.06474 14.3205 15.7222 1.49534 0.00394765 0.00339267 -0.00266971
57 1 0.93125 8.63341 8.54741 8.53807 0.00239541 -0.00354785 -0.00361009
58 1 0.937073 10.608 10.7999 10.7494 0.00128122 0.0020844 0.000995234
59 1 0.963299 8.36575 12.9697 12.8659 0.00367425 -0.000849459 -0.00624647
60 1 0.928267 10.5859 15.0837 14.922 0.00156963 0.000611989 -0.00164334
61 1 0.980512 12.6322 8.64103 12.9203 0.00496429 -0.00184393 0.00135665
62 1 0.946246 14.9162 10.8281 15.1199 0.000828447 0.000502614 -0.00155029
63 1 1.00965 12.822 12.9442 8.71109 -0.00183761 -0.00263635 0.00247472
64 1 1.01366 15.0225 15.1567 10.8017 -0.00161434 -0.00217226 0.00110554
65 2 -0.47584 0.913473 1.00217 0.909829 -0.0026288 0.00514265 -0.00221234
66 2 -0.484498 1.00369 16.2125 15.8215 0.000787238 0.00454759 0.000241499
67 2 -0.498062 16.2853 1.3799 16.0541 -0.00675967 0.000637269 -0.00094256
68 2 -0.544118 15.4866 16.6034 0.712262 0.00401771 -0.00126021 -0.00219272
69 2 -0.47627 1.10104 3.01094 2.89776 -0.000968714 -0.00146159 -0.00198923
70 2 -0.464149 3.18538 0.994454 3.33036 0.00163065 -0.000549278 0.00444752
71 2 -0.461172 3.37327 3.23585 0.983065 -0.00248172 -0.00386241 -0.000507093
72 2 -0.495408 1.36146 4.75835 4.98482 0.00872197 0.00110252 -0.00532965
73 2 -0.460446 16.0672 3.08869 5.40846 -0.000481458 0.00144894 0.00264323
74 2 -0.466237 16.283 5.55388 3.2514 -0.000589024 0.000145306 0.00888415
75 2 -0.510234 3.66838 4.93307 6.90649 -6.04144e-06 -0.00366506 -0.00360084
76 2 -0.501587 3.85243 7.14149 4.78652 -0.00434067 -0.00670246 0.000418129
77 2 -0.638253 2.00764 6.73432 6.68896 -0.000335837 0.00132029 0.0030192
78 2 -0.484234 5.19958 1.05444 5.21559 0.00041753 -0.00372153 -0.00368257
79 2 -0.433371 3.2533 15.9798 5.40584 0.0027991 -0.00885691 -0.000606355
80 2 -0.540676 5.51585 16.1756 3.07732 -0.00202203 -0.00240417 -0.00352184
81 2 -0.485186 5.66239 2.87617 7.45264 -0.00294635 0.0035743 -0.00414484
82 2 -0.467724 7.64628 3.31432 5.31306 0.0073152 0.0019233 0.00475646
83 2 -0.456541 7.58325 0.807544 7.47923 0.00145513 -0.00033546 -0.00489984
84 2 -0.458589 5.29913 5.15786 1.01766 -0.00694989 0.0028875 0.000342003
85 2 -0.435145 3.077 5.33246 15.9943 0.00304591 -0.00343447 0.00410507
86 2 -0.472601 5.31078 3.23704 16.1992 -0.00047904 0.00108407 0.000100733
87 2 -0.478472 5.61706 7.59846 3.08872 -0.00112759 0.00301909 0.00161076
88 2 -0.474123 7.40226 5.4111 3.15304 0.00281993 -0.00424037 0.00574551
89 2 -0.479069 7.84741 7.45085 1.02732 0.000208102 -0.00226342 0.00278869
90 2 -0.509547 1.08269 1.25092 9.63384 0.000859552 0.00439318 0.000151369
91 2 -0.474054 0.901862 16.0755 7.655 -0.00212945 0.000673857 0.00377359
92 2 -0.438529 16.0035 0.98864 7.3762 -0.00396012 -0.000747046 0.0028877
93 2 -0.455572 16.0407 16.1675 9.4418 -0.00364565 -0.00243002 0.00036648
94 2 -0.501345 0.941917 3.38605 11.6299 0.00322794 0.00314839 0.00207706
95 2 -0.455579 2.99456 1.04064 11.6035 -0.000786806 0.00229502 -0.00312734
96 2 -0.494813 3.35563 3.07152 9.30544 -0.00523564 -0.00127755 0.000777848
97 2 -0.463044 1.07656 5.70676 13.954 0.000536463 0.00405125 0.00463763
98 2 -0.476731 15.8768 3.51541 14.1099 -0.00385774 0.00335814 0.00401835
99 2 -0.484171 16.0484 5.44101 11.9435 0.000867892 -0.000372218 -0.00661817
100 2 -0.459785 1.09863 7.41435 16.0977 -0.00119046 0.000480896 0.000179312
101 2 -0.496044 3.21505 7.78872 13.9133 -0.00204833 -0.00516154 0.00352692
102 2 -0.459912 5.29864 1.15046 14.0519 -0.00328028 -0.00225388 -0.0041793
103 2 -0.453682 3.23599 16.1355 13.8201 0.0022564 0.00229757 -0.00405599
104 2 -0.464226 5.24822 16.1841 11.961 0.00222011 -0.000425911 -0.0021715
105 2 -0.464115 7.31239 1.05605 15.8361 0.00800206 0.000182628 0.00147864
106 2 -0.487653 7.58363 3.14773 13.6992 0.00135171 -8.31735e-05 -0.000804202
107 2 -0.547647 5.28018 5.00768 9.55109 0.00200332 0.000760111 -0.00312641
108 2 -0.521065 5.20729 7.43776 11.722 -0.000927719 0.00167592 -0.00785318
109 2 -0.55288 7.38143 5.47293 11.6706 -0.0035552 -0.0010372 0.00232068
110 2 -0.466062 7.47022 7.42066 9.71678 -0.00513082 -0.000152972 -0.00113023
111 2 -0.459279 1.14753 9.56638 1.05219 0.00324454 -0.000770175 0.00160745
112 2 -0.471039 16.2443 7.58528 1.47802 8.97368e-05 0.0015263 -0.00207973
113 2 -0.420108 16.0396 9.77969 16.3476 -0.000541771 -0.000152179 0.00384733
114 2 -0.492927 1.3937 11.2959 3.89585 -0.00327569 -0.00306178 0.00152141
115 2 -0.4756 3.41462 9.53985 2.99483 -0.000680424 -0.00133819 -0.00304531
116 2 -0.452658 3.18285 12.011 1.20505 -0.00377872 -0.00733504 0.000731037
117 2 -0.510961 1.58291 13.6236 5.94855 -0.00512385 -0.00406574 0.00140829
118 2 -0.509911 16.5545 11.4064 5.96346 -0.00675723 -6.10363e-05 -0.00469041
119 2 -0.647832 16.797 13.0534 4.15324 -0.00120592 0.00320234 -0.00315551
120 2 -0.494502 3.27159 14.1477 7.71221 -0.0023576 0.00326871 0.00200557
121 2 -0.468198 5.65511 9.53833 5.45114 -0.00339173 -0.00402499 0.00029902
122 2 -0.419502 5.31174 11.7079 7.50078 0.000622668 0.00226902 -0.00693314
123 2 -0.445204 7.39682 11.6615 5.35514 -0.000216699 -0.000329403 -0.00266105
124 2 -0.47101 7.74012 9.59711 7.59623 0.00246649 0.00580262 0.0025721
125 2 -0.482655 5.14672 14.2112 1.24534 0.00610649 -0.00140507 -0.00633695
126 2 -0.468009 2.98775 14.0033 16.3815 -0.000671115 -0.00883775 -0.00199242
127 2 -0.567744 5.3538 12.0575 15.9174 -0.00520678 -0.00108968 0.00230232
128 2 -0.478427 7.40893 16.1627 0.755178 -0.00151267 0.000572447 0.00292032
129 2 -0.478835 7.37871 14.0336 3.32477 0.00585724 0.00306364 -0.00626525
130 2 -0.508522 0.716411 10.2602 10.1842 0.00449996 -3.92717e-05 -0.00063031
131 2 -0.54111 15.5686 8.04716 10.1677 -0.00264604 0.00518214 0.00551138
132 2 -0.570129 15.5131 9.90022 8.17419 -0.000353613 -0.00171688 -0.00392718
133 2 -0.49296 1.17246 11.9695 11.9806 0.00311377 -0.000401715 -0.00340157
134 2 -0.481948 3.04583 9.63963 11.9568 -0.00385682 -0.00195086 0.00141497
135 2 -0.47455 3.14995 12.0031 9.67166 -0.000589388 0.00504414 0.00135194
136 2 -0.504024 0.746486 14.0769 13.9524 0.00161981 0.00359569 0.00112918
137 2 -0.477556 15.9376 11.7182 14.1402 0.00076247 -0.00396518 0.00151466
138 2 -0.523835 16.0434 13.796 12.002 -0.000440942 0.00305277 -0.00640033
139 2 -0.503642 5.43345 9.79309 13.7814 -0.0031475 -0.00915619 -0.00527419
140 2 -0.511845 7.46884 9.36265 15.8978 0.0104914 0.00785767 -0.000359784
141 2 -0.464662 7.45532 11.5161 13.7787 -0.00160155 0.00238695 0.00609832
142 2 -0.480852 5.25732 13.7665 9.72619 0.000888322 -0.00222522 -0.00206888
143 2 -0.462403 7.28524 15.9731 9.64999 -0.00195191 0.000942694 0.00433825
144 2 -0.461162 7.4283 14.024 11.5613 0.000871518 0.00368476 0.00223211
145 2 -0.467076 9.50147 1.0848 1.17459 -0.00395804 -0.0072696 0.00440591
146 2 -0.497182 9.47094 15.9203 15.868 0.00750506 0.00283018 -0.00330487
147 2 -0.478217 9.51808 3.11369 2.96799 -0.00544009 -0.000429731 -0.0012266
148 2 -0.477181 11.5581 1.1576 3.35802 -0.000305521 0.00198539 0.00351057
149 2 -0.461433 11.6886 3.13679 0.80521 -0.00147617 0.00179954 0.00128173
150 2 -0.459683 9.6345 5.2327 5.18617 -0.000138072 -0.00248269 0.00666857
151 2 -0.464942 11.7619 5.24208 7.66549 -0.00589212 -0.00273902 -0.0070773
152 2 -0.46827 11.8174 7.29614 5.49834 0.00165115 0.00600043 -0.00207057
153 2 -0.469076 9.78717 7.46866 7.30724 0.0114114 -0.00588574 0.000248506
154 2 -0.457993 13.9458 1.3436 5.24547 0.00102932 -0.00537499 0.0026384
155 2 -0.449338 11.6828 16.1033 5.26426 -0.00102787 0.00204075 -0.00263382
156 2 -0.505988 13.4623 16.5665 2.62663 0.00162797 0.000594222 0.0056196
157 2 -0.450815 13.8327 3.44653 7.51462 0.00336389 0.00392605 -0.00220645
158 2 -0.546901 13.9319 5.52948 1.10796 0.000720563 0.00598938 -0.00308235
159 2 -0.53749 11.5547 5.29258 15.7001 0.000873677 -0.000605015 0.00454981
160 2 -0.52141 13.7975 3.11401 15.9653 -0.00466499 -0.00203606 -0.0027021
161 2 -0.47942 14.1195 7.65023 3.59927 -0.00743324 0.0065225 -0.000347447
162 2 -0.471486 9.60848 1.245 9.58972 -0.00114863 0.0100836 -0.0124816
163 2 -0.46317 9.61678 15.9659 7.39356 -0.000497215 -0.00143381 0.00218886
164 2 -0.478933 9.5773 3.30262 11.8228 -0.00565806 6.19108e-05 -0.00277617
165 2 -0.488172 11.5845 0.849611 11.697 4.73857e-05 0.00441659 -0.00317461
166 2 -0.469607 11.6858 3.04606 9.66414 0.0130454 0.00180263 -0.00807381
167 2 -0.503879 9.52798 5.42 13.9556 0.00885195 0.00128881 0.002476
168 2 -0.543763 9.75184 7.18967 16.0395 -0.00166917 -0.00536483 0.000830437
169 2 -0.497809 11.6294 7.71677 13.8586 -0.00256793 0.0021948 -0.00472431
170 2 -0.618479 14.052 1.07828 13.6539 -0.00376781 -0.00625022 -0.00172316
171 2 -0.527545 11.7265 16.3276 13.8256 0.00518295 0.00308671 -0.000215233
172 2 -0.469475 13.7266 15.9058 11.5266 0.000649273 -0.0047746 -0.00085079
173 2 -0.462826 13.8422 5.62004 9.78537 -0.000421013 -0.000770433 -0.00199859
174 2 -0.488554 13.4944 7.53005 12.0509 0.000693948 0.00203307 -0.000603423
175 2 -0.472603 9.70371 9.47722 0.852255 -0.004318 0.00292375 -0.00129881
176 2 -0.511309 9.82801 11.5958 3.14529 -0.00108951 0.00169901 0.00377086
177 2 -0.432611 11.9997 9.68176 3.23107 -0.00700549 0.00100503 0.0019474
178 2 -0.499173 11.6351 11.8182 1.18705 0.002127 -0.000140228 -0.0023569
179 2 -0.521518 9.81148 13.9306 5.55406 -0.00391187 -0.00512422 0.000798333
180 2 -0.478597 11.8761 14.0014 7.77802 0.00990464 0.00377311 0.00771874
181 2 -0.463666 13.8881 9.45955 5.63319 0.00248785 0.0053765 -0.0026922
182 2 -0.502086 13.9195 11.8053 7.53164 -0.00859614 -0.00277271 0.000801515
183 2 -0.51047 13.4979 14.193 0.56622 -0.00130641 -0.00176181 -0.00166522
184 2 -0.489656 11.5997 13.8388 16.0523 0.00213588 -0.00368048 1.2029e-05
185 2 -0.477235 13.9067 11.9087 15.9224 -0.00537205 0.00114427 -0.00534813
186 2 -0.458961 9.6105 9.51847 9.54545 -0.00121401 0.00209113 -0.00291665
187 2 -0.439282 9.64295 11.764 11.7807 0.00290871 -0.000246367 0.000450297
188 2 -0.467894 11.5972 9.8988 11.756 -0.0045087 0.00153244 -0.00281863
189 2 -0.467869 11.7949 12.0259 9.73259 -0.00672124 -0.00504345 0.00588701
190 2 -0.514493 9.73215 14.0961 13.8907 -0.00648822 0.00499391 -0.00130728
191 2 -0.436718 13.837 9.63111 14.0525 0.00388626 0.00497962 -0.00398809
192 2 -0.453839 13.8944 13.8476 9.66047 -0.000583014 0.00166059 0.00552107
193 2 -0.635555 15.3114 14.9473 2.47172 0.0113437 -0.00171536 -0.00689479
194 2 -0.584206 4.4239 4.1895 11.9389 -0.0105197 -0.00361557 0.00296508
195 2 -0.679027 5.78552 5.83482 13.6023 0.000643752 0.00990534 -0.000598611
196 2 -0.547809 7.47489 13.7997 13.9151 -0.00949661 -0.00388621 -0.00871306
197 2 -0.580646 0.0776169 4.05639 9.31952 0.00309434 -0.00517662 -0.00383287
198 2 -0.548319 7.7971 16.3432 4.30957 0.00880568 0.0104141 0.00190957
199 2 -0.571178 5.80365 7.35763 15.8533 -0.014064 -0.00198003 0.000672974
200 2 -0.573386 10.0502 13.9821 3.1737 -0.00308398 0.00452171 0.00713184
201 2 -0.553784 15.857 16.0648 11.8352 -0.0039015 -0.00334495 0.00222491
202 2 -0.564329 11.5607 5.30264 0.816349 0.000285444 0.00225254 0.00119011
203 2 -0.574776 12.385 0.852635 16.0337 0.000985767 -0.00348147 0.00683935
204 2 -0.63912 0.153654 8.16088 8.47855 0.000969323 0.000378534 -0.00157708
205 3 0.383208 16.1888 15.376 2.45633 -0.0110897 -0.0261259 -0.0134526
206 3 0.462172 16.1866 13.5598 3.61393 -0.0267504 -0.00277494 -0.0185575
207 3 0.40395 4.9814 4.69927 12.5773 0.00735463 0.00925779 0.00449077
208 3 0.409567 4.71846 4.43996 10.9798 0.00460908 0.0116932 -0.0125237
209 3 0.375885 5.34401 6.58488 12.9281 -0.0157423 0.000962901 -0.0209282
210 3 0.38373 6.67933 5.64447 13.1373 -0.0234592 0.00180766 -0.00465667
211 3 0.412999 8.16123 14.3583 14.4408 0.00960211 0.0103239 0.00566112
212 3 0.380354 5.70182 12.8287 15.4656 0.0111094 -0.0131135 0.000835567
213 3 0.391456 0.317738 3.18754 8.9858 0.0106299 -0.00298262 -0.0178306
214 3 0.406527 0.310396 4.01021 10.3656 -0.0221931 0.030866 0.0242582
215 3 0.414276 6.86425 16.5687 3.98587 -0.00812062 0.00243831 0.023023
216 3 0.41803 7.94869 15.3511 4.01566 0.0193231 0.00577225 0.0104143
217 3 0.418079 5.87251 6.83088 15.0265 0.00903316 -0.028615 0.00464005
218 3 0.407396 6.47428 8.1765 15.7886 0.00866196 0.0153297 0.00314313
219 3 0.401561 10.4833 13.0178 2.87611 0.00460629 -0.0125996 -0.00477873
220 3 0.391123 10.4918 14.2365 4.13822 0.00636082 -0.0191524 -0.00355887
221 3 0.38012 14.8166 0.699966 13.2039 -0.0123923 0.00517836 -0.0154144
222 3 0.40754 16.2905 15.3581 12.4652 -0.00479311 -0.00246947 -0.00416829
223 3 0.416698 10.9756 5.70843 0.0628346 0.0103139 -0.000502679 0.0171833
224 3 0.385966 13.1761 6.07469 1.37192 0.0129156 0.00606771 -0.000846236
225 3 0.406947 12.3451 0.462997 15.1419 -0.00543656 -0.0128088 -0.00193893
226 3 0.416762 12.8767 1.76534 15.984 0.02553 -0.0280152 -0.0174896
227 3 0.39207 16.9607 7.25661 8.57468 0.0147488 0.00557475 -0.0117713
228 3 0.46381 1.47919 7.31118 7.24866 0.00183188 0.0178604 0.00355622
ITEM: TIMESTEP
1000
ITEM: NUMBER OF ATOMS
228
ITEM: BOX BOUNDS pp pp pp
1.4858801151913541e+00 1.5674119884808643e+01
1.4858801151913541e+00 1.5674119884808643e+01
1.4858801151913541e+00 1.5674119884808643e+01
ITEM: ATOMS id type q x y z vx vy vz
1 1 1.7393 1.55147 1.88796 15.2801 0.00442351 -0.00158914 -0.00446393
2 1 1.71997 3.40582 3.28124 3.18268 -0.0118228 0.0012263 -0.000235006
3 1 1.82215 1.51688 4.84706 4.95939 -0.00330626 0.00348788 0.00217135
4 1 1.61176 3.73626 6.43733 6.27513 -0.00951487 0.00295874 0.00353356
5 1 1.82284 4.89844 1.47014 5.08562 -0.00283727 0.00106359 0.00230844
6 1 1.76286 6.674 3.25259 6.86662 -0.00187713 0.00254034 -0.000844963
7 1 1.65771 5.19916 5.02027 15.6183 -0.000461739 -5.11816e-05 -0.00271638
8 1 1.77663 7.09716 6.76892 3.17543 -0.000891144 0.00157848 -0.00759618
9 1 1.76745 15.4905 15.4232 8.54604 -0.0032806 -0.00242527 0.00363187
10 1 1.75733 3.09983 2.94597 10.4521 0.0019955 0.00527774 -0.00233008
11 1 1.73825 1.51173 4.88868 12.0513 -0.00314823 -0.000893705 -0.00498189
12 1 1.53603 3.24587 6.81199 13.8585 0.00656307 -0.000219026 -0.00327559
13 1 1.724 4.99593 15.4068 12.162 0.00293377 -0.00374823 0.00493581
14 1 1.8036 6.77939 3.2053 13.6734 0.00563897 -0.00510226 0.00469238
15 1 1.74524 4.81867 4.87946 8.60285 0.00617607 0.00549039 0.00536678
16 1 1.71723 6.56987 6.8213 10.2182 0.00160038 0.000754267 0.00822753
17 1 1.64974 1.56669 8.78495 1.66282 -0.000139024 0.00147275 -0.00104724
18 1 1.85282 3.38691 10.2368 3.46408 -0.00145431 -0.00346435 -0.00270659
19 1 1.68387 1.60302 11.6414 5.4949 -5.09476e-05 -0.00186788 -0.00333238
20 1 1.81466 3.20367 13.8819 6.85725 -0.00285725 0.00293678 0.00102437
21 1 1.7659 5.38392 8.55047 4.92944 0.0037697 0.00412522 -0.00475561
22 1 1.82955 6.8267 10.3644 6.81283 0.000205324 -0.00742643 -0.00394846
23 1 1.71705 4.87341 12.1309 1.69227 0.00876137 -0.0084264 -0.00781313
24 1 1.67703 6.61213 14.1858 3.08091 0.00539066 -0.00481378 0.000479998
25 1 1.69359 15.2322 9.09931 9.40884 0.00594208 0.0071704 -0.000586473
26 1 1.83398 3.25619 10.7276 10.6246 5.19448e-05 0.00371295 -0.00865535
27 1 1.56262 15.4908 11.9917 12.4428 -0.00498207 -0.00100735 -0.0029001
28 1 1.67194 3.20882 13.8769 14.0602 0.00127361 0.00208146 0.00659226
29 1 1.70167 4.95927 8.7402 12.1511 0.00486431 0.00546622 -0.000430848
30 1 1.84662 6.82659 10.5866 13.929 0.00155027 -0.00720311 -0.00609251
31 1 1.73222 5.04942 12.0252 8.53621 -2.19647e-05 -0.00561818 -0.000713654
32 1 1.74073 6.94539 13.8564 10.2177 -0.000762094 -0.000597957 0.00481603
33 1 1.61022 8.45959 1.53197 15.4965 -0.00240174 -0.00093421 0.00798304
34 1 1.64237 10.2969 3.05108 3.39042 -0.00157162 -0.00265446 0.00419394
35 1 1.80794 8.51229 4.90238 5.02088 0.00203566 0.00546621 0.000779066
36 1 1.82505 10.2468 6.69948 6.77965 0.000924029 -0.00113779 0.000240878
37 1 1.75042 12.2761 15.5365 4.95879 0.00324614 0.00595095 0.000920602
38 1 1.83167 13.974 3.1628 6.75242 -0.0082384 -0.00446204 0.00509044
39 1 1.37905 11.5306 5.18885 1.57694 0.000331458 -0.0020657 0.00178833
40 1 1.54834 14.1929 7.01955 3.58327 -0.000497124 -0.00494661 0.00664749
41 1 1.74349 8.64748 1.58598 8.53831 0.00304887 0.00517411 0.00325221
42 1 1.81478 10.3766 3.36614 10.2168 0.00120714 0.00269466 -0.000313563
43 1 1.69511 8.44121 4.95122 11.8283 -0.0060142 0.00192696 -0.00222676
44 1 1.67544 10.0452 6.92021 13.6397 0.000405088 -0.000924271 -0.00482664
45 1 1.71329 11.9341 1.71046 12.1636 -0.00400686 0.00585814 0.000605852
46 1 1.57258 13.6826 3.54074 13.8581 -0.00324868 0.00408817 0.00281285
47 1 1.65201 12.1917 4.98603 8.3613 0.0012748 -0.00407166 0.00136555
48 1 1.63249 13.8123 6.65055 10.4439 0.00364136 0.00377842 -0.00155993
49 1 1.70869 8.66431 8.80998 15.5812 -0.00062025 0.00787265 -0.00199138
50 1 1.7146 10.4485 10.3494 3.38427 0.00172867 -0.00050106 -0.00211595
51 1 1.49015 8.54465 12.2911 4.9065 0.00355897 -0.00662745 0.00257463
52 1 1.85842 10.4057 13.96 6.74725 0.00561377 -0.000411717 0.00143028
53 1 1.69471 12.0889 8.6439 5.23877 -0.00264137 0.000250156 -0.000598163
54 1 1.76941 13.7291 10.284 7.15336 0.00356334 0.00312467 0.00956059
55 1 1.67445 11.9999 11.9717 15.5084 0.000289712 -0.000616001 0.00451678
56 1 1.37013 13.9148 14.148 2.57484 0.00441006 0.00141589 0.00456537
57 1 1.75931 8.51032 8.55265 8.53519 -0.00423951 0.00742227 4.31021e-06
58 1 1.89758 10.3544 10.2427 10.1922 0.00357763 -0.00486528 0.00310474
59 1 1.76206 8.63479 12.0154 12.0145 -0.00408153 0.00108257 7.38297e-06
60 1 1.6151 10.2865 13.8146 13.7667 0.00119194 0.00276637 0.00225601
61 1 1.78878 12.0024 8.47299 11.9792 -0.00299641 -0.00296034 0.000935118
62 1 1.67178 13.7089 9.98643 13.9572 -0.000350438 -0.0036399 0.000567991
63 1 1.74921 12.0141 12.27 8.64438 -0.00136083 0.00161168 0.00399729
64 1 1.55423 13.8934 13.9177 10.6193 0.00561468 0.000503234 0.000166624
65 2 -0.849549 2.65518 2.49278 2.06957 -0.00490242 0.00139765 -0.00630164
66 2 -0.918219 2.41632 15.1189 14.4275 0.00355302 -0.00482543 0.0131289
67 2 -0.905657 14.9789 2.75614 14.3205 -0.00358196 0.0074056 -0.00409297
68 2 -0.863237 14.6651 15.2945 1.84136 -0.00263115 0.00369097 0.00367969
69 2 -0.823606 2.1962 4.04797 3.84251 -0.00575655 -0.00385603 -0.00269649
70 2 -0.857745 3.87444 2.34652 4.29798 0.00122795 -0.00492319 -0.00464532
71 2 -0.878068 4.51088 4.1501 2.50153 0.0083363 0.00784869 0.00142434
72 2 -0.952299 2.6901 5.62066 5.5085 -0.00327188 -0.0103559 0.00281211
73 2 -0.97908 15.0411 3.85369 5.87342 -0.00081951 0.00402025 -0.00388551
74 2 -0.878647 14.7037 5.69212 4.10537 0.00217158 0.00655793 -0.00786266
75 2 -0.923092 4.00467 5.61382 7.49296 0.00174663 0.0105046 0.00287921
76 2 -0.842043 4.94748 7.21978 5.59818 -0.00536575 0.00723984 -0.00940057
77 2 -0.659445 2.83725 7.7941 6.34392 -0.0070966 0.00183818 -0.00802473
78 2 -0.879775 5.58554 2.58507 5.9367 0.00955291 0.00218642 0.000436685
79 2 -0.950092 4.10923 14.7615 6.03463 0.00513625 0.00594047 0.00170236
80 2 -0.978008 5.76695 15.1071 3.98411 0.003074 -0.000182574 -0.00113032
81 2 -0.8875 5.79581 4.00748 7.93533 0.00210417 0.00791277 -0.00416483
82 2 -0.887237 7.50958 4.32796 6.09909 -0.00317798 -0.00371284 0.000777707
83 2 -0.891717 7.59329 2.40486 7.70149 -0.00418815 0.00425781 0.0100373
84 2 -0.892421 6.08433 6.01153 2.23091 0.00674968 0.00680027 -0.00110434
85 2 -0.819415 4.09401 5.91066 14.8741 -0.00162612 -0.000731198 0.00615226
86 2 -0.930991 5.87178 4.13193 14.4701 0.00895336 0.000289407 0.000296795
87 2 -0.915036 6.37647 7.83615 3.90843 -0.00300363 -0.00729492 -0.00158326
88 2 -0.985692 7.9122 5.8613 4.02169 -0.00464504 -0.00759004 -0.00508635
89 2 -0.892206 7.98587 7.59924 2.05886 0.00210149 0.00256684 0.00481514
90 2 -0.869104 2.28314 1.90276 9.65103 -0.00486073 -0.00250343 0.000280366
91 2 -0.951184 2.07977 14.6618 7.5281 0.00129258 0.00826155 -0.0105768
92 2 -0.932121 14.5765 2.27087 7.79412 -0.00122211 0.0127226 -0.00728661
93 2 -0.819164 14.5942 14.4409 9.30949 0.00208942 -0.00335465 0.00561778
94 2 -0.982759 2.21537 3.65977 11.3656 0.00476713 0.000334273 -0.00950308
95 2 -0.89433 4.1614 2.10556 11.174 0.00505999 -0.00788377 -0.00559569
96 2 -0.833458 3.7805 3.88751 9.27817 -0.00383808 0.000782283 0.00200904
97 2 -0.823031 2.36113 5.95638 12.7639 -0.00990606 0.00371574 -0.00088105
98 2 -0.83618 14.4171 4.39463 12.8283 0.00306451 0.00252071 0.00747163
99 2 -0.885128 14.9627 5.65393 11.0034 0.00409113 0.000383851 0.0145162
100 2 -0.723343 2.24094 7.75254 14.6797 0.00442023 0.00552645 0.00606603
101 2 -0.868453 4.24288 7.72871 13.0576 -0.00279557 -0.00226546 0.00074275
102 2 -0.938778 5.89076 2.05386 13.1143 -0.000831667 -0.000409006 -0.00181937
103 2 -0.934335 4.17406 14.4268 12.9399 -0.00119063 -0.0036432 -0.00411022
104 2 -0.822658 5.92979 14.5479 11.1646 -0.00242807 -0.00349325 0.00657266
105 2 -0.893018 7.83141 2.71712 14.6356 -0.0132724 -0.0114421 0.00116022
106 2 -0.921487 7.52656 3.87503 12.5384 -0.00240348 0.00421748 -0.00111203
107 2 -0.91188 5.48051 6.03333 9.46661 -0.0123887 -0.0034623 -0.00994851
108 2 -0.826758 5.91649 7.88924 11.1282 0.00760495 0.00735828 -0.00749159
109 2 -0.894016 7.44285 5.88019 11.0641 0.00193214 -0.010821 -0.00773846
110 2 -0.826189 7.57048 7.50859 9.21446 0.00979119 0.00153941 -0.00298792
111 2 -0.918987 2.75198 9.4648 2.30967 0.000504252 0.000509395 -0.000242584
112 2 -0.811137 15.2552 7.94935 2.93424 -0.010196 0.00407692 -0.0062428
113 2 -0.893521 14.6331 9.5007 15.1565 0.00794402 -0.0130279 -0.00125696
114 2 -0.888503 2.29173 10.9589 4.24935 0.00834404 0.000647904 -0.0134084
115 2 -1.01135 4.15379 9.23071 4.36096 -0.00694112 0.00294263 -0.00169546
116 2 -0.974617 4.29394 11.1628 2.7545 -0.00692251 -0.0072361 -0.00497445
117 2 -0.881508 2.57844 12.701 5.96909 0.0112434 -0.00201171 -0.00305803
118 2 -0.907178 15.0122 10.623 6.33636 -0.00184175 -0.0027226 -0.0118965
119 2 -0.701912 14.6381 12.6321 5.14027 -0.00222866 -0.00323695 0.00763677
120 2 -0.836182 4.10997 13.0923 7.84436 -0.000929931 -0.00921561 -0.000255754
121 2 -0.935164 6.32297 9.46498 5.73374 -0.00344611 -0.00223638 -0.00693634
122 2 -0.953261 5.66542 10.996 7.63682 0.00125286 0.0015785 -0.00406867
123 2 -0.75497 7.55255 11.4557 5.99122 0.000521964 0.012341 -0.000946747
124 2 -0.942448 7.73137 9.60934 7.80007 -0.00027146 -0.000756526 0.00432418
125 2 -0.865488 5.66626 13.2071 2.40433 0.0064386 0.0031669 -0.00234996
126 2 -0.943373 3.85184 12.9177 15.0592 -0.00174296 0.00114962 -0.0192744
127 2 -0.892039 5.97703 11.5158 14.7055 0.00149398 0.00624 0.00229496
128 2 -0.974014 7.52702 14.7993 2.02701 0.01088 -0.00280769 -0.00924241
129 2 -0.736979 7.37691 12.9789 3.93211 0.00789396 0.00465861 0.000616317
130 2 -0.930475 1.96131 10.1598 9.94651 -0.0039931 -0.00060891 -0.00458465
131 2 -0.84903 14.5181 8.04118 10.2333 0.00692129 -0.00316886 0.00449872
132 2 -0.883214 14.1733 9.42232 8.28543 0.00899177 -0.00241294 -0.00563236
133 2 -0.847738 2.58112 11.7044 11.6185 -0.0106611 0.00465778 -0.00110497
134 2 -0.940112 4.0297 9.68837 11.445 -0.00496827 0.00378311 0.00263951
135 2 -0.91827 4.14039 11.4448 9.66015 0.00286879 -0.00305948 0.00475305
136 2 -0.800328 1.95141 13.0918 13.4348 0.00491952 -0.00396219 -0.00404717
137 2 -0.838509 14.7179 10.7694 13.0521 -0.0044318 -0.00120258 0.00304633
138 2 -0.793633 14.4724 12.7577 11.4509 -0.000516565 0.00272592 0.00249422
139 2 -0.847502 5.97418 9.7525 12.8936 -0.00785601 0.00596843 0.00804566
140 2 -0.914028 7.53882 9.80521 15.0404 0.00422973 0.00885131 0.0143956
141 2 -0.927623 7.90285 11.1019 13.0759 -0.00585747 -0.0108006 0.00398913
142 2 -0.81716 6.02835 13.1424 9.23585 -0.00402997 0.00213427 0.00177432
143 2 -0.911689 7.781 14.9297 9.5339 0.0057934 0.00111805 0.00215539
144 2 -0.863853 7.71853 12.6869 10.9891 -0.00565543 -0.00712676 -0.00497996
145 2 -0.832203 9.28 2.1795 2.54679 -0.00597481 -0.00301496 0.00628106
146 2 -0.86305 9.31269 14.8425 14.4864 0.00258645 -0.00271453 -0.000371827
147 2 -0.967152 9.30818 3.88742 4.23499 -0.0026069 -0.00869072 0.00100557
148 2 -0.953947 11.4252 2.22453 4.01233 -0.00476326 0.00364126 -0.00908375
149 2 -0.824242 10.9238 3.89269 2.20281 -0.00651317 0.0051621 0.00555886
150 2 -0.877327 9.54377 5.84312 5.72982 0.000862635 -0.00603021 0.000971416
151 2 -0.869301 10.9476 5.70998 7.73776 -0.00936793 -0.000135216 -0.00231629
152 2 -0.872469 11.2831 7.44698 5.96639 -0.00231156 -0.00223244 -0.00267306
153 2 -0.88112 9.25687 7.64003 7.4569 0.0110823 -0.0083207 -0.00745207
154 2 -0.894242 13.089 2.28224 5.82695 0.00249057 -0.00357646 -0.00315519
155 2 -0.968282 11.4594 14.557 5.78884 0.00686008 0.00552258 0.00357625
156 2 -0.791123 13.2712 14.7063 4.01012 -0.000516017 0.000738551 0.00525213
157 2 -0.940633 12.9412 4.13888 7.43423 -0.00223132 0.00456331 -0.00365793
158 2 -0.707334 13.2345 6.65578 2.37631 -0.00381592 0.00894802 0.00121916
159 2 -0.750193 10.8425 5.83104 14.4659 -0.00435574 -0.00402935 -0.00192264
160 2 -0.676757 12.8903 4.3148 14.9947 0.00148506 0.00622848 -0.00388835
161 2 -0.834773 13.2765 7.92581 4.59813 0.00341208 -0.00129936 -0.00279167
162 2 -0.935839 9.73603 2.44507 9.2311 -0.00432104 -0.0117012 0.00361074
163 2 -0.873655 9.56506 14.991 7.49759 0.000665619 0.00217129 -0.00679867
164 2 -0.890497 9.50772 4.47622 10.8242 0.00304217 0.00710564 -0.0022298
165 2 -0.893823 10.924 2.66693 11.4369 0.00134975 -0.00366061 0.00847316
166 2 -0.797232 11.6404 4.0281 9.52366 0.00670097 -0.000190821 -0.00176354
167 2 -0.821048 9.12315 5.87936 12.9755 -0.00240422 -0.00752514 0.00229478
168 2 -0.900517 9.38679 8.0658 14.4513 -0.0028202 0.00633498 -0.00533062
169 2 -0.855478 10.77 7.83909 12.6354 -0.00574611 -0.00366873 0.00338415
170 2 -0.908974 12.6176 2.4614 13.2095 -0.0121341 -0.012745 -0.00552425
171 2 -0.84797 11.2824 14.6971 12.8858 -0.00196097 0.000456259 -0.0032656
172 2 -0.740344 12.9728 15.2213 11.1258 0.00387693 -0.00495055 0.00373489
173 2 -0.792976 13.0051 6.17409 9.253 -0.00629737 4.51305e-05 -0.00766382
174 2 -0.815628 12.625 7.25001 11.3042 0.00319843 0.00199373 -0.00296953
175 2 -0.878476 9.44873 9.60427 2.44873 -0.00956086 -0.00145682 -0.00232255
176 2 -0.8032 9.54422 11.1264 4.36072 -0.00104748 0.000130746 0.00665907
177 2 -0.896966 11.3794 9.35819 4.05462 -0.00251017 -0.00164437 -0.00491387
178 2 -0.901738 11.4002 11.311 2.52417 -9.8895e-05 -0.00975672 0.00596075
179 2 -0.865865 9.36159 13.1335 5.94496 -0.00139548 0.00150076 -0.00336862
180 2 -0.931452 11.1563 13.1182 7.70882 -0.010995 -0.000887398 -0.00109973
181 2 -0.874688 12.5793 9.64427 6.3261 0.00407363 0.00121486 0.00465421
182 2 -0.857004 13.0815 11.5455 7.81259 0.00507375 -0.000957585 0.00501482
183 2 -0.776439 13.1126 12.8775 1.9083 0.00799806 -0.00713955 -0.00014988
184 2 -0.879773 10.9287 12.9335 14.8683 -0.00956534 -0.00165119 0.00965893
185 2 -0.845345 12.5449 10.9229 14.471 0.00337598 -0.00201625 0.00280031
186 2 -0.898181 9.48169 9.10977 9.65449 -0.000161982 -0.000830127 -2.44929e-05
187 2 -0.865373 9.39545 11.0793 10.9637 -0.00161811 -0.0115663 0.0066814
188 2 -0.918289 11.4499 9.60429 11.0166 0.00082869 0.00776714 -0.000303427
189 2 -0.891686 10.9583 11.1881 9.18174 -0.0125506 0.00830578 0.0120544
190 2 -0.827185 9.7857 12.8758 12.5874 -0.000568838 0.00138483 0.00782951
191 2 -0.890272 12.9367 8.97857 13.0657 -9.92832e-05 0.00401713 -0.00343254
192 2 -0.742039 12.7666 13.0186 9.80454 -0.000646966 0.00843661 -0.000169997
193 2 -0.584856 15.4065 13.2439 2.63543 0.00235688 -0.00936068 -0.00155019
194 2 -0.595835 4.73659 4.83616 11.8035 -0.00275084 0.00678245 -0.00315327
195 2 -0.623218 6.6495 6.71269 13.6347 0.00998699 0.00541052 -0.000481598
196 2 -0.642979 7.38318 13.3869 13.4654 0.00305913 0.021036 -0.000172189
197 2 -0.708527 15.5141 5.66479 8.22883 -0.00478458 -0.0101904 0.00354653
198 2 -0.613013 8.46545 1.4888 5.05167 0.00171352 -0.00445627 0.00372502
199 2 -0.607022 5.25615 8.56982 15.6407 -0.00193088 -0.00616525 0.010713
200 2 -0.682052 9.84064 13.53 3.53242 0.00296731 0.000913115 -0.00245339
201 2 -0.66632 15.3238 15.0875 11.9971 0.00847461 -0.00465115 0.000917463
202 2 -0.671472 10.7631 6.1612 2.55841 -0.00154373 0.000196346 -0.00433515
203 2 -0.621666 12.1583 15.2163 1.54363 0.00753699 -0.00424361 -0.000104878
204 2 -0.672169 2.00517 8.09066 8.68724 0.0121283 -0.00536507 -2.62828e-05
205 3 0.412644 1.58931 13.229 1.76034 0.0407073 -0.0265952 0.00185843
206 3 0.4787 14.6788 13.5207 4.84326 0.025634 0.00379299 0.0122593
207 3 0.404531 5.01167 4.88439 12.7332 -0.0416886 -0.0442399 -0.0196634
208 3 0.380077 5.61615 5.16629 11.3907 -0.00909025 -0.0369238 -0.00876097
209 3 0.400114 6.02599 7.18274 14.2234 -0.011026 0.00750294 0.0111031
210 3 0.412032 7.46501 6.97648 13.9773 0.0155513 0.0117153 0.00123197
211 3 0.3928 7.47941 14.167 14.1457 0.012433 0.00629194 0.037141
212 3 0.41131 6.42909 13.2313 13.4664 -0.00977498 0.00387258 -0.0239328
213 3 0.38842 15.3518 5.01443 8.94814 0.0160594 -0.0141147 -0.00717137
214 3 0.420305 1.85062 5.23495 7.63346 0.0116785 -0.0162526 -0.00415743
215 3 0.375804 8.49108 14.7761 4.80067 0.0131853 0.00876165 -0.00260299
216 3 0.393959 8.22822 1.89712 4.20546 -0.0192136 -0.000629284 -0.0102077
217 3 0.371435 6.21409 8.36056 1.65557 0.0013641 0.00967366 -0.0360957
218 3 0.410895 5.02033 9.05606 2.20696 -0.000565132 -0.00340168 -0.0666277
219 3 0.423129 10.3365 13.1272 2.78103 -0.039558 -0.0442009 -0.00631395
220 3 0.390068 10.5547 14.0004 3.99976 0.00769325 -0.0028659 -0.00913535
221 3 0.459495 15.533 1.66807 12.5116 -0.0185738 -0.000746312 0.00935819
222 3 0.410706 1.94109 14.5985 11.8675 -0.00440284 0.03395 -0.0339505
223 3 0.421035 10.0305 5.61136 3.0475 -0.000932857 -0.00499634 0.0135198
224 3 0.40361 12.3615 7.20687 2.45757 0.0145156 -0.00924909 0.00672294
225 3 0.405777 12.0505 15.5581 14.7648 -0.0695085 0.00466944 -0.00101868
226 3 0.407568 12.1012 1.9289 1.9889 -0.0277577 -0.0321315 0.0482949
227 3 0.483154 2.07355 7.06061 8.57824 -0.0205187 0.00354393 0.00771144
228 3 0.438369 2.51903 8.32141 5.54959 -0.0235086 -0.00270801 0.00883299
ITEM: TIMESTEP
2000
ITEM: NUMBER OF ATOMS
228
ITEM: BOX BOUNDS pp pp pp
1.4949751109618701e+00 1.5665024889038140e+01
1.4949751109618701e+00 1.5665024889038140e+01
1.4949751109618701e+00 1.5665024889038140e+01
ITEM: ATOMS id type q x y z vx vy vz
1 1 1.69285 1.4997 1.75975 15.2512 -0.00124897 -0.00750361 0.00207981
2 1 1.73697 3.26135 2.97222 3.19827 -0.00163874 -0.00311851 0.00205776
3 1 1.82589 15.7316 4.77788 4.8068 0.00878769 0.00295829 -2.24098e-05
4 1 1.59829 3.66759 6.41773 6.20954 0.00135201 0.00112138 0.000622871
5 1 1.79513 5.1824 15.6028 5.00671 0.00252093 -0.00163358 -0.00446971
6 1 1.756 6.84613 3.20909 6.82373 -0.000956378 -0.00194861 -0.00230762
7 1 1.72322 4.75867 5.045 1.55765 0.00246312 -0.00182918 -0.00580231
8 1 1.69655 6.85107 6.67291 3.12375 -0.00183344 0.0013699 0.000787926
9 1 1.76172 1.61956 1.68895 8.15423 -0.000185185 -0.00112546 -0.00310625
10 1 1.7796 3.39102 3.34316 10.0584 -0.000326558 0.00170622 0.00516406
11 1 1.77494 1.62996 5.01655 11.8374 -0.00460493 0.00101621 0.00104987
12 1 1.76369 3.04668 6.78172 13.856 -0.0019097 0.00515928 -0.0021492
13 1 1.69566 4.79231 15.5997 12.0017 -0.00325477 -0.00170937 0.000598213
14 1 1.77817 6.43667 3.19982 13.8899 -0.00125089 0.0027616 -0.000195688
15 1 1.72235 5.2943 5.14605 8.51025 0.000184106 -0.00229766 0.00560924
16 1 1.79088 6.78982 6.93603 10.4613 -0.0002115 0.00204119 0.00121939
17 1 1.77216 15.5851 8.64972 1.48787 -0.00463757 0.00796719 -0.00383688
18 1 1.69392 3.17093 10.3034 3.38366 0.000473182 -0.00105276 0.00247838
19 1 1.64704 1.76788 11.8733 5.57125 -0.00313034 0.00539513 -0.00500093
20 1 1.74984 3.54077 13.8915 6.94532 -0.00106293 0.0012344 0.00406371
21 1 1.68716 5.29288 8.63598 4.86596 0.00315745 -0.00704823 -0.000495277
22 1 1.77129 6.92907 10.3812 6.75778 0.000261127 0.00103364 -0.00133774
23 1 1.82788 4.94019 11.9983 1.56168 0.00395687 -0.00107059 -0.00184446
24 1 1.8038 6.78433 13.7851 3.185 -0.00168676 0.000303403 -0.00718225
25 1 1.55971 15.4438 8.83595 9.22462 0.00222182 -0.000388698 -0.00116697
26 1 1.7144 3.30721 10.646 10.453 0.00244283 0.00145962 0.000848438
27 1 1.66588 15.4868 12.099 12.2044 0.000602555 -0.000870068 -0.000183384
28 1 1.70805 3.19132 13.7479 13.8559 0.0038589 0.000392039 0.000598167
29 1 1.79908 4.85907 8.68113 12.1258 -0.000466773 -0.00423422 0.00439898
30 1 1.82618 6.7199 10.3007 13.9005 -0.00232967 0.00845714 -0.00119022
31 1 1.81255 5.27342 12.0943 8.60962 0.00275002 -0.000647502 0.00281888
32 1 1.7784 6.83592 13.8764 10.4443 -0.00339874 -0.00296475 0.000825953
33 1 1.76026 8.31192 1.59136 15.662 0.000970426 0.00202879 -0.00602073
34 1 1.71215 10.3326 3.19236 3.17714 -0.0014973 0.00468756 0.00187111
35 1 1.71575 8.56261 4.9072 4.97732 -0.00240294 -0.00260682 0.000253534
36 1 1.72654 10.2256 6.84586 6.77138 -0.000478351 0.00151886 0.00781319
37 1 1.74161 12.0408 15.5807 5.01307 0.000772867 7.98702e-05 -0.00201973
38 1 1.89287 13.7401 3.33566 6.63756 -0.0010839 -0.00428786 -0.0033569
39 1 1.6362 12.0983 5.11329 1.43701 -0.000152983 0.00103845 -0.00310876
40 1 1.83061 13.9845 6.6856 3.25073 0.00313397 -0.00334136 0.000892812
41 1 1.79047 8.61179 15.6554 8.63761 6.91795e-05 -0.00514257 0.00270388
42 1 1.83572 10.2439 3.34514 10.342 0.00634775 -0.000315582 0.000117305
43 1 1.80446 8.32025 4.94377 12.1408 -0.00578137 -0.00301486 0.00284936
44 1 1.66438 10.0836 6.74787 13.879 -0.00106368 0.00466529 0.00246025
45 1 1.76857 11.9458 1.53041 12.0936 0.00116818 -0.00778875 -0.00975744
46 1 1.75318 13.7716 3.49782 13.5491 0.00432762 -1.18228e-05 -0.00704988
47 1 1.68317 12.0211 5.03217 8.53235 0.0029841 -0.00230264 -0.00165644
48 1 1.74482 13.6606 6.75047 10.4744 -0.00339087 0.00203132 -0.00248584
49 1 1.69187 8.58512 8.64094 1.56186 0.000819908 0.00587744 0.00184027
50 1 1.71642 10.511 10.2329 3.39825 0.00137402 -0.00184085 -0.00418228
51 1 1.67943 8.78111 12.1839 5.0078 -0.00196905 0.00108481 0.00205164
52 1 1.79798 10.4444 13.899 6.99206 0.00248626 -0.00130015 0.00130882
53 1 1.82649 12.2633 8.41335 5.18604 -0.00464798 -0.000787478 0.00120465
54 1 1.84897 13.971 10.1428 6.99628 0.00299354 0.00527538 -0.00441066
55 1 1.76826 11.8235 12.1077 15.4907 -0.00275448 -0.000236859 -0.00185315
56 1 1.36594 13.4884 14.3786 2.59692 0.00286176 0.0040393 4.14846e-05
57 1 1.80607 8.52786 8.61656 8.65177 0.000818988 0.00471551 0.000652957
58 1 1.77604 10.3141 10.3482 10.3191 -0.00215186 0.000619303 -0.00344402
59 1 1.80207 8.53426 11.9779 12.1606 -0.00246838 0.00163678 -0.00577796
60 1 1.72272 10.1103 13.9751 13.8623 0.00501607 0.00159146 0.00246975
61 1 1.67901 11.8784 8.53622 12.1171 0.00400634 0.000902316 -0.000671219
62 1 1.81809 13.672 10.3121 13.88 -0.00272104 0.0025483 -0.00265778
63 1 1.72621 12.2239 12.0677 8.69582 -0.000475296 0.000934192 -0.000848284
64 1 1.50796 13.8815 14.0387 10.396 -0.00454461 -0.00483926 -0.00462366
65 2 -0.909202 2.55234 2.32023 1.99795 0.00920878 -0.00313186 0.00223186
66 2 -0.836435 2.27065 14.7279 14.7071 -0.00173281 0.00437217 0.0109432
67 2 -0.856265 14.9516 2.66873 14.1549 0.00314878 -0.00153534 0.00131839
68 2 -0.860138 14.4383 15.4368 1.92018 0.00595083 -0.00275039 0.00293303
69 2 -0.874052 2.04482 3.62888 3.94551 -0.00246463 0.0016417 0.000510005
70 2 -0.885039 4.00485 2.08225 4.22979 -0.00387415 -0.000533232 0.000602349
71 2 -0.883437 4.16693 4.13234 2.63206 0.00366377 -0.00285571 0.000451031
72 2 -0.904926 2.78487 5.35355 5.45263 -0.0100507 0.000877809 0.0029323
73 2 -0.956121 14.6987 4.25643 5.88526 -0.00639585 0.00150093 0.00412771
74 2 -0.948209 14.9871 5.7529 3.85308 -0.00135805 -0.00123923 0.00468206
75 2 -0.877071 4.46747 5.86048 7.43079 0.00196243 0.00366046 0.00133801
76 2 -0.849196 4.64836 7.37511 5.47537 -0.00263209 -0.00213385 0.00555025
77 2 -0.716766 2.53173 7.52088 6.39204 0.00114586 -0.0004069 0.00177325
78 2 -0.94568 5.9656 2.51724 5.81807 0.00439627 0.00464219 0.000295068
79 2 -0.890168 4.5139 14.6645 6.06781 0.00680197 -0.0025596 0.00280836
80 2 -0.932715 6.06219 14.8684 4.00461 0.0018269 0.00562998 -0.00255513
81 2 -0.861096 6.19224 4.00032 8.04017 -0.00451886 -0.0111045 -0.00249254
82 2 -0.880497 7.71215 4.22439 6.06262 -0.00275225 0.00141821 -0.00229994
83 2 -0.909975 7.91657 2.31041 7.47769 0.00284086 -0.00222725 -0.00107451
84 2 -0.920718 5.82197 6.06606 2.17193 -0.000813327 0.00993716 0.00347734
85 2 -0.954653 3.69111 5.7915 14.838 0.00537055 -0.00101224 0.0030403
86 2 -0.927648 5.51948 4.11633 14.7884 0.00446137 0.000101454 -0.00456465
87 2 -0.889846 6.14654 7.91825 3.82518 0.00202822 0.000994214 0.00115993
88 2 -0.868057 7.45914 5.63531 4.16175 -0.00444574 -0.00570253 -0.00292387
89 2 -0.896296 7.89859 7.38203 2.28997 -0.0026808 0.00202296 0.00020792
90 2 -0.95721 2.49296 2.68358 8.96911 0.000638699 0.00236481 0.00840899
91 2 -0.899211 2.49072 14.9509 7.27483 -0.00652508 -0.000662982 0.00513846
92 2 -0.979601 14.6915 2.44429 7.45904 0.00523241 0.00684819 -0.0011989
93 2 -0.746331 15.2294 14.9049 9.2327 0.00103917 0.00161604 -0.00360352
94 2 -0.952884 2.43377 4.00196 11.068 0.00505157 0.00169956 -0.00916517
95 2 -0.898813 4.28754 2.28234 10.8161 -0.00448122 -0.00258162 0.00216684
96 2 -0.867532 4.32752 4.39866 9.50944 -0.00111627 -0.00397504 0.0148338
97 2 -0.946228 2.23077 5.99244 12.8152 -0.00261773 0.00153128 -0.000817864
98 2 -0.85314 14.5411 4.39933 12.5469 0.00055847 -0.00159829 0.00458976
99 2 -0.82929 14.7891 5.84156 10.8287 -0.00533182 0.00264511 -0.00277636
100 2 -0.93758 2.24543 7.80256 14.6537 -0.00146213 -0.00590873 0.000266104
101 2 -0.885733 4.04568 7.75365 13.1168 -0.00217192 -0.000896468 0.00253242
102 2 -0.902804 5.58912 2.17687 13.1513 0.00112628 2.07744e-05 0.00260113
103 2 -0.921629 3.78101 14.7293 12.7993 0.00745928 0.00286201 0.00160685
104 2 -0.903167 5.8319 14.6043 11.4287 1.14162e-06 -0.00123255 0.00581355
105 2 -0.912502 7.23762 2.34003 14.8895 -0.000355573 0.0026899 -0.00713978
106 2 -0.910745 7.45885 3.89719 12.9536 0.000304277 -0.00504529 0.00167167
107 2 -0.859809 6.25557 6.18532 9.28984 -0.00425082 0.000363101 0.00190166
108 2 -0.918839 5.57975 7.64547 11.175 -0.000533765 0.00526321 -0.000592892
109 2 -0.938685 7.44577 5.92925 11.3993 0.00172622 0.00154164 -4.65802e-05
110 2 -0.898443 7.88136 7.91016 9.8419 -0.00320002 -0.00355898 -0.00163042
111 2 -0.916236 2.43094 9.47997 2.24268 -0.0090812 0.00145217 -0.000164102
112 2 -0.884576 14.7538 7.82418 2.51068 -0.000477934 0.00457384 0.0100243
113 2 -0.870799 14.5944 9.63908 14.9197 0.00230831 0.00491952 -0.000308679
114 2 -0.840481 2.17454 11.1098 4.20865 0.00497902 0.0018833 -0.000404256
115 2 -0.914973 3.98706 9.31354 4.23723 0.000267261 0.000425465 0.00308204
116 2 -0.872901 4.2481 11.2377 2.72834 0.000780093 0.00760384 -0.00915303
117 2 -0.86228 2.90885 12.7663 6.03387 0.00803492 -0.00303774 0.00511234
118 2 -0.915379 15.1698 10.8668 6.45619 -0.00154912 -0.00345729 0.00272516
119 2 -0.681357 14.9374 12.9949 5.35553 -0.00365326 0.00108857 0.000258566
120 2 -0.899389 4.26092 13.1775 8.15555 -0.00823465 -0.000841143 -0.0022723
121 2 -0.904177 5.94398 9.59638 5.88833 0.00424875 -0.00855031 0.00275215
122 2 -0.918211 6.00931 11.4107 7.48462 0.00120457 -0.00206341 -0.000675597
123 2 -0.819738 7.98623 11.1178 5.89589 -0.00337016 -0.00548905 -0.00151973
124 2 -0.903125 7.52504 9.43711 7.85522 0.000784724 0.000457124 0.00253034
125 2 -0.910752 5.76245 12.9958 2.35311 0.00369524 -0.000303128 -0.00541052
126 2 -0.888491 3.95767 12.8691 14.9308 0.00811039 -0.00396723 0.00434043
127 2 -0.924249 5.76835 10.9713 14.9432 0.00571097 -0.00495955 -0.00776862
128 2 -0.939959 7.68149 14.5769 2.24225 -0.00257365 -0.00119476 0.00167367
129 2 -0.851551 7.64786 12.7844 4.09543 0.003448 0.000220501 -0.0017277
130 2 -0.852099 2.20352 9.9804 9.6287 0.00199582 0.00381066 0.00482485
131 2 -0.834811 14.4089 8.08619 10.0907 -0.00236717 0.00117119 -0.00229736
132 2 -0.874394 14.6741 9.12202 7.88147 0.000945268 -0.00389492 -0.00101052
133 2 -0.865538 2.55292 11.6612 11.3936 0.00480798 -0.00611376 -0.00433831
134 2 -0.877223 3.79968 9.49087 11.4377 0.000267349 -0.00644752 -0.00523217
135 2 -0.88352 4.35019 11.0727 9.42752 -0.00692978 -0.000364612 -0.00307966
136 2 -0.884666 2.02637 12.9943 13.2673 0.00396604 0.00353261 -0.00596131
137 2 -0.852014 14.6548 10.9048 12.8268 -0.0114786 0.00573233 -0.000280261
138 2 -0.845957 14.5564 12.9516 11.2559 0.00652287 -0.00211788 0.00268496
139 2 -0.957471 5.80161 9.5595 12.9006 0.000880309 -0.00496906 0.00354254
140 2 -0.9244 7.75684 9.42678 14.7551 0.00244938 0.000855052 -0.00349032
141 2 -0.940704 7.5383 11.2624 13.0921 -0.0043301 0.0030063 -0.0011218
142 2 -0.942075 6.17106 12.8118 9.55256 -0.000388945 0.000691657 0.00772477
143 2 -0.907632 7.60267 14.9564 9.61623 0.00111957 0.00396286 0.00435838
144 2 -0.893147 7.77517 12.9397 11.1754 0.000140874 0.00197819 -0.00572343
145 2 -0.942935 9.24491 2.57094 2.25305 0.00270546 -0.00277336 -0.00303921
146 2 -0.913242 9.15149 14.924 14.6314 -0.00484681 0.00190168 0.00423312
147 2 -0.965204 9.48439 3.95288 4.20398 -0.0037652 0.00412195 0.00595002
148 2 -0.922661 11.0942 2.11682 4.03015 0.0041043 0.00471947 0.00281641
149 2 -0.846884 11.3562 4.11092 2.41834 0.00432669 0.00462561 -0.00358122
150 2 -0.890873 9.5016 5.96867 5.70975 0.000641369 0.00125522 -0.000622758
151 2 -0.847965 10.9077 5.76707 7.73416 0.00203862 -0.00213536 0.0053781
152 2 -0.974313 11.306 7.7583 6.13049 -0.00694737 -0.0056132 -0.00299949
153 2 -0.876653 9.22362 7.5993 7.64039 0.00302871 -0.000905101 -0.0038548
154 2 -0.950117 12.8479 2.48926 5.74348 0.00222743 -0.00193555 -0.00516155
155 2 -0.956783 11.1407 14.6691 5.87579 -0.000620368 0.00426578 -0.000858312
156 2 -0.812948 13.0238 14.7661 4.04598 -0.001383 0.00303039 0.00875057
157 2 -0.945014 12.93 4.18061 7.55821 0.00386968 0.00576699 0.00724397
158 2 -0.899834 13.1438 6.08349 2.17005 -0.00273264 -0.0055043 0.00287959
159 2 -0.782191 11.1284 5.67543 14.4934 0.00476008 0.0027367 -0.00132293
160 2 -0.879346 12.9588 4.13064 14.6781 -0.00208002 0.00208743 -0.00181974
161 2 -0.903204 13.1209 7.31972 4.41364 0.00582375 -0.0060235 -0.00172736
162 2 -0.905883 9.53292 2.39548 9.36622 -0.00181483 0.00030688 -0.00242853
163 2 -0.907511 9.69998 14.7132 8.04576 -0.00618871 -0.00151979 0.00124595
164 2 -0.906032 9.25533 4.28247 11.0713 0.00565426 0.000402867 0.000314676
165 2 -0.88144 10.8736 2.40192 11.3985 0.00198335 -0.00256217 -0.00524174
166 2 -0.872096 11.3717 3.98245 9.56725 -4.27414e-05 0.00255994 0.00649606
167 2 -0.917614 9.15471 5.79282 13.1465 -0.00250795 -0.00259188 0.00605672
168 2 -0.873671 9.54816 7.66816 15.011 -0.0080383 -0.00202601 -0.00305648
169 2 -0.829 10.7338 7.7624 12.8851 -0.008449 0.00195835 0.00174909
170 2 -0.939761 12.8091 2.46257 12.9729 0.00557193 0.000516548 -0.00250136
171 2 -0.926936 11.2602 14.7189 13.0427 -0.000305215 0.000409481 0.00662171
172 2 -0.841656 12.7926 14.9599 11.0024 0.0017122 2.36685e-05 0.00173793
173 2 -0.927969 12.9709 5.99376 9.30947 0.00544211 0.0045217 0.00353099
174 2 -0.851555 12.6839 7.29201 11.5197 0.00304364 0.00208929 0.00308303
175 2 -0.880087 9.41359 9.49964 2.60371 -0.0100127 -0.00372406 0.00737524
176 2 -0.828428 9.81508 11.1514 4.4507 0.0015888 -0.000901021 -0.00929346
177 2 -0.916947 11.4954 9.22285 4.12681 0.00186732 0.00046642 -0.000755089
178 2 -0.873391 11.2955 11.0216 2.30884 -0.00381807 -0.000774551 -0.000748225
179 2 -0.848842 9.45704 13.0244 6.17481 0.00421465 -0.00415667 -0.0023301
180 2 -0.823737 11.4732 12.9183 7.61393 0.0023349 0.0021163 -0.00304486
181 2 -0.935068 13.1505 9.37363 5.94476 0.00378645 -0.00130908 -0.00502159
182 2 -0.891001 13.0574 11.0883 7.84682 -0.00865871 -0.00188841 0.00467154
183 2 -0.860181 12.6731 13.1175 2.06547 -0.000715643 -0.00127139 0.00293528
184 2 -0.898413 10.7106 12.9452 14.8919 -0.00409792 0.00309971 -0.00318913
185 2 -0.901528 12.8301 11.4051 14.5247 0.00499939 0.00287214 -0.00328586
186 2 -0.92122 9.55906 9.60254 9.17489 -0.00361122 -0.00242287 0.00337812
187 2 -0.912759 9.45452 10.9526 11.4566 0.00447014 -0.00234946 -0.00150484
188 2 -0.892551 11.3752 9.48741 11.0121 -0.0034774 0.000250245 0.00288712
189 2 -0.878658 11.1542 11.4545 9.64385 -0.00107949 -0.00974545 -0.00751465
190 2 -0.901657 9.39592 12.9918 12.9513 -0.000635398 0.00756685 -0.00778842
191 2 -0.89031 12.716 9.40332 13.1465 9.21331e-05 0.000198441 0.002307
192 2 -0.782005 13.1565 13.1761 9.30984 -0.00269681 0.000474995 4.75776e-05
193 2 -0.572431 15.1587 13.348 2.84935 0.00636898 -0.0109408 0.00348076
194 2 -0.611545 4.81529 5.05611 12.2627 0.00414035 -0.00211277 -0.00144608
195 2 -0.616141 6.77002 6.90431 13.9701 -0.00471319 -0.00318366 -0.00270033
196 2 -0.605503 6.63778 13.6483 13.8158 -0.00011975 0.00612411 0.00387162
197 2 -0.580057 15.6209 5.41612 8.12497 -0.000755433 -0.00754999 0.00208839
198 2 -0.621856 8.5723 15.5864 4.78516 -0.00351634 -0.00249307 0.0051475
199 2 -0.611518 4.93921 8.63439 15.6594 0.00174839 0.00645226 0.00687349
200 2 -0.61497 9.9979 13.4625 3.51914 0.00376565 -0.000409851 0.000857876
201 2 -0.617968 15.2703 15.4669 11.5316 -0.00281522 -0.00163853 -0.00771001
202 2 -0.614039 10.832 6.35112 3.11113 -0.00837137 -0.00215134 -0.003039
203 2 -0.663119 12.0943 15.6846 15.6109 -0.00497906 -0.00130185 -0.000430682
204 2 -0.630521 2.36028 7.63544 9.07636 0.00485501 -0.0019884 -0.00130588
205 3 0.424897 1.61975 13.979 2.54136 -0.00994427 -0.0245541 -0.0176309
206 3 0.476142 14.8364 13.3278 4.40624 0.0124873 -0.0256907 -0.00938772
207 3 0.386121 4.6597 5.04364 13.242 -0.00321381 -0.00978347 -0.0169165
208 3 0.444104 5.06776 5.90836 12.0189 0.00614212 0.0344877 -0.00126784
209 3 0.42135 6.3863 7.26177 14.8168 -0.0244211 0.0100998 0.0373077
210 3 0.401023 7.58305 6.54783 14.2994 0.0134891 -0.0167344 0.00618254
211 3 0.422795 7.42017 13.8119 14.3996 -0.0206059 -0.00585929 0.00250526
212 3 0.44441 6.56867 14.3734 13.2678 -0.0371229 -0.00876476 -0.0142381
213 3 0.413631 14.6686 5.60795 8.29029 0.0166512 -0.00560497 0.0184936
214 3 0.397632 1.36773 4.39705 7.84154 0.00682704 -0.0217848 0.0283538
215 3 0.374989 8.59083 2.09458 4.05766 0.0058099 0.027858 0.0178488
216 3 0.407591 8.77818 2.04036 5.46887 0.00999073 0.0199959 -0.0169682
217 3 0.400087 4.85142 8.88372 2.46784 -0.00474431 0.0151267 -0.0170105
218 3 0.428251 4.06068 8.5645 15.2714 0.00779551 0.015747 0.0172796
219 3 0.402839 10.9041 13.559 3.08665 0.0216796 0.020938 0.00565133
220 3 0.41439 9.95608 14.2672 4.17052 -0.0204158 -0.0125153 -0.00404851
221 3 0.410678 1.77636 14.8794 11.9259 -0.0153543 0.00162751 0.00206322
222 3 0.398501 1.43782 1.63572 10.6044 -0.0141419 -0.00482176 -0.022955
223 3 0.393052 10.9161 7.32481 3.03358 0.0079954 0.0264296 0.0241634
224 3 0.395978 10.6033 6.35435 4.0406 -0.0176794 0.0106768 -0.0109913
225 3 0.414172 12.1949 15.4801 14.6474 -0.0173202 0.0441839 -0.00863499
226 3 0.426768 12.5942 2.38091 1.52949 -0.0158917 0.00435517 -0.0178322
227 3 0.463034 2.23452 7.20409 8.22197 0.00997465 -0.0189432 0.0264722
228 3 0.430436 2.76227 8.45809 6.07464 -0.0110811 -0.0122954 0.0289838
ITEM: TIMESTEP
3000
ITEM: NUMBER OF ATOMS
228
ITEM: BOX BOUNDS pp pp pp
1.5087446494533792e+00 1.5651255350546602e+01
1.5087446494533792e+00 1.5651255350546602e+01
1.5087446494533792e+00 1.5651255350546602e+01
ITEM: ATOMS id type q x y z vx vy vz
1 1 1.67 15.6083 1.58118 15.4233 0.00472271 0.00411613 -0.000763964
2 1 1.93533 3.32565 3.2417 3.04843 0.00133455 0.00084195 0.000766304
3 1 1.73555 1.43754 4.73558 4.77276 -0.00367339 0.00593082 -0.000593428
4 1 1.66303 3.55252 6.34864 6.24428 -0.00378176 -0.000268854 -0.00373805
5 1 1.81012 5.02438 1.62252 4.95355 0.00220818 0.00120132 0.0038382
6 1 1.76685 6.90925 3.34799 6.72804 -0.00296067 -0.00242758 0.00193209
7 1 1.7827 5.04353 5.09776 15.583 -0.00124934 0.00441972 0.00130054
8 1 1.84236 6.80747 6.83498 3.17866 0.000665457 0.000779829 0.00237571
9 1 1.6682 1.59497 1.59114 8.48042 -0.00552099 -0.00208087 0.00215681
10 1 1.7549 3.31872 3.41548 10.2386 0.00383321 0.00318559 -0.003271
11 1 1.8381 1.46159 5.15068 11.9338 0.00345151 0.00250298 0.00231157
12 1 1.80282 3.14722 6.78932 13.8097 -0.00207361 -3.7493e-05 -0.00284373
13 1 1.74193 4.79068 1.58407 12.226 -0.00163515 0.00120583 0.00131599
14 1 1.65063 6.78323 3.21455 13.8746 -0.000796326 -0.00112266 0.00154215
15 1 1.85793 5.14586 5.05828 8.48893 -0.00352552 0.00125904 -0.000452238
16 1 1.8244 6.86305 6.86536 10.2222 0.0019365 0.00444306 -0.00619803
17 1 1.72711 15.6494 8.57143 1.54829 0.000313206 -0.0062322 -0.00120416
18 1 1.7569 3.30287 10.2095 3.4121 -0.00546967 -0.000485574 0.00276126
19 1 1.62588 1.89276 11.794 5.60323 -0.00126217 -0.00687781 -0.0057792
20 1 1.82426 3.4756 14.0235 6.85527 -0.000646219 0.00254915 -0.00270499
21 1 1.70613 5.30749 8.59206 5.14485 -0.00263134 -0.00205942 -0.000354939
22 1 1.87288 6.83598 10.5225 6.96564 -0.000457909 -0.00417015 -0.00340708
23 1 1.76409 5.0365 11.8604 15.6347 -0.00968528 0.00229949 0.00383246
24 1 1.81166 6.65475 13.7736 3.25369 0.00195553 0.000346779 -0.0069179
25 1 1.58971 15.4202 8.66923 9.13034 0.00236794 -1.37777e-05 0.00168252
26 1 1.76654 3.29972 10.482 10.3774 -0.0016277 -0.00215718 0.00468589
27 1 1.73817 15.5283 12.0309 12.1739 0.00169022 0.00296368 0.00419991
28 1 1.70477 3.22748 13.7111 13.9415 0.00157363 -0.00208962 0.00267944
29 1 1.88469 5.00631 8.53175 11.9686 0.00273998 0.000214934 -0.00180523
30 1 1.75277 6.82142 10.3218 13.6672 -0.00218903 0.00333735 6.86066e-05
31 1 1.9491 5.05622 12.2568 8.69266 -0.00267065 -0.00156705 -0.00272806
32 1 1.67115 6.67521 14.1149 10.3375 0.00585635 -0.00244957 -0.0017308
33 1 1.63407 8.49024 15.538 15.6379 -0.00583348 -0.0025267 0.00294863
34 1 1.77133 10.3268 3.233 3.23617 0.00344074 -0.00751218 -0.00181912
35 1 1.7899 8.61106 5.10645 4.89304 0.00370818 -0.00214318 0.00191833
36 1 1.69612 10.394 6.91272 6.74913 -0.00124224 -0.000333754 0.000909028
37 1 1.70546 11.9901 15.5114 5.11325 0.0018387 -0.00320321 0.00224714
38 1 1.65064 13.842 3.19065 6.72842 0.00533392 -0.000532962 -0.004579
39 1 1.73747 12.1372 4.94891 15.616 -0.000701331 0.00458384 0.000637652
40 1 1.81451 13.9266 6.73494 3.33717 -0.00200935 0.00141124 -0.0042968
41 1 1.84022 8.53778 1.61791 8.60737 -0.000589129 -0.000574316 0.00435011
42 1 1.83018 10.3297 3.40072 10.3177 0.000480732 0.00357499 0.00281463
43 1 1.71383 8.51995 5.06845 12.072 -0.000456157 -0.00430432 -0.00172173
44 1 1.77366 10.2349 6.76388 14.0058 0.00134736 -0.00346862 0.00295038
45 1 1.83593 11.9598 1.50842 11.9864 0.00166957 0.0048306 0.0043656
46 1 1.76496 13.8424 3.38219 13.6772 -0.00418328 -0.000512444 0.000924807
47 1 1.70319 12.0333 4.99109 8.45136 0.000143971 -0.00819112 -0.00462233
48 1 1.74147 13.4941 6.78003 10.4912 0.000333917 0.00365545 0.00098707
49 1 1.66493 8.48136 8.68677 15.6777 0.00190419 0.00225512 -0.000196293
50 1 1.7894 10.2822 10.2481 3.3816 0.00143288 -0.000934658 0.00104994
51 1 1.76905 8.58826 12.2163 4.98081 0.00385818 -0.000185222 0.00192556
52 1 1.76228 10.2921 13.9217 7.03952 -0.000963737 0.00649628 0.00207218
53 1 1.80485 12.2621 8.65954 5.15115 -0.000156558 0.00117433 -0.000324841
54 1 1.74829 13.9969 10.1932 7.03663 0.00161695 -0.000441575 0.0016349
55 1 1.71418 11.8613 11.8696 15.469 0.00199099 -0.00347511 -0.00374547
56 1 1.37804 13.2859 14.2302 2.68154 -0.0016955 -0.00249618 -0.00258281
57 1 1.75698 8.6656 8.67447 8.51018 -0.00183634 0.00152396 0.00364111
58 1 1.86581 10.354 10.3701 10.2989 0.00185667 0.00301266 0.000262496
59 1 1.79032 8.47945 12.1769 11.8532 -0.00403787 -0.00276203 0.00063075
60 1 1.72309 10.2115 13.8588 13.7456 0.00156922 -0.00302878 0.00194701
61 1 1.74354 11.832 8.64765 12.2681 -0.00139514 0.000616196 0.00266666
62 1 1.78881 13.8436 10.185 13.9298 0.000892617 -0.00241337 -0.00198873
63 1 1.74718 12.21 12.0244 8.61097 0.00307044 0.00511108 -0.00188521
64 1 1.64656 13.9558 13.9644 10.3653 -0.000196368 0.00337193 0.00073877
65 2 -0.885045 2.62425 2.33278 2.04074 0.00714365 0.00169955 -0.000641122
66 2 -0.880551 2.22164 14.7362 14.4822 -0.00324449 -0.00163949 0.0036076
67 2 -0.873861 14.8077 2.44233 14.3917 -0.00480127 0.00241713 -0.00506328
68 2 -0.871321 14.553 15.0704 2.23373 -0.00315538 5.34395e-05 0.00432174
69 2 -0.916489 2.11826 3.96068 3.58464 0.00356283 0.00153082 0.0018234
70 2 -0.948236 4.00297 2.46041 4.15041 0.00104067 -0.00259913 -0.00357359
71 2 -0.952229 4.34391 4.01004 2.2654 0.00151359 0.00384863 -0.00659169
72 2 -0.843743 2.73033 5.20959 5.53238 0.00130776 0.00341153 -0.00299394
73 2 -0.847893 14.9069 3.71836 5.71202 -0.000363348 0.000160439 0.0059412
74 2 -0.950031 14.6343 5.86846 4.31981 0.0037918 -0.0039827 -0.000982483
75 2 -0.893803 4.26578 5.91675 7.52278 0.00013719 -0.00546171 -0.00244082
76 2 -0.824696 4.6601 7.23563 5.54382 -0.00229938 -0.00285747 0.00904914
77 2 -0.790109 2.49254 7.43905 6.35619 0.00141373 -0.00595476 0.000701863
78 2 -0.864299 5.98364 2.63088 5.66257 -0.00670787 0.00438051 -0.00359388
79 2 -0.932305 4.43898 14.8867 6.06275 -0.00113885 -0.00267826 -0.000119147
80 2 -0.912197 5.73686 14.8349 3.91637 0.000165044 -0.00174415 0.00319695
81 2 -0.909089 5.8991 3.98761 7.73859 -0.00175656 -0.00386338 -0.00328872
82 2 -0.906764 7.75268 4.42812 6.00268 0.00544079 -0.00043871 0.00144383
83 2 -0.923569 7.84651 2.34722 7.37541 0.00467619 -0.00698672 -0.00218232
84 2 -0.935036 5.77957 5.91998 2.52857 -0.000678799 -0.00501853 0.00338069
85 2 -0.937194 3.94928 5.8868 14.7922 0.00310566 -6.5387e-06 -0.00220651
86 2 -0.901506 6.08688 4.37617 14.6791 0.00233673 -0.000967971 -0.00396286
87 2 -0.88126 6.30961 7.9383 4.19821 0.00227845 0.00306266 0.00157502
88 2 -0.954661 7.81003 6.02 3.94542 -0.00324081 -0.00490696 0.000692498
89 2 -0.964293 7.51493 7.65031 2.10282 -0.00915021 0.0126758 0.00155527
90 2 -0.906298 2.62836 2.51531 9.19244 0.000841072 0.0080139 0.000360779
91 2 -0.869857 2.37867 14.9168 7.37456 0.00438555 -0.00288388 0.0062085
92 2 -0.894565 14.6684 2.56388 7.87258 -0.00404229 -0.00812949 0.00140512
93 2 -0.775346 14.9991 14.6164 9.34414 0.0101475 0.000355518 -0.000919877
94 2 -0.934205 2.1506 4.07158 11.0893 -0.00783412 0.00122949 -0.00934154
95 2 -0.916699 3.9284 2.3884 11.254 -0.00165461 0.00247821 0.000796152
96 2 -0.942888 4.25129 4.36659 9.50491 0.00135395 0.00396937 -0.000878497
97 2 -0.965982 2.39373 6.05001 12.7212 -0.00222714 -0.00472318 -0.000206642
98 2 -0.919514 14.7694 4.35655 12.9682 0.000904367 0.00368391 -0.00269255
99 2 -0.953132 14.4878 5.82473 11.0788 -0.00158142 -0.00167024 0.00294048
100 2 -0.948636 2.27661 7.77943 14.5521 0.00198294 0.00336461 -0.00412803
101 2 -0.869795 4.2332 7.69725 13.0513 -0.00179146 0.00346215 0.00472823
102 2 -0.905408 5.52647 2.60791 13.1329 -0.00109495 -0.00239428 -0.00364172
103 2 -0.893373 4.01203 14.5717 12.8789 -0.00181111 -0.00181696 -0.00626439
104 2 -0.86376 5.92102 15.0502 11.3706 0.00592467 -0.00166353 -0.00283035
105 2 -0.904827 7.49595 2.2547 14.8447 0.00295829 -0.000160917 -0.0031706
106 2 -0.862799 7.78464 3.97047 12.9048 0.00566902 -0.00185071 0.00114047
107 2 -0.883776 6.20755 5.9846 9.12904 -0.00341488 -0.000730192 -0.00226481
108 2 -0.960854 5.8128 7.69417 10.9767 -0.00663145 0.000307228 0.00342299
109 2 -0.928543 7.48013 5.81203 11.1545 -0.00317137 -0.00337892 0.000849993
110 2 -0.898949 7.91106 7.75403 9.52644 -0.000788398 0.00111895 -0.00881524
111 2 -0.945731 2.50743 9.3941 2.34425 0.00351148 0.00102899 0.00209834
112 2 -0.889682 14.9027 7.63543 2.57823 -0.000684051 -0.000578721 -0.000821108
113 2 -0.879011 14.5339 9.49918 15.0922 -0.00793925 -0.0033142 -0.00415838
114 2 -0.910839 2.41317 11.0929 4.29881 -2.36755e-05 -0.000201703 0.00350947
115 2 -0.923159 4.18939 9.26711 4.21617 0.0044313 0.0022387 0.000337308
116 2 -0.887727 4.34649 10.9992 2.56687 -0.00334874 0.00311711 -0.000465085
117 2 -0.882409 2.93853 12.7312 6.05865 -0.00282124 -0.000828348 -0.000909529
118 2 -0.880107 15.3533 10.8799 6.6342 0.00351879 0.000845541 -0.00282485
119 2 -0.648063 14.8651 12.862 5.31519 0.00323091 0.00902868 0.00359979
120 2 -0.943508 4.25646 13.3257 7.98219 -0.00776982 -0.00331937 0.00184603
121 2 -0.917053 5.88637 9.54329 6.22302 -0.00436883 -7.58578e-05 -0.00220236
122 2 -0.984405 6.06859 11.4927 7.81334 -0.00283978 -0.000745568 0.00197606
123 2 -0.8275 7.72582 11.2153 5.86694 -0.00260879 -0.00680101 -0.00157789
124 2 -0.928864 7.73449 9.70369 7.85824 -0.00262647 -0.00489957 -0.00193323
125 2 -0.874006 6.03386 12.6374 2.36507 -0.00165208 0.000289045 0.00441564
126 2 -0.892234 3.94861 12.8574 15.0524 0.000479186 0.000271278 0.00508776
127 2 -0.88899 5.75483 10.9517 14.6297 0.00518808 0.00679307 -0.00878188
128 2 -0.912836 7.59496 14.5715 2.35548 -0.000608909 0.00532412 0.00641
129 2 -0.926979 7.50227 13.0114 4.26116 0.00352266 0.00597223 0.00235686
130 2 -0.863122 2.06192 9.82609 9.75904 -0.00511096 0.00340747 -0.0037977
131 2 -0.831114 14.2736 8.06152 10.0164 -0.00394104 -0.00232193 -0.00396525
132 2 -0.862854 14.7163 8.98699 7.79364 -0.000954757 0.00202486 0.00561956
133 2 -0.835605 2.60613 11.5325 11.3687 -0.00172797 0.00496985 0.00477203
134 2 -0.944593 4.07008 9.39498 11.2072 -0.00079688 0.00208932 0.00443614
135 2 -0.941122 4.11012 11.2393 9.31613 0.00133718 0.00281173 0.00108114
136 2 -0.868684 2.14909 12.9249 13.1665 0.00185696 0.00199943 -0.00288398
137 2 -0.892391 14.793 10.8036 12.952 0.00504506 0.00124406 -0.000418451
138 2 -0.888688 14.6314 12.9521 11.3879 -0.00475219 -0.00271577 -0.00248353
139 2 -0.958065 6.02934 9.36853 12.7588 0.00132763 0.00142507 0.00135508
140 2 -0.916537 7.82761 9.64218 14.5599 0.000356835 0.00158311 0.000822541
141 2 -0.884921 7.49929 11.495 12.7973 -5.36192e-05 0.00024725 -0.0017712
142 2 -0.933921 5.7444 12.9828 9.78733 -0.00253337 -0.00152971 -0.000655924
143 2 -0.880099 7.3584 15.0686 9.25624 -0.0019075 -0.00211849 -0.00189384
144 2 -0.915449 7.7647 13.3375 11.1603 0.00123454 -0.00100482 0.000988219
145 2 -0.939597 9.47574 2.19897 2.46662 -0.000248192 -0.00451445 0.0036132
146 2 -0.93345 9.14929 14.6842 14.4867 -0.00469925 -0.0042508 0.00152871
147 2 -0.975301 9.31405 3.99938 4.08896 0.00022987 0.00495697 -0.00225077
148 2 -0.892135 11.209 2.47595 4.30048 -0.000683229 0.0010954 0.00354785
149 2 -0.964951 11.2821 3.90871 2.28507 0.00810065 0.000188242 0.000752194
150 2 -0.853518 9.66971 5.99944 5.61782 0.00388065 -0.00458498 -0.00109597
151 2 -0.842602 10.9281 5.9088 7.80835 -0.00421313 -0.000547101 0.00295452
152 2 -0.929092 11.5208 7.75119 6.12438 -0.00087251 -0.00318814 0.00120137
153 2 -0.845963 9.28147 7.77542 7.34385 0.00845795 -0.00281116 -0.0080328
154 2 -0.845941 13.0685 2.08112 5.95839 0.000386571 -0.00896509 -0.00124797
155 2 -0.958379 10.9938 14.8511 6.05838 0.0050647 0.00421735 0.00515045
156 2 -0.85953 12.6456 14.5552 4.05531 0.0001136 -0.0050337 0.00257748
157 2 -0.877964 12.8881 4.3663 7.30835 -0.00319981 0.00652619 -0.0016611
158 2 -0.857143 13.043 5.96122 2.27656 0.00225214 -0.00111748 -0.000200453
159 2 -0.912311 11.2979 5.79066 14.6639 0.000492089 0.000410307 -0.000254625
160 2 -0.921436 13.1635 4.00029 14.907 -0.00151864 -0.00117736 0.00579188
161 2 -0.869498 13.0078 7.61242 4.24601 -0.00828447 0.00370028 0.00147151
162 2 -0.93755 9.26371 2.64375 9.45645 -0.00312615 0.00254067 -0.00362913
163 2 -0.949972 9.49767 14.719 8.08704 -0.00368986 0.00412212 0.00158792
164 2 -0.895984 9.6068 4.49729 11.1462 0.00175458 0.000355975 -0.00236433
165 2 -0.965302 10.9951 2.41406 11.297 -0.00118679 -0.00062886 0.0058451
166 2 -0.941532 11.3922 3.98535 9.39188 -0.00265594 -0.00194305 0.00099701
167 2 -0.908728 9.23401 5.8842 13.2306 -0.000552174 0.000866152 -0.00508568
168 2 -0.890684 9.48926 7.61803 14.995 0.00180011 0.00686762 -0.00417192
169 2 -0.859985 10.7411 7.91474 13.1513 0.00435608 -0.000493197 0.00452247
170 2 -0.953823 12.9582 2.38249 12.8613 -0.00374447 0.000251918 0.00154625
171 2 -0.941445 11.3285 14.7264 12.9827 -0.0036359 0.00424434 0.00148896
172 2 -0.861916 12.743 14.8403 10.9452 0.00651767 -0.0037513 -0.000209515
173 2 -0.902685 12.9342 5.96798 9.31104 0.00331973 0.00187591 -0.00371572
174 2 -0.865589 12.3908 7.53618 11.3186 -0.00344465 -0.00536409 -0.00125354
175 2 -0.906847 9.17658 9.39534 2.69538 -0.00135869 -0.00584706 -0.00197588
176 2 -0.878618 9.53888 11.2036 4.31443 -0.00238817 0.0036385 -0.000103768
177 2 -0.91345 11.1204 9.27637 4.32189 0.00164773 -0.0014514 -0.00139314
178 2 -0.921473 11.1348 10.8908 2.27894 0.00340803 0.00281871 0.00319993
179 2 -0.812634 9.34357 12.9925 6.17062 0.00324922 -0.00531011 0.000971309
180 2 -0.840099 11.2644 12.8625 7.66207 0.000384981 0.00114528 -0.00146713
181 2 -0.938194 13.2262 9.61066 5.8273 -0.000514007 0.00767548 -0.000216285
182 2 -0.94192 13.0305 10.9047 7.91839 0.00319682 -0.00122199 0.00275855
183 2 -0.814536 12.4417 13.003 2.19516 -0.00044885 -0.00311584 -0.00540468
184 2 -0.819167 10.8595 12.6935 14.5524 0.00356554 -0.00186472 0.00379437
185 2 -0.878037 12.9829 11.3286 14.5224 -0.00287853 -0.00240517 -0.00432515
186 2 -0.924861 9.84705 9.39948 9.24474 0.0063639 0.00104812 0.000230353
187 2 -0.914619 9.21814 11.1418 10.9797 0.00309915 -0.00248299 0.0069775
188 2 -0.93343 11.0855 9.7046 11.4641 0.000604397 0.00105564 0.000206055
189 2 -0.894063 11.2002 11.4543 9.63324 6.17847e-05 0.00313587 -0.0021252
190 2 -0.845453 9.55201 12.9285 12.716 0.0030123 0.00271261 -0.00620926
191 2 -0.884763 12.9385 9.0734 13.2576 0.00275053 -0.000279089 0.000188388
192 2 -0.79547 13.1554 13.021 9.34266 0.00582165 -0.00154788 0.00246484
193 2 -0.55037 14.6414 12.7922 2.77585 -0.00261329 0.000260199 0.00290905
194 2 -0.599865 5.04135 5.10435 12.1379 -0.00490943 0.000864143 -0.000937737
195 2 -0.630407 6.76535 7.01245 13.6738 0.0070009 0.00163458 -0.00333353
196 2 -0.605571 6.55315 13.9372 13.8028 0.00814765 -0.00220031 -0.0011951
197 2 -0.648366 15.5478 5.09116 8.27157 0.00344603 -0.0094851 -0.0051231
198 2 -0.627516 8.57211 15.5572 4.9401 -0.000811445 0.000302675 -0.00341247
199 2 -0.617492 4.87516 8.39347 1.51156 0.00255706 -0.000919435 0.000888457
200 2 -0.633603 9.89672 13.486 3.46829 0.00162854 -0.00863007 0.0012989
201 2 -0.633952 15.4145 15.3541 11.5242 0.00115556 0.00341917 0.00143665
202 2 -0.591733 10.4555 6.73761 3.36128 -0.00414452 0.000664367 0.000319628
203 2 -0.682436 12.0706 15.5323 15.4326 0.000694258 0.00433741 0.00490778
204 2 -0.716972 2.40875 7.64177 8.99955 -0.00551375 0.00129186 -0.00400139
205 3 0.385656 15.475 13.3253 2.64059 -0.00286294 -0.00515482 -0.00206468
206 3 0.432072 14.6308 12.8041 4.30067 -0.00361957 -0.0115639 0.0119834
207 3 0.42308 5.10806 4.57033 12.9383 -0.00379341 0.00459577 0.00185748
208 3 0.446972 5.75658 5.6965 12.1582 -0.021266 0.00942092 -0.0327469
209 3 0.422316 6.61687 7.93519 14.0241 -0.00845385 -0.00221664 -0.00397144
210 3 0.424979 7.49964 6.64973 14.1782 -0.00765922 0.0115276 -0.00497991
211 3 0.440358 7.22408 14.4049 14.2442 -0.00190928 0.000224071 0.0364988
212 3 0.41884 6.81237 13.9887 12.8598 -0.0124544 -0.00745038 -0.0116334
213 3 0.407394 14.5896 5.04641 8.50012 0.00974837 0.0312075 -0.00695754
214 3 0.433799 1.69568 4.20116 8.35034 0.0310019 0.00980218 0.00251936
215 3 0.403165 8.43752 2.14445 4.29299 0.0296419 -0.00290959 0.00788527
216 3 0.425613 9.0341 15.9439 5.67902 0.000958722 -0.00196408 0.0145546
217 3 0.414543 4.96615 8.67969 2.43157 -0.010274 -0.00462255 0.0103521
218 3 0.42766 3.96214 8.45933 15.4337 -0.0176477 0.00035582 -0.0124956
219 3 0.417261 10.8098 13.8462 3.39932 0.000190313 0.00152484 0.00497852
220 3 0.409899 9.37273 14.3158 3.52035 -0.0188437 -0.0015237 0.00870828
221 3 0.437021 1.35382 14.8894 12.3626 0.0100594 8.76927e-05 0.00664045
222 3 0.419601 1.96693 1.96472 11.6214 -0.0119701 0.00477566 0.0107073
223 3 0.431267 10.631 7.10985 4.24279 -0.016915 0.00448946 -0.0261447
224 3 0.430886 9.76195 7.24877 2.95137 0.00453288 0.0273566 -0.00822962
225 3 0.41185 12.4138 15.5198 14.4694 0.0245684 0.00659454 0.0263349
226 3 0.425645 12.2664 2.31231 15.7382 0.00051901 0.0211902 -0.00389042
227 3 0.448913 2.10307 6.93005 8.45494 -0.00773631 0.0184368 0.00252512
228 3 0.483876 2.12328 8.28102 6.51737 0.000857557 0.00801224 -0.0040693
ITEM: TIMESTEP
4000
ITEM: NUMBER OF ATOMS
228
ITEM: BOX BOUNDS pp pp pp
1.5090192140636312e+00 1.5650980785936284e+01
1.5090192140636312e+00 1.5650980785936284e+01
1.5090192140636312e+00 1.5650980785936284e+01
ITEM: ATOMS id type q x y z vx vy vz
1 1 1.67599 15.6506 1.77587 15.4431 0.00923928 0.00107216 -0.00141319
2 1 1.84198 3.44075 3.22394 3.14349 -0.00257226 -0.000368243 -0.00231989
3 1 1.74811 15.6908 4.78947 4.89499 0.00776355 0.000667544 0.000567264
4 1 1.77451 3.50814 6.75968 6.17819 0.00158865 0.00420879 0.00394447
5 1 1.87787 5.11774 15.5598 4.90286 0.000810405 -0.00120336 0.00280263
6 1 1.77477 6.6577 3.3109 6.67613 -0.00246758 0.00405306 0.0026741
7 1 1.79427 4.9124 5.24886 1.47076 -0.0058101 -0.000538679 0.000265893
8 1 1.81143 6.93896 6.86305 3.14931 0.00720969 0.00134732 0.000976953
9 1 1.78757 1.53191 1.50885 8.38779 0.000134986 0.00220273 -0.00316262
10 1 1.82853 3.20952 3.42485 10.1369 0.000294894 0.00319133 0.00142298
11 1 1.84155 15.564 5.10874 11.9302 -0.00526977 0.0026046 0.00544305
12 1 1.79153 3.05996 6.87026 13.7839 0.00158359 -0.00208672 -0.00272336
13 1 1.72192 4.94219 1.77416 11.9997 -0.00066087 -0.00195602 8.04847e-05
14 1 1.77379 6.67858 3.33437 13.9763 0.0041346 -0.00102892 0.000820939
15 1 1.82021 4.96296 5.18065 8.37362 0.00262377 -8.59408e-05 0.00919136
16 1 1.74796 6.81045 6.80247 10.181 -0.00083295 -0.00402345 -0.0012375
17 1 1.71173 15.5917 8.67995 15.661 0.00392793 -0.00407634 0.00229276
18 1 1.7264 3.24253 10.4525 3.30651 0.0037403 -0.00184489 -0.00379218
19 1 1.69589 1.79489 11.6558 5.68419 0.001107 0.00245417 -0.001643
20 1 1.8482 3.44881 13.8595 6.8026 0.00182661 0.00278141 -0.00803234
21 1 1.7719 5.30312 8.76137 4.81156 -0.00197019 0.00483615 -0.00198809
22 1 1.76078 6.80363 10.4701 6.78211 -9.82491e-05 0.00600017 0.00167766
23 1 1.83939 5.04753 12.1757 1.58546 0.00195915 -0.00191808 -0.0016454
24 1 1.71083 7.0061 13.8172 3.1955 -0.00382089 0.000133342 -0.00578397
25 1 1.59028 15.3949 8.58495 9.41479 0.000584457 0.00465267 0.00118781
26 1 1.74011 3.27908 10.4308 10.506 0.00367161 -0.00165889 0.00194775
27 1 1.66314 1.63654 12.1383 12.3247 0.00673235 0.00058569 0.00165584
28 1 1.65248 3.44853 14.0464 13.9491 -0.00421257 -0.00118431 0.000226864
29 1 1.79804 5.06609 8.48507 12.0563 0.00402163 -0.0020123 -0.00211486
30 1 1.73686 6.66053 10.4499 13.8442 0.00336467 -0.00419102 0.000236064
31 1 1.86134 4.92671 12.0125 8.65623 -0.00145622 0.00280115 -0.00127725
32 1 1.72224 6.59203 13.8802 10.302 -0.000456253 0.000980677 0.00164522
33 1 1.74313 8.62225 1.52745 15.5857 -0.00366155 0.00215146 0.00201331
34 1 1.7506 10.3805 3.22533 3.30368 -0.000132189 2.94995e-06 -0.00244938
35 1 1.70258 8.5898 5.04085 5.04654 0.00164533 -0.00415887 -0.00480382
36 1 1.78535 10.3223 6.85612 6.78411 -0.00359799 0.00299155 0.00014535
37 1 1.72856 12.0883 15.5159 4.98666 0.00483649 -0.0019355 0.00403014
38 1 1.63363 13.729 3.27675 6.71089 0.000704104 0.00825845 -0.00121672
39 1 1.89717 12.1345 5.09251 1.6088 -0.000859834 -0.000886052 0.000192273
40 1 1.80001 13.968 6.76157 3.2843 -0.00376582 0.00238347 0.00111527
41 1 1.78027 8.36113 15.5106 8.43326 0.00116964 0.00116463 -0.00619529
42 1 1.94051 10.0582 3.0519 10.3052 -0.00241751 -0.00104702 0.00433332
43 1 1.74882 8.45863 4.90802 12.1066 0.00385345 0.00321173 -0.00015787
44 1 1.78752 10.2647 6.65417 13.8941 -0.00195929 -0.00156833 0.000303338
45 1 1.72589 11.9099 15.622 12.0873 -0.00215537 -0.00224779 0.00356646
46 1 1.71832 13.7414 3.45702 13.7193 -0.00105753 8.30332e-05 -0.00562472
47 1 1.81933 11.7525 4.78793 8.45733 -0.00457638 -1.07371e-05 0.00248957
48 1 1.82858 13.3647 6.5276 10.3819 0.000169294 -0.00214884 -0.00597279
49 1 1.72414 8.58108 8.6577 15.5106 0.00141375 -0.00769014 0.00264734
50 1 1.83154 10.5765 10.1648 3.20214 -0.0019484 -2.08485e-05 -0.00534881
51 1 1.52324 8.85034 12.0277 5.04132 -0.00179956 0.0023008 0.00208675
52 1 1.77835 10.4517 13.8017 7.01634 0.00153908 -0.00501443 -0.0016847
53 1 1.7551 12.2823 8.53935 5.14047 -0.0023839 -0.00672979 0.00128889
54 1 1.63201 13.885 10.113 7.28789 0.00170479 -0.00435008 0.00255362
55 1 1.826 11.9752 11.9315 15.3939 0.000228831 -0.000891875 0.000857074
56 1 1.40118 13.5343 14.1975 2.6554 0.000198597 -0.00232128 0.000309224
57 1 1.84384 8.52742 8.67556 8.51779 -0.00360501 0.00140562 0.00362099
58 1 1.87285 10.2546 10.3589 10.305 -0.000758286 0.00154777 0.0054113
59 1 1.74478 8.45509 12.1438 12.0187 -0.00268261 0.00327363 0.00242348
60 1 1.86932 10.2601 13.8055 13.8051 -0.000914139 -0.00366971 -0.00140504
61 1 1.73459 11.8552 8.51137 12.0776 -0.00149893 -0.00285692 -0.000829037
62 1 1.82706 13.8402 10.2744 13.7773 0.000134706 0.00294256 -0.00111309
63 1 1.80588 12.22 12.1168 8.87923 0.00146292 0.00374269 -0.00374267
64 1 1.60935 14.1338 14.06 10.4633 -0.00122189 0.00396312 0.00131464
65 2 -0.868021 2.43675 2.77686 2.05992 0.00315991 -0.000168817 -0.000242504
66 2 -0.891525 2.33203 14.7953 14.7207 -0.00363113 -0.00261644 0.00574737
67 2 -0.915617 14.6116 2.48633 14.5231 -0.00330606 -0.00392145 0.00414824
68 2 -0.853656 14.6486 15.2103 2.23903 -0.00444824 0.000500534 0.00234711
69 2 -0.875988 2.44276 3.77887 4.17326 0.00806523 0.00328069 -0.00181603
70 2 -0.930525 4.21804 2.11301 3.87849 -0.000514413 0.00317822 0.000104262
71 2 -0.904928 4.12593 4.38291 2.46586 -0.00112845 0.00674407 0.000420759
72 2 -0.885453 2.71099 5.77556 5.34288 0.00660156 -0.00499698 -0.00147518
73 2 -0.904354 14.7273 4.29095 5.96871 0.00295638 0.00915669 0.00917457
74 2 -0.860373 14.793 5.64555 3.89718 0.00131285 -0.00396369 -0.000229638
75 2 -0.928717 4.11311 6.05607 7.43163 0.00291081 -0.00151037 -0.00143077
76 2 -0.902563 4.58662 7.58267 5.54078 0.00536823 -0.00495069 0.00597087
77 2 -0.763697 2.51151 7.91512 6.42325 0.00300558 -0.00583617 -0.0041659
78 2 -0.952277 5.82046 2.55286 5.63749 -0.00615793 -0.00211708 -0.000639098
79 2 -0.94995 4.43026 14.6516 5.92468 -0.00469356 0.00364273 -0.0022343
80 2 -0.863479 5.96213 14.8022 3.88419 -0.00191904 -0.000612201 -0.00227973
81 2 -0.902196 5.79042 4.108 7.706 -0.00239074 0.00146919 -0.00314817
82 2 -0.912113 7.69084 4.22176 5.96548 0.00763755 -0.000763745 -0.00328454
83 2 -0.919355 7.58495 2.28847 7.43241 0.00136701 -0.00669531 0.00154463
84 2 -0.918563 5.75864 6.21854 2.39664 0.000397375 -0.000605017 0.0078748
85 2 -0.915359 3.83009 5.91562 14.6957 -0.00666638 0.000404261 -0.00420338
86 2 -0.903267 5.92306 4.31158 14.9451 -0.00358446 0.000887126 -0.00148192
87 2 -0.949459 6.35031 7.97153 4.00224 -0.00558514 -0.00563866 -0.00418079
88 2 -0.858333 7.61682 5.70302 4.00021 0.000945723 -0.00160385 -0.00129963
89 2 -0.981552 7.90186 7.57742 2.27765 0.00328639 -0.00386405 -0.00576753
90 2 -0.940021 2.24267 2.66545 9.23289 -0.00244085 -0.00531219 0.00423067
91 2 -0.906059 2.63149 14.9141 7.55993 -0.00384069 0.000585155 -2.09985e-05
92 2 -0.889211 14.6985 2.29409 7.55719 0.00355121 -0.00112032 -0.000904025
93 2 -0.865427 15.0263 14.5893 9.22818 0.00303908 0.00122264 -0.000542756
94 2 -0.968958 2.37516 4.19611 11.1798 0.00360367 -0.00367291 -0.00664129
95 2 -0.931425 4.04548 2.3914 10.9016 0.0032838 -0.00701989 -0.00120111
96 2 -0.966995 4.04696 4.44276 9.32669 -0.00139302 -0.00167725 -0.00298914
97 2 -0.929041 2.01337 6.08982 12.9119 0.000192433 0.0019547 -0.00270013
98 2 -0.871325 14.8467 4.09116 12.853 -0.00574988 0.00249082 -0.00227387
99 2 -0.945209 14.3104 5.58989 11.192 0.0042987 0.00286618 0.00743087
100 2 -0.911932 2.35099 7.96276 14.6241 0.000286898 0.00142199 0.0028502
101 2 -0.924456 4.01019 7.59438 12.7891 0.00860413 0.0097429 -0.00128808
102 2 -0.921655 5.59971 2.64103 13.1229 0.00200737 0.00240083 0.00195977
103 2 -0.929834 4.01035 15.0218 12.8274 -0.0034255 0.00515527 -0.0016801
104 2 -0.914142 5.92963 15.009 11.1989 0.00599097 -0.00308372 0.0035436
105 2 -0.904942 7.39062 2.27388 14.84 0.00181336 0.0073273 -0.00164503
106 2 -0.994343 7.53884 4.01554 12.9282 -0.00262165 -0.00795044 0.00388771
107 2 -0.861493 6.14551 6.02216 9.04671 -0.00906697 0.000855902 0.00137281
108 2 -0.957978 5.70067 7.55288 11.0292 0.00251504 -0.00126713 0.00553199
109 2 -0.906007 7.57882 5.81525 11.1194 -0.00348066 0.00388755 -0.0040698
110 2 -0.889788 7.85131 7.69069 9.49595 0.00494339 0.00748729 0.0021251
111 2 -0.882439 2.41265 9.73785 2.16512 -0.00781709 0.000712972 0.0052871
112 2 -0.863158 15.0217 7.62119 2.45913 -0.00794108 -0.0010322 -0.00426352
113 2 -0.868712 14.4041 9.46327 14.9301 0.000536751 0.00505387 -0.00668768
114 2 -0.883894 2.22134 10.8829 4.44432 -0.0041089 0.0100728 0.00520997
115 2 -0.931087 4.29173 9.44737 3.86844 0.00135452 -8.20508e-05 0.00231402
116 2 -0.912074 4.08524 11.5071 2.60567 -0.000883381 0.00394688 0.00142555
117 2 -0.953161 2.79661 12.7291 5.95975 -0.00326378 -0.010599 -0.00237365
118 2 -0.843662 15.2718 10.7797 6.75818 -0.000671659 0.00338879 -0.00174476
119 2 -0.692774 14.6632 12.4987 5.32242 -0.00493085 -0.00225671 0.00435192
120 2 -0.917317 4.16862 13.1046 7.92094 -4.44816e-05 0.00312671 -0.000642402
121 2 -0.91323 5.83341 9.84985 5.79176 0.00388697 0.00414865 -0.00793022
122 2 -0.882146 5.99291 11.4825 7.68913 0.00224004 -0.00599522 0.00130603
123 2 -0.81373 7.92631 11.2536 6.0671 0.00283543 0.00434096 0.00379449
124 2 -0.904562 7.41008 9.36664 7.69433 0.00078128 0.00128668 0.00632397
125 2 -0.908806 6.18119 12.8102 2.34499 -4.60535e-05 0.0012203 -0.0039871
126 2 -0.878481 4.27499 13.3363 15.0324 0.0016781 0.0049502 0.000122005
127 2 -0.902698 5.58151 11.2231 14.6613 -0.0056319 2.79311e-05 0.00202364
128 2 -0.936489 8.04726 14.7093 2.45426 -0.00106226 -0.00302619 -0.00265379
129 2 -0.8297 7.75008 12.9661 4.26869 -0.00243406 -0.00510305 -0.00297543
130 2 -0.884313 1.9575 9.69531 10.2255 0.00342541 -0.00124079 -0.00302659
131 2 -0.902226 14.2452 7.69647 9.87709 -0.00427591 -0.0139656 0.0041665
132 2 -0.846464 14.6549 9.07839 8.15975 -0.000751216 -0.00120007 -0.00171857
133 2 -0.837743 2.85088 11.5453 11.4966 0.00249002 0.0048705 0.000315892
134 2 -0.882456 4.30219 9.56307 11.3297 -0.00799951 0.000559739 0.000491479
135 2 -0.927731 3.99666 10.931 9.23733 0.00452097 -0.000389728 0.00371997
136 2 -0.780732 2.47491 12.9 13.4008 -0.0038304 0.0035627 -0.00764214
137 2 -0.875728 15.0045 11.1008 13.1205 -0.000824021 -0.00125177 0.00081467
138 2 -0.815163 14.7777 13.1088 11.56 -0.00271635 0.000653179 -0.000358844
139 2 -0.900653 6.01411 9.25565 13.0373 -0.00189222 0.00110552 0.000628591
140 2 -0.935241 7.67269 9.57802 14.7292 0.00373994 -0.0009952 -0.000251664
141 2 -0.856166 7.33067 11.5146 13.0127 0.000655821 -0.000132537 0.00125207
142 2 -0.908545 5.62817 12.8181 9.72688 -0.000177419 0.00258437 -0.00255415
143 2 -0.880592 7.35546 14.6356 9.17216 -0.0019344 -0.00223725 -0.000813391
144 2 -0.909823 7.68095 13.0332 11.0634 0.0023796 0.00154161 0.000327222
145 2 -0.904519 9.37969 2.62022 2.25038 -0.000721172 -0.00650681 0.000691305
146 2 -0.924597 9.52283 14.9582 14.5432 -0.00897154 0.00709746 0.000642103
147 2 -0.886201 9.63071 4.06256 4.38717 -0.00369884 0.00439664 -0.00164442
148 2 -0.928734 11.1238 2.30252 4.18887 0.00060232 -0.00715208 0.00438941
149 2 -0.922277 11.5186 4.09478 2.61979 0.00297462 0.000215952 -0.00130277
150 2 -0.890709 9.31429 6.19152 5.84068 -0.00710488 0.00373098 0.00288693
151 2 -0.920911 10.805 5.64248 7.61783 0.00265676 -0.00363198 0.00496086
152 2 -0.942922 11.361 7.51886 5.89406 0.00526282 0.0013904 0.00359196
153 2 -0.918393 9.5441 7.90563 7.66866 -0.00049153 -0.00444847 -0.000265243
154 2 -0.845043 13.0847 2.28046 5.6873 -0.00426184 -0.00150609 -0.00217818
155 2 -0.92583 11.2374 14.7165 5.98747 0.00201986 -0.000325233 0.00295124
156 2 -0.855768 12.9029 14.5706 4.00953 0.00731123 -0.00135171 0.000498036
157 2 -0.931487 12.5885 3.9333 7.52371 0.00878941 0.00319034 0.00255307
158 2 -0.932399 13.0925 6.06251 2.22085 0.00276995 0.000891036 -0.00127142
159 2 -0.920945 11.0642 5.78137 14.9373 -0.00571534 -0.00121975 -0.00524635
160 2 -0.933337 12.9721 4.3213 14.708 0.0009173 -0.0039287 0.00697855
161 2 -0.913645 13.3216 7.63537 4.36822 -0.00350466 0.00250054 -0.00696343
162 2 -0.964247 9.23099 2.11714 9.49767 -0.00193105 4.16093e-05 -0.00611474
163 2 -0.949461 9.24611 14.5957 7.54181 -0.00117766 -0.000313332 -0.00172312
164 2 -0.919876 9.46305 4.1506 11.1772 -0.00277483 -0.00212231 0.00115988
165 2 -0.907455 10.7275 2.16045 11.3227 -0.00159872 -0.00388955 0.00988312
166 2 -0.932392 10.9648 3.73033 9.31155 0.000823601 0.00257824 0.000206276
167 2 -0.946318 9.2994 5.74586 13.0966 0.00220554 -0.00390685 0.00500484
168 2 -0.910162 9.4258 7.68409 14.6298 0.000390918 -0.00748323 -0.00426861
169 2 -0.871976 11.188 7.65902 13.1654 -0.000687515 -0.00191508 -0.000689456
170 2 -0.919343 12.6337 2.51205 13.0227 0.000686612 -0.000592487 -0.00401919
171 2 -0.944408 11.2845 14.5419 12.8962 -0.000121236 -0.00474808 -0.00171855
172 2 -0.821632 12.917 14.9573 11.0447 -0.00490705 0.00148203 0.000834342
173 2 -0.98395 12.7017 5.64399 9.34471 -0.00266499 0.00075706 0.00481657
174 2 -0.889781 12.362 7.32358 11.1881 -0.00227578 -0.00326837 0.00205854
175 2 -0.90724 9.6912 9.36196 2.23067 -0.0012137 -0.000832073 -0.00497005
176 2 -0.824035 9.52016 10.9233 4.00745 -0.00458043 0.0066229 -0.00264955
177 2 -0.962762 11.3602 9.26418 4.14699 0.00138442 -0.00242948 -0.00569541
178 2 -0.92725 11.5297 10.8801 2.25758 0.00168595 0.00193955 -5.80221e-05
179 2 -0.82585 9.84908 12.7248 6.12177 -0.00448662 -0.00215048 -0.000668353
180 2 -0.926445 11.3721 12.9783 7.90893 0.00223396 -0.00377129 -0.00252369
181 2 -0.872662 12.984 9.51467 6.12203 0.00406044 0.00566492 -0.00427689
182 2 -0.873195 12.9506 10.9779 8.15521 0.00339686 -0.000561735 -0.0011544
183 2 -0.793849 12.9662 12.8529 2.05142 -0.0017816 -0.000891141 -0.00168681
184 2 -0.96646 10.8887 12.7932 14.7203 -0.00433298 0.000207097 0.00169477
185 2 -0.914145 12.8773 11.2879 14.3342 0.00715108 0.00086677 0.0070495
186 2 -0.964863 9.23617 9.71371 9.39704 -0.00870515 0.00213507 -0.000823319
187 2 -0.859845 9.48087 11.091 11.4451 0.000871929 -0.00225092 0.00339456
188 2 -0.907308 10.8694 9.29083 11.1809 -0.00028169 -0.00170768 -0.00485848
189 2 -0.965481 11.2952 11.3368 9.75587 0.00414187 -0.00437821 -0.00473557
190 2 -0.912714 9.28916 13.0392 12.9021 0.00214687 0.0055921 0.00971955
191 2 -0.867301 12.983 9.41931 12.809 -0.0018096 0.00401429 0.00191366
192 2 -0.787063 13.3385 12.9542 9.66731 0.00134164 0.0074096 -0.00222835
193 2 -0.533325 15.0853 12.9745 2.77541 0.00329453 0.00257668 0.0023273
194 2 -0.586145 5.05793 5.10535 12.0079 0.00499917 -0.00192543 -0.00264821
195 2 -0.657579 6.67215 6.89185 13.8652 -0.00582707 0.00708414 0.00335678
196 2 -0.568922 6.65462 14.1334 13.6185 -0.00583838 0.000403631 -0.00338438
197 2 -0.672861 15.2958 5.31364 8.34446 0.0026739 0.0069977 -0.00188549
198 2 -0.618696 8.40834 1.60047 4.99799 0.00317872 -0.00226566 -0.000362256
199 2 -0.631167 4.90187 8.56867 15.5556 -0.00291632 -0.00578361 0.00143808
200 2 -0.645989 10.2064 13.2347 3.65244 -0.00159805 -0.0057911 0.0038275
201 2 -0.6321 15.5261 15.493 11.7245 -0.00223635 -0.00237289 0.00363979
202 2 -0.605992 10.519 6.76289 3.26197 0.00122323 0.000777507 0.00164241
203 2 -0.660773 12.2342 15.4633 1.4045 0.0046065 -0.00156482 -0.00502499
204 2 -0.67748 2.53539 7.54215 9.25176 -2.44468e-05 0.00134899 -0.00371599
205 3 0.434364 1.528 13.3774 2.14162 0.022173 0.00179108 -0.00729917
206 3 0.465695 14.6884 13.0607 4.53371 -0.0295386 -0.0149819 0.000916162
207 3 0.410242 6.03572 5.21175 12.1748 -0.00825319 0.017075 -0.0237922
208 3 0.424092 4.71476 5.9783 11.7629 0.00604225 0.000770435 -0.0156436
209 3 0.423121 6.71803 7.81047 14.2536 -0.0207507 -0.0285723 -0.0214806
210 3 0.412194 7.52208 6.58792 13.9004 -0.0166333 -0.00744833 0.0139906
211 3 0.405122 6.40741 15.0018 13.9332 0.0145443 0.0116753 0.0105178
212 3 0.395939 6.95529 14.296 12.6783 -0.0168282 -0.00329423 -0.00309251
213 3 0.394795 14.4047 5.19105 8.02144 0.0321625 -0.0189833 0.0174214
214 3 0.409753 1.39801 4.42561 8.58253 0.0202043 0.00692475 -0.0186192
215 3 0.427336 8.58217 2.54206 5.10687 -0.00526625 -0.0077555 -0.00661919
216 3 0.43137 8.35106 15.3916 5.88974 0.0321898 0.0139249 -0.0377896
217 3 0.425398 5.03397 8.15646 2.24524 -0.00735637 -0.0140379 0.0156842
218 3 0.439469 3.99195 8.89198 15.4999 -0.0214728 -0.00258247 0.00820567
219 3 0.403416 10.8088 13.6344 4.30402 0.00596827 -0.00519404 0.00583119
220 3 0.415441 9.41309 13.8035 3.62548 0.00497304 0.00627008 0.0076632
221 3 0.393062 15.1974 1.70791 12.6072 0.0336712 -0.00534422 -0.0145431
222 3 0.421999 2.41075 15.5734 11.8084 0.0030055 0.0123879 -0.00598181
223 3 0.405192 10.2168 7.1213 4.14801 0.00543064 -0.00528136 -0.0231873
224 3 0.440889 10.2868 7.44115 2.72376 0.0285659 -0.0178939 -0.010002
225 3 0.388806 12.6324 15.452 14.5828 0.0114721 0.0256053 -0.0156982
226 3 0.403972 12.2464 2.29177 1.59212 -0.0158931 -0.0199244 -0.0145494
227 3 0.456327 2.33841 6.65767 8.92708 -0.00410206 -0.0113714 0.00703631
228 3 0.472397 1.82121 8.60666 6.37328 -0.00846455 0.0220165 0.00887588
ITEM: TIMESTEP
5000
ITEM: NUMBER OF ATOMS
228
ITEM: BOX BOUNDS pp pp pp
1.5114554663154376e+00 1.5648544533684493e+01
1.5114554663154376e+00 1.5648544533684493e+01
1.5114554663154376e+00 1.5648544533684493e+01
ITEM: ATOMS id type q x y z vx vy vz
1 1 1.71725 1.49379 1.72639 15.4511 -0.00321588 0.00523633 0.00246604
2 1 1.74887 3.31944 3.33852 3.11443 -0.0014215 0.00180103 0.00262799
3 1 1.7134 1.44566 4.90048 4.81516 -0.000602229 0.00226261 0.00182626
4 1 1.7552 3.51889 6.52232 6.36376 -0.00391372 -0.00340314 0.000879338
5 1 1.78864 4.9658 15.5804 4.88318 0.00161434 0.000462223 -0.000263331
6 1 1.76052 6.73971 3.16744 6.75816 0.00086904 0.000304769 -0.000645931
7 1 1.88715 5.10287 5.07264 15.6532 0.00160119 -0.00303774 0.00335108
8 1 1.74247 6.89495 6.75558 3.32578 -0.000787441 0.00184274 0.0023166
9 1 1.76463 1.49786 1.42202 8.44037 0.00120981 -0.000615774 0.00288644
10 1 1.75482 3.22753 3.27053 10.1964 -0.00380663 0.0025048 0.00281051
11 1 1.73932 15.6204 4.97321 11.9938 -6.38962e-05 0.00208978 0.00344203
12 1 1.80108 3.2933 6.66208 13.7935 -0.00649648 -0.000698414 -0.0017925
13 1 1.76715 4.8373 15.6688 12.1343 -0.00107543 -0.0048746 0.00422426
14 1 1.7135 6.72531 3.30814 13.8208 -4.2409e-05 0.00383271 0.00103473
15 1 1.82744 5.03923 5.01104 8.5019 -4.43102e-05 -0.00261167 -0.0016876
16 1 1.7547 6.75502 6.9115 10.0945 0.000350055 0.00049977 0.000705794
17 1 1.78437 15.6559 8.4789 15.5231 -0.000805714 0.0028194 -0.00551954
18 1 1.74515 3.11469 10.2696 3.32095 0.00179221 0.00503298 -0.0010588
19 1 1.70208 1.8255 11.7299 5.60063 0.00212078 0.00204699 0.00128462
20 1 1.79163 3.4482 13.8662 6.83153 -0.00405289 0.00357027 -0.000736216
21 1 1.7425 5.1695 8.67177 4.98332 0.00332634 0.00176129 -3.96619e-05
22 1 1.77351 6.84767 10.5273 6.80556 0.00200889 1.09048e-05 -0.00109693
23 1 1.89589 4.94223 11.995 1.51169 0.000284467 0.000679256 -0.00138001
24 1 1.73479 6.71793 13.8741 3.06879 0.00275165 0.00293077 -0.00443924
25 1 1.55374 15.557 8.67333 9.41287 0.000900296 0.00313206 -0.000890515
26 1 1.85442 3.45394 10.6835 10.5065 0.0016678 0.0017979 0.00841607
27 1 1.78904 15.5644 12.0439 12.1372 0.00191139 -0.00468341 0.00147622
28 1 1.70745 3.17816 13.7846 13.9319 0.00209675 -0.000464811 0.00118666
29 1 1.71655 4.96165 8.58794 12.0202 0.00811251 -0.0017593 0.000750402
30 1 1.80557 6.69792 10.3176 13.8551 0.00132866 -0.00230354 -0.0025937
31 1 1.72796 5.24791 12.3967 8.62916 0.0023927 0.000622901 -0.00672398
32 1 1.78222 6.91366 14.1772 10.4578 0.00358685 0.00247436 0.002108
33 1 1.76291 8.55379 1.6354 1.49506 -0.000327701 0.00139548 -0.000271444
34 1 1.78541 10.3647 3.24531 3.40998 -0.00138829 0.00240866 0.00260992
35 1 1.85408 8.58011 4.9798 5.13951 0.00287242 -0.000911046 0.00259238
36 1 1.7729 10.3388 6.85438 6.79339 -0.00277977 0.000804303 0.000420194
37 1 1.85686 12.0412 1.4128 5.16722 0.00280835 -0.00377296 -0.00392461
38 1 1.71331 13.8233 3.27035 6.71499 0.00265808 -0.00117888 0.00492166
39 1 1.80346 12.0285 4.94907 1.50109 -0.00334821 0.00116176 0.00288518
40 1 1.80041 13.8029 6.84025 3.21407 0.0010896 0.001457 0.00760199
41 1 1.70149 8.6513 15.6563 8.45671 0.0011615 0.00440104 -0.00227944
42 1 1.73537 10.2745 3.36235 10.1632 -0.00170245 -0.00382346 -0.000361147
43 1 1.68445 8.39613 4.98367 11.8185 0.00268139 0.00304433 -0.00403177
44 1 1.76743 10.1575 6.55537 13.8811 0.000171844 -0.00265342 -0.00363728
45 1 1.698 11.8943 15.636 12.0045 -0.00239971 0.00237575 -0.000662016
46 1 1.70018 13.6866 3.29313 13.6479 0.000833665 -0.000541751 0.000601647
47 1 1.76391 12.1003 5.0797 8.48325 0.000197174 -0.00216146 0.00597727
48 1 1.74838 13.5891 6.78041 10.5773 -0.00425516 -0.00378185 0.00387258
49 1 1.70778 8.57299 8.53727 15.5791 0.00165986 0.00165633 5.55802e-05
50 1 1.76227 10.3894 10.3429 3.21167 -0.00132702 0.00242458 0.00221352
51 1 1.58086 8.61352 12.2036 4.86501 0.0017103 -0.0042477 -0.00610979
52 1 1.80202 10.4624 13.6854 6.94919 -0.00224308 0.00339113 0.00180799
53 1 1.7086 12.1273 8.60333 5.09085 -7.08101e-05 -0.00160563 0.00191768
54 1 1.70163 14.0236 9.97837 7.11339 -0.0024467 0.00468363 -0.000469949
55 1 1.79535 12.0637 12.0272 15.4511 -0.000831787 0.00161203 0.000738096
56 1 1.44585 13.3842 14.3904 2.75489 0.00170595 -0.00436962 -0.00300686
57 1 1.85336 8.66269 8.75913 8.56588 -0.00226291 -0.00112086 -0.000870272
58 1 1.96733 10.3861 10.4331 10.3629 0.000758991 -0.00560231 -0.00179623
59 1 1.80733 8.52785 12.0592 12.0799 -0.00334173 0.00236701 -0.000765602
60 1 1.70847 10.2358 13.8733 13.8967 0.00497791 0.00264169 -0.00233682
61 1 1.81002 11.784 8.60646 12.2586 -0.0012538 -0.00589244 -0.00270902
62 1 1.84895 13.853 10.1781 13.7404 -0.000503203 0.000424721 -0.00443656
63 1 1.88774 12.3937 11.9726 8.66516 -7.76035e-05 -0.00229809 -1.26137e-05
64 1 1.74995 13.9442 13.9139 10.3993 -0.000200931 -0.000804368 -0.00475323
65 2 -0.896825 2.60141 2.53755 2.00544 -0.000576798 0.0043946 0.00570226
66 2 -0.886994 2.16949 14.6963 14.7061 0.00122313 -0.000374624 -0.00135271
67 2 -0.875228 14.8019 2.46576 14.3643 0.00127573 0.00143997 0.0033798
68 2 -0.865123 14.525 15.3971 2.29992 0.000561127 0.00279142 0.00252093
69 2 -0.847419 2.14906 4.18656 3.67924 -0.001974 0.000406306 -0.00736507
70 2 -0.854871 3.86935 2.31693 4.19433 -0.00223945 0.00704806 0.00810531
71 2 -0.905939 4.42818 4.28032 2.62634 0.00390628 -0.00063009 0.00164976
72 2 -0.829675 2.73878 5.70341 5.28908 0.00115683 -0.00780301 -0.00542136
73 2 -0.877292 14.9564 3.89989 5.77979 -0.00576928 -0.00216623 -0.00240023
74 2 -0.87318 14.4728 5.87785 4.20247 -0.00535929 0.00085763 0.000345162
75 2 -0.940033 4.25604 5.58735 7.34809 -0.00101553 -0.00585086 0.0043707
76 2 -0.873964 4.5344 7.48931 5.70798 0.00427855 0.00567275 -0.00773208
77 2 -0.835674 2.47552 7.52324 6.77546 0.000301405 -0.00121382 -0.00882216
78 2 -0.888566 5.68228 2.39088 5.91608 -0.00175534 -0.00221142 0.00223136
79 2 -0.916888 4.20118 14.5158 5.66658 0.00601416 0.00622508 0.000435621
80 2 -0.90319 5.85938 14.9286 3.8413 -0.000115842 0.00509216 0.000307749
81 2 -0.842343 6.21723 4.17647 7.88903 0.00816743 0.00055701 0.00298248
82 2 -0.947772 7.65832 3.91446 5.81632 0.00145452 -0.000250741 -0.00308974
83 2 -0.915528 7.69042 2.15343 7.41061 0.00759199 0.0100853 -0.0063182
84 2 -0.936813 5.88702 6.0383 2.36998 -0.00105219 -0.0049202 0.00124685
85 2 -0.957772 4.05394 5.78084 14.7887 0.00695529 -0.0124071 0.00566032
86 2 -0.980508 6.04495 4.0983 14.9304 0.00433536 -0.00366895 -0.00402517
87 2 -0.876222 6.14252 7.88425 4.08394 -0.000701467 -0.00344099 -0.00657989
88 2 -0.932353 7.7165 5.93288 4.31575 -0.00128286 -0.00183947 -0.00290748
89 2 -0.900395 7.84928 7.79843 2.52131 -0.00338204 0.000532136 0.00602816
90 2 -0.898229 2.47065 2.40869 9.06486 -0.00519003 -0.00929124 -0.000493113
91 2 -0.862658 2.28536 14.8319 7.37569 -0.00117531 -0.000355847 0.00472282
92 2 -0.863074 14.4958 2.23158 7.74678 0.000673199 -0.00339322 -0.00544332
93 2 -0.84522 15.046 14.5094 9.45375 -0.00441725 -0.00271838 0.00350449
94 2 -0.963019 2.23661 4.28713 10.804 -0.00102104 0.00464821 0.000841644
95 2 -0.922049 3.82192 2.39472 11.3092 -0.0065109 -0.00260376 0.00354091
96 2 -0.937223 4.26886 4.03657 9.37354 0.00585192 -0.00280563 -0.00430408
97 2 -0.898188 2.25137 5.77014 13.0905 0.00101135 -0.00412631 0.00514452
98 2 -0.899785 14.6866 3.96451 12.6483 -0.00539615 0.000799725 0.000708565
99 2 -0.888033 14.4829 5.91262 11.4503 -0.00374498 -0.0018669 -0.000956239
100 2 -0.935938 2.50669 7.70847 14.5918 0.00723174 -0.00126487 -8.28063e-05
101 2 -0.921089 4.26092 7.4275 12.8178 0.00511063 -0.000334109 0.000514896
102 2 -0.927186 5.78537 2.28291 13.0988 0.00226777 -0.000563818 0.00342052
103 2 -0.931263 3.88794 14.7052 12.9129 -0.00091288 -0.000667576 -0.00417904
104 2 -0.919395 5.69947 14.8444 11.1802 -0.00039983 0.00184826 -0.00057571
105 2 -0.925983 7.80019 2.37136 14.5202 -0.00557936 0.00136724 0.00380751
106 2 -0.91225 7.49476 3.95783 12.6379 0.00191281 0.000654511 0.0117833
107 2 -0.896188 5.72013 6.19683 9.23378 6.84579e-05 -0.00295898 0.00378833
108 2 -0.866718 5.70994 7.83063 10.8636 0.00531346 0.000123162 0.00315352
109 2 -0.901841 7.3031 5.80977 10.9892 -0.0103834 -7.04735e-05 -0.00526829
110 2 -0.917781 7.9285 7.69959 9.4374 0.00158607 -0.00718478 0.000165515
111 2 -0.936728 2.43567 9.36859 2.21937 0.00169223 0.00303785 0.00522443
112 2 -0.902946 14.8821 7.51928 2.35424 0.00639124 -0.00130104 -0.00341881
113 2 -0.908401 14.6303 9.42113 14.829 -0.00607254 0.000377339 0.00224666
114 2 -0.919396 2.3083 11.1708 4.26808 0.0049582 0.0033224 -0.010269
115 2 -0.927548 4.00965 9.3394 4.15711 -0.0017522 0.00356541 -0.00385707
116 2 -0.920689 4.16591 11.1559 2.5464 -0.00357238 -0.00487723 0.00493933
117 2 -0.934016 2.77369 12.5473 6.39747 -0.00667243 -0.00131577 0.00217229
118 2 -0.832323 15.2181 10.5249 6.24365 -0.000491018 0.00189535 -0.00324232
119 2 -0.660744 14.7202 12.6923 5.50755 0.00535373 -0.00381347 0.00408422
120 2 -0.883655 4.43983 13.5237 7.91246 -0.00501544 -0.00143328 0.00092206
121 2 -0.881245 5.90857 9.71915 5.867 0.00477069 -0.00469239 -0.00083
122 2 -0.871398 5.88787 11.4643 7.59047 0.0049447 -0.00572869 0.0060366
123 2 -0.824887 7.73261 11.444 5.96057 -0.00338732 -0.00166378 0.00190973
124 2 -0.905219 7.5835 9.56486 7.7793 -0.00070043 0.00154879 0.00372255
125 2 -0.928008 6.04311 12.7957 2.14967 -0.00317053 0.00381378 0.000455075
126 2 -0.931218 3.98562 13.0003 15.0393 -0.00415291 -0.0025654 0.00188351
127 2 -0.961376 5.65915 11.1255 14.6309 -0.00119936 0.00182485 0.002491
128 2 -0.905784 7.72195 14.8012 2.3307 -0.00356694 -0.00131389 -0.00127521
129 2 -0.832632 7.54688 13.2047 4.20171 2.83074e-05 -0.000879043 0.00336364
130 2 -0.855421 2.33675 9.88507 9.74187 -0.00252699 0.000149705 -0.0026086
131 2 -0.871769 14.4843 7.96081 10.256 -0.00124623 0.00175612 0.00631917
132 2 -0.856111 14.7677 8.94787 8.04946 0.00175661 -0.00452918 0.00231589
133 2 -0.927588 2.62883 11.7077 11.2477 -0.00118531 0.000513699 -0.00864477
134 2 -0.95904 4.05693 9.72038 11.4977 0.000867656 0.00402917 -0.00411048
135 2 -0.906388 4.3194 11.4668 9.54455 0.00361555 -0.00470093 0.00125885
136 2 -0.881847 2.09281 12.9153 13.2425 0.00436701 0.00272012 0.00225358
137 2 -0.925434 14.8477 10.8692 12.7951 0.00383007 -0.00663279 -0.000303319
138 2 -0.893376 14.4711 12.8654 11.3712 -0.000309204 -0.00375562 0.00448135
139 2 -0.914616 5.9596 9.26054 13.0458 -0.00537162 -0.00220518 0.00413253
140 2 -0.900483 7.79779 9.60452 14.6825 0.00236923 0.00280833 0.0100781
141 2 -0.927644 7.46266 11.2272 12.8167 -0.00364462 0.00151014 -0.00711153
142 2 -0.861737 6.33426 13.2534 9.36769 -0.000612231 -0.00727651 -0.00915187
143 2 -0.870643 7.79826 15.1419 9.71954 -0.0045622 -0.00641089 -0.000185501
144 2 -0.908683 7.7207 13.2041 11.3626 -0.00459303 0.00760155 0.000985588
145 2 -0.93487 9.32271 2.46445 2.53187 -0.00190198 0.00399737 -0.00193324
146 2 -0.947726 9.46199 14.7313 14.9043 -0.00393813 -0.00443129 -0.00338968
147 2 -0.950128 9.51371 4.18871 4.22429 0.00557314 -0.00407815 -0.0045928
148 2 -0.924633 10.9886 2.26374 4.44452 -0.00128443 -0.00763782 -0.000413548
149 2 -0.949586 11.4009 4.04859 2.56497 -0.0028117 0.00799329 -0.00396744
150 2 -0.907802 9.35256 5.84439 6.15785 -0.000494956 -0.000597724 -0.00189338
151 2 -0.899969 11.0861 6.0295 7.81442 0.00272035 0.00255078 0.00456345
152 2 -0.94525 11.3339 7.53502 5.84424 -0.00294444 0.00402745 -0.00750092
153 2 -0.884936 9.54855 8.07137 7.56453 -0.00231739 -0.0024845 -0.00205423
154 2 -0.917494 12.819 2.50813 5.92886 -0.0072351 -9.56997e-05 0.00269383
155 2 -0.928789 11.311 14.7048 6.20318 -0.00539904 0.000387118 -0.00335343
156 2 -0.911372 12.7594 14.7145 4.10985 0.0001855 0.00403447 -0.00557355
157 2 -0.914347 12.9971 4.41364 7.41461 -0.00160009 0.00486776 0.0086694
158 2 -0.888352 12.8231 6.02289 2.33268 0.00287444 0.00306449 0.00626672
159 2 -0.951164 11.0007 5.52946 14.6277 0.00377809 0.0023348 -0.0042943
160 2 -0.940229 12.9711 4.06852 14.8379 -0.00161918 0.00393824 -0.00189406
161 2 -0.93103 12.8926 7.81066 4.00605 0.00273262 0.000957463 -0.0062317
162 2 -0.890676 9.53884 2.60197 9.07657 0.000360201 -0.00200312 -0.00435367
163 2 -0.929033 9.42915 14.4453 7.75397 0.00429441 -0.00112532 0.00128244
164 2 -0.891026 9.35378 4.45668 10.7785 -0.000476852 -0.00184026 0.00319166
165 2 -0.870507 10.7996 2.3634 11.3131 0.00325192 -0.000259842 0.00154842
166 2 -0.903706 11.4502 4.04924 9.4164 0.00192653 0.000912895 -0.00787786
167 2 -0.913538 9.17225 5.85809 12.8616 -0.00233503 0.00755175 0.00109965
168 2 -0.932385 9.22854 7.42215 14.735 -0.00424157 0.00381505 -0.000956233
169 2 -0.873099 10.9822 7.72776 13.2789 0.000106657 0.00726156 -0.000933586
170 2 -0.96861 12.7221 2.33508 12.9839 -0.00318103 0.000317291 0.00112297
171 2 -0.903689 11.2629 14.6268 13.0414 0.00278069 -0.00248123 0.00320922
172 2 -0.850587 12.7942 14.8374 10.9614 0.00288592 -0.00667837 -0.00561571
173 2 -0.939382 12.9772 6.05561 9.33729 -0.00222125 0.00229609 -0.00119819
174 2 -0.850258 12.4439 7.52388 11.362 0.00178154 0.00140056 0.00390351
175 2 -0.87071 9.66456 9.32595 2.23637 0.00540491 -0.00566289 0.00409211
176 2 -0.817528 9.23155 11.0303 3.94265 0.000838825 0.00596547 -0.00650847
177 2 -0.878077 11.0925 9.50601 4.30457 -0.00458262 -0.0038849 0.00507449
178 2 -0.930779 11.3825 11.185 2.41039 -0.00116761 -0.000618841 -0.00183581
179 2 -0.80424 9.74303 12.8004 5.86428 0.00224612 -0.00075735 0.00254917
180 2 -0.880108 11.4298 12.7371 7.68778 -0.00287569 0.00429441 0.00350277
181 2 -0.880267 13.1013 9.46211 6.00703 -0.00600089 -1.52895e-05 -0.00534244
182 2 -0.931251 13.4174 11.0771 8.00667 -0.00109904 0.00065477 -0.00338502
183 2 -0.874089 12.7778 13.2278 1.81186 0.00336952 -0.000305653 -0.00274652
184 2 -0.850002 10.9544 12.6655 14.5894 0.00217253 0.00265961 0.00285038
185 2 -0.902826 12.9228 11.1904 14.4044 0.00123276 0.00421191 -0.000632697
186 2 -1.01483 9.47216 9.75069 9.39438 -0.00359572 -0.00558534 0.00035346
187 2 -0.937773 9.53669 11.4828 11.1335 0.00214423 -0.00241776 -0.00497669
188 2 -1.01308 10.958 9.61655 11.4941 8.04448e-05 0.00054376 0.000910988
189 2 -0.970075 11.4642 11.216 9.64207 0.00377721 -0.0037327 0.000146502
190 2 -0.872158 9.21675 12.932 13.116 -0.00275366 -0.000610197 0.00288537
191 2 -0.903895 13.0459 9.13384 12.9582 -0.00154982 -0.00158291 -0.00174052
192 2 -0.85987 13.1421 13.0777 9.32154 -0.00172089 0.00444968 0.00468818
193 2 -0.600916 14.9149 13.219 2.99792 0.00213713 -0.00210887 0.00162574
194 2 -0.624064 4.90011 4.95028 11.8714 0.00163979 0.00346707 2.10448e-05
195 2 -0.648218 6.73851 6.74861 13.6483 0.00251078 -0.00103941 -0.00108657
196 2 -0.613502 6.63572 13.9451 13.9008 -0.00682299 0.00698298 -0.00281799
197 2 -0.685194 1.44355 5.22719 8.29008 0.00248028 -0.00135036 -0.00325718
198 2 -0.617523 8.4539 15.4489 4.95622 0.000439536 -0.00701755 0.00840602
199 2 -0.608555 5.10065 8.6325 15.7818 0.0044457 0.000884998 -0.00140838
200 2 -0.628133 9.86566 13.4114 3.33052 -0.000114574 -0.00336889 -0.00629724
201 2 -0.672227 15.4964 15.3882 11.6822 0.00473381 0.00164464 -0.00193937
202 2 -0.597836 10.3201 6.72451 3.41243 0.00476595 0.00686554 -0.00193202
203 2 -0.671046 11.9669 15.6463 15.7309 -0.000377126 -0.0049086 -0.00336918
204 2 -0.663686 2.42535 7.4649 9.24935 -0.000608909 0.00154596 -0.00483255
205 3 0.433225 15.4663 13.5033 2.34583 0.029299 0.00716174 0.0263648
206 3 0.443226 14.8712 13.2596 4.71372 0.0091679 0.021738 -0.00388779
207 3 0.437406 5.82294 4.70701 11.8477 -0.0129727 -0.0158167 -0.00591304
208 3 0.434777 4.82039 5.91171 11.6963 0.0150511 -0.0228399 -0.0182938
209 3 0.43393 6.56986 7.57033 14.0627 -0.0106379 0.00273718 0.00465134
210 3 0.414525 7.55171 6.33293 13.8983 0.00813153 0.00728573 -0.0150671
211 3 0.439021 6.87356 14.8605 13.9341 -0.000949921 0.0231252 -0.015026
212 3 0.445011 7.13547 13.4138 13.3186 0.0134256 -0.0266837 0.0238515
213 3 0.389468 14.6271 5.28069 8.39764 -0.0287902 0.0401589 0.0197573
214 3 0.413674 1.59746 4.54011 8.92858 0.0114541 -0.00711006 -0.0203136
215 3 0.437798 8.49944 2.26615 4.89457 -0.0202211 0.0123764 0.0239924
216 3 0.420132 8.52244 15.2221 5.89051 -0.0125086 -0.00536541 -0.023467
217 3 0.420777 5.14597 8.88322 2.5669 -0.0196525 -0.0076673 0.0124535
218 3 0.421671 4.10769 8.50707 15.6108 -0.00159415 0.0174 0.0103804
219 3 0.438488 9.30763 14.1778 3.64788 -0.0226231 0.00827455 0.012099
220 3 0.422259 10.0974 13.6602 2.38942 -0.0336885 0.0016128 -0.0117493
221 3 0.430003 15.3769 1.98323 12.2938 -0.0185317 -0.00606168 0.0232673
222 3 0.449066 2.09948 14.9911 11.9901 -0.000179363 -0.013752 -0.0241615
223 3 0.445868 11.0832 7.03255 3.78493 -0.0106934 0.0165166 -0.000752895
224 3 0.419031 9.79514 7.5369 3.15571 -0.00387907 -0.00494511 -0.0324689
225 3 0.416032 12.0487 1.40993 14.7281 0.00540226 0.0378995 0.0375593
226 3 0.402449 12.3615 2.44544 1.75668 -0.00772572 -0.0112911 -0.0170309
227 3 0.452754 2.08139 6.73971 8.5682 0.0247796 -0.00536501 0.00544295
228 3 0.499641 1.98412 8.32339 6.69022 -0.00878984 -0.00629938 -0.0169069
ITEM: TIMESTEP
6000
ITEM: NUMBER OF ATOMS
228
ITEM: BOX BOUNDS pp pp pp
1.5146084977966883e+00 1.5645391502203235e+01
1.5146084977966883e+00 1.5645391502203235e+01
1.5146084977966883e+00 1.5645391502203235e+01
ITEM: ATOMS id type q x y z vx vy vz
1 1 1.66762 1.82551 1.86546 15.4031 0.000573348 0.000875023 -0.00189183
2 1 1.83748 3.45114 3.38555 3.31392 -0.000224994 -0.000947826 0.00162025
3 1 1.82439 15.5946 4.89 5.01893 -0.00402709 0.000975285 0.00329222
4 1 1.80978 3.60961 6.69066 6.25334 -0.00031406 0.000950512 0.000533517
5 1 1.72737 4.94246 15.6793 5.1548 0.00341411 0.00474995 -0.00265012
6 1 1.70138 6.82054 3.11503 6.96591 0.00142302 -0.00232787 0.00239178
7 1 1.81744 4.9959 5.11564 15.545 -0.000300535 0.000610141 0.0038178
8 1 1.8165 6.95015 6.7427 3.08847 -0.00155891 -0.0033182 0.00121756
9 1 1.7267 15.4213 15.6393 8.56225 -0.000134867 0.0033273 0.00463283
10 1 1.64417 3.17817 3.33184 10.1272 0.00493939 0.00238291 0.00646704
11 1 1.77011 15.595 5.24152 11.8732 0.000981532 0.00462171 -0.00385402
12 1 1.77605 3.24929 6.86656 13.78 0.000510291 -0.0026092 0.00172041
13 1 1.7679 4.95908 15.7231 11.9203 0.000453816 0.00778277 -0.00398341
14 1 1.80421 6.76826 3.23397 13.7811 -0.000905002 0.00138055 -0.00456771
15 1 1.82183 4.97284 5.10428 8.44038 -0.000844046 -0.00163738 -0.00182136
16 1 1.7903 6.66479 6.87533 10.2799 0.000159974 0.00126256 -0.000943643
17 1 1.74874 15.6124 8.54001 15.6164 0.00306163 -0.000945913 -0.00645128
18 1 1.85155 3.11879 10.4074 3.29793 0.00659506 -0.00223358 -0.00176182
19 1 1.72345 1.56549 11.7494 5.58026 0.00165947 -0.000701391 -0.00451092
20 1 1.70765 3.19486 13.9173 6.90297 0.00346907 -0.000109 0.00193766
21 1 1.77768 5.28284 8.70214 4.7108 -0.00166904 0.000222579 -0.00468741
22 1 1.82382 6.77178 10.4126 6.75462 -2.43043e-05 0.0012095 0.000854099
23 1 1.72475 4.97988 12.0268 1.51168 0.00673535 0.00137422 -0.00193762
24 1 1.75391 6.65722 13.857 3.25074 -0.00418771 0.000960134 -0.00193179
25 1 1.53588 15.53 8.88508 9.35355 -0.00101115 0.00462316 0.00462086
26 1 1.792 3.39469 10.751 10.5449 0.00340348 -0.00216392 0.00384242
27 1 1.74284 15.4376 12.1966 12.1915 -0.00155085 -6.02477e-05 0.00170852
28 1 1.649 3.29244 13.8112 13.7532 0.00133795 0.0030945 0.00319192
29 1 1.84257 5.10785 8.80841 12.1186 -0.00080848 0.00452979 -0.00161726
30 1 1.74548 6.95923 10.3493 13.9697 0.00305289 -0.00600763 -0.00365022
31 1 1.74581 5.18336 12.2997 8.54266 0.00405748 -0.00246418 0.0048203
32 1 1.87384 6.8624 13.9623 10.3626 -0.000576748 0.00234138 -0.00100566
33 1 1.78809 8.47825 1.51932 15.6789 3.09541e-05 -0.000843083 0.00151246
34 1 1.74274 10.2413 3.25337 3.29324 0.00379132 0.000105969 0.0018696
35 1 1.69968 8.35832 4.88168 5.00636 0.00262262 0.00169386 0.00198201
36 1 1.75923 10.0654 6.69623 6.84497 -0.00598436 -0.000933824 -0.00609891
37 1 1.70853 12.0705 15.4892 4.93246 -0.00131761 0.00226603 -0.0054507
38 1 1.82362 13.7678 3.21601 6.74268 -0.00130504 -0.00346461 -0.00158865
39 1 1.71083 12.1041 4.93972 15.6622 -0.0052954 -0.00118176 0.00195207
40 1 1.80736 13.9344 6.73964 3.27249 -0.00224314 -0.00288982 -0.000723441
41 1 1.7787 8.79877 15.5609 8.62246 -0.0022361 -0.000713235 -0.00171232
42 1 1.74919 10.4157 3.1957 10.4368 0.00288833 0.001334 -0.000583093
43 1 1.69185 8.48234 4.95279 11.9464 -0.00133893 -0.00429965 -0.000806449
44 1 1.69139 10.3484 6.61446 13.7634 -0.00568223 0.00349293 0.00114222
45 1 1.63694 12.0682 15.6092 12.2606 -0.00115776 -0.000367256 0.00471113
46 1 1.73883 13.9184 3.44443 13.7165 0.00329805 0.000640389 -0.0020201
47 1 1.72016 11.9784 4.95191 8.51889 0.00196916 0.00125379 -0.00256287
48 1 1.66291 13.4891 6.82558 10.3759 8.82206e-05 0.00109736 -0.0016078
49 1 1.66243 8.79066 8.52795 15.6278 0.00538413 -0.00103076 0.00582858
50 1 1.72653 10.6531 10.1849 3.29465 -0.000718425 -0.000609816 -0.00224383
51 1 1.64585 8.68569 12.0385 4.78236 0.00135195 -0.0023001 -9.89709e-05
52 1 1.80833 10.3477 13.6949 6.75503 0.00297054 0.0021828 0.00165092
53 1 1.74023 12.0528 8.31821 5.17211 -0.00263573 -0.00522044 0.00153073
54 1 1.64793 13.8938 10.0047 7.04402 0.000806966 -0.00317215 0.00425878
55 1 1.85058 12.239 12.0396 15.6431 0.000176611 0.000156362 -0.00247391
56 1 1.51948 13.7433 14.4682 2.63991 0.000658505 -0.00764179 0.00466395
57 1 2.0018 8.35731 8.57679 8.46996 -0.00565324 0.00050198 0.0025078
58 1 1.86334 10.1246 10.2914 10.2485 0.000556588 -0.000163758 0.00395806
59 1 1.7825 8.59012 12.1114 12.1228 -0.00106708 0.000361257 0.00187376
60 1 1.77457 10.321 13.7988 14.0344 -0.00124727 -0.000849699 -0.00263613
61 1 1.80254 11.8236 8.64754 12.1152 0.0053049 -0.00521602 -0.00113663
62 1 1.87473 13.7835 10.2358 13.7923 -0.00138227 0.000302681 -0.000908534
63 1 1.79564 11.9999 11.86 8.55585 -0.00157143 0.00144228 -0.000881564
64 1 1.7764 13.6017 13.7553 10.3163 -0.000266115 -0.00221061 0.00171503
65 2 -0.876387 2.90555 2.42817 2.23789 -0.00119366 -0.00601359 0.00220122
66 2 -0.866156 2.55653 14.7642 14.7459 0.0057087 -0.00776909 -0.00337047
67 2 -0.79611 15.2636 2.90012 14.4557 0.00182686 -0.00899715 0.00569881
68 2 -0.87066 14.696 15.5145 2.07875 -0.00303894 -0.0014429 0.00185226
69 2 -0.853871 2.18148 4.03303 3.93448 0.00583865 -0.00105965 -0.00176586
70 2 -0.937495 4.1742 2.64979 4.43281 0.00737826 0.00326375 -0.000653039
71 2 -0.91435 4.32715 4.41014 2.61331 -0.00325406 0.00298552 -0.00236469
72 2 -0.938018 2.6338 5.76927 5.56636 0.00313969 0.000278372 0.00232719
73 2 -0.949624 14.8543 3.98136 6.00567 -0.00450856 0.00072595 0.00276193
74 2 -0.926521 14.6199 5.67352 4.12329 -0.00699568 -0.00470727 0.0025627
75 2 -0.939943 4.24331 5.98432 7.44716 0.00481129 -0.00412373 -0.00777164
76 2 -0.879986 4.6203 7.52167 5.38989 -0.00284581 0.00247271 -0.000593009
77 2 -0.805539 2.6762 7.85228 6.52576 0.000287548 0.000249177 -0.0027208
78 2 -0.875505 5.84439 2.06519 6.31404 -0.00648955 -0.00197752 0.00314536
79 2 -0.847367 3.95952 14.5996 5.7338 -0.00409275 0.00196787 3.21136e-05
80 2 -0.835306 5.94718 14.8427 4.23034 -0.0023541 0.0019957 -0.00401711
81 2 -0.879066 6.00615 4.27346 7.63476 0.00175314 0.000936587 -0.000128724
82 2 -0.89296 7.52505 3.79875 5.78216 0.00207646 -0.00332231 -0.00380648
83 2 -0.931094 7.85266 2.43939 7.91159 -0.00212298 -0.00242663 0.000771287
84 2 -0.890447 5.92389 6.15475 2.10556 0.00193692 0.00667417 -0.000295762
85 2 -0.926777 3.95943 5.75837 14.6419 -0.00364797 0.000551093 -0.00698501
86 2 -0.867349 5.90199 4.0531 14.8495 -0.00783687 -5.65635e-05 -0.00239487
87 2 -0.931256 6.23043 7.87719 3.80542 0.000647933 0.003044 0.006231
88 2 -0.902142 7.39595 5.60433 3.98935 -0.00636151 -0.00203151 0.0024376
89 2 -0.889541 8.18066 7.46483 2.47939 0.000159352 0.00384528 0.00698126
90 2 -0.953368 2.12857 2.25309 9.54342 0.00532846 -0.00640751 -0.00191594
91 2 -0.848348 2.31527 15.0351 7.57565 -0.000807408 0.00277854 -0.000988791
92 2 -0.942312 14.3168 2.22393 7.76667 -0.0084037 0.00253272 0.0011212
93 2 -0.837598 14.6721 14.4116 9.32734 0.00154911 -0.00255043 0.000798131
94 2 -0.916824 2.27001 4.46595 10.8294 2.87904e-05 -0.00115538 0.00190265
95 2 -0.928149 4.00685 2.54348 11.1653 0.00276092 -0.00138606 0.002714
96 2 -0.927898 3.90487 4.15849 9.03734 -0.00264445 0.000777286 0.00202512
97 2 -0.889425 2.35124 6.1914 12.7349 7.15234e-05 0.00100941 -0.00680242
98 2 -0.872268 14.6318 4.27307 12.6802 -0.0102066 0.00233687 -2.45288e-05
99 2 -0.900304 14.4129 5.96058 11.2509 -0.000654821 -0.00611419 -0.00275754
100 2 -0.933343 2.46289 7.89947 14.5941 -0.00686163 -0.000339773 0.00483648
101 2 -0.86632 4.17076 7.73793 12.8796 0.00436567 -0.00214253 0.00205705
102 2 -0.977345 5.79176 2.39363 12.9652 -0.00237321 0.00447829 -0.000260451
103 2 -0.888343 4.04933 14.6945 12.6183 -0.00457864 0.00961045 -0.000806823
104 2 -0.982501 5.84759 14.8778 10.9674 -0.000875475 0.00643016 0.0078235
105 2 -0.955142 7.62871 2.26496 14.5585 0.00152317 -0.00313087 0.00458975
106 2 -0.979419 7.5925 4.24784 13.0335 0.00858935 -0.00111136 -0.00147099
107 2 -0.915585 5.6605 6.03887 9.467 0.00106919 0.00379423 -0.00586978
108 2 -0.941787 5.7652 7.91259 11.1021 -0.00414938 0.00533238 -0.00111102
109 2 -0.915953 7.41116 5.87111 11.2011 0.0019462 0.00302202 0.00585052
110 2 -0.971073 7.58332 7.60058 9.30703 -0.00382894 -0.000249466 -0.00383145
111 2 -0.934645 2.21074 9.61 2.3491 0.00135404 0.000423501 0.00265996
112 2 -0.910362 14.9637 7.45901 2.41954 -0.000578995 -0.00206917 -0.000321703
113 2 -0.892746 14.5377 9.25878 14.7393 -0.00591466 2.15537e-05 0.00223055
114 2 -0.920743 2.38808 11.2335 4.37096 -0.000636483 -0.00333737 -0.000571721
115 2 -0.958447 4.12684 9.5053 3.97751 0.00578704 -0.00209593 0.00157421
116 2 -0.956975 3.95018 11.1477 2.25804 -0.001268 0.00369202 -0.00238769
117 2 -0.903065 2.36646 12.6874 6.47068 -0.00471153 -0.00212176 -0.00659077
118 2 -0.896935 15.0218 10.5086 6.06707 0.000322647 -0.00101641 0.00236183
119 2 -0.70675 14.4855 12.5947 5.14292 1.56223e-05 -0.00225408 0.00574191
120 2 -0.858368 4.2456 13.3486 7.95977 0.00113071 -0.00303419 -0.00261622
121 2 -0.912758 5.85273 9.66669 5.7851 0.000897401 -0.00106243 -0.00130726
122 2 -0.893122 5.93894 11.5297 7.47947 0.00437818 0.00708951 -0.00286743
123 2 -0.759285 7.87208 10.9982 5.75142 -0.00352414 0.00242682 -0.00203686
124 2 -1.02989 7.45189 9.51255 7.70409 0.00449746 0.00159262 0.004318
125 2 -0.882488 5.56951 13.1408 2.44118 0.00235198 -0.00426341 -0.00301892
126 2 -0.840337 4.19084 12.7953 14.5276 0.00562508 -0.00241707 -3.60385e-05
127 2 -0.886639 6.14355 11.2582 14.9341 -0.00180761 -0.00661244 -0.00371709
128 2 -0.957062 7.62171 14.6633 2.38905 -0.00255386 0.00428669 -0.005119
129 2 -0.861277 7.49728 12.8284 4.10517 0.00113143 0.00469894 0.00475772
130 2 -0.886633 2.19645 10.0343 9.92735 -0.0063515 -0.00211545 0.00273436
131 2 -0.795715 14.374 8.09254 10.092 0.00267234 -0.00490686 -0.000572282
132 2 -0.831619 14.7512 9.08629 7.94674 -0.00109707 -0.00514341 -0.00357291
133 2 -0.854479 2.58181 11.8256 11.331 -0.000247128 -0.00176416 -0.0046117
134 2 -0.936709 4.13311 9.8496 11.5615 -0.00220795 -0.00108167 -0.00259235
135 2 -0.898242 4.26728 11.3115 9.42828 -0.00222203 -0.00383832 0.00475331
136 2 -0.836819 2.0238 13.0837 13.2113 -0.00201414 -0.000238164 -0.00316966
137 2 -0.90921 14.7938 11.0514 12.9915 -0.00680265 0.00306608 -0.00913532
138 2 -0.895896 14.3593 13.0318 11.403 0.00198722 0.000779661 0.00513618
139 2 -0.978761 6.03347 9.42738 13.1123 -0.00517565 0.00162999 -0.00517559
140 2 -0.923745 7.74837 9.42811 14.9566 -0.00574143 -0.000839532 0.00115504
141 2 -0.944337 7.94671 11.0949 13.0006 0.00260759 -0.00286864 -0.0012018
142 2 -0.909286 6.36026 13.0449 9.28501 -0.00868851 -0.00410716 -0.0031999
143 2 -0.910731 7.99298 14.7056 9.61409 0.00273117 -0.00112785 -0.00592716
144 2 -0.906306 7.52697 13.1114 11.4609 -0.00299713 -0.00479632 0.00277039
145 2 -1.00911 9.30174 2.45185 2.39023 -0.00431346 0.000493838 0.00831905
146 2 -0.97811 9.29418 14.638 14.8408 0.001311 0.000264357 -0.000598588
147 2 -0.931937 9.49834 4.12215 4.31291 -0.000767813 -4.27411e-05 0.00374319
148 2 -0.875173 11.0433 2.23321 4.16162 -0.00470742 0.00131652 0.000276427
149 2 -0.915437 11.4259 4.04459 2.55963 -0.00433396 -0.00689598 0.000408002
150 2 -0.870467 8.99625 5.87714 6.06481 0.000425132 -0.00163772 -0.00251141
151 2 -0.837063 10.8157 5.6717 7.76204 0.00207415 0.0047025 -4.2489e-05
152 2 -0.920958 11.1534 7.28254 5.92668 -0.00621516 -0.00617681 0.0021893
153 2 -0.957451 9.36511 7.85069 7.62793 0.0069502 -0.0027006 -0.00170661
154 2 -0.837767 13.0118 2.42327 5.6663 -0.00146106 0.001537 -0.000329955
155 2 -0.866829 11.4638 14.4529 5.92614 -0.00216138 0.000242477 -0.00645201
156 2 -0.828516 13.0341 14.7458 3.96632 0.000715597 0.00165382 -0.00479624
157 2 -0.938166 12.7385 4.13175 7.4544 -0.00238636 0.00691942 0.00112968
158 2 -0.910872 12.9507 6.03974 2.3108 0.00164418 -0.00205736 0.000508959
159 2 -0.878068 11.1758 5.51277 14.5519 0.00279468 0.00208936 -0.00197417
160 2 -0.931878 13.0435 4.01361 14.831 -0.00636753 -0.00682051 0.00187138
161 2 -0.931737 13.1172 7.73269 4.14382 -0.00333788 0.00638994 0.00375995
162 2 -0.901736 9.90054 2.09975 9.45403 0.00114798 0.00808389 -0.00431092
163 2 -0.922946 9.45964 14.7152 7.47321 0.00293644 1.17854e-05 -0.000851772
164 2 -0.89687 9.22878 4.0062 10.9808 0.00443022 0.00324304 0.000621353
165 2 -0.87045 11.1763 2.59989 11.6661 0.000747938 -0.000623172 -0.00257837
166 2 -0.890418 11.3113 4.20928 9.70632 -0.00597919 0.00789367 0.00487721
167 2 -0.876865 9.42333 5.95925 12.6541 -0.00145375 0.00114093 -0.00155071
168 2 -0.857449 9.34595 7.48165 14.5721 -0.000454728 0.00345253 0.00622052
169 2 -0.896564 11.1713 7.75663 13.1525 -0.00136104 -0.00534403 0.00165411
170 2 -0.91055 13.0892 2.30003 13.099 -0.00211852 0.00359393 -0.00237799
171 2 -0.921038 11.324 14.601 13.2505 0.00754578 -0.000704672 0.00961038
172 2 -0.879517 12.7587 14.7583 11.047 0.000678493 0.00111275 -0.00367905
173 2 -0.90174 12.9167 6.03416 9.13919 0.00392002 0.00029233 0.00738927
174 2 -0.823598 12.2884 7.55639 11.0834 0.00568635 0.00198584 0.00349715
175 2 -0.858362 9.98214 9.29101 2.20232 -0.0052236 -0.000774075 0.00336231
176 2 -0.810739 9.42413 10.9096 3.93895 0.00312406 -0.00550036 -0.00145509
177 2 -0.953261 11.2017 9.25928 4.42941 -0.000637173 0.00313311 0.00228516
178 2 -0.921809 11.56 11.2082 2.59686 0.00589092 0.00734193 -0.00728827
179 2 -0.891367 9.48167 12.8427 5.86285 0.00470948 0.00413655 -0.00419193
180 2 -0.89637 10.9626 12.7585 7.82595 0.000989943 -0.00405295 -0.00228503
181 2 -0.84082 12.8506 9.11956 6.26101 0.00734883 0.0053881 0.00319791
182 2 -0.857029 13.2358 11.1743 7.84086 -0.00460477 -0.00156517 -0.00301401
183 2 -0.883491 13.1472 13.1691 2.06245 0.00243761 -0.00310715 -0.00375306
184 2 -0.913157 11.0359 12.784 15.0043 0.00433704 0.00269498 0.00238075
185 2 -0.992924 12.9345 11.1376 14.6297 0.00206012 -0.00234123 -0.00169779
186 2 -0.951375 9.14871 9.35252 9.53413 -0.00301382 0.00430878 -0.0026892
187 2 -0.894749 9.40397 11.437 10.9953 0.00404 -0.00223868 -0.001843
188 2 -0.891158 10.8075 9.56661 11.4582 -0.00280914 0.00384097 0.00185244
189 2 -0.938782 11.1951 10.7718 9.31766 -0.000997491 0.00242638 0.00297878
190 2 -0.915478 9.54575 13.0016 12.9789 0.00239607 0.00148701 0.00116999
191 2 -0.902667 12.9894 9.49752 12.676 -0.00335707 -0.00402517 -0.00150008
192 2 -0.889284 12.7239 12.7481 9.52337 -0.000964572 -0.000581715 0.00492039
193 2 -0.591653 15.3901 13.4426 2.852 -0.000978453 -0.00308654 0.000608145
194 2 -0.584935 4.96421 5.10796 12.0417 0.000104633 0.00309972 0.000464365
195 2 -0.619396 6.82934 6.97954 13.6815 0.000971117 0.00545703 -0.00510571
196 2 -0.583686 6.77292 13.9441 13.8258 4.70278e-07 0.00550846 0.00423753
197 2 -0.642483 1.42525 5.31472 8.29944 0.00338958 -0.00353873 -0.00478151
198 2 -0.624576 8.51864 15.5124 5.02232 -0.000130452 0.00131049 -0.00280039
199 2 -0.609607 4.97488 8.65528 15.5205 0.00627986 0.00264437 0.00202134
200 2 -0.638733 9.87532 13.4077 3.39185 0.00417806 7.06439e-05 -0.00258825
201 2 -0.577168 15.6169 15.6543 12.1079 0.00417733 -3.85145e-05 0.000721384
202 2 -0.593224 10.3453 6.57073 3.24374 0.00476478 0.00367616 0.00146031
203 2 -0.66745 12.1366 1.47316 1.60137 -0.00555351 -0.00210237 0.00101661
204 2 -0.674328 2.46843 7.74421 9.11196 -0.00163995 -0.00463513 0.00222031
205 3 0.438199 1.76771 13.5675 2.02839 0.014979 -0.0187452 -0.000248138
206 3 0.467298 14.7236 12.9779 4.3116 -2.3508e-05 0.0335963 0.00286601
207 3 0.414578 5.93384 4.93295 12.1034 0.00579806 0.00810271 0.011124
208 3 0.430398 4.90075 6.04886 11.8987 0.00386957 0.00810594 -0.0320592
209 3 0.442924 6.90334 7.82573 14.1125 -0.0159881 0.00367149 -0.0292005
210 3 0.433432 7.71848 6.66731 13.5154 0.00310315 0.0101526 -0.00714931
211 3 0.426459 6.70134 14.8693 13.7162 0.0142526 -0.0181776 0.00415665
212 3 0.406946 7.71073 13.7708 13.69 0.0241861 -0.00259045 0.0298933
213 3 0.379736 14.5648 5.12591 8.44796 -0.0268918 -0.0189242 -0.0271237
214 3 0.447019 1.96799 5.03653 8.98705 0.00647251 -0.0174453 -0.0192276
215 3 0.413364 8.55564 2.32172 4.76672 0.0235124 0.0208123 -0.00754524
216 3 0.41677 8.22407 15.4765 5.96371 0.0273391 0.0118697 0.0111575
217 3 0.414381 5.01336 9.12722 2.20636 -0.0169189 0.000741135 -0.00823574
218 3 0.418165 4.14877 8.89411 15.1091 -0.0413517 -0.0084697 0.00736098
219 3 0.412922 9.32378 14.1962 3.67642 -0.00545589 0.00107724 0.0119613
220 3 0.432164 9.85992 13.4681 2.42028 0.000998213 -0.0201297 0.0343074
221 3 0.399199 15.2489 1.73752 11.2591 -0.0167383 -0.010916 -0.0135854
222 3 0.423606 2.44813 15.582 11.9096 0.0258912 -0.00635218 -0.0103318
223 3 0.393484 11.3129 6.6052 3.30768 0.0262975 0.00560043 -0.00374999
224 3 0.412821 9.95785 7.23554 3.80149 0.0209812 -0.0119623 0.0144688
225 3 0.414701 12.3076 15.6133 14.7883 2.05159e-06 -0.021805 -0.0104001
226 3 0.419537 12.303 2.48091 1.79666 -0.00277958 -0.00472453 -0.015843
227 3 0.44768 2.21643 7.19111 8.36104 -0.00490805 -0.00567914 -0.00492777
228 3 0.495602 1.9894 8.52316 6.35034 0.0135205 0.00544027 0.014522
ITEM: TIMESTEP
7000
ITEM: NUMBER OF ATOMS
228
ITEM: BOX BOUNDS pp pp pp
1.5155808353854425e+00 1.5644419164614433e+01
1.5155808353854425e+00 1.5644419164614433e+01
1.5155808353854425e+00 1.5644419164614433e+01
ITEM: ATOMS id type q x y z vx vy vz
1 1 1.75385 1.73257 1.69627 15.3974 0.00306095 0.00280894 -0.00406117
2 1 1.86041 3.2387 3.43485 3.16529 0.000102224 0.0084904 0.00253727
3 1 1.72714 15.3414 4.8559 4.92523 0.000840197 -0.00151838 -0.000456698
4 1 1.69972 3.49462 6.39364 6.32854 -0.00280026 -0.00507705 -0.00205335
5 1 1.80736 4.90893 1.75255 4.90063 0.000836911 0.00640003 -7.71715e-05
6 1 1.76891 6.90272 3.1117 6.77601 0.00191535 -0.00199856 0.00245079
7 1 1.83011 4.95895 5.22956 15.5484 0.00255445 -0.0049503 0.00335116
8 1 1.71175 6.89443 6.91169 3.24666 0.00146659 0.00181673 -0.00420653
9 1 1.62995 15.4621 1.51983 8.46822 -0.000591944 0.000508058 -0.000966382
10 1 1.76039 3.36269 3.18565 10.0404 -0.00224282 -0.00578545 -0.00581427
11 1 1.7073 1.60804 5.00374 11.871 0.000575675 0.00452322 0.00482385
12 1 1.68105 3.23298 6.97298 13.5428 -0.00247031 0.00081104 0.00398288
13 1 1.72866 5.07819 1.55371 11.9634 0.00552224 -0.00389337 0.00226307
14 1 1.91582 6.66879 3.31771 13.9089 -0.000661775 0.00184137 0.00432672
15 1 1.77564 5.2145 4.98826 8.40847 -0.00162014 0.00495182 0.00261597
16 1 1.69533 6.82368 6.91852 10.24 -0.00141987 0.00252913 -0.00180172
17 1 1.68071 1.62145 8.57236 15.6294 0.00188313 -0.00537189 0.00102392
18 1 1.8839 3.39244 10.2698 3.28261 -0.00125131 0.00322769 -0.000712948
19 1 1.58755 1.81905 11.5815 5.52412 -0.00275838 0.00198748 -0.00127801
20 1 1.70579 3.29965 13.9495 6.62898 -0.00674627 -0.00410772 0.000940915
21 1 1.79245 5.16868 8.56334 5.05193 -0.0025523 -0.00338918 -0.000135834
22 1 1.72105 6.73476 10.4102 6.96573 -0.00218446 -0.00185124 0.00471716
23 1 1.84539 5.05919 12.0674 15.641 -0.00170657 0.00371017 0.000617296
24 1 1.74177 6.63105 14.0028 3.28136 0.000204238 -0.00416475 0.00127037
25 1 1.61946 15.3931 8.53624 9.28753 0.00107789 0.00219663 -0.000431894
26 1 1.8279 3.14879 10.5417 10.2611 0.00104333 0.000451449 -0.00361347
27 1 1.69814 15.5486 12.1184 12.1292 -5.74736e-05 0.00355973 -0.000757084
28 1 1.76218 3.387 13.7563 13.7314 0.00109475 -0.00171015 0.000324347
29 1 1.80482 5.00281 8.78668 11.9349 -0.00242475 -0.00220534 -0.0034487
30 1 1.8545 6.81011 10.4506 13.7756 -0.00109218 0.00070548 0.000145781
31 1 1.72781 4.96203 12.3612 8.59462 0.00181265 -0.00287674 0.00402382
32 1 1.7862 6.845 14.005 10.223 -0.0017599 -0.00340099 -0.00176666
33 1 1.71706 8.43875 1.61695 1.55303 -0.000907103 0.00175511 -0.00658237
34 1 1.62286 10.3922 3.25372 3.2512 0.00250064 0.00440297 -0.00334453
35 1 1.7769 8.60474 4.97672 5.03705 -0.00101695 0.00612181 -0.0047665
36 1 1.89123 10.2229 6.90204 6.71976 0.000200597 0.00178415 0.00305999
37 1 1.75356 11.9879 15.4956 5.01755 -0.00485543 0.00146432 0.00421741
38 1 1.73426 13.5289 3.2615 6.846 4.0383e-05 0.00783788 0.0021996
39 1 1.6934 12.1844 5.03813 15.6253 0.00153818 0.000725412 0.00214649
40 1 1.77214 13.8466 6.92254 3.21886 -0.00071825 0.0032748 0.00104921
41 1 1.93246 8.78476 15.526 8.45645 0.00143808 -5.24923e-05 0.000476137
42 1 1.89416 10.3443 3.20711 10.3147 0.00534127 0.000826741 0.00193639
43 1 1.78741 8.43603 4.90734 11.993 0.00382414 -0.000907373 -0.000368424
44 1 1.71678 10.113 6.55802 13.9024 -0.00454587 0.0018554 0.000644833
45 1 1.74716 12.0558 1.53884 12.1182 0.00484022 0.000404858 -0.00142523
46 1 1.75514 13.9418 3.38547 13.6932 0.00398234 -0.00466723 -0.000876591
47 1 1.72713 11.9557 5.15358 8.63571 0.00316848 0.00126889 0.00258707
48 1 1.7102 13.5429 6.81499 10.7138 -0.0029718 0.00164923 -0.00539596
49 1 1.72467 8.57515 8.68275 15.5178 0.00399768 0.00067568 0.000255464
50 1 1.69412 10.3985 10.233 3.33954 0.00162968 -0.00199981 -0.000440784
51 1 1.47513 8.52943 12.0624 5.0542 0.00210853 8.19955e-05 0.000486544
52 1 1.77165 10.4778 13.5707 6.90749 -0.00541631 0.00381444 0.00112276
53 1 1.92338 12.1608 8.52272 5.05796 0.000263119 -0.000380323 0.000707747
54 1 1.69266 13.9654 9.93977 7.08681 0.00200375 -0.00203776 -0.0025492
55 1 1.71457 11.9371 12.0047 15.4766 -0.000492358 0.00755297 -0.00225771
56 1 1.3655 13.5323 14.27 2.69692 -0.00680097 0.000121795 0.00349167
57 1 1.87845 8.6425 8.67274 8.55012 0.00192218 -0.000164741 -0.000540941
58 1 1.90095 10.3075 10.1999 10.5708 -0.00268605 -0.00075495 -0.0013646
59 1 1.80082 8.54237 12.1902 11.963 0.00047493 0.00266461 -0.000996513
60 1 1.75044 10.2211 13.9549 13.8764 0.00155844 -0.00230968 -0.00514316
61 1 1.80816 11.9341 8.4978 12.4843 0.000229177 0.000583071 0.00548255
62 1 1.82915 13.8359 10.2445 13.9087 -0.00800427 -0.00128411 0.00397221
63 1 1.79233 12.1944 11.8116 8.7307 -0.00193634 0.000807375 0.00126343
64 1 1.74988 13.7625 13.8677 10.2911 -0.00182231 0.0013663 -0.00524387
65 2 -0.933783 2.74682 2.38261 2.17218 0.00199689 0.00219076 -0.0029151
66 2 -0.889415 2.51188 14.6933 14.6114 -0.0113037 0.001769 0.00195868
67 2 -0.88535 14.9672 2.5658 14.5175 -0.000819652 0.0037167 -0.000130385
68 2 -0.836577 14.7899 15.0626 2.11897 -0.0057021 0.00174876 -0.0039977
69 2 -0.900873 1.96828 4.07749 3.82016 0.00727594 0.00359983 0.00139723
70 2 -0.954614 4.26986 2.92427 4.12529 -0.00120509 0.00309748 -0.00252893
71 2 -0.886758 3.9432 4.48282 2.30665 7.99393e-05 0.00232775 -0.00566651
72 2 -0.929162 2.36088 5.51965 5.70906 -0.000937769 -0.00131294 0.00203428
73 2 -0.911554 14.562 4.02436 5.94428 0.00474218 0.00202265 -0.000268215
74 2 -0.858945 14.3976 6.02033 4.34033 0.000553439 0.00445414 0.00163441
75 2 -0.931655 4.45475 5.59369 7.23488 0.00899512 0.000476186 0.00587632
76 2 -0.888446 4.33435 7.35336 5.42536 0.00483263 -0.0037966 0.00129078
77 2 -0.803974 2.71344 7.54927 6.91207 0.0037542 0.00251603 -0.00146059
78 2 -0.891722 5.73673 2.29716 6.123 -0.000774387 -0.00348179 0.00554393
79 2 -0.89215 3.92233 14.8632 5.47721 0.00200978 0.00193552 0.00271236
80 2 -0.915592 5.81238 15.1206 3.95787 0.00208225 -0.00437745 0.000726179
81 2 -0.888713 6.28744 3.98586 7.88586 -0.00471953 0.00550541 0.00611477
82 2 -0.922878 7.69516 3.98853 5.73123 -0.000566698 0.00258176 0.00175737
83 2 -0.926692 7.99925 2.35046 7.55119 4.60061e-05 0.0044851 0.00851257
84 2 -0.86596 5.73007 6.12923 2.41041 -0.00151816 0.00372126 -0.00333863
85 2 -0.876268 4.06976 6.0187 14.5595 0.00361899 0.0031416 -0.00336236
86 2 -0.956227 5.74475 4.17611 14.7862 -0.00104577 -0.00433036 -0.000172418
87 2 -0.864018 6.31106 7.8751 4.27412 0.00150696 -0.00597828 0.00152944
88 2 -0.850428 7.76387 5.85227 3.95002 -0.00298559 -0.00197496 0.00242943
89 2 -0.863438 7.78065 7.95349 2.47584 -0.00246801 0.00326304 0.000283272
90 2 -0.903217 2.42115 2.49447 9.03789 0.00403282 -0.00552962 -0.00178041
91 2 -0.756917 2.12271 14.7864 7.31651 -0.00229997 -0.0017075 -0.00354701
92 2 -0.864411 14.2901 2.35694 7.89296 0.00893945 -0.00441695 -0.00164015
93 2 -0.861402 14.7381 14.5157 9.27679 0.00695618 -0.00226908 0.0023132
94 2 -0.890529 2.32276 4.11713 10.7683 0.00512304 0.00635409 -0.00337688
95 2 -0.971378 4.20864 2.27694 10.8618 0.00102656 -0.00981641 0.00122708
96 2 -0.910583 4.1581 4.2456 9.2007 0.0045851 0.00310138 0.000979614
97 2 -0.904463 2.44653 6.1527 12.4622 0.00254401 0.000835577 -0.000560603
98 2 -0.878357 14.9959 4.18982 12.9304 0.00480477 -0.00740263 0.00279557
99 2 -0.812484 14.4658 5.60361 11.1755 -0.00588138 0.00151887 -0.00237801
100 2 -0.913802 2.38017 7.95724 14.3892 0.0063621 0.0022192 -8.10658e-05
101 2 -0.95594 4.24301 7.68482 12.6702 0.00236443 -0.00544616 -0.00561698
102 2 -0.919206 5.68942 2.40521 13.1622 -0.00673366 -0.00125435 -0.00231592
103 2 -0.923079 4.17563 14.627 12.6488 -0.00245883 -0.00341706 0.00594823
104 2 -0.907612 6.24683 15.0557 11.2399 -0.00556641 0.00102361 0.00131112
105 2 -0.97367 7.46373 2.3814 14.7706 -0.00430779 -0.0015341 -0.00489412
106 2 -0.976705 7.57545 4.06278 12.9519 0.00110445 -0.00145833 0.0047613
107 2 -0.863814 5.84608 6.08686 9.37126 0.000267619 -0.00513029 -0.00197974
108 2 -0.871194 5.99286 8.07668 10.9538 0.00531697 0.000728688 0.00684816
109 2 -0.91181 7.44987 5.87974 11.2288 0.00273674 -0.00499824 0.0137468
110 2 -0.879591 7.91682 7.60316 9.3735 0.00330888 -0.000538908 0.00163252
111 2 -0.939409 2.63588 9.28548 2.3872 0.00442688 0.00636883 0.00733502
112 2 -0.863589 15.0243 7.4994 2.40333 0.00610598 0.00540063 0.00782046
113 2 -0.829335 14.6661 9.63323 15.138 0.00887134 0.00340737 0.00466708
114 2 -0.866618 2.30246 10.9311 4.18384 0.00289146 -0.00263979 -0.00103788
115 2 -0.996428 4.34977 9.55386 4.16752 -0.00361641 -0.00758966 -0.00202492
116 2 -0.98942 3.98351 11.2468 2.32737 0.0033003 -0.00332948 -0.00940631
117 2 -0.883546 2.74496 12.6779 6.02055 0.00174899 -0.000744637 -0.00251537
118 2 -0.840096 15.2339 10.4393 6.40269 -0.000972454 -0.00138324 0.00283383
119 2 -0.641766 14.6255 12.3844 5.25693 0.00290641 -0.00322434 0.0013038
120 2 -0.872326 4.06263 13.3506 7.81321 0.00265945 -0.00179451 0.010272
121 2 -0.876826 5.81607 9.41133 6.20664 0.00511275 -0.00620113 -0.00143734
122 2 -0.849523 6.04477 11.6195 7.6754 0.00401029 -0.00559474 -0.00480573
123 2 -0.743478 7.60928 10.9082 5.75651 -0.00384117 0.00199179 0.00306455
124 2 -0.914516 7.68351 9.74855 7.9561 0.0032476 0.00323 0.00863694
125 2 -0.933987 5.79488 13.0169 2.45141 -0.00396793 0.0067235 0.00183623
126 2 -0.925929 4.35921 12.9278 14.5505 -0.00288557 -0.00342127 -0.00192922
127 2 -0.978836 5.94344 11.0999 14.8946 -0.000815569 0.00404799 -0.00710225
128 2 -0.947757 7.68225 14.6463 2.3649 -0.00176611 0.00560586 0.00250094
129 2 -0.779051 7.4002 13.1585 4.40174 -0.00124824 -9.87028e-05 0.00161153
130 2 -0.917024 2.02185 9.82592 9.53294 -0.00769902 -0.000156174 0.00310598
131 2 -0.86615 14.3792 8.04687 10.379 0.00246012 -0.00495191 -0.00345814
132 2 -0.853035 14.5773 8.73871 7.99888 -0.00222254 -0.00379633 -0.0084333
133 2 -0.891329 2.43849 11.6503 11.0528 -0.00566629 0.00749721 0.000884669
134 2 -0.934285 3.95429 9.65379 11.2257 0.0029869 -0.00172151 -0.000834943
135 2 -0.88693 4.13845 11.1917 9.29162 0.000378244 -0.00446455 0.00815635
136 2 -0.941726 2.26983 12.964 13.0707 -0.00376556 0.00288995 -0.00722811
137 2 -0.883151 14.7757 10.9746 12.9427 0.00282942 -0.00607974 -0.0041334
138 2 -0.884655 14.5447 13.1268 11.4187 0.00654767 0.000727938 -0.00138406
139 2 -0.965928 5.93936 9.67035 12.8037 -0.0013986 -0.00169458 -0.00464408
140 2 -0.95646 7.69588 9.40557 14.4882 0.00187329 0.00432896 -0.00301696
141 2 -0.925016 7.82613 11.2984 13.0205 -0.00155904 0.00557393 0.00238716
142 2 -0.891253 5.64547 13.3433 9.52219 -0.00966348 -0.00304097 -0.00418029
143 2 -0.958187 7.86733 14.5975 9.25209 0.00152256 -0.000479443 -0.00441527
144 2 -0.890286 7.56751 12.8343 10.962 0.00269026 0.00132069 0.00330343
145 2 -0.896777 9.24322 2.65809 2.35314 0.00357576 0.000901831 -0.00331862
146 2 -0.91859 9.45212 15.002 14.6708 -0.00206173 0.00013693 -0.000891164
147 2 -0.894482 9.7119 4.13562 4.38605 0.00522386 0.00381563 -0.00150371
148 2 -0.913284 10.9701 2.07661 4.11493 -0.00530465 0.000950599 -0.00143673
149 2 -0.879532 11.4729 4.21845 2.65522 0.00127949 -0.00216478 0.00298424
150 2 -0.92242 9.21181 5.96708 6.01876 0.00124818 0.00126171 0.00306212
151 2 -0.830411 10.9471 6.09061 7.8565 -0.000924327 -0.000640574 -0.00399513
152 2 -0.971808 11.3407 7.54871 5.92849 -0.00160533 -0.00109424 0.00260451
153 2 -0.960458 9.41364 7.89673 7.49838 -0.00381727 -0.00137966 0.00121403
154 2 -0.901813 12.7423 2.40499 5.86442 -0.00373748 0.0027585 -0.00692518
155 2 -0.895113 11.3658 14.3191 5.8719 -0.00160275 0.000974021 -0.00168357
156 2 -0.784092 13.0289 14.8722 4.10187 0.00350766 0.00102695 0.00173369
157 2 -0.887983 12.6033 4.3477 7.4994 -0.00399181 0.00261433 0.000777826
158 2 -0.925168 12.8991 6.11639 2.27318 0.00240538 -0.00428059 -0.00820688
159 2 -0.897477 10.9476 5.61844 14.8512 -0.00623099 -0.00491243 -0.00887871
160 2 -0.945521 13.1733 4.1941 14.7972 0.00253763 0.00541727 0.00212061
161 2 -0.937743 13.1846 8.03348 4.03822 0.00935949 0.000492685 0.00191532
162 2 -0.989294 9.7384 2.16089 9.36976 -0.00573383 -0.00269648 0.00267456
163 2 -0.957458 9.63879 14.6763 7.55919 0.00209578 0.00589581 0.00225133
164 2 -0.896648 9.2618 3.87044 11.1884 0.000671963 -0.00532163 -0.0015717
165 2 -0.915714 11.142 2.56502 11.4226 -0.00784444 -0.00275718 0.00318765
166 2 -0.939454 11.2157 4.25725 9.65366 -0.00190533 -0.00903592 -0.00183186
167 2 -0.965922 9.37546 5.82802 12.792 0.00173945 0.00187844 -0.00709342
168 2 -0.883581 9.16711 7.36436 14.8754 -0.00322809 -0.00507122 0.005503
169 2 -0.861129 10.9555 7.75719 13.4735 0.00666294 -0.00343299 -0.00018098
170 2 -0.935969 13.014 2.34785 12.9766 -0.0044876 0.00387278 0.00160575
171 2 -0.935013 11.3219 14.7075 13.1343 0.00369206 -0.000977861 -0.00815287
172 2 -0.875053 12.958 14.9446 11.0199 0.00143019 0.00380142 1.64783e-05
173 2 -0.821378 12.811 6.1878 9.50595 0.00186501 -0.00248466 -0.00110205
174 2 -0.879867 12.4824 7.22642 11.7293 0.00688723 0.00663956 -0.000374998
175 2 -0.91254 9.72147 9.34807 2.13968 -0.0024274 -0.00398622 0.00430673
176 2 -0.835676 9.34503 11.1182 3.98824 -0.00342362 -0.00303044 -0.000610317
177 2 -0.952996 11.2128 9.43656 4.3363 -0.00313886 -0.00595645 0.00116551
178 2 -0.874596 11.3402 11.2597 2.56744 -0.00533094 -0.00562905 -0.0020334
179 2 -0.807706 9.3835 12.7778 6.15608 -0.000808216 0.00088556 0.00240852
180 2 -0.888311 11.1311 12.491 7.78119 0.00174328 0.000601464 0.00542181
181 2 -0.892105 12.9719 9.36487 6.03399 -0.00260232 -0.00252824 -0.000833363
182 2 -0.887424 13.2729 11.0658 7.91515 0.00120153 0.000350838 -0.00238128
183 2 -0.78092 12.5036 13.2904 2.00188 -0.0080727 -0.00223973 -0.00118415
184 2 -0.87932 10.8232 12.8156 14.7749 0.00814213 -0.00229039 0.00950716
185 2 -0.937672 12.9074 11.2605 14.5132 -0.00537613 -0.00438105 -0.00993122
186 2 -0.955404 9.5141 9.29046 9.65697 0.0100749 -0.00156 0.000159664
187 2 -0.938004 9.54751 11.3703 11.1303 -0.00813999 0.000706525 0.00420903
188 2 -0.945862 10.998 9.43978 11.72 -0.00300068 -0.00497147 -0.00598895
189 2 -0.883377 11.3999 10.8719 9.72299 -0.000345948 0.00212153 0.00933217
190 2 -0.919224 9.2635 13.2435 12.8741 -0.00499233 -0.00398884 -0.00754444
191 2 -0.990208 13.0499 9.1835 13.1864 -0.00162315 -0.0125665 0.0016108
192 2 -0.916116 12.7891 12.8384 9.63403 -0.00594486 0.00437089 0.000138324
193 2 -0.579338 14.7651 12.7703 2.66444 -0.00763653 -0.00565105 -0.00737431
194 2 -0.604822 5.01606 5.08798 11.97 0.00114145 0.000911688 -0.00267204
195 2 -0.659419 6.7373 6.8098 13.5634 -0.000167009 0.000672955 -0.00235825
196 2 -0.581166 6.88631 13.94 13.9963 0.00677072 -0.0013579 0.00319744
197 2 -0.664257 15.3301 5.28847 8.34754 -0.00620013 0.00710879 0.00145244
198 2 -0.604715 8.70091 15.573 5.06414 -0.00090118 0.000978114 -0.00602562
199 2 -0.601075 5.1349 8.44697 15.5046 0.00481838 0.00661522 0.00171561
200 2 -0.628096 9.94714 13.3657 3.73573 0.00278982 -0.00493015 -0.00140247
201 2 -0.606833 1.72137 15.5727 11.9542 0.000777398 0.00180499 0.00493265
202 2 -0.621497 10.387 6.83787 3.38416 0.000883653 -0.00257386 -0.00421993
203 2 -0.6596 12.3165 1.65923 1.57251 -0.00591947 0.000423049 -0.00443474
204 2 -0.699786 2.28365 7.36898 9.41857 -0.000267944 -0.000415275 0.00064767
205 3 0.433729 15.4823 13.1561 2.14603 0.036686 -0.00321911 0.0235246
206 3 0.455794 14.3658 12.3756 4.26717 0.0168712 -0.010413 -0.00232977
207 3 0.446067 5.7371 5.71301 12.2503 -0.00260237 -0.00297189 -0.00895855
208 3 0.432236 4.27602 5.60637 11.778 0.017638 0.00040461 0.00192457
209 3 0.430678 6.78081 7.76936 13.5891 -6.02784e-05 -0.0115225 0.00741541
210 3 0.400245 7.62563 6.51472 13.641 0.0154021 0.00649658 -0.00760461
211 3 0.422438 6.4009 14.7764 13.884 -0.00490566 0.00329293 0.0296533
212 3 0.412185 7.82983 14.1488 13.9154 -0.0258419 -0.0190796 -0.0203131
213 3 0.411742 15.4966 5.11345 7.39543 0.021682 0.0230282 0.00897034
214 3 0.446267 1.7362 4.70865 8.8765 -0.0168142 -0.0116533 -0.00616294
215 3 0.420203 8.93383 2.35009 4.8259 -0.0121847 0.0127529 -0.0246143
216 3 0.429453 9.5048 15.1755 5.28852 -0.0375845 0.00380593 0.00710198
217 3 0.406694 4.97544 9.26415 1.75607 -0.0112632 -0.0382966 0.00298407
218 3 0.386674 4.21644 8.12001 15.2759 0.0185639 0.00925264 0.00471135
219 3 0.398835 9.12239 13.8045 3.53326 0.00953464 -0.017623 -0.0229694
220 3 0.440588 10.078 12.727 3.03609 0.00297714 0.0153484 0.0285447
221 3 0.427936 1.50256 14.6845 12.173 -0.0286979 -0.000253212 0.00119087
222 3 0.405728 2.62149 15.4812 11.7197 0.00244119 -0.0115022 -0.0123182
223 3 0.435453 10.1403 7.58723 2.82186 -0.0151062 0.0169061 0.0326648
224 3 0.441954 10.6363 6.06999 2.91102 0.00281227 -0.00265712 -0.0398357
225 3 0.423667 12.2775 15.5611 14.7532 0.012799 0.00277132 0.0060066
226 3 0.406495 12.7782 2.49161 1.56074 0.0015591 -0.00256323 -0.0126528
227 3 0.4416 2.14866 6.71916 8.70171 -0.00428442 0.000844876 0.00537134
228 3 0.467002 2.03389 8.19264 6.61378 0.019997 0.0135873 0.00289076
ITEM: TIMESTEP
8000
ITEM: NUMBER OF ATOMS
228
ITEM: BOX BOUNDS pp pp pp
1.5165765568828471e+00 1.5643423443117005e+01
1.5165765568828471e+00 1.5643423443117005e+01
1.5165765568828471e+00 1.5643423443117005e+01
ITEM: ATOMS id type q x y z vx vy vz
1 1 1.84256 1.75538 1.50171 15.5619 -5.16406e-05 0.00145878 -0.00337962
2 1 1.895 3.44784 3.37726 3.11592 -0.00198745 0.000557598 0.000445081
3 1 1.75065 15.6045 4.93831 4.81956 -0.0028953 0.0028495 -0.00468897
4 1 1.78742 3.37973 6.72454 6.47415 0.00189526 -0.00114404 0.00145187
5 1 1.87572 4.94625 1.69684 5.11556 0.00214945 0.00350048 0.000697263
6 1 1.85667 6.74787 3.42497 6.84364 0.00180628 0.00663695 -0.00302952
7 1 1.87309 5.06381 5.0558 15.3956 0.0119137 -0.00900347 0.000245571
8 1 1.76843 6.85298 6.67124 3.10923 0.00170875 0.00433821 -0.00186978
9 1 1.74956 1.51169 1.60322 8.58411 -0.00170905 -0.00180888 0.00174637
10 1 1.72674 3.22601 3.48371 10.2711 -0.00174328 -0.000178049 0.000278791
11 1 1.86809 15.5649 5.25045 12.0222 -0.00223103 -0.00253049 -0.00410236
12 1 1.75747 3.232 6.96755 13.7384 -0.00226298 0.000482977 -0.00388489
13 1 1.80494 4.97401 1.64402 11.9515 0.000434853 -0.00273705 -0.00751516
14 1 1.79197 6.8756 3.30611 13.708 -0.00277817 -0.00101795 -0.000416095
15 1 1.85574 5.01478 5.21288 8.55014 -0.00475581 -0.00296469 -0.00448156
16 1 1.79155 6.92053 6.99546 10.1746 -0.000208219 0.00280636 -0.00540394
17 1 1.80128 15.6311 8.60209 1.56924 0.00136165 -0.00373326 -0.00100174
18 1 1.73639 3.3269 10.2363 3.48229 -0.00387656 0.00454859 0.00184596
19 1 1.67687 1.84895 11.7754 5.70075 -0.00228047 0.0023121 0.0026105
20 1 1.87971 3.46783 13.9332 6.9708 -0.00520298 -0.000636075 0.00397049
21 1 1.81345 5.2901 8.48697 4.92568 -0.00161838 0.00184701 0.00174861
22 1 1.87938 6.70299 10.4419 6.82385 -0.00248846 -0.00487999 0.00234907
23 1 1.66152 4.90925 12.0731 15.7159 0.00303587 0.00977003 0.00578004
24 1 1.82878 6.58681 13.9944 3.30708 0.00206742 -0.00123958 -8.96333e-05
25 1 1.54072 15.2346 8.56427 9.26717 0.00485666 0.00475491 0.0043704
26 1 1.82698 3.14578 10.3514 10.5138 -0.00314791 -0.00123966 0.00128103
27 1 1.74897 15.5298 12.1292 12.2218 -0.000361135 -0.00146899 -0.00323991
28 1 1.68106 3.35557 13.8743 13.7694 -0.00353833 0.000646252 0.00325508
29 1 1.84702 5.13312 8.63763 12.052 0.0024884 -0.00119867 -0.00336913
30 1 1.77565 6.76703 10.4267 13.9022 -0.00565269 0.00421225 0.00734279
31 1 1.78012 4.99312 11.9782 8.72949 0.0026932 -0.000520293 -0.00361381
32 1 1.73015 6.76089 13.863 10.2493 0.00470543 0.00554442 0.000535518
33 1 1.76656 8.43794 15.6895 15.6247 0.000984612 0.00223977 -0.00296226
34 1 1.80372 10.4287 3.25391 3.14314 -0.00269318 0.00634281 0.00172774
35 1 1.74248 8.58764 4.98953 4.89993 -0.00435764 0.00676427 0.00156864
36 1 1.7895 10.2893 6.74514 6.67622 0.00282598 -0.00298347 -0.00125928
37 1 1.76687 12.0684 15.4963 4.90239 -0.000569387 0.00197619 -0.000560858
38 1 1.74877 13.8272 3.19646 6.63229 0.00321248 -0.00360708 -0.000151883
39 1 1.8299 12.2033 4.94947 15.4786 -0.00373868 0.000987156 0.00162168
40 1 1.82835 13.8132 6.78149 3.19123 0.00125409 0.00141846 -0.0032212
41 1 1.77057 8.49519 15.6949 8.51845 3.90319e-05 0.00323778 -0.00267274
42 1 1.82269 10.3824 3.07046 10.2883 -0.000195867 -0.00211882 0.00119882
43 1 1.76456 8.58239 4.98124 11.8143 -0.00414477 8.51249e-05 -0.00550697
44 1 1.75509 10.188 6.65341 13.8868 -0.0011119 0.00218119 0.00143905
45 1 1.70193 12.1389 15.5848 12.1594 -0.00432013 0.000177352 -0.00104956
46 1 1.78223 14.1183 3.27164 13.7707 -0.00240998 0.00437748 -0.00453497
47 1 1.70312 11.9092 4.84216 8.36906 -0.000540882 -0.00225984 -0.000386819
48 1 1.73599 13.3504 6.55414 10.4604 0.00191652 0.00181499 0.00164086
49 1 1.76827 8.59975 8.60503 15.623 -0.00277776 -0.000869459 -0.00383329
50 1 1.78027 10.3611 10.2413 3.42032 -0.00411205 -0.00331947 0.0016687
51 1 1.65844 8.48273 12.2694 4.98811 -0.00065253 0.00159407 -0.00153451
52 1 1.77369 10.3574 13.8532 6.86534 0.00172587 0.000415283 0.000190702
53 1 1.80167 12.2257 8.5144 5.11572 0.00220771 -0.000800544 -0.00116368
54 1 1.72649 13.9019 10.1942 7.11024 -0.000133619 -0.00224981 0.00194746
55 1 1.67934 11.889 11.8675 15.4911 -0.00280029 -0.00298933 0.00252209
56 1 1.43999 13.6163 14.0445 2.68706 -0.00289251 -0.00279065 -0.0052437
57 1 1.80163 8.66033 8.71808 8.38385 -0.00153854 0.00303876 0.00534704
58 1 1.93566 10.2552 10.3562 10.3743 0.0020915 0.00456709 0.00184163
59 1 1.80895 8.52606 12.1744 12.0417 0.00613765 -0.00129501 0.00155933
60 1 1.75266 10.23 13.8791 13.8569 0.00164065 0.00200091 -0.00316771
61 1 1.77974 11.8975 8.52763 12.2045 -0.00140253 0.00101115 -3.99246e-05
62 1 1.79131 13.8451 10.1337 13.8288 -0.00218313 -0.0033483 0.00428365
63 1 1.86116 12.0231 12.0854 8.63653 0.00378749 0.000707998 -0.00167915
64 1 1.76064 13.8673 13.8921 10.2807 0.0032875 -0.00353257 0.00309988
65 2 -0.940049 2.59437 2.35904 2.4115 0.000344145 0.00464287 0.00709107
66 2 -0.996617 2.6167 14.6162 14.9244 0.00375754 -0.00722884 0.00558724
67 2 -0.901407 15.1066 2.49126 14.6466 -0.00482395 -0.00097691 0.00232809
68 2 -0.899558 14.6272 15.0427 2.10435 -0.00188971 -0.000168671 -0.00124988
69 2 -0.909903 2.40589 4.32871 3.76716 -0.00728878 0.00035532 0.00215136
70 2 -0.958478 4.16205 2.73864 4.33088 -0.00258585 -0.00192393 -0.000422014
71 2 -0.964347 4.38316 3.97563 2.08334 -0.00363272 0.00116131 -0.00742195
72 2 -0.953247 2.33795 5.89117 5.79881 0.000623362 0.000895387 -0.00541243
73 2 -0.90069 14.9253 3.90061 5.74982 0.000279501 0.000860443 -0.000127248
74 2 -0.911282 14.504 5.77997 4.12665 0.000797416 -0.00360448 0.00120075
75 2 -0.946799 4.00007 5.97689 7.68585 -0.000539296 -0.00520338 0.00239022
76 2 -0.91614 4.46034 7.34182 5.59238 0.00181735 -0.00103568 0.00600966
77 2 -0.83282 2.69253 8.01148 6.87807 -0.00184643 0.00740689 -0.00245558
78 2 -0.926241 5.7781 2.40816 6.19801 -0.00338663 -0.000953514 0.0047312
79 2 -0.945878 4.08843 14.7869 5.87247 0.00206206 0.00205391 -0.00721038
80 2 -0.932679 5.86686 15.0562 4.17023 -0.00124327 0.0047491 0.00495612
81 2 -0.954953 6.00742 4.47098 7.64091 0.002052 -0.00381569 0.000337174
82 2 -0.93572 7.72728 4.04745 5.81547 -0.0014513 0.00328188 -0.000614559
83 2 -0.929068 7.644 2.62002 7.83519 0.00197751 -0.000188162 -0.00202416
84 2 -0.897459 5.68011 5.93432 2.40151 0.00692064 0.00172646 0.00434462
85 2 -0.895203 4.02598 5.81381 14.5674 -0.000808856 -0.00190358 -0.0009705
86 2 -0.91952 6.18519 4.36709 14.667 0.00443996 0.00351888 -0.00558398
87 2 -0.860353 6.38401 7.73506 4.17754 -0.00197576 -0.00560259 0.00209981
88 2 -0.901691 7.68587 5.59314 3.79324 -0.00549026 -0.00463861 -0.00235023
89 2 -0.886644 7.52175 7.72218 2.20672 -0.00677346 -0.00162655 0.00590108
90 2 -0.905669 2.14694 2.77179 9.36949 -0.00475554 -0.00284443 0.0011561
91 2 -0.872762 2.65 14.9532 7.86836 0.00391395 0.00376526 0.00237478
92 2 -0.880913 14.5787 2.25705 7.61301 0.00398146 0.00413281 -0.00766791
93 2 -0.899465 14.932 14.6897 9.4992 -0.000270299 -0.000545545 0.00353359
94 2 -0.916623 2.36805 4.55881 11.0181 0.00384578 -0.00179656 0.00194407
95 2 -0.953429 4.02211 2.36144 11.0852 -0.00423903 -0.00888366 0.0017983
96 2 -0.945805 4.20759 4.20264 9.32006 -0.000922079 0.00154369 -0.00531258
97 2 -0.921112 2.12626 6.26536 12.9098 0.00068015 -0.00149429 0.00137519
98 2 -0.909686 15.0441 4.11257 12.8926 0.00201756 -0.00746276 0.00265618
99 2 -0.939071 14.2694 5.67238 11.2859 0.00514614 0.00248352 -0.0012761
100 2 -0.933387 2.45546 7.93121 14.7433 0.00649928 0.00112186 -0.00121264
101 2 -0.960382 4.18733 7.6802 12.7863 -0.00302576 -0.00379375 -0.00264221
102 2 -0.935587 5.70261 2.5316 12.979 0.00852032 0.00550301 0.00501431
103 2 -0.96745 4.15896 14.7149 12.7461 -0.0056397 -0.00253902 0.000155145
104 2 -0.871284 6.0032 14.997 11.0277 0.00627121 -0.000365444 0.000407673
105 2 -0.961031 7.73753 2.35828 14.5352 -0.00309551 0.00523771 -0.000790864
106 2 -0.953442 7.69638 4.01186 12.6619 0.00425138 0.00321765 0.00505463
107 2 -0.904588 5.83414 6.28633 9.37337 0.000263828 -0.00413098 0.00308295
108 2 -0.956882 6.17327 7.83678 11.2006 -0.000165558 -0.00284449 0.00865107
109 2 -0.96474 7.60393 5.87175 11.0598 -3.64404e-05 9.10778e-05 -0.00528647
110 2 -0.938588 7.90683 7.68649 9.18758 0.0059249 -0.0013778 0.00105917
111 2 -0.949236 2.40912 9.31101 2.67754 -0.00104047 0.001591 0.00574097
112 2 -0.900414 14.8353 7.48147 2.26731 0.000523807 0.000656772 -0.00225203
113 2 -0.939874 14.5931 9.46736 14.975 -0.00180718 0.000283373 -0.00475549
114 2 -0.947119 2.62813 11.1808 4.5479 0.00677183 -0.00107824 0.010188
115 2 -1.01329 4.45366 9.3982 4.07958 -0.000780723 -0.000314132 0.00180349
116 2 -0.930238 3.97546 11.196 2.41214 -0.00510453 -0.00153336 0.00259981
117 2 -0.950409 2.51163 12.9632 6.38341 -0.00421842 -0.00314542 0.0091188
118 2 -0.903732 15.2397 10.8691 6.73814 -0.00290331 -0.00758627 0.00496176
119 2 -0.68777 14.6871 12.2519 4.93654 -0.00315238 0.00104228 -0.00081719
120 2 -0.926476 4.45389 13.1336 7.82652 0.00601887 0.00577829 0.0022118
121 2 -0.908713 6.04025 9.32795 6.03126 0.000667631 0.00840707 -0.0105807
122 2 -0.936865 5.65153 10.9681 7.79425 9.62034e-05 0.00196897 0.00729578
123 2 -0.830448 7.54752 11.4104 5.96914 0.00255316 -0.00269927 -0.00241469
124 2 -0.906772 7.68012 9.78924 7.73115 0.00170013 0.00573178 0.00146181
125 2 -0.917331 5.62155 13.3062 2.351 0.00436834 -0.00477569 0.00287583
126 2 -0.874776 4.19187 12.7598 14.5247 -0.00317755 -0.00409024 0.00430621
127 2 -0.939986 5.97295 11.226 14.9608 -0.00663529 -0.00253731 -0.000250793
128 2 -0.94838 7.57966 14.8061 2.45327 -0.00429969 0.000973394 2.35959e-05
129 2 -0.902203 7.34534 12.9585 4.13269 -0.00322816 -0.00842781 0.00392381
130 2 -0.85876 1.84387 9.75743 9.95663 0.00358015 -0.00179584 -0.00458183
131 2 -0.801382 14.0902 7.85469 10.0539 -0.00341499 0.00376555 0.0054966
132 2 -0.821038 14.4421 8.99602 7.97541 0.00232293 -0.00615931 -0.00122754
133 2 -0.869053 2.59556 11.3914 11.4672 0.00261455 -0.000276503 -0.00146544
134 2 -0.937168 4.1888 9.40088 11.0927 0.00186396 -0.000811484 -0.00255585
135 2 -0.877813 3.80404 11.2848 9.48976 0.00193605 0.00292042 0.00437792
136 2 -0.911567 2.12775 13.1787 13.0421 0.00287867 -0.000397748 -0.000224968
137 2 -0.91098 14.8045 11.0046 12.9524 0.000237271 0.00601253 0.00696633
138 2 -0.914435 14.5085 13.0179 11.4184 0.00243936 -0.00684022 -0.00020025
139 2 -0.956539 5.92612 9.56823 12.9797 0.00576225 0.0033726 -0.00530575
140 2 -0.947385 7.77553 9.45423 14.664 0.000505532 -0.00285356 -0.00177648
141 2 -0.869377 7.44704 11.4433 12.9481 -0.000712762 -0.00110305 3.40453e-05
142 2 -0.888996 5.93125 12.6605 9.75785 0.000529768 0.00420525 -0.000211806
143 2 -0.816046 7.56382 14.5647 9.05691 0.000464932 -0.00750768 0.00477365
144 2 -0.872335 7.83805 13.1688 11.0974 -0.00326362 0.00622886 -0.00196145
145 2 -0.932085 9.35624 2.56905 2.26634 -0.00964261 0.00733139 -0.00646759
146 2 -0.911284 9.36308 14.6327 14.9834 -0.00288608 0.000784144 0.000770229
147 2 -0.906919 9.71762 4.14091 4.18336 0.0034342 0.00572872 0.00023168
148 2 -0.937713 11.1626 2.18776 3.96617 0.00176571 -0.00553319 -0.00189201
149 2 -0.915439 11.534 4.00658 2.39633 0.000285327 -0.0023611 -0.00371487
150 2 -0.889908 9.2679 6.0958 5.74077 0.00263822 -0.00341752 0.00575237
151 2 -0.881407 10.8117 5.59767 7.58604 0.00617697 -3.47263e-05 0.00110106
152 2 -0.892625 11.4683 7.43624 5.96089 0.00111126 0.00241077 0.00451153
153 2 -0.86168 9.59575 7.9335 7.40666 -0.000542459 0.00630359 -0.00267575
154 2 -0.871853 12.9522 2.39023 5.65115 0.0027277 0.00120039 0.00634601
155 2 -0.936562 11.133 14.8137 5.91418 0.00324354 0.0032803 -0.000357927
156 2 -0.790957 13.0015 14.5453 4.07123 0.00174508 -0.000545997 -0.0088302
157 2 -0.864446 12.9788 4.25094 7.35838 0.00163781 -0.000182598 -0.00479645
158 2 -0.912927 12.8824 6.03595 2.23641 0.00266783 -0.00116873 -0.00520958
159 2 -0.948428 11.04 5.66814 14.805 -0.00134347 -0.00204951 0.000963413
160 2 -0.989504 13.1218 4.0673 14.69 0.00315332 0.0038926 -0.00160658
161 2 -0.934609 13.0431 7.83658 4.03728 -0.00396479 -0.00550319 0.00186752
162 2 -0.905296 9.32595 2.15598 9.69781 -0.00472302 -0.00131592 0.00233544
163 2 -0.861463 9.55927 14.8024 7.83395 -0.000308476 0.00627185 0.00124734
164 2 -0.929198 9.63417 4.20472 11.0223 0.00139749 0.00724467 -0.00318208
165 2 -0.904863 11.2155 2.39626 11.3765 -0.00670092 -0.00535074 0.00466003
166 2 -0.910425 11.2902 3.66538 9.16844 -0.00268854 0.00262105 0.00317402
167 2 -0.93213 9.28332 5.96281 12.8658 0.00208093 -0.00144257 0.00338308
168 2 -0.951306 9.36135 7.50023 14.8434 0.00335432 -0.00650438 0.00123419
169 2 -0.888098 11.0065 7.79549 13.2437 3.99644e-05 -0.00133785 0.000518347
170 2 -0.913482 13.1075 2.25616 13.0947 -0.00331171 -0.00101721 0.0050298
171 2 -0.947865 11.3375 14.6637 13.2199 0.00375764 -0.00602612 -0.00514423
172 2 -0.881165 12.8945 14.8506 11.015 -0.00486646 0.00143656 -0.00132566
173 2 -0.853706 12.7108 5.94499 9.15356 0.00244762 -0.00393384 0.00130677
174 2 -0.867508 12.3687 7.31953 11.3657 0.00259295 -0.00345308 -0.000427367
175 2 -0.952858 9.49028 9.26105 2.55184 -0.000196098 0.00375918 0.00137546
176 2 -0.808274 9.29729 11.0963 4.18864 0.00149297 0.00437321 -0.0031166
177 2 -0.942571 11.1673 9.33723 4.38731 -0.00391469 -0.00136997 0.00162827
178 2 -0.960035 11.2072 11.098 2.53965 0.00527027 0.000887373 0.00365086
179 2 -0.854595 9.34418 12.8964 6.13657 -0.00193903 -0.00226501 0.00101757
180 2 -0.928879 11.3322 12.9925 7.60363 0.00552033 0.00195705 -0.000916267
181 2 -0.868447 13.1562 9.50222 5.92261 0.00709588 0.00168061 0.00290117
182 2 -0.900758 12.887 11.0089 7.92509 0.00124434 -0.00175534 0.00255563
183 2 -0.844308 12.5301 13.0341 2.17577 -0.00378171 -0.00342531 -0.00537137
184 2 -0.823949 10.8523 12.6845 14.6835 0.00613397 -0.00115249 -0.00209885
185 2 -0.874507 12.7127 11.0552 14.4532 -0.00172977 0.00324839 0.000502282
186 2 -0.921881 9.6827 9.41685 9.31721 -0.0028488 0.00318127 -0.00152784
187 2 -0.929758 9.15911 11.0376 11.1906 -0.000957466 0.00399326 -0.000675276
188 2 -0.948197 11.1179 9.56779 11.3065 -0.00252885 0.00357754 0.00275244
189 2 -0.952138 11.0763 11.4157 9.66197 0.00441119 -0.00473138 -0.00421021
190 2 -0.910837 9.53636 12.9076 12.9228 -0.00418682 0.00246899 0.00566412
191 2 -0.90257 13.0775 9.0974 13.0199 0.0042913 2.96611e-05 -0.0130423
192 2 -0.895208 13.0031 13.0088 9.36751 0.00161268 -0.00717859 -0.00482498
193 2 -0.617022 15.0017 12.6858 2.48139 -0.00545579 -0.00335574 -0.00244364
194 2 -0.606429 5.0881 5.1803 11.7964 -0.00530826 -0.00528681 -0.0019953
195 2 -0.627304 6.69014 6.95957 13.6469 0.00671975 0.00364556 -0.00605301
196 2 -0.598191 6.72962 13.9929 13.8014 -0.000177936 0.0037138 0.00011328
197 2 -0.63552 15.5407 5.33312 8.281 0.00512874 -0.00277905 0.00144762
198 2 -0.600162 8.53956 15.7729 5.06422 0.00336089 0.000739251 -0.0033859
199 2 -0.611238 4.93928 8.65036 1.48431 0.00502786 -0.00391074 -0.00610238
200 2 -0.679104 9.82739 13.397 3.47574 -0.00784258 -0.00151221 -0.00137864
201 2 -0.606759 1.5282 1.48355 11.9728 0.00102975 -0.00423943 -0.00748904
202 2 -0.578772 10.3968 6.75324 3.21716 0.0063944 -0.00297011 -0.00441843
203 2 -0.635031 12.3838 15.6096 1.55347 -0.000739476 -0.0119216 0.0029551
204 2 -0.666693 2.28493 7.53122 9.31887 -0.00674328 -0.00446433 0.00444878
205 3 0.409842 15.8478 13.1164 2.19571 -0.0211522 -0.00279827 0.037462
206 3 0.458197 14.817 12.1151 3.96538 -0.0129228 0.00614818 0.0018665
207 3 0.426458 6.02296 4.9631 11.899 0.0149228 -0.0168715 -0.0102625
208 3 0.440588 5.08501 6.118 11.7941 0.00923567 -0.0149293 -0.00626201
209 3 0.437371 6.80395 7.69547 14.214 0.012541 -0.00315764 -0.00212387
210 3 0.414013 7.53922 6.96563 13.1733 -0.00422064 0.012915 -0.00729523
211 3 0.402785 6.32517 14.7681 14.0816 0.000942554 -0.00389069 0.00511302
212 3 0.416861 6.18739 13.2635 14.1695 -0.00641445 0.00411817 -0.00488562
213 3 0.417508 15.4606 5.03375 7.31502 0.0125057 -0.00808505 0.0285809
214 3 0.436285 1.8646 4.66919 8.84707 -0.0137411 0.0101506 -0.00310568
215 3 0.415324 8.73621 2.58446 4.91089 -0.00114185 0.0178024 -0.00791566
216 3 0.403822 9.38295 15.3221 4.97685 0.00015852 -0.0183617 -0.00973223
217 3 0.417256 5.07584 9.52052 1.80519 -0.0167698 0.00236697 -0.0031485
218 3 0.409351 4.0318 8.44994 1.81307 -0.0457792 0.000454428 -0.00584042
219 3 0.421451 9.42773 13.9643 2.74884 0.00912105 -0.024513 0.000243294
220 3 0.442193 10.6224 13.0236 3.04281 -0.00367826 0.00952891 0.0158566
221 3 0.409392 15.2084 14.7672 12.1359 -0.00988498 0.00968281 0.0367147
222 3 0.427134 2.44731 1.30423 11.884 -0.00960536 0.0369438 -0.00921176
223 3 0.425369 10.333 7.67796 3.49703 -0.0142315 -0.000928846 -0.0271275
224 3 0.438229 10.5584 6.8079 2.28821 0.0144744 -0.00653606 0.0112542
225 3 0.424516 12.4493 15.3709 14.7031 -0.00896578 -0.000560966 0.014059
226 3 0.446674 12.7037 2.39569 1.64186 -0.0104121 -0.00505261 0.00714635
227 3 0.445929 2.25667 6.8906 8.51917 0.0257411 -0.0101139 0.00994673
228 3 0.459949 2.25431 8.85329 6.73227 0.0369462 0.0129984 0.00670523
ITEM: TIMESTEP
9000
ITEM: NUMBER OF ATOMS
228
ITEM: BOX BOUNDS pp pp pp
1.5147089513615448e+00 1.5645291048638272e+01
1.5147089513615448e+00 1.5645291048638272e+01
1.5147089513615448e+00 1.5645291048638272e+01
ITEM: ATOMS id type q x y z vx vy vz
1 1 1.74843 1.58631 1.62906 15.6587 -0.00288126 0.00390021 -0.00266441
2 1 1.82315 3.31377 3.32018 3.34535 0.00395555 -0.00362455 -0.00346621
3 1 1.73497 15.4696 5.00509 4.99581 -0.0011594 -0.00512607 -0.00169764
4 1 1.74562 3.61685 6.67674 6.21032 -0.00282516 0.00542796 -0.00629474
5 1 1.88216 5.01596 1.51203 5.02078 -0.00110737 0.000926003 -0.00349629
6 1 1.62163 6.86325 3.22465 6.82456 0.00307596 0.000469279 0.000449655
7 1 1.88627 4.84609 5.06894 15.5743 0.00201548 -0.00110767 0.0097084
8 1 1.66792 6.85624 6.73775 3.02351 -0.00639855 -0.00152829 -0.00192626
9 1 1.73777 1.44024 15.5269 8.56794 2.32172e-05 0.00175838 -1.21376e-05
10 1 1.78714 3.17993 3.39318 10.1059 0.00479508 -0.00592849 -0.00141573
11 1 1.73266 15.45 5.11476 11.9746 0.00724529 -0.00120339 -0.00287473
12 1 1.81213 3.1267 6.80863 13.7507 -0.000853388 -0.00229448 0.000314681
13 1 1.73261 5.08651 1.77649 11.9767 0.00464299 -0.00375387 0.00219445
14 1 1.73113 6.76278 3.44687 13.9252 0.00206318 0.00356236 -0.000590305
15 1 1.91441 5.01862 5.07473 8.39479 0.00228195 0.002201 -0.0015124
16 1 1.79082 6.63262 6.91196 10.1881 0.000439544 0.00301968 0.00176555
17 1 1.76092 1.53504 8.57252 1.55856 -0.00101087 -0.00146743 -0.00294909
18 1 1.73439 3.30088 10.4135 3.33763 -0.00246063 0.00474192 0.000732376
19 1 1.57031 1.79877 11.7538 5.62641 0.00434731 1.28278e-05 0.000999503
20 1 1.75558 3.43545 13.9031 6.90791 0.00478993 0.00391034 0.000232705
21 1 1.74529 5.38179 8.72585 4.83101 0.00516057 0.00573048 0.00071882
22 1 1.71186 6.74345 10.5103 6.86991 0.00316582 0.0031301 -0.00285527
23 1 1.62283 4.95802 12.2219 15.5716 0.00494103 -0.00503661 -0.000990956
24 1 1.74173 6.7521 14.0351 3.17966 -0.00449636 -0.0013317 0.000142215
25 1 1.49805 15.4673 8.58663 9.49259 -0.00292268 -0.00261646 0.00321325
26 1 1.79405 3.24077 10.6292 10.6102 0.0034769 -0.00394417 -0.00188833
27 1 1.82341 15.4754 12.2739 12.3164 6.6561e-05 0.000348193 -0.00106452
28 1 1.6857 3.25925 14.1279 13.7669 0.00320284 -9.48609e-05 -0.00188944
29 1 1.7653 4.97325 8.65456 12.068 0.000526609 -9.02414e-05 -0.00521996
30 1 1.75139 6.76402 10.4551 13.7881 0.000930685 -0.000284024 0.0044333
31 1 1.7401 5.11881 12.2143 8.78911 0.00171933 -0.00109228 -0.000106252
32 1 1.85714 6.86602 14.1081 10.3158 0.0034375 0.000391677 0.00237703
33 1 1.7782 8.64067 1.6065 15.4959 -0.00176174 0.00264901 0.00232061
34 1 1.7366 10.469 3.21638 3.23326 0.000628758 0.00200962 0.00781126
35 1 1.80173 8.51736 4.88223 4.91697 -0.00115315 0.00279509 0.00045535
36 1 1.82439 10.1426 6.67153 6.74552 5.95484e-05 -0.00104833 0.00106613
37 1 1.72606 12.1972 15.5846 5.0319 0.00137015 -0.00148675 0.000529611
38 1 1.77456 13.7741 3.2363 6.9234 -0.00336643 0.0021727 0.00224683
39 1 1.70792 12.1617 5.05394 15.5354 0.00333016 0.00190628 0.00634441
40 1 1.7643 13.8299 6.80343 3.21194 0.000275727 -0.002087 -0.00592312
41 1 1.7746 8.78235 15.6002 8.48817 -0.00158609 -0.00251931 -0.00293656
42 1 1.91129 10.2725 3.30278 10.364 0.000923766 0.00238519 0.00201146
43 1 1.76179 8.49841 5.10798 11.9427 0.00606498 0.00413029 0.00101837
44 1 1.73998 10.2369 6.83345 13.8157 0.00549063 0.00282304 -0.000143278
45 1 1.75672 12.0327 15.6058 12.0955 0.000124305 0.00389589 -0.00197089
46 1 1.66417 13.9374 3.21121 13.7986 0.00174233 0.000557794 -0.000386225
47 1 1.88776 11.9299 5.02715 8.54644 -0.00181361 0.00233578 -0.00179566
48 1 1.84522 13.4237 6.69501 10.5413 -0.00650944 -0.002961 0.00229819
49 1 1.72926 8.56784 8.69152 15.4908 0.00134142 -0.00292526 0.00463613
50 1 1.74339 10.3545 10.1367 3.45877 0.00532667 -0.00365908 0.000261587
51 1 1.61596 8.54602 12.2264 4.9958 -9.25548e-05 0.00119115 -0.00342805
52 1 1.75949 10.5067 13.6512 6.78543 -0.00237402 -0.00234208 0.00162603
53 1 1.79753 12.129 8.38442 5.11824 0.00206656 -0.00263026 -0.00228506
54 1 1.72077 14.0435 9.86396 7.04848 0.000424548 0.00221899 -0.000925417
55 1 1.72008 11.8638 11.83 15.4684 -0.00224384 0.00262222 0.00112694
56 1 1.37883 13.5777 14.0228 2.72561 0.000576937 0.00246992 -0.00058696
57 1 1.78615 8.48405 8.62068 8.4726 -0.00271363 -0.00345103 0.00583244
58 1 1.78408 10.3127 10.2764 10.212 0.0010995 0.000683043 -0.00369988
59 1 1.78304 8.5486 12.072 11.9021 0.00441109 -0.00326253 8.84801e-05
60 1 1.70816 10.2439 13.7735 13.773 -0.00192191 -0.00270394 -0.00159488
61 1 1.71412 11.9703 8.71152 12.1678 -2.26088e-05 -0.00117556 0.000653789
62 1 1.88883 13.8952 10.2749 13.8882 0.00276303 0.00396748 0.00241529
63 1 1.92133 12.2553 11.8745 8.5021 0.00564284 -0.00222112 0.00127616
64 1 1.80214 13.7123 13.7859 10.2591 0.000772678 -0.000618442 0.00425941
65 2 -0.867625 2.50066 2.2024 2.60293 0.00359138 0.00405238 0.00534364
66 2 -0.869278 2.64939 15.1601 14.6889 -0.0016472 0.00141563 -0.00220093
67 2 -0.894645 14.9302 2.66255 14.9029 0.00253042 -0.00312403 0.00460198
68 2 -0.862984 14.8667 14.5295 2.01367 0.00526886 -0.00124217 0.00464939
69 2 -0.856216 2.13352 4.05315 4.00064 0.00740419 -0.00430698 0.000698259
70 2 -0.950315 4.19959 2.61491 4.40787 0.00260059 -9.93725e-05 0.00223797
71 2 -0.956804 4.18828 4.03968 2.33983 0.000887928 -0.000989346 -0.000499692
72 2 -0.928485 2.48961 5.89329 5.4193 -0.0018162 -0.00284117 0.00191036
73 2 -0.88288 14.8714 4.07191 6.10076 -0.00225014 -0.00117945 -0.00156822
74 2 -0.879191 14.3571 5.66922 4.20525 0.00168074 0.00342264 0.00732219
75 2 -0.967155 4.34221 5.7227 7.18743 0.000937848 -0.00367732 0.000597895
76 2 -0.880134 4.32728 7.77772 5.43672 -0.00168431 0.00399582 2.30278e-06
77 2 -0.792291 2.73846 7.59907 7.00929 -0.000602505 -0.00817136 -0.00174311
78 2 -0.857971 5.9681 2.09968 6.11687 -0.00580258 -0.00217126 -2.30952e-05
79 2 -0.89168 4.14104 14.6769 5.75073 0.00182658 0.000918937 0.00160935
80 2 -0.940251 5.75035 14.762 4.00075 -0.000255957 -0.00063436 0.0053738
81 2 -0.901024 6.08266 4.12757 7.86749 -0.00456123 -0.0113944 0.000295722
82 2 -0.91115 7.53443 3.94336 5.61762 -0.000360402 0.00570294 -0.00237644
83 2 -0.87297 8.09041 2.44858 7.50267 0.00229185 0.000704031 0.000572793
84 2 -0.880232 5.59726 6.0298 2.3886 -0.00388945 -0.0063941 0.000927715
85 2 -0.959109 3.8043 5.80649 14.7395 -0.00469031 0.000992847 -0.00521797
86 2 -0.97173 5.98356 4.3219 14.8839 0.00309533 -0.00652802 -0.00027264
87 2 -0.915173 6.2234 7.69576 4.04577 -0.00114201 -0.00683789 -0.00656994
88 2 -0.84761 7.73694 5.65882 3.77106 -0.00508048 0.000295101 -0.00345316
89 2 -0.894172 7.49688 7.75176 1.98898 -0.000718611 -0.00224466 -0.000197772
90 2 -0.921686 2.15129 2.5181 9.32752 -0.00325534 -0.00220906 0.00245428
91 2 -0.886964 2.3219 14.82 7.43712 -0.000724106 0.00264644 0.0026047
92 2 -0.901427 14.5416 2.31899 7.85858 0.000217276 0.00208461 -0.00458429
93 2 -0.909285 14.7904 14.466 9.40764 -0.00548811 0.00142985 0.00144476
94 2 -0.873699 2.19474 4.34596 10.8242 -0.00612366 -0.00542382 -0.00368727
95 2 -0.925658 4.04194 2.55963 11.0965 -0.0105548 0.00240949 -0.00476106
96 2 -0.990707 4.0136 4.19129 9.1438 0.00173915 0.00945137 0.00332817
97 2 -0.923222 2.1106 6.08725 12.8167 -0.00258615 -0.00101389 -0.00124931
98 2 -0.822813 14.9848 4.00674 12.8679 -9.34932e-05 0.00078588 -0.00456389
99 2 -0.92466 14.0724 5.62783 11.4135 -0.00219198 -0.00175949 0.00195087
100 2 -0.943772 2.48668 7.79873 14.7077 -0.0019013 0.00302086 -0.0046848
101 2 -0.933596 4.02319 7.62227 12.8053 0.00148945 -0.000782793 0.00339333
102 2 -0.948869 5.85602 2.52507 13.0786 -0.00598314 0.00711944 -0.000765248
103 2 -0.889767 4.09199 14.8964 12.6381 0.00272115 0.00528661 -0.00167096
104 2 -0.946679 6.11501 15.1647 11.0831 0.0020142 -0.00463776 0.000425296
105 2 -0.926352 7.77426 2.40208 14.5213 -0.000307143 -0.000188234 -0.00189687
106 2 -0.934132 7.70323 4.1668 12.8305 -0.00183029 0.00121367 -0.000813345
107 2 -0.952302 5.67192 6.12887 9.24248 -0.00230273 0.00439965 -0.00217956
108 2 -0.912029 5.91172 7.69629 11.283 0.000274922 -0.00115364 0.00106655
109 2 -0.894546 7.58373 5.86823 10.9355 -0.00595102 -0.00053524 -0.00402569
110 2 -0.916006 7.51057 7.87855 9.37108 0.00118291 0.00181965 -0.00163337
111 2 -0.904634 2.58028 9.3585 2.48994 -0.00390394 0.00164992 -0.00337176
112 2 -0.894163 14.9863 7.61893 2.52047 0.00551779 0.00226585 -0.00159658
113 2 -0.924115 14.6116 9.44911 15.0347 -0.000524101 -0.00636815 0.00171229
114 2 -0.874475 2.38641 11.3049 4.1738 0.00411297 0.00846582 0.00654441
115 2 -0.920329 4.57443 9.7217 3.93426 -0.00768338 0.00323042 -0.00282584
116 2 -0.842504 3.87797 11.3941 2.2898 -0.00132775 0.00107575 -0.00846872
117 2 -0.835416 2.89571 12.6019 6.27779 0.00659201 0.00443832 0.00548961
118 2 -0.841286 15.2489 10.5055 6.30186 -0.00465169 -0.00307774 -0.00184399
119 2 -0.689141 14.7447 12.7286 5.69695 -0.00327713 0.00825092 0.00287285
120 2 -0.851644 4.49463 13.2643 7.85334 -0.00196631 -0.000982362 0.00871581
121 2 -0.881788 6.05794 9.36113 6.04549 -0.00331104 -0.00208699 -0.00232481
122 2 -0.86367 5.74464 11.0866 7.93103 0.00476451 -0.000364957 0.00236948
123 2 -0.769933 7.38512 11.519 5.912 -0.00342578 -0.00376122 0.00743973
124 2 -0.850746 7.86963 9.88117 7.70248 -0.00304553 0.00325136 -0.00208824
125 2 -0.891349 6.00771 13.0115 2.25707 0.00644073 -0.00659841 0.00335222
126 2 -0.841767 4.30137 13.3293 14.6367 -0.00148635 0.0045917 -0.000665482
127 2 -0.878595 5.72557 11.3249 14.52 0.00126523 0.00531268 -0.0032595
128 2 -0.94327 7.79437 14.9035 2.38555 -0.000622975 -0.00312133 -0.00289064
129 2 -0.757626 7.44667 13.0342 4.2281 -0.00124228 0.00318234 -0.00413587
130 2 -0.854626 2.05807 9.85867 10.0313 0.00441093 -0.0059857 -0.00399295
131 2 -0.911937 14.3396 7.82438 10.2266 -0.00214624 -0.00309902 0.000666397
132 2 -0.848145 14.7025 8.94091 8.12928 -0.00217019 -0.0054425 0.00179717
133 2 -0.880643 2.44373 11.6818 11.425 -0.000106869 -0.00212879 -0.000890546
134 2 -0.991423 4.23638 9.78103 11.355 0.00135861 0.00782493 0.00160649
135 2 -0.82606 3.85885 11.5088 9.47468 0.00200189 -0.000743429 -0.00428748
136 2 -0.960898 2.11777 13.2502 13.1907 0.000794289 -8.52235e-05 0.000905384
137 2 -0.990399 14.8078 11.0848 13.0675 -0.00197189 0.00229301 -0.00864894
138 2 -0.916002 14.5011 13.0804 11.4184 -0.000248876 -0.00419542 -0.0040209
139 2 -0.880262 6.04667 9.31069 13.0288 0.00430057 -0.00181432 -0.00284117
140 2 -0.912865 7.88648 9.78481 14.6639 -0.00175283 0.0031284 -0.00465977
141 2 -0.885058 7.56614 11.1732 12.6941 0.00220676 -0.00517135 -0.00151096
142 2 -0.950305 5.86733 13.1689 9.74416 -0.00123424 -0.00452774 -0.000428086
143 2 -0.891125 7.7124 14.7859 9.19706 -0.00380953 0.0030137 0.00451503
144 2 -0.882484 7.97854 13.2308 11.0208 -0.00422317 -0.00714992 0.00485629
145 2 -0.921783 9.49338 2.54495 2.19699 -0.00949391 0.00514283 -0.000575838
146 2 -0.961486 9.46197 14.689 14.7355 -0.00167463 -0.00216158 -0.00382607
147 2 -0.87599 9.54218 3.9268 4.25697 0.00539295 -0.000887269 0.0006138
148 2 -0.94217 11.1965 2.19902 4.11956 -0.00882015 0.00148536 -0.000192261
149 2 -0.892354 11.3652 4.27643 2.49432 -0.00101099 0.00169447 -0.00114306
150 2 -0.936024 9.26309 5.7498 5.90304 -0.00211177 0.000885544 -0.00285729
151 2 -0.926719 10.8477 5.80621 7.80738 -0.000210989 0.00402027 0.00219926
152 2 -0.919521 11.2378 7.40992 5.92601 -0.00266159 -0.00139555 0.00135359
153 2 -0.881031 9.12328 7.60411 7.50303 -0.00561589 -0.00691458 -0.00493974
154 2 -0.936114 12.9306 2.47232 5.89214 -0.000826724 0.0029748 0.00302955
155 2 -0.899583 11.3437 14.5262 5.78315 -0.000446685 -0.00148739 -0.00160681
156 2 -0.827951 13.0954 14.6303 4.10368 -0.00723775 -0.00100064 -0.0036787
157 2 -0.910913 12.9134 4.33448 7.60376 -0.00308971 0.00159055 -0.00110653
158 2 -0.90481 13.0373 6.08716 2.09561 -0.00515613 0.00165852 -0.00253076
159 2 -0.91504 11.1052 5.85109 14.6771 0.000546242 0.00118663 -0.000456544
160 2 -0.907628 12.9896 3.99922 14.7038 0.00689096 0.00991112 0.00660036
161 2 -0.937537 12.8356 7.63042 3.99371 0.00341112 -0.00196526 0.00478969
162 2 -0.93012 9.33288 2.34758 9.66203 -0.0020426 -0.00100413 0.00190099
163 2 -0.873054 9.86138 14.711 7.80982 0.000672146 0.00485828 -0.00183516
164 2 -0.935598 9.56538 4.37767 11.1325 -0.000860293 -0.00682476 0.00355123
165 2 -0.910063 11.0989 2.51568 11.4256 -0.00405047 0.000763307 -0.00187743
166 2 -0.971848 11.2417 3.94357 9.39033 -0.000748476 -0.00521613 0.000284864
167 2 -0.930125 9.33753 6.14588 12.8132 -0.00161557 -0.000620775 -0.00212817
168 2 -0.935448 9.37066 7.57776 14.7866 -0.00215007 0.000558651 -0.00043224
169 2 -0.829257 10.9501 8.13934 13.2045 0.00556488 -0.0038202 0.000975518
170 2 -0.919474 12.9864 2.17305 13.0488 -0.00294136 0.00466169 -0.00624036
171 2 -0.908965 11.3853 14.5691 13.1087 0.00732048 0.00344378 -0.00249305
172 2 -0.891388 12.6796 14.7516 10.9852 -0.00451517 -0.00459605 0.00243312
173 2 -0.926961 12.8261 6.00156 9.32691 -0.00149277 0.00160299 -0.00110116
174 2 -0.874283 12.2992 7.48214 11.2612 -0.00569828 -0.00616491 0.0062873
175 2 -0.90376 9.52411 9.30952 2.44828 -0.000855037 -0.00221223 -0.00192365
176 2 -0.829013 9.21138 11.0205 4.12409 -0.00289756 -0.00453292 0.00185317
177 2 -0.975218 11.1015 9.33784 4.45813 0.00472822 0.00488782 0.000400808
178 2 -0.921829 11.2786 10.9581 2.52602 -0.000940507 0.00737896 7.84278e-05
179 2 -0.877672 9.39694 12.8199 6.15603 -0.00110748 0.00617889 0.00471831
180 2 -0.916294 11.4989 12.7608 7.49767 0.00411298 0.00732841 -0.00115709
181 2 -0.871322 13.2907 9.07039 5.91989 -0.000745503 0.00402548 0.00175725
182 2 -0.925148 13.0416 10.7961 7.71146 -0.0006455 -0.0022133 0.000235335
183 2 -0.760039 12.69 13.0722 1.82155 -0.00508727 0.0007787 -0.00390999
184 2 -0.846952 10.7804 12.6688 14.795 -0.00169875 -0.00644211 0.00479065
185 2 -0.945947 12.8113 11.0913 14.5375 0.00320699 0.00346942 7.42348e-05
186 2 -0.879152 9.62264 9.1892 9.33789 0.00432321 -0.00442605 -0.00101397
187 2 -0.864448 9.17757 11.0575 10.9291 -0.00321277 -0.000843904 -0.00215372
188 2 -0.890003 11.35 9.80932 11.2481 -0.00318539 -0.00664731 0.006627
189 2 -0.902149 11.0967 11.1865 9.2423 -0.0105986 0.000111616 -0.00138978
190 2 -0.873332 9.63176 12.7433 12.7536 0.00680988 -5.4455e-05 -0.00313493
191 2 -0.890958 13.1508 9.21707 13.0187 -0.00236841 0.00156153 -0.00629383
192 2 -0.983757 13.1013 12.6874 9.39943 -0.0034993 0.00135184 -0.00669804
193 2 -0.585401 14.3808 12.3645 3.21926 0.00177454 0.00114692 0.00729927
194 2 -0.604852 5.0127 5.09898 12.0529 -2.59439e-05 -0.00221354 0.00089984
195 2 -0.652174 6.638 6.80142 13.7288 0.0060216 0.0035296 0.00353663
196 2 -0.615835 6.89538 13.9685 13.7494 0.000868588 -0.00378031 -0.00262302
197 2 -0.66892 15.3914 5.39708 8.38035 0.00682169 0.00204667 -0.0015933
198 2 -0.598917 8.71576 15.3101 5.24421 -0.00281749 1.70684e-05 -0.00154583
199 2 -0.630106 5.03966 8.62403 15.5089 -0.00361785 -0.00244244 0.00175403
200 2 -0.671371 9.76039 13.3147 3.31228 -0.00392596 0.00463766 0.00132705
201 2 -0.587267 1.48985 1.60259 11.9311 -0.000206722 0.00244846 0.00337187
202 2 -0.566395 10.2559 6.75572 3.17842 0.00178139 -0.00326615 -0.00202445
203 2 -0.643603 12.305 15.457 15.7214 -0.00116967 -0.00427689 0.00290592
204 2 -0.621588 2.56633 7.46022 9.44649 -0.0063325 0.00272846 0.00409287
205 3 0.436492 15.3022 12.4102 2.96867 -0.0107224 -0.00223954 0.00860194
206 3 0.446121 14.4152 13.0511 4.82607 -0.0221646 0.0228905 -0.00887886
207 3 0.386515 5.87588 4.67676 12.0831 0.00848302 -0.0103926 -0.0150498
208 3 0.429829 5.11677 5.97631 12.4797 -0.00883355 0.0163376 -0.0258776
209 3 0.448418 6.55956 7.67996 14.1266 -0.0204819 0.0258603 -0.00264203
210 3 0.407933 7.55652 6.71612 13.5028 -0.0105662 -0.0174047 -0.00267914
211 3 0.421629 6.97118 14.9091 13.5669 0.00565236 0.00768537 0.0255836
212 3 0.416155 6.34768 13.8634 14.5589 0.0213742 0.00686528 0.0187078
213 3 0.409948 15.6824 5.07313 7.53269 0.00293564 -0.0246385 -0.00919954
214 3 0.424125 1.51799 4.67368 8.98026 0.0169567 0.0192302 0.00601238
215 3 0.440699 8.35994 2.01571 5.58699 0.023729 -0.00796769 0.0124442
216 3 0.425295 9.68245 15.4 5.09456 0.0154117 -0.0209096 0.0194868
217 3 0.451115 4.11533 8.73499 15.5243 0.0118938 0.00330604 0.00825301
218 3 0.410056 5.34117 8.4241 2.30675 -0.00377002 0.0105018 0.00851648
219 3 0.44026 9.53794 13.9924 2.6501 0.0137939 -0.0032517 0.00793463
220 3 0.409917 10.2023 12.5694 2.92552 0.00602863 0.00307879 -0.0261653
221 3 0.397786 15.5833 14.7744 11.949 0.0311062 -0.0337865 -0.00305115
222 3 0.421662 2.43955 15.8477 12.0376 0.0318303 -0.00645286 -0.0127045
223 3 0.413885 10.4271 7.69109 3.2739 -0.0118815 0.0019313 0.00469909
224 3 0.417335 10.6327 6.53954 2.27426 0.0135648 0.0198697 0.0120461
225 3 0.431635 12.2319 15.4003 14.6953 -0.0099161 0.00414561 -0.00162364
226 3 0.372939 12.6687 2.25673 1.70732 0.0133669 -0.0183389 -0.00279583
227 3 0.429334 2.20082 6.67321 8.87211 -0.0041168 0.00507662 -0.0120548
228 3 0.480195 1.97644 8.12464 7.045 0.0114962 0.000936355 0.0260289
ITEM: TIMESTEP
10000
ITEM: NUMBER OF ATOMS
228
ITEM: BOX BOUNDS pp pp pp
1.5219653365526700e+00 1.5638034663447218e+01
1.5219653365526700e+00 1.5638034663447218e+01
1.5219653365526700e+00 1.5638034663447218e+01
ITEM: ATOMS id type q x y z vx vy vz
1 1 1.85155 1.64517 15.7362 15.7747 0.00200403 -0.00127349 5.59576e-05
2 1 1.84755 3.41944 3.32942 3.3696 -0.0022729 0.000970709 0.00186802
3 1 1.79806 15.4805 5.07055 4.81397 0.00624784 0.00278065 0.00265048
4 1 1.76594 3.42285 6.891 6.2236 0.00365971 0.00538279 0.00427306
5 1 1.7681 5.06106 15.8047 5.19964 -0.00472188 0.00339358 0.00057195
6 1 1.7881 6.74371 3.35625 6.94878 -0.00569501 0.00165953 -0.00565818
7 1 1.76956 4.96621 5.00129 15.483 0.00693182 0.000612233 0.00294094
8 1 1.75164 6.81556 6.71476 3.15414 0.00168406 0.000761768 -0.00478678
9 1 1.7804 15.5445 1.62229 8.50793 -4.58301e-05 0.00492231 -0.000729279
10 1 1.75286 3.30082 3.43875 10.1123 -0.000106042 -0.00568992 -0.000164274
11 1 1.73699 15.6288 4.98848 12.0647 0.000914998 0.00405938 -0.00145653
12 1 1.79281 3.29787 6.92404 13.658 0.00152467 -0.00194452 0.000264018
13 1 1.72312 4.97631 1.56449 12.0005 0.00224381 0.00189283 0.0039119
14 1 1.81128 6.81687 3.26749 13.7485 0.00228553 -0.000139746 0.00105643
15 1 1.78218 4.94847 5.30964 8.36547 0.00361115 0.00114419 -0.00202173
16 1 1.76499 6.80264 6.95666 10.1975 -0.00116225 -0.00189199 0.00652115
17 1 1.75927 15.6645 8.57882 1.45962 -0.00107021 0.00202707 -3.49421e-05
18 1 1.6743 3.25105 10.4312 3.34766 0.00161978 0.0014312 -0.00046022
19 1 1.53423 1.74756 11.7332 5.64341 0.00309642 0.00208577 0.00307522
20 1 1.70341 3.33685 13.9791 6.93364 -0.00243145 0.0033226 -0.00148574
21 1 1.8001 5.32139 8.79699 4.83912 -0.0037616 0.00022621 0.00242031
22 1 1.75814 6.95362 10.4217 6.83668 0.00396336 0.000282429 -0.00438158
23 1 1.84068 4.99673 12.1072 15.6995 0.00166204 0.00239961 0.00167453
24 1 1.75034 6.64786 13.829 3.39799 -0.000642999 5.95137e-05 0.000308267
25 1 1.54984 15.3169 8.73738 9.44631 0.00056927 0.00162474 0.00767762
26 1 1.72835 3.21748 10.6346 10.4894 0.001129 0.00290934 -0.00173122
27 1 1.705 1.38757 12.2146 12.2643 -0.00520928 0.0028657 -0.00381244
28 1 1.66151 3.29684 13.9914 13.9481 -0.00537198 0.00276633 -0.00110371
29 1 1.77434 5.06308 8.73765 12.0105 0.00231194 -0.000642735 -0.00194894
30 1 1.75057 6.84562 10.4516 13.8882 0.000977037 -0.000819126 0.000789388
31 1 1.74683 4.99624 12.0504 8.5044 0.00278422 -0.00158838 -0.00360855
32 1 1.80813 6.67816 13.9278 10.1755 0.00168038 -0.00278858 0.0015629
33 1 1.74974 8.44439 1.49876 15.674 -0.00312556 -0.00518954 0.000839983
34 1 1.7071 10.324 3.142 3.33216 0.00630132 -0.00315586 0.00188181
35 1 1.72111 8.45146 4.97308 5.06628 0.0054755 0.00105543 -0.00456577
36 1 1.80248 10.3544 6.72411 6.69012 0.00118992 -0.00144912 -0.000160659
37 1 1.78616 12.2108 15.4573 4.95634 0.00292655 0.000449351 0.000872099
38 1 1.77188 13.7956 3.30845 6.62274 -0.0012387 -0.00026287 0.00173523
39 1 1.69279 11.9691 4.90054 15.5674 0.0011333 -0.00391915 0.00494613
40 1 1.70681 13.7605 6.83139 3.03709 0.00280002 0.00279501 -0.000183601
41 1 1.85798 8.61833 15.6403 8.50249 -0.00376655 -0.00138979 -0.00444246
42 1 1.83596 10.4121 3.18495 10.3463 0.00380544 0.00639371 0.00158654
43 1 1.783 8.51311 4.94838 11.9113 0.000166469 0.000118559 0.000729732
44 1 1.82462 10.222 6.697 13.7669 0.00291961 0.00177439 -0.000847752
45 1 1.74744 12.1401 1.43586 12.1607 0.00545935 -0.00232928 0.000167037
46 1 1.78387 13.9031 3.18956 13.9539 -0.0048191 -0.00318283 0.00494647
47 1 1.81394 11.9651 4.90389 8.48359 -0.00458325 -0.00324869 -0.00368983
48 1 1.64079 13.5392 6.5354 10.4556 0.00469997 0.00370431 0.00348149
49 1 1.76259 8.59046 8.58324 1.53834 0.000557951 -0.000234468 -0.000484527
50 1 1.7033 10.3732 10.2166 3.36673 -0.00249687 0.00667403 -0.00571368
51 1 1.61041 8.70816 12.2372 5.01696 -0.000788814 -0.00471894 -4.90392e-05
52 1 1.88445 10.5075 13.8608 6.87901 -0.00482751 -0.000368494 -0.000938031
53 1 1.87175 12.2181 8.49532 5.0859 -0.00700227 0.0029371 -0.00704842
54 1 1.75792 13.9083 9.97724 7.1063 0.00109171 -0.00108863 0.00512031
55 1 1.74663 11.7862 11.8393 15.2806 -0.00305992 -0.00286357 0.000220747
56 1 1.53853 13.5419 13.8361 2.6465 -0.00380953 -0.00245266 0.00174574
57 1 1.84571 8.74711 8.58056 8.52667 -0.00183893 -0.00100464 0.00197808
58 1 1.81118 10.424 10.36 10.2764 -0.00180159 -0.00508753 0.00482835
59 1 1.79643 8.49274 12.1119 11.8594 0.00206683 0.00168742 0.00282391
60 1 1.67616 10.051 13.844 13.7794 -0.00328285 -0.00113981 -0.00200616
61 1 1.77519 11.9826 8.49531 12.0738 0.00558376 -0.000698394 -0.00427023
62 1 1.83323 13.7973 10.1375 13.7559 -0.000550923 0.00317576 -0.000968006
63 1 1.92252 12.2212 12.0659 8.57019 0.00385555 0.000777929 0.00113453
64 1 1.75077 13.8478 13.9078 10.2804 -0.00254587 -0.00203406 0.00386306
65 2 -0.914019 2.57017 2.17445 2.71332 -0.00246066 0.00338945 0.00615427
66 2 -0.886665 2.5423 15.1539 14.714 -0.00266163 -0.00535832 -0.00221552
67 2 -0.900651 14.7679 2.60552 15.0621 0.000526315 0.000657853 -0.000426649
68 2 -0.879006 14.8418 14.668 2.21804 -0.00509637 -0.00367611 -0.00216525
69 2 -0.928166 2.38369 4.28045 3.97616 0.00402088 0.0001196 0.00263455
70 2 -0.9381 4.45098 2.84096 4.33256 0.0006385 -0.00212949 0.00226873
71 2 -0.893971 4.09464 4.03768 2.16135 0.00519711 0.00471794 -0.000425804
72 2 -0.933445 2.26279 6.0887 5.59633 -0.00103971 -0.000614166 0.00211161
73 2 -0.927876 14.884 4.19807 5.95626 0.00257774 0.000558562 -0.00430346
74 2 -0.893097 14.3837 5.77241 4.03319 2.23824e-05 0.00387201 -0.00204919
75 2 -0.935978 4.13244 5.93027 7.20982 -0.00280016 0.000565232 -0.00317085
76 2 -0.9083 4.47907 7.59515 5.42007 0.0068117 -0.000970955 -0.00460027
77 2 -0.837274 2.77951 8.0515 6.92202 0.00377411 0.00617202 -0.00865775
78 2 -0.921221 5.86517 2.2624 6.33844 -0.00370674 0.00326265 0.00214424
79 2 -0.845622 3.95522 14.9105 5.84941 0.00542812 0.00669028 0.000486222
80 2 -0.860251 5.70846 14.7487 4.22393 -0.00724072 -0.00508553 0.00443063
81 2 -0.891538 5.77941 4.17405 7.86683 0.00758422 0.00152235 0.00240286
82 2 -0.950745 7.41346 4.13507 5.77669 -0.00255141 0.00303117 -0.0037084
83 2 -0.907006 7.8179 2.65805 7.82706 0.00156966 0.00329462 -0.00273155
84 2 -0.882491 5.75735 5.7889 2.45631 -0.00919721 -0.00491811 0.0024159
85 2 -0.88092 3.96247 6.01493 14.7257 0.00345137 0.00155387 -0.00983048
86 2 -0.922896 5.95563 4.24827 14.5874 -0.00172466 0.00128396 -0.00335533
87 2 -0.898271 6.17384 7.90567 3.90219 0.000932408 0.00172432 0.00039388
88 2 -0.903663 7.81072 5.80576 3.90023 -0.00597949 -0.00537867 0.000941391
89 2 -0.934321 7.62229 7.61 2.17302 0.00592605 -0.00380484 0.00268573
90 2 -0.9208 2.47748 2.63133 9.09085 0.000540631 -0.00404023 0.00122062
91 2 -0.89838 2.27382 14.7337 7.71896 -0.00174288 0.00448769 -0.0126822
92 2 -0.937177 14.5764 2.49322 7.6502 0.00851024 3.86741e-05 0.00446752
93 2 -0.924818 14.8337 14.8669 9.565 -0.0020089 -0.0011381 0.000149141
94 2 -0.9351 2.25175 4.05058 11.067 -0.00565336 0.00281331 -0.00217901
95 2 -0.88586 3.99046 2.29289 10.9192 -0.00546933 0.00196386 0.00459286
96 2 -0.899676 4.07107 4.56194 9.43217 -0.00896798 -0.00347857 0.00286228
97 2 -0.869998 2.27671 6.07817 12.9236 0.00427869 -0.0060187 -0.00340866
98 2 -0.817093 14.8986 4.07937 13.0562 -0.00547153 0.00360788 0.000580624
99 2 -0.828771 14.3552 5.60235 11.4204 0.000340785 0.00515015 0.00311829
100 2 -0.895018 2.43622 7.99496 14.4399 0.00572523 0.00497857 -0.0068086
101 2 -0.970712 4.20727 7.62374 12.6736 -0.00588012 0.000628253 0.000874814
102 2 -0.950815 5.7528 2.52626 12.8846 0.00140583 0.000449624 0.00351412
103 2 -0.929603 4.17761 14.7235 12.9178 0.00181663 0.00101985 -0.0041564
104 2 -0.916121 5.90638 14.765 11.1947 0.00668072 -0.00301868 -0.000113356
105 2 -0.961133 7.60443 2.32091 14.6803 0.0073812 0.000577144 -0.00147671
106 2 -0.983231 7.78743 3.91223 12.8004 -0.00360146 -0.000763396 0.00475543
107 2 -0.855099 5.99462 6.23779 9.10965 0.0027359 0.00578783 0.00981174
108 2 -0.935951 5.90094 7.91327 10.9818 -0.000953221 -0.00263642 -0.00588466
109 2 -0.887403 7.4591 5.71864 10.9758 -0.00974959 0.00209113 0.00258759
110 2 -0.900986 7.92862 7.58069 9.42361 0.00140243 2.51524e-05 0.00539523
111 2 -0.896444 2.50313 9.26523 2.4542 -0.00421716 0.00261813 -0.00358026
112 2 -0.887848 14.9266 7.49778 2.24043 -0.00173577 -0.00167123 0.00244833
113 2 -0.919125 14.6522 9.54506 14.8578 0.000445487 0.00318432 -0.00267246
114 2 -0.864509 2.24571 11.2606 4.23087 0.00218168 -1.19592e-05 -0.000154837
115 2 -0.961264 4.40363 9.84876 4.1903 -0.00189751 -0.00707515 -0.00421368
116 2 -0.935991 3.90725 11.3473 2.33866 0.00633696 -0.0066491 0.00228159
117 2 -0.814276 2.87313 12.6397 6.2655 0.00361318 -0.00280073 -0.00375802
118 2 -0.901096 15.132 10.5758 6.35763 -0.00458942 -0.00519665 -0.0004424
119 2 -0.689773 14.7452 12.8527 5.81878 -0.00193828 -0.00175185 -0.0014147
120 2 -0.824571 4.45811 13.3786 7.91027 0.000992072 -0.00191584 -0.00524657
121 2 -0.899688 6.17136 9.42426 5.88505 -0.00691435 -0.00457096 0.00076588
122 2 -0.885435 5.86277 11.2982 7.48128 0.00161012 0.00127067 0.000752291
123 2 -0.781332 7.94579 11.3109 6.1091 -0.00385634 0.00569396 0.00546414
124 2 -0.880078 7.71956 9.50616 7.88423 -0.000701077 0.00243913 0.00770599
125 2 -0.951898 5.98898 12.8015 2.48704 -6.93478e-05 -0.00678087 -0.000951711
126 2 -0.928565 4.18447 13.117 14.8977 -0.000161051 -0.00149292 0.0085772
127 2 -0.951299 5.79596 11.2446 14.6736 0.00613196 0.00253159 0.000860752
128 2 -0.92555 7.54552 14.8012 2.51586 0.00387144 0.0045497 0.00076575
129 2 -0.842864 7.45265 12.9256 4.37948 0.00536818 -0.00655193 -0.00128581
130 2 -0.871984 1.91529 9.98417 10.0691 0.000234171 -0.00355174 0.000514211
131 2 -0.806501 14.4357 7.81096 10.3193 0.0100785 -0.00397537 -0.00167306
132 2 -0.896907 14.5885 9.03271 8.1122 -0.0014888 -0.00112054 -0.00268465
133 2 -0.847099 2.66242 11.7517 11.4644 -0.00103366 -0.00999707 0.00277303
134 2 -0.903361 4.31846 9.81449 11.2037 -0.00520327 -0.00252491 -0.000687014
135 2 -0.881587 3.8785 11.2332 9.216 0.000510337 0.000616949 0.00328872
136 2 -0.857141 2.06628 13.1853 13.2901 0.00726292 -0.00649693 0.00353605
137 2 -0.886618 14.653 11.0973 12.8831 0.000663728 0.00638827 0.000999575
138 2 -0.890247 14.5663 13.1127 11.4379 -0.00372839 0.00551871 0.0031535
139 2 -0.883689 6.01539 9.43344 13.0238 -0.00238028 0.00750402 0.00129367
140 2 -0.923693 7.83768 9.55747 14.6823 0.00333025 0.0049066 -0.00116146
141 2 -0.876936 7.65754 11.1272 12.731 -0.00831222 -0.00536143 0.00424077
142 2 -0.874905 5.96719 12.7154 9.5206 0.00396895 -0.00677916 0.000840445
143 2 -0.913985 7.54962 14.8063 9.23067 0.00355981 0.000336981 0.00810454
144 2 -0.845848 7.66033 13.2044 11.1272 -0.00519132 -0.00160332 -0.00174965
145 2 -0.963093 9.45281 2.45155 2.25905 -0.000652656 -0.00606121 0.00787153
146 2 -0.939723 9.28379 14.5403 14.9619 0.00298591 0.00428261 -0.00318975
147 2 -0.87624 9.43508 3.90053 4.39555 -0.00188971 -0.00179409 -0.000179208
148 2 -0.914827 11.1235 2.19302 4.22001 0.0045718 0.00201458 0.00134489
149 2 -0.912412 11.3868 3.90252 2.52362 0.00247521 -0.00179379 -0.00426217
150 2 -0.871637 9.21688 5.8025 6.15061 0.0041666 -0.00587971 0.000252089
151 2 -0.877524 11.0279 5.93954 7.83136 -0.00237681 0.00374004 -0.00156913
152 2 -0.938715 11.3927 7.41397 5.82181 0.00148558 -0.00104226 -0.00279702
153 2 -0.868438 9.50489 7.78916 7.45427 0.00556947 -0.00627835 0.00652944
154 2 -0.887445 13.2412 2.33375 5.54827 -0.00342271 0.00024621 -0.00295778
155 2 -0.946381 11.327 14.8557 6.04767 0.00337733 0.000521693 0.00154818
156 2 -0.875485 12.8798 14.4675 4.00321 0.0024587 -0.0030524 0.00597053
157 2 -0.891576 12.6495 4.11141 7.29769 0.00161973 -0.00362781 0.0020243
158 2 -0.859471 12.7313 6.09199 2.03536 -0.00375979 0.000415814 -0.006213
159 2 -0.895921 11.0385 5.66373 14.5285 -0.00463736 0.00260045 -0.00295999
160 2 -0.841336 13.0244 4.20576 14.7052 -0.00342399 0.00500898 -0.00150912
161 2 -0.907028 13.0221 7.83221 3.9375 0.00197519 -0.00053746 -0.000252054
162 2 -0.902107 9.53937 2.19571 9.53668 -0.00155854 -0.00115704 -0.00359086
163 2 -0.941697 9.61983 14.8293 7.67041 -0.00993667 0.00523834 -0.00128079
164 2 -0.906583 9.49799 4.2426 11.0022 -0.000186699 0.00291366 -0.000368783
165 2 -0.874153 11.3208 2.51658 11.4555 0.00378225 0.00684247 0.00333407
166 2 -0.965391 11.3339 3.88405 9.38537 -0.00513406 0.00501857 0.000532931
167 2 -0.964811 9.2797 5.92812 12.8011 0.000223172 -0.00425516 -0.00957234
168 2 -0.914358 9.3813 7.5059 14.8013 -0.000196784 0.00256423 -0.00196794
169 2 -0.908739 11.0452 7.75483 13.113 -0.00124063 4.82352e-05 -0.0033254
170 2 -0.939439 12.9445 2.26389 13.1678 -0.00585457 0.00224641 0.00601477
171 2 -0.881165 11.1713 14.7667 13.1192 0.00264759 -0.00584736 -0.00028405
172 2 -0.868869 12.6451 14.552 11.068 -0.00196399 0.00313564 0.000772948
173 2 -0.88072 12.9738 5.83338 9.19139 0.00184654 -0.00266674 -0.00449663
174 2 -0.814678 12.3065 7.30177 11.1432 0.00150771 0.00203598 0.00193519
175 2 -0.955804 9.57368 9.20029 2.47481 0.00096437 -0.00131568 0.00248378
176 2 -0.799983 9.19617 10.9294 4.07144 -0.00171357 -0.00211035 0.00187014
177 2 -0.931627 11.3268 9.5031 4.41635 0.00233009 0.000987658 -0.00377158
178 2 -0.941948 11.1754 11.1195 2.40449 -0.00492687 -0.0011184 -0.00105418
179 2 -0.908971 9.61923 12.9122 6.05832 -0.00361651 -0.00367357 -0.00682821
180 2 -0.977591 11.5102 13.069 7.67637 0.000105549 0.00608283 -0.0115123
181 2 -0.912284 13.1927 9.04192 6.11795 -0.00153445 0.0019269 0.000248425
182 2 -0.929038 12.8504 10.9776 7.67243 0.00302348 0.000550216 -0.00392952
183 2 -0.850212 12.696 12.9858 1.62693 0.000396512 -0.0058992 0.000244993
184 2 -0.869638 10.7255 12.6372 14.5595 -0.00013424 0.000613267 -0.00460957
185 2 -0.895592 12.5797 10.8978 14.3099 -0.00533856 -0.00409646 -0.00272217
186 2 -0.934049 9.79379 9.44086 9.20996 -0.00339809 -0.00995414 -0.00163313
187 2 -0.878182 9.21366 11.1849 10.8469 -0.007428 0.0019486 -0.00100427
188 2 -0.924776 11.2468 9.61379 11.3382 -0.00176221 0.00272492 0.00222614
189 2 -0.93872 11.411 11.356 9.62561 -0.0041691 -0.00443942 0.003927
190 2 -0.888648 9.40278 13.0095 12.6638 -0.00299343 0.0043625 -0.00530359
191 2 -0.882243 13.2141 9.10125 12.781 0.00405216 7.0083e-05 0.00422548
192 2 -0.923579 13.2555 12.9098 9.29755 -0.00617112 -0.0038048 -0.00136534
193 2 -0.692056 14.3106 12.5458 3.21758 0.0025489 -0.000815776 0.00228463
194 2 -0.591206 5.1381 5.10389 11.8604 0.00363553 -1.30121e-05 -0.00326271
195 2 -0.644072 6.65616 6.77736 13.6421 -0.00234568 -0.00466882 -0.00673521
196 2 -0.639415 6.79797 13.8299 13.8138 0.00110594 -0.00297451 0.00468764
197 2 -0.648694 15.6678 5.33175 8.42267 0.00947728 -0.000812081 0.0017977
198 2 -0.619671 8.49295 15.5794 5.18723 0.0015662 0.000936867 0.000953636
199 2 -0.620923 4.94156 8.72162 1.36192 -0.00469347 0.00248459 0.00248047
200 2 -0.705888 9.91039 13.4576 3.50054 2.1947e-05 -0.00183729 0.00447145
201 2 -0.60665 1.31487 1.58685 12.0347 -0.00770822 0.00143563 -0.00378485
202 2 -0.602693 10.3129 6.62568 3.44665 -0.000610647 0.00100517 0.00239682
203 2 -0.640261 12.1766 15.4188 1.68905 0.000769947 -0.00131643 0.00380819
204 2 -0.652631 2.42284 7.69854 9.37477 -0.000447634 0.00636107 -0.00698625
205 3 0.436809 15.2133 12.6686 3.4565 -0.0157894 0.0175745 0.00675509
206 3 0.442896 14.1362 13.0622 5.12666 -0.00728165 0.0123208 -0.0183395
207 3 0.413057 6.04036 4.8071 11.9886 -0.0376391 0.00689149 0.00757893
208 3 0.420621 5.25042 6.05632 11.7934 0.0117726 0.000112163 -0.0152486
209 3 0.425041 6.41877 7.67259 14.0081 0.00568597 0.00916723 0.0134832
210 3 0.408466 7.59607 6.76373 13.7117 0.00310017 -0.0300609 -0.00679081
211 3 0.412965 6.8113 14.7638 13.8211 0.0162814 -0.0150164 0.0339523
212 3 0.438684 5.97326 13.5425 13.7607 -0.0235446 -0.0209898 0.00518902
213 3 0.424742 15.7492 5.32309 7.48045 0.0157744 0.0025284 -0.0148816
214 3 0.421987 1.55568 4.41098 8.61346 0.000910942 -0.0060447 -0.0247913
215 3 0.424408 8.42038 2.42545 5.29019 0.00346213 -0.011679 0.00895704
216 3 0.420361 9.421 15.3717 5.07695 -0.0166842 -0.00934047 -0.00367657
217 3 0.404419 4.02864 8.36946 1.45412 0.0125084 -0.0158329 -0.0161864
218 3 0.390275 5.01008 9.31934 2.08761 0.000812907 0.0191383 -0.00356504
219 3 0.406967 9.31869 13.902 3.00964 0.00340043 0.00935214 -0.0144844
220 3 0.389746 10.2784 12.8576 2.76604 0.0123243 0.00773358 0.0021344
221 3 0.416362 1.53165 14.7655 12.0909 -0.00466812 -0.0157049 0.00108975
222 3 0.424269 2.13256 2.0886 11.7857 -0.00232501 0.0221155 -0.014565
223 3 0.418491 9.67506 7.28961 3.24851 0.013071 0.00988693 -0.00126931
224 3 0.390337 10.8912 6.56224 2.64178 0.00740643 0.00463547 -0.0183824
225 3 0.412249 12.0942 15.2235 14.8148 -0.0106237 -0.0146722 0.0126522
226 3 0.4078 11.3664 1.78146 1.82129 -0.0218823 -0.0182638 0.00780124
227 3 0.450696 2.35254 7.17836 8.57144 0.0128977 0.00338424 -0.00517872
228 3 0.474095 2.23741 8.8536 6.71393 0.00972024 -0.0105179 -0.00546212
ITEM: TIMESTEP
11000
ITEM: NUMBER OF ATOMS
228
ITEM: BOX BOUNDS pp pp pp
1.5191849996630200e+00 1.5640815000336868e+01
1.5191849996630200e+00 1.5640815000336868e+01
1.5191849996630200e+00 1.5640815000336868e+01
ITEM: ATOMS id type q x y z vx vy vz
1 1 1.74561 15.6829 1.66735 1.39572 0.00479422 0.00193977 -8.92967e-05
2 1 1.81741 3.41149 3.32503 3.17141 0.00237315 0.00175703 0.000875839
3 1 1.7387 15.6174 4.97626 4.78861 0.000517656 0.00153931 0.00118462
4 1 1.6619 3.61929 6.60274 6.33948 -0.0020338 0.00340525 -0.003443
5 1 1.82917 5.03184 1.57276 5.04196 0.00637768 0.00219757 0.00664811
6 1 1.85225 6.98272 3.18989 6.69083 0.00154486 -0.0051119 -0.00342152
7 1 1.86903 5.12415 5.09266 15.5085 -0.00361096 9.92849e-05 0.00401029
8 1 1.63713 6.77573 6.90918 3.14964 0.000374584 0.00156382 0.00390023
9 1 1.77694 15.3808 15.5567 8.53296 0.00043186 -0.00524574 -0.00240526
10 1 1.74361 3.26529 3.26487 10.1468 -0.00216456 -0.00473442 0.00563489
11 1 1.91358 15.6878 4.94904 11.9482 0.000919849 -0.00385579 -0.00355725
12 1 1.81134 3.24056 6.72529 13.7997 0.00232805 -0.0025825 -0.00313553
13 1 1.71332 5.07655 1.59112 12.0092 -0.00234872 -0.00342565 -0.00570431
14 1 1.80074 6.91174 3.37793 13.7629 -0.0020762 -0.00164319 0.0019214
15 1 1.85545 5.11904 4.84389 8.36011 0.00550111 -0.00107024 0.00540622
16 1 1.83893 6.6322 6.8423 10.0491 -0.00344285 0.000662633 -0.000343945
17 1 1.77356 1.61625 8.56345 15.6706 0.00151255 -0.00201237 0.00134318
18 1 1.75475 3.20599 10.5835 3.38569 0.00121446 0.00281208 -0.00144995
19 1 1.57195 1.71421 11.8612 5.70761 -0.00174098 0.00105681 0.000954029
20 1 1.8556 3.34106 14.0467 6.98033 -0.00283739 -0.000975372 -0.000405992
21 1 1.75552 5.19535 8.80799 4.92358 -0.000206254 -0.00251712 0.00168268
22 1 1.8573 6.749 10.5098 6.92016 -0.00220843 0.000666702 0.00259786
23 1 1.81294 5.05276 12.1736 1.57706 0.00291973 0.000189728 0.00341011
24 1 1.86536 6.8014 13.9555 3.28106 -0.00296781 0.00539019 -0.00266487
25 1 1.65048 15.5068 8.45893 9.31934 -0.000666387 0.000729531 0.00564152
26 1 1.91927 3.14895 10.5598 10.5253 -0.00173116 -0.000289496 0.00105594
27 1 1.79294 15.4417 12.2602 12.2985 0.00339992 -0.00301741 -0.00258105
28 1 1.78771 3.33582 13.9745 13.8606 -0.00355539 -0.00278967 -0.00416463
29 1 1.80622 4.9256 8.61856 11.9849 -0.000761119 -0.00671836 -0.00135607
30 1 1.80468 6.65391 10.4468 13.7397 -6.57854e-05 -0.00129277 -0.00335578
31 1 1.84239 4.94289 12.1873 8.68908 6.43091e-05 0.0021926 0.00133996
32 1 1.85609 6.8772 13.9505 10.2868 0.00190331 -0.0037118 -0.00366383
33 1 1.70471 8.61409 1.54413 1.46584 0.00507369 -0.001136 0.0038826
34 1 1.70335 10.423 3.25055 3.24145 0.00111325 0.000513683 -0.00214156
35 1 1.79447 8.55696 4.98583 4.87304 0.00281272 0.00189791 0.00171277
36 1 1.90551 10.2683 6.77067 6.77924 -0.000885109 0.00402339 -0.00682153
37 1 1.78159 12.1527 15.5167 4.94016 -0.000256988 -0.00271884 -0.00488403
38 1 1.72778 13.8445 3.29019 6.64004 -0.00285332 -0.00286608 -0.000117021
39 1 1.74114 12.048 5.20133 15.616 0.00383285 -0.00380558 -0.00154873
40 1 1.71181 13.7776 6.94057 3.2635 0.00136814 0.00219973 0.0049958
41 1 1.79153 8.68808 15.6139 8.5372 -0.00117661 -0.000470183 -0.00253263
42 1 1.83435 10.3622 3.21695 10.3853 -3.36804e-05 0.00253628 -0.00121885
43 1 1.69648 8.54791 5.13196 11.8079 -0.00490182 0.00257683 -0.000164111
44 1 1.61889 10.1078 6.75981 13.8679 -0.0034093 0.000513847 0.000355053
45 1 1.72007 12.0808 1.46479 12.1771 0.0020525 -0.00112742 0.0011683
46 1 1.77658 13.823 3.42906 13.866 -3.59739e-05 -0.00234851 -0.000921849
47 1 1.77149 11.8971 4.84718 8.41414 -0.000499488 0.00284912 0.004102
48 1 1.6955 13.5411 6.45508 10.4759 0.00159822 -0.00267043 -0.00149292
49 1 1.61383 8.53565 8.78685 15.5819 0.0078807 0.0039828 0.00259967
50 1 1.73502 10.2365 10.3267 3.47303 0.00164595 -0.000686726 0.00452308
51 1 1.74821 8.46292 12.2396 5.13533 -0.00622062 -0.000613205 0.00144268
52 1 1.80112 10.5088 13.796 6.86281 -0.00558724 6.62947e-05 -0.00363379
53 1 1.76191 12.1226 8.63967 5.14657 -0.00291183 0.0023333 0.000729901
54 1 1.7089 14.0003 9.94921 7.19727 0.000254226 -0.000863822 -0.00487241
55 1 1.69945 11.9161 11.722 15.398 0.00201819 -0.000311152 0.00324784
56 1 1.35212 13.483 14.039 2.61741 0.00425909 0.00166047 -0.00320462
57 1 1.89124 8.54887 8.54872 8.4055 0.00290827 -8.81054e-05 -0.00213144
58 1 1.85819 10.2172 10.1479 10.3154 0.00577474 0.00132028 0.00258408
59 1 1.9195 8.47218 12.051 11.9953 0.000293686 -0.0028334 0.00295105
60 1 1.69365 10.2427 13.6857 13.7293 0.000394087 -0.00542757 -0.00105345
61 1 1.72085 11.9796 8.45924 12.1409 0.000686886 0.00412448 -0.00259537
62 1 1.8222 13.8962 10.0898 13.8208 -0.00103131 0.00217077 0.00492037
63 1 1.84488 12.0747 11.897 8.65063 0.0029354 0.00393353 -0.00525587
64 1 1.89841 13.6933 13.7616 10.3535 -0.00207705 0.00498146 -0.00259639
65 2 -0.905594 2.46297 2.38411 2.44998 -0.00429261 0.000745303 -0.00476788
66 2 -0.936715 2.46464 15.067 14.5049 0.000159573 -0.00146017 -0.00370746
67 2 -0.926499 14.783 2.64726 14.8002 -0.000820468 -1.36704e-05 0.00727813
68 2 -0.836299 14.8008 14.6649 2.11647 -0.00312452 -0.0054554 0.00233708
69 2 -0.889265 2.37843 4.3456 3.71221 -0.00191544 -0.000837516 -0.000955031
70 2 -0.903986 4.18576 2.72789 4.37695 -0.000395501 0.000750695 -0.00866213
71 2 -0.91741 4.35173 4.07557 2.22848 0.0060911 -0.000454922 -0.0021303
72 2 -0.854809 2.41142 6.03114 5.51357 -0.000688042 -0.00683706 -0.00119828
73 2 -0.944587 14.9254 4.12209 5.85497 0.00082727 0.000864828 0.00456382
74 2 -0.844966 14.4826 5.88361 4.22147 -0.00166321 -0.00114376 -0.00497369
75 2 -0.904755 4.20703 5.49589 7.2737 0.00504181 0.00120522 0.0043831
76 2 -0.867539 4.5375 7.53131 5.46355 -0.00357409 0.000404105 0.00316453
77 2 -0.815652 2.80821 7.64957 7.01261 -0.00211289 -0.000493334 0.00525307
78 2 -0.944039 5.9594 2.209 6.0386 0.0018493 -0.00265484 -0.00533912
79 2 -0.913055 4.04578 14.838 5.87226 -7.15498e-05 -0.00503355 0.00555262
80 2 -0.93661 5.68075 14.7197 4.04368 0.0092608 -0.00563829 0.00136607
81 2 -0.900521 6.23813 4.14859 7.64106 0.00443477 -0.00184803 0.0094907
82 2 -0.938441 7.55557 4.17942 5.7067 0.0045175 -0.00599843 -0.00368981
83 2 -0.936923 8.03609 2.50401 7.59666 -0.00330612 -0.00151849 0.0103462
84 2 -0.930164 5.65332 6.10667 2.3928 0.00179823 -0.00612223 -0.000491628
85 2 -0.93553 4.15293 5.70314 14.4843 0.000602095 -0.0064271 -0.00179187
86 2 -0.961801 6.1367 4.18888 14.7854 -0.0041159 -0.00366572 0.00219241
87 2 -0.871386 6.17334 8.11798 3.956 0.00529318 -0.000382198 -0.000353959
88 2 -0.847049 7.68414 6.01801 4.11392 -0.00110729 0.00413044 0.00546661
89 2 -0.900359 7.61299 7.69102 2.09238 -0.00202459 0.00448796 0.00670744
90 2 -0.861943 2.31585 2.28583 9.31466 -0.00259166 0.00253798 0.000779459
91 2 -0.913306 2.21585 14.8894 7.60834 0.00995945 -0.00163774 -0.00036205
92 2 -0.931545 14.4784 2.50975 7.84475 -0.00326293 -0.00314593 0.0017894
93 2 -0.881693 14.6095 14.3889 9.27206 0.000957183 0.00356821 0.000389095
94 2 -0.987975 2.42933 4.32277 10.9227 -0.00381855 -0.00186045 0.00261165
95 2 -0.897982 4.03942 2.44847 11.2222 -0.00348663 0.00688675 -0.000993643
96 2 -0.903558 4.34549 3.78371 9.15178 0.00185216 -0.000925073 -0.011924
97 2 -0.918624 2.28317 5.9841 12.8554 0.00341616 0.00437946 -0.00281219
98 2 -0.889569 14.923 4.0064 12.9177 -0.00714545 0.00195996 -0.00114964
99 2 -0.924857 14.4785 5.61988 11.3497 0.000647603 -0.00219408 0.00333476
100 2 -0.900041 2.62727 7.59582 14.937 0.00440588 0.00393344 -0.00128509
101 2 -0.925999 4.11106 7.65017 12.8923 -0.00216134 -0.00554747 -5.61839e-05
102 2 -0.915024 5.96095 2.40871 13.03 0.0079769 0.00125365 -0.00254461
103 2 -0.974844 4.17176 14.6807 12.8297 0.0031352 -8.58354e-05 -0.00291101
104 2 -0.91252 6.11821 14.9599 11.1782 -0.000463711 0.00252113 -0.00447139
105 2 -0.898758 7.85433 2.40528 14.5422 -0.00403023 -0.000430063 0.00112792
106 2 -0.95649 7.72226 4.14307 12.7065 0.0027495 0.00264273 -0.00478777
107 2 -0.92868 5.68108 5.96306 9.24788 -0.00426058 0.00875511 0.00246262
108 2 -0.917444 5.66962 7.63105 11.0358 0.000941406 -0.00463133 0.0113563
109 2 -0.919264 7.52392 5.963 10.9167 -0.0007597 -0.00352993 -0.00550881
110 2 -0.926706 7.47856 7.62954 9.07876 0.00109955 -0.0032958 0.00556775
111 2 -0.909088 2.41388 9.58801 2.43317 -0.00152324 -0.00387488 0.00460315
112 2 -0.874432 14.9304 7.72866 2.5097 0.00175149 0.00727491 0.00400291
113 2 -0.947287 14.8984 9.21015 14.5684 -0.00410659 0.00125376 -0.00205566
114 2 -0.899964 2.25526 11.2072 4.34868 -0.00419981 0.00374295 -0.000307654
115 2 -0.948092 4.17217 9.74876 4.30231 -0.00421707 0.00268097 0.00156239
116 2 -0.957259 4.00928 11.4946 2.41731 0.0068446 0.00425909 0.00702893
117 2 -0.889255 2.75268 12.7544 6.45171 -0.00425829 -0.00539612 -0.00579179
118 2 -0.822051 15.1649 10.6779 6.46348 -0.00367249 -0.00338095 -0.000783345
119 2 -0.639519 14.5502 12.7378 5.75207 -0.00108122 -0.00348917 -0.00689368
120 2 -0.886004 4.25766 13.4608 8.05506 -0.00432481 0.000909386 0.000216932
121 2 -0.889567 6.10146 9.43907 6.05424 -0.000808392 0.000866852 0.00347889
122 2 -0.95834 5.67937 11.239 7.76415 -0.00158645 -0.00483266 0.00115058
123 2 -0.917841 7.3964 11.5592 6.00669 -0.00422776 3.33101e-05 -0.00206685
124 2 -0.928567 7.76895 9.73002 7.74986 -0.00414579 -0.0064363 -0.00755386
125 2 -0.94355 6.14485 12.8488 2.42998 0.00439622 0.00103078 -0.00256756
126 2 -0.932676 4.19016 13.2162 14.9429 0.000973926 0.00405463 -0.00790887
127 2 -0.905016 5.66668 11.3493 14.5254 0.00241625 0.00414349 -0.00096542
128 2 -0.974917 7.67146 14.934 2.44248 -0.00157196 -0.00311714 0.00307808
129 2 -0.93468 7.67324 13.2781 4.26504 0.00802619 0.0085867 0.00538794
130 2 -0.906764 2.04043 9.71629 9.97836 -0.00202995 0.000376991 -0.000575272
131 2 -0.806439 14.4268 7.72877 10.1662 -0.00428638 0.00248596 -0.00345758
132 2 -0.889476 14.7367 8.86672 8.1059 -0.000861825 -0.00780585 -0.00319215
133 2 -0.921881 2.39526 11.4403 11.5096 -0.000383154 -0.00381133 0.000583489
134 2 -0.975491 4.17889 9.62434 11.1398 0.00617574 0.00089192 0.00299008
135 2 -0.942024 3.89052 11.4042 9.47847 0.00277418 0.00375379 0.00195098
136 2 -0.899316 2.21264 13.1448 13.2568 0.00389717 -0.0050744 -0.00028861
137 2 -0.912822 14.5141 11.2625 13.0595 9.31082e-05 -0.00748141 -0.00468358
138 2 -0.946865 14.6051 13.1859 11.4054 -0.000535906 0.00126918 -1.92442e-05
139 2 -0.958003 5.95025 9.41441 12.9008 0.00352381 0.00619508 0.00418794
140 2 -0.90117 7.67733 9.85887 14.8215 0.00510023 0.000117065 -0.00271776
141 2 -0.972562 7.42546 11.3872 12.8309 0.00178825 0.00211069 0.00250473
142 2 -0.908579 5.91886 12.9366 9.64099 -0.00538342 0.00216236 -0.00371327
143 2 -0.895883 7.60362 14.7128 9.14211 0.00207574 0.00120746 -0.000318296
144 2 -0.945326 7.83421 13.1588 11.163 -0.000767429 0.000198794 0.00220497
145 2 -0.907722 9.70547 2.42347 2.14297 -0.00654245 0.00165071 0.00529597
146 2 -0.909038 9.52554 14.7123 14.7442 0.00459945 0.00157826 0.00242342
147 2 -0.954335 9.28848 3.95753 4.0276 -0.0030636 0.000129269 -0.00280265
148 2 -0.962385 11.0937 2.26854 4.264 0.00629553 -0.00940868 -0.00717578
149 2 -0.865454 11.4808 4.23783 2.56371 7.26754e-05 -0.0019334 0.00194041
150 2 -0.880822 9.53471 5.77449 5.85992 0.00405093 -0.00121587 -0.00080096
151 2 -0.924876 10.8722 5.8513 7.81946 -0.00174636 -0.00244603 0.00457995
152 2 -0.918603 11.279 7.58631 5.96191 -0.00778892 0.00190379 -0.00542351
153 2 -0.98936 9.31628 7.77143 7.39035 -0.00378862 0.00080979 -0.000615623
154 2 -0.894876 13.0971 2.34245 5.67442 -0.000533318 0.000709269 0.00230906
155 2 -0.933619 11.3969 14.6441 5.95545 0.000154765 5.46769e-05 -0.00570182
156 2 -0.803146 13.0406 14.5245 4.11528 0.00516592 0.00641064 0.00197675
157 2 -0.887088 12.8101 4.24684 7.25254 0.000699888 0.00310341 0.004768
158 2 -0.909315 12.8143 6.2974 2.23974 0.00549722 0.00037969 0.0110734
159 2 -0.881411 10.8274 5.7375 14.7682 -0.00592189 -0.00191649 -0.00221885
160 2 -0.889511 13.0896 4.50444 14.6932 0.00619705 -0.00368054 0.00365782
161 2 -0.922344 12.8248 7.92589 3.99268 -0.00592094 0.00403206 0.00170314
162 2 -0.887985 9.30257 2.31348 9.72371 -0.000595861 0.00388371 0.00194048
163 2 -0.914889 9.75295 14.6579 7.90811 -0.00198282 0.00496935 -0.00444397
164 2 -0.872279 9.58948 4.41772 10.8717 0.00176 -0.000952903 0.00289478
165 2 -0.904885 11.0629 2.45285 11.5156 -0.0049526 -0.00308627 0.0069273
166 2 -0.945228 11.3422 3.79629 9.35712 -0.00500375 -0.00144559 -0.000702589
167 2 -0.89348 9.31168 6.21812 12.5966 -0.0017109 0.00275441 0.00261712
168 2 -0.8908 9.4339 7.84545 14.733 -0.00240716 0.00507896 -0.0080702
169 2 -0.795801 11.233 7.75049 13.2932 -0.00559533 0.00392131 0.000241865
170 2 -0.941402 12.9921 2.375 13.1111 0.00537827 -0.00810661 -0.00381809
171 2 -0.913441 11.398 14.4763 13.0307 0.00545167 0.00428128 0.00335653
172 2 -0.906892 12.8681 14.8904 11.0613 0.00224528 -0.00395167 -0.00488645
173 2 -0.867063 12.7866 5.77075 9.28632 -0.00309521 -0.00123465 0.00754319
174 2 -0.787774 12.4252 7.16512 11.3306 -0.000563786 -0.000380516 -0.00212903
175 2 -0.889832 9.42219 9.2666 2.66625 -0.00721341 0.00309173 0.00470505
176 2 -0.876367 9.17139 11.2488 4.13778 -0.00785833 -0.00222894 -0.00166704
177 2 -0.889791 11.1681 9.74401 4.55129 -0.00332441 -0.000736415 0.00460189
178 2 -0.905685 11.0625 11.1713 2.47297 0.00459121 0.00451815 -0.000145193
179 2 -0.912622 9.52733 12.9063 6.09154 -0.0077401 0.00713883 -0.00385469
180 2 -0.889815 11.5109 12.871 7.63072 -0.00451124 0.00292531 0.00335833
181 2 -0.881014 13.2045 9.23554 6.04919 -0.00349821 -0.00259518 -0.00599171
182 2 -0.880488 13.154 10.9315 8.03077 0.00130478 0.00156287 -0.002442
183 2 -0.818662 12.76 12.9127 1.71849 0.0021059 0.000359157 -0.0058774
184 2 -0.868125 10.8264 12.5467 14.5953 0.00380051 0.00629608 0.005806
185 2 -0.91328 12.724 10.623 14.6964 0.00304833 -0.000586398 0.00446415
186 2 -0.940037 9.42084 9.1102 9.54526 0.00243288 0.0031882 0.000397527
187 2 -0.919962 9.1844 10.9222 11.1523 -0.0041329 -0.000624143 0.000652701
188 2 -0.921424 11.1863 9.39082 11.2631 -0.00316684 0.00214052 -0.0035888
189 2 -0.945235 10.9898 11.0376 9.30848 -0.00376707 0.00211792 0.00194789
190 2 -0.920576 9.57216 12.8197 12.6643 5.97745e-05 0.00345036 -0.00458229
191 2 -0.838108 13.1991 9.29227 12.7122 -0.00011642 0.00308641 0.00266115
192 2 -0.953702 12.8118 12.7619 9.71168 -0.00278547 0.00289966 -0.00487653
193 2 -0.585228 14.4112 12.4913 3.16321 0.00694451 0.00697244 0.00236628
194 2 -0.574339 5.09675 5.02696 11.8427 0.00504142 -0.00309725 -0.00558536
195 2 -0.657392 6.81027 7.02343 13.6302 -0.00357225 0.000171193 -0.00199831
196 2 -0.608975 6.76833 14.0037 13.8428 -0.000227072 -0.00329741 -0.00405337
197 2 -0.68782 1.26862 5.27208 8.21637 0.00237435 0.00238569 0.00403969
198 2 -0.617742 8.7399 15.5771 5.14049 -0.00416497 -0.00686538 0.00110683
199 2 -0.618588 4.92671 8.75304 1.34442 0.00381025 -0.000804418 -0.00134604
200 2 -0.656926 10.4636 13.8715 3.09513 7.50645e-05 0.00440433 -0.00288217
201 2 -0.590846 1.58781 1.53682 12.0639 -0.000752839 0.000585443 0.000972358
202 2 -0.617619 10.2022 6.75365 3.30383 -0.00769905 0.00678793 -0.00146081
203 2 -0.66928 12.1972 15.507 1.45663 0.00256442 0.00249731 0.00401672
204 2 -0.673026 2.4328 7.30787 9.41348 0.0007809 -0.00722444 0.00130335
205 3 0.416786 15.2996 12.6088 2.83916 0.00837323 0.0377032 0.0129183
206 3 0.453387 14.1931 12.8058 4.78317 -0.0166519 0.012413 -0.0246779
207 3 0.404176 6.0493 5.09567 11.9959 -0.00806698 0.0257866 -0.0309808
208 3 0.428925 4.91856 5.98575 11.8445 0.0179644 -0.00998313 -0.00323731
209 3 0.426766 6.52071 7.81279 14.0223 0.0243425 -0.00183229 -0.0169118
210 3 0.395213 7.73409 7.04831 13.4394 -0.00608121 -0.0125841 -0.00458461
211 3 0.432171 6.76677 14.9368 13.7728 0.0177595 -0.0246514 -0.0376782
212 3 0.412254 5.85912 13.759 13.8088 0.0222547 -0.00337879 0.0145219
213 3 0.423562 1.34868 5.385 7.28499 0.0129294 0.00531322 -0.0247522
214 3 0.412882 15.2219 4.31618 8.33351 -0.0166376 0.0129252 -0.00402238
215 3 0.404337 8.99218 2.3588 5.29072 -0.00926235 -0.00555584 -0.00627256
216 3 0.408223 9.57553 15.1925 4.92151 0.000821813 0.0126877 -0.0238462
217 3 0.422667 4.03237 8.77803 15.8547 -0.00547897 -0.00784259 -0.000506724
218 3 0.390331 5.60207 8.49866 2.02276 -0.0046849 -0.0247896 -0.0175843
219 3 0.372796 9.59788 14.2062 2.91975 -0.0163326 0.00277067 -0.0184089
220 3 0.413528 10.4468 13.0637 2.53327 -0.0151886 0.00863646 -0.00690012
221 3 0.423468 15.2643 1.62352 12.9293 -0.00775856 0.00826573 -0.0138173
222 3 0.444827 2.52689 1.57696 12.1433 -0.00725431 -0.003711 -0.0205305
223 3 0.451025 9.63329 7.25676 2.80137 -0.0153385 0.0247256 0.0113046
224 3 0.429033 11.139 7.05503 3.18361 -0.00758517 -0.00364943 -0.00805613
225 3 0.412024 12.2612 15.2913 14.6235 -0.0115763 0.0116084 -0.013762
226 3 0.413316 11.2917 15.1647 1.68954 0.00439135 -0.0138557 -0.0121175
227 3 0.455309 2.14569 6.60398 8.73334 -0.0360946 -0.00047188 0.0167593
228 3 0.466248 2.45845 8.43227 6.64447 -0.0108281 -0.0129987 0.00245047
ITEM: TIMESTEP
12000
ITEM: NUMBER OF ATOMS
228
ITEM: BOX BOUNDS pp pp pp
1.5119690355501607e+00 1.5648030964449712e+01
1.5119690355501607e+00 1.5648030964449712e+01
1.5119690355501607e+00 1.5648030964449712e+01
ITEM: ATOMS id type q x y z vx vy vz
1 1 1.72046 1.68581 1.69812 15.5262 -0.00140754 0.00101397 -0.00154617
2 1 1.78453 3.4183 3.27127 3.31483 -0.00418841 0.0012107 -0.000150621
3 1 1.79572 15.5329 4.94689 4.8881 0.00471382 -0.00412178 -0.000763247
4 1 1.73205 3.4806 6.61711 6.36469 5.36931e-05 0.00081759 -0.00379685
5 1 1.87105 5.18355 1.57901 5.07941 -0.00122848 -0.00199079 -0.00393519
6 1 1.77234 6.97877 3.29458 6.81388 0.000236468 0.00388025 -0.00388215
7 1 1.78871 5.0814 4.97933 1.48781 -0.0031684 0.00165148 0.000379643
8 1 1.73252 6.89904 6.78295 3.20015 -0.00720218 -0.00273408 0.000722324
9 1 1.73265 15.5888 1.5353 8.53431 7.18082e-05 0.00201388 -0.00338499
10 1 1.68999 3.29722 3.38837 10.1842 -0.00387049 -0.00151528 0.00504988
11 1 1.84642 1.53641 5.05324 12.0819 -0.00363027 -0.0027702 0.00481704
12 1 1.75112 3.17548 6.75346 14.0099 9.6528e-05 0.000651416 0.000513854
13 1 1.63828 4.9371 1.59463 12.0279 -0.00464371 0.00291534 -0.00250596
14 1 1.72223 6.78963 3.29298 13.7938 0.00136408 0.00190329 0.000943506
15 1 1.82244 5.12639 5.09729 8.43675 -0.00499317 -0.000299069 0.00144645
16 1 1.80699 6.70228 6.89933 10.2742 0.00162168 0.00224669 0.00573295
17 1 1.82806 15.6029 8.63138 15.6234 -0.000274917 -0.00194323 0.00284688
18 1 1.76057 3.10218 10.5137 3.31646 0.003328 -0.00354959 0.00380565
19 1 1.64009 1.79757 11.8799 5.7555 0.00268506 0.000948541 -0.00324343
20 1 1.77436 3.48345 14.0251 6.96109 -0.00190606 -0.00176276 -0.00131319
21 1 1.66107 5.04425 8.67149 4.78062 0.000117111 0.000809877 -0.00419473
22 1 1.83982 6.59744 10.3472 6.79836 -0.000223456 0.00339864 -0.00190824
23 1 1.7179 5.04288 12.1211 1.55864 0.00123889 0.00180956 -0.00614286
24 1 1.75007 6.83961 14.0048 3.15653 0.00481801 -0.00347877 -0.00144482
25 1 1.57193 15.409 8.73385 9.41732 0.00217966 0.00197385 0.00016573
26 1 1.74684 3.22542 10.6732 10.611 0.00061891 0.00177555 -0.00177304
27 1 1.77537 15.3798 12.2594 12.227 0.000893574 0.00327341 0.000894468
28 1 1.70575 3.28193 13.8365 13.8738 0.00710171 0.000134946 0.00145543
29 1 1.80663 4.92455 8.59079 12.0897 -0.00104598 0.00207467 0.00413473
30 1 1.83248 6.74407 10.3451 13.814 -0.00229191 0.00146267 0.00200874
31 1 1.89675 5.06177 12.1323 8.71013 -0.00210267 -0.00460469 0.00159459
32 1 1.81871 6.8017 13.931 10.4061 0.00161962 -0.00303366 0.00128389
33 1 1.81747 8.70951 15.6528 15.483 0.00110816 -0.00266235 -0.00188331
34 1 1.81426 10.4978 3.26652 3.09836 -0.000341102 -0.00248163 0.00685521
35 1 1.83598 8.71301 4.92824 4.94906 0.000519274 -0.000266306 0.000549048
36 1 1.83909 10.2439 6.635 6.86183 0.00130258 0.000147954 -0.00200679
37 1 1.82794 12.1814 15.5754 4.95036 0.0041102 -0.00373696 -0.00174774
38 1 1.78012 13.8012 3.30725 6.8197 0.00591389 -0.00537739 -0.000988316
39 1 1.81285 12.1567 5.1586 15.4826 0.00522742 -0.0015269 0.00075673
40 1 1.74077 13.7778 6.9161 3.2576 -0.00410544 0.00361282 0.0031822
41 1 1.80294 8.72232 15.4933 8.59783 0.000451729 0.00329521 0.00200369
42 1 1.88723 10.3111 3.11571 10.4145 0.0017206 -0.00805631 0.000934669
43 1 1.69139 8.48205 4.97401 11.9053 -0.0051982 -0.000113346 0.000315811
44 1 1.79124 10.1819 6.74978 13.7349 0.000875526 -3.4202e-05 -0.00452474
45 1 1.75178 12.1007 15.5106 12.1381 -0.000293505 0.000143602 -0.00473213
46 1 1.78165 13.8778 3.28019 13.7922 0.000187008 0.00151882 -0.00159881
47 1 1.74756 12.0203 4.96004 8.63764 0.00530604 0.0045251 0.0025761
48 1 1.73324 13.5846 6.7212 10.6809 -0.000167532 -0.00382242 -0.000915982
49 1 1.8119 8.56383 8.63817 15.6066 0.00148009 -0.00246289 0.000776581
50 1 1.6942 10.2904 10.2472 3.44211 0.00245403 0.00123917 -6.9636e-05
51 1 1.76163 8.38773 12.1072 5.00224 0.00102851 -0.00190987 0.00235167
52 1 1.74006 10.3603 13.7729 6.66177 -0.000604887 -0.00062182 -0.00199792
53 1 1.73713 12.0815 8.49935 5.22642 0.00159727 0.00379434 0.00414633
54 1 1.76931 14.0191 10.0102 7.09471 0.00278615 0.00344613 -0.000341939
55 1 1.78606 11.8851 11.8562 15.4714 -0.00503372 0.00238351 0.00336862
56 1 1.41787 13.5358 14.1091 2.67727 -0.00428507 -0.00063367 0.00166941
57 1 1.76141 8.46299 8.52129 8.33474 0.00032277 -0.00163486 0.000466628
58 1 1.87883 10.288 10.2841 10.0539 0.00323614 -0.00167912 0.00449905
59 1 1.87566 8.49872 11.9316 11.8538 -0.00135659 0.00196478 -0.00196663
60 1 1.69195 10.218 13.6129 13.6647 -0.00111683 -0.00114838 0.00093276
61 1 1.76829 11.7977 8.70452 12.0717 0.00325032 -0.000105424 -0.000450431
62 1 1.94039 13.7771 10.2483 13.8124 0.0106702 -0.002195 0.00047637
63 1 1.92286 12.0707 12.0362 8.37403 0.00357061 0.00673913 -0.00136138
64 1 1.8119 13.7529 13.8082 10.1497 -0.00672783 -0.000163571 0.000539763
65 2 -0.894838 2.50652 2.28625 2.58364 0.00469374 0.00098237 0.000999705
66 2 -0.905918 2.66406 15.0304 14.6309 0.000697037 0.00401848 0.0038286
67 2 -0.928532 14.9949 2.66207 14.6092 -0.001508 -0.00234912 -0.000799017
68 2 -0.840522 14.7573 14.8779 1.96206 0.00495518 0.00103022 0.00350086
69 2 -0.894378 2.49285 4.28347 4.03253 0.00311318 0.0102643 -0.0100511
70 2 -0.903461 4.25135 2.61493 4.49937 0.00202097 0.00336834 0.00301802
71 2 -0.929732 4.32475 3.90241 2.24132 0.000580728 -0.00088334 0.000860864
72 2 -0.901979 2.24858 5.89903 5.69897 0.00396126 0.00467735 -0.00813831
73 2 -0.93692 14.8262 3.94312 5.86734 0.000474179 -0.00763505 0.000397259
74 2 -0.879979 14.5279 5.82481 4.12175 0.00127217 -0.00606293 -0.0028168
75 2 -0.957447 4.18121 5.77301 7.42104 -0.00496646 -0.0014812 0.000215322
76 2 -0.812079 4.28214 7.35115 5.26619 0.00434197 -0.000599351 -0.00300854
77 2 -0.783211 3.03264 7.94775 6.91991 0.00277961 -0.00170355 0.00336239
78 2 -0.929554 5.97891 2.28801 6.12412 0.000485119 0.00608331 -0.00616455
79 2 -0.904672 4.37482 14.7006 5.91272 0.00106092 0.00360866 -0.0044934
80 2 -0.9316 5.92046 15.0552 3.90556 -0.00396235 0.0052844 -0.00132556
81 2 -0.896353 6.24658 4.31551 7.7242 0.000606612 0.00706196 -0.00319583
82 2 -1.00913 7.7723 4.00865 5.74477 0.000982818 0.00169157 -0.00649505
83 2 -0.843969 7.87238 2.40737 7.79415 0.000278072 -0.00288171 -0.00217265
84 2 -0.936868 5.78527 6.00756 2.42418 -0.00446817 -0.001758 0.00204254
85 2 -0.869421 3.88228 5.79857 15.0231 -0.00116958 -0.00436509 -0.00113865
86 2 -0.94391 6.07347 4.40405 14.6184 0.00178023 8.88336e-05 -0.00064265
87 2 -0.859621 6.16922 7.9516 3.97379 0.00110181 -0.00242246 -0.00182649
88 2 -0.885311 7.88138 5.88582 3.98684 0.00200782 -1.07163e-05 0.00326641
89 2 -0.929269 7.683 7.68317 2.26412 -0.00139125 -0.00686261 -0.000967554
90 2 -0.917571 2.23099 2.55536 9.39893 -0.0048229 0.00149588 0.000482603
91 2 -0.882175 2.43825 15.0221 7.45525 0.000333733 0.000136772 -0.00153212
92 2 -0.884464 14.6402 2.55805 7.82791 0.00294274 0.00150637 0.00328039
93 2 -0.877327 14.7005 14.5966 9.17301 -0.00651414 -0.00165563 0.00256608
94 2 -0.945359 2.35728 4.36352 10.9711 -0.00198317 0.00102324 0.00315131
95 2 -0.923308 3.90462 2.38251 11.2186 -0.000439063 1.17022e-06 -0.000740866
96 2 -0.921265 4.32182 4.06652 9.23374 0.00339013 -7.94574e-05 0.00041961
97 2 -0.906708 2.3105 5.81714 13.1395 -0.00586272 -0.000312063 -0.000711003
98 2 -0.866254 14.7764 3.9428 12.685 0.00358844 -0.00316236 0.00596609
99 2 -0.91097 14.5824 5.96027 11.5655 -0.000617845 0.00458247 -0.00207308
100 2 -0.964056 2.28213 7.58039 14.9434 0.00647085 0.00194097 -0.000220653
101 2 -0.906769 3.88642 7.61686 12.911 -0.00567853 0.000475884 -0.00326811
102 2 -0.882504 5.71909 2.34331 13.1921 0.00443551 -0.0054625 2.07661e-05
103 2 -0.875054 4.20798 14.4841 12.8074 -0.00330143 -0.00776698 0.00157372
104 2 -0.878303 6.01266 15.0799 11.1442 0.00513625 -0.00279968 -0.00328583
105 2 -0.895825 7.86629 2.40942 14.5889 0.00561331 0.00329509 0.00155929
106 2 -0.920053 7.46673 4.04144 12.6468 -0.00202147 -0.00500741 -0.00622173
107 2 -0.931705 5.73425 6.19465 9.36978 0.0059324 0.0036466 0.00865266
108 2 -0.990641 5.88211 7.73429 11.3432 -0.00458531 -0.00417396 -0.00894701
109 2 -0.885284 7.67581 5.88789 10.7542 0.00492402 0.000181685 0.00931325
110 2 -0.873677 7.51543 7.95273 9.42689 0.000285317 0.00201459 0.00643558
111 2 -0.933281 2.24096 9.65725 2.31947 -0.00513279 0.000681781 -0.00535112
112 2 -0.894742 14.7204 7.97148 2.57712 -0.000140705 -0.00626734 0.00420727
113 2 -0.951973 14.8241 9.37253 14.4809 -0.00582946 -0.00768319 -0.00594931
114 2 -0.883987 2.32994 11.3543 4.41326 -0.000887585 0.00101666 0.00532443
115 2 -0.889173 3.91595 9.49476 4.08516 -0.00674931 0.00419046 0.000244797
116 2 -0.901261 4.1966 11.2276 2.50847 -0.00736778 -0.00496533 0.00506197
117 2 -0.856453 2.98694 12.6713 6.38564 -0.00256968 -0.002506 -0.00519031
118 2 -0.905949 15.1656 10.7809 6.48298 -0.00272543 -0.00498936 -0.00157578
119 2 -0.682071 14.8041 12.9954 5.70779 0.00118324 0.0102857 0.00738279
120 2 -0.875957 4.35931 13.3817 8.07519 0.00286908 0.00337856 0.00193054
121 2 -0.894481 5.63814 9.44702 6.02802 -0.00692142 0.00616687 0.00417702
122 2 -0.9671 5.88459 11.3629 7.71938 0.00814258 -0.000288536 0.0118212
123 2 -0.863749 7.34115 11.2094 5.76332 0.00135183 -0.00293722 -0.0064289
124 2 -0.910207 7.73433 9.5369 7.44719 0.00279063 0.00293504 -0.00277043
125 2 -0.902741 5.95606 13.1795 2.22783 -0.00700308 0.00111921 0.00548087
126 2 -0.937383 4.09711 13.0451 14.9124 -0.00315903 -0.00472021 0.00309659
127 2 -0.922667 6.05394 11.2597 14.8404 -0.00217721 -0.00638371 -0.00494824
128 2 -0.907784 7.84132 14.6153 2.13894 -0.00295616 0.00235026 0.000807664
129 2 -0.964746 7.76625 13.1586 4.10861 -0.00491826 -0.00497107 0.00183663
130 2 -0.849646 1.9514 9.98489 10.0919 0.0043947 0.00313745 0.00113044
131 2 -0.848629 14.251 7.98191 10.1296 0.00354106 -0.000540808 0.00494534
132 2 -0.874678 14.8919 9.06034 7.99 -0.00167872 0.00228923 0.00243827
133 2 -0.853732 2.54983 11.6104 11.6809 0.00603619 0.00302257 -0.00140685
134 2 -0.902328 4.12095 9.61089 11.2744 -0.00531165 0.00373967 -0.00408513
135 2 -0.961168 4.06595 11.3092 9.46138 0.00158885 -0.00158646 0.00166685
136 2 -0.88149 2.036 13.1884 13.1763 0.00165161 0.00100938 -0.0027387
137 2 -0.958976 14.4621 11.3861 13.089 -0.00272167 -0.00305906 -0.00562095
138 2 -0.911956 14.6698 12.8617 10.9746 0.00145846 -0.00150089 -0.00353677
139 2 -0.9512 5.71496 9.51014 13.0017 -0.00081605 -0.00306477 -0.00138066
140 2 -0.971609 7.66207 9.43269 14.6426 -0.00188055 0.000219189 0.000864653
141 2 -0.94734 7.57925 11.1908 12.843 0.00260281 0.00231936 -0.000923019
142 2 -0.929249 6.00314 12.8741 9.69785 -0.00352286 -0.00407527 0.0023386
143 2 -0.875769 7.68372 14.5695 9.27079 -0.00249179 0.00640259 0.000617257
144 2 -0.919685 7.73196 13.1172 11.3165 0.00297163 0.00819144 -0.00214845
145 2 -0.980973 9.47955 2.3834 2.32487 0.00954066 0.000211674 0.00113185
146 2 -0.90524 9.61051 14.7717 14.6294 -0.000470075 -0.0080162 0.00434101
147 2 -0.924893 9.64805 4.01357 4.11366 -0.00255226 0.0089513 0.000603363
148 2 -0.963335 11.2757 2.40486 4.12529 0.00110259 -0.00159581 0.00570096
149 2 -0.956089 11.2181 4.2631 2.14818 7.64854e-05 0.000929002 0.00250384
150 2 -0.946957 9.6748 5.71349 5.78142 0.0020424 0.0024462 -0.0011807
151 2 -0.933803 10.9883 5.84938 7.92155 -0.00076865 0.00508807 0.000496268
152 2 -0.863722 11.2672 7.69236 6.30753 0.000933136 0.00369056 -0.00125005
153 2 -0.901499 9.04996 7.3913 7.43131 -0.00689739 -9.30926e-06 -0.000992831
154 2 -0.891576 12.9335 2.28364 5.97252 0.00545483 0.00250744 0.00198119
155 2 -0.90545 11.2825 14.5502 5.61216 -0.00437623 -0.00268131 -0.000588402
156 2 -0.868212 13.0888 14.7322 4.0967 -0.000442714 -0.00379965 -0.000236215
157 2 -0.888863 12.8867 4.35039 7.52691 -0.000976447 -0.00229318 -0.00430203
158 2 -0.979181 12.9311 6.11803 2.25203 -0.00688193 -0.00262553 0.00199571
159 2 -0.890008 11.2894 5.92943 14.4196 0.000995434 -0.000106479 -0.00229494
160 2 -0.908208 13.0264 4.31578 14.5184 0.0043418 -0.00474729 -0.00326121
161 2 -0.948922 12.7621 7.56701 4.25988 -0.00143437 0.000627206 0.00574493
162 2 -0.951271 9.37239 2.14725 9.6762 -0.00173561 -0.000917301 -0.00118646
163 2 -0.90748 9.79304 14.8479 7.65509 -0.00516719 -0.000669071 0.00318474
164 2 -0.914536 9.55096 4.19234 11.1281 -0.00530786 0.000761532 -0.0026102
165 2 -0.896238 11.05 2.3349 11.4729 0.00368584 -0.00256163 -0.00326774
166 2 -0.894468 11.3713 3.81161 9.50268 -0.00265479 0.00257887 -0.00707939
167 2 -0.944909 9.18684 5.89589 12.9286 -0.00518001 0.00117207 -0.00120528
168 2 -0.889671 9.25827 7.58856 14.6857 0.00447018 -0.00210579 -0.002917
169 2 -0.881155 10.7379 7.93744 12.9804 -0.00102953 -0.00080866 0.00568444
170 2 -0.921975 12.8909 2.19929 13.1658 0.00412638 -0.000608041 -0.0030849
171 2 -0.889175 11.3722 14.4197 12.9465 0.00461589 0.00293389 -0.00570255
172 2 -0.894638 12.874 14.7565 10.9939 -0.00205983 -0.000812734 -0.00545241
173 2 -0.842969 13.0661 5.7525 9.54566 0.0088437 0.0024963 -0.000612207
174 2 -0.830838 12.427 7.37963 11.5034 -0.000470401 0.0066873 -0.000691295
175 2 -0.938733 9.60511 9.31507 2.37136 0.00222596 0.00277382 -0.000469767
176 2 -0.913003 9.17675 11.0862 4.1483 0.00143525 -0.00380971 -1.12568e-05
177 2 -0.909155 10.988 9.39763 4.53102 -0.00433094 -0.00990207 -0.00211156
178 2 -0.905532 11.2542 11.0453 2.54173 -0.00689664 -0.00172427 0.00610707
179 2 -0.906653 9.35016 12.8 6.0061 0.00107053 -0.00354257 0.00348987
180 2 -0.931842 11.3562 12.8015 7.32155 0.00252448 0.00536389 -0.00264754
181 2 -0.87625 13.1981 9.30072 5.96383 -0.00677757 0.00672804 0.00262242
182 2 -0.928898 13.0821 10.9923 7.83894 0.00465245 -0.00644042 0.0040455
183 2 -0.830095 12.7566 13.0766 1.77128 0.00287183 0.00084609 0.00133239
184 2 -0.891635 10.8455 12.6146 14.7131 0.000335659 -0.00083774 0.000414736
185 2 -0.97815 12.701 10.8148 14.6817 -0.00548089 0.00146582 -0.00187217
186 2 -0.896594 9.63433 9.27359 9.08671 -0.00543087 0.00343167 -0.00382501
187 2 -0.942264 9.13358 11.0175 10.7631 -0.00281859 0.00449883 0.00105482
188 2 -0.976616 11.1803 9.55956 11.0233 0.000868681 0.00179593 0.00196754
189 2 -0.960119 11.1843 11.3477 9.37801 0.00767962 0.000358734 0.00640935
190 2 -0.908641 9.55359 12.6421 12.6896 -0.00304081 -0.00268941 -0.00104733
191 2 -0.898327 12.9856 9.49455 12.7569 0.000981808 8.46687e-07 -0.00075146
192 2 -0.899375 12.8328 13.1184 9.17917 0.00130718 1.56832e-05 0.0010072
193 2 -0.631092 14.6069 12.7712 3.11256 0.00396689 -0.00037469 0.00119089
194 2 -0.590726 4.91759 5.19009 11.9 0.00273279 0.00339626 -0.00510292
195 2 -0.654009 6.58957 6.87701 13.8399 -0.00534647 0.00166181 0.00710775
196 2 -0.566194 6.69881 13.8947 13.7916 -0.000473678 0.00807125 -0.00210949
197 2 -0.67144 15.6273 5.32422 8.26631 0.00174286 0.00268653 -0.00228313
198 2 -0.654231 8.75966 15.588 4.90958 -0.0036014 -5.86991e-05 0.0017698
199 2 -0.606986 4.91348 8.7051 1.56674 0.0009244 -0.0104649 -0.00440177
200 2 -0.634612 10.2897 13.5316 3.06407 0.00214238 0.00070735 -8.77223e-05
201 2 -0.630766 15.5746 15.6035 11.9817 -0.00518435 -0.00050836 0.00301061
202 2 -0.555779 10.3333 6.8614 3.40531 -0.00458272 -0.00126523 -0.00900217
203 2 -0.659204 12.1435 15.4234 1.56309 -0.00153141 -0.00331108 -0.000796976
204 2 -0.688794 2.25658 7.48901 9.5396 -0.00153988 -0.00280536 9.82734e-05
205 3 0.412034 15.4132 12.9877 2.64095 0.0026719 0.00609123 -0.0012594
206 3 0.473353 14.3609 13.0581 4.87089 -0.0194557 0.0463568 -0.0236152
207 3 0.402551 5.77488 5.18022 12.3729 -0.0151984 -0.00117659 0.0083427
208 3 0.399747 4.76204 6.1704 11.9165 -0.0222382 -0.00441769 -0.00708339
209 3 0.422023 6.65998 7.80677 13.9937 -0.00825872 -0.021137 -0.00912707
210 3 0.425599 7.5115 6.52334 13.931 -0.0243851 0.00289995 0.0130691
211 3 0.426692 5.9735 14.5627 13.6563 -0.0124857 -0.0226582 0.0349243
212 3 0.426979 6.40026 13.1368 14.288 0.00442245 -0.00282698 -0.0033033
213 3 0.433364 1.53517 4.74123 7.50255 0.00293897 0.0199867 -0.0109552
214 3 0.417506 1.81031 4.84264 9.0049 -0.0389908 0.00933294 0.0127
215 3 0.428554 8.48394 2.34402 4.8136 0.00519156 -0.00952841 -0.00230525
216 3 0.419513 9.68529 1.46025 4.91973 0.00220639 -0.00435069 -0.0148114
217 3 0.401244 3.96936 8.59447 1.63294 0.00950508 0.00138725 -0.00250457
218 3 0.414564 5.34467 7.98588 2.0457 -0.00104958 0.00389734 0.0178131
219 3 0.418432 9.44077 13.9555 3.28007 0.0251267 0.0052684 0.0016446
220 3 0.397416 10.0808 12.6405 3.27962 0.0176254 -0.00711511 0.0127579
221 3 0.437486 1.83339 1.43807 12.797 -0.00583962 -0.027928 -0.00708235
222 3 0.437247 1.94345 1.9965 11.3845 -0.0131831 0.00812538 -0.0182191
223 3 0.406782 10.3377 7.86609 3.37728 -0.0073166 0.00568283 0.016261
224 3 0.41045 11.2881 6.61405 3.26314 -0.0251767 -0.00418845 -0.00400354
225 3 0.430784 12.3237 15.2491 14.73 -0.00277993 -0.00929152 -0.0321467
226 3 0.417995 11.2556 14.9494 1.66119 0.00818204 -0.00182209 -0.00688103
227 3 0.464318 2.0778 6.7394 8.94471 0.0326974 0.012549 -0.00581966
228 3 0.499585 2.59715 8.76574 6.87222 0.00252133 0.0217005 -0.0231836
ITEM: TIMESTEP
13000
ITEM: NUMBER OF ATOMS
228
ITEM: BOX BOUNDS pp pp pp
1.5183179110521072e+00 1.5641682088947746e+01
1.5183179110521072e+00 1.5641682088947746e+01
1.5183179110521072e+00 1.5641682088947746e+01
ITEM: ATOMS id type q x y z vx vy vz
1 1 1.6958 1.65046 15.5023 1.58846 -0.000807146 0.000194256 -0.000704406
2 1 1.76742 3.44431 3.18795 3.17177 -0.00137304 -0.0025496 -0.00202606
3 1 1.74546 1.596 4.83699 4.84702 -0.00209841 0.00199013 0.0021692
4 1 1.67976 3.7 6.56437 6.17404 -0.00222571 0.00334312 0.0043566
5 1 1.82739 5.17456 1.5863 5.02137 0.000862591 -0.00298413 0.00256979
6 1 1.79266 6.9007 3.29483 6.91051 0.00468377 0.00255289 -0.00583813
7 1 1.737 4.94401 5.13606 15.529 -0.00471465 -0.000420061 -0.00120697
8 1 1.71637 6.82183 6.80063 3.17806 0.00245913 -0.00420155 0.00246553
9 1 1.70739 1.64067 15.6144 8.57162 0.000998512 0.00410439 -0.0062708
10 1 1.74572 3.32175 3.43253 10.2751 0.000106955 0.000335803 0.00296561
11 1 1.89249 15.5848 4.93496 12.1935 -0.000886622 -7.25126e-05 0.0028918
12 1 1.75342 3.1355 6.91492 13.7679 0.00398505 -0.00283942 0.0025368
13 1 1.81195 4.89283 1.54468 12.1253 -0.0010697 -0.00393924 -0.00654333
14 1 1.77625 6.75861 3.35761 13.7982 -0.00553117 -0.00172641 0.000114222
15 1 1.83062 5.1293 5.19908 8.48007 0.00403751 0.00477454 -0.00224256
16 1 1.71095 6.79285 7.05635 10.2496 -0.000915576 0.00562061 -0.00157805
17 1 1.67162 15.5994 8.555 1.68259 0.00286716 -0.000501821 0.000852785
18 1 1.68702 3.1283 10.4384 3.42561 -0.00214757 -0.00405017 -0.00342438
19 1 1.65394 1.52748 11.9977 5.51536 -0.001496 0.00247353 -0.00260047
20 1 1.74946 3.46889 13.9065 6.79706 0.0019502 0.00521074 0.00118584
21 1 1.76053 5.24584 8.82502 4.89109 -0.00352424 -0.00344206 0.00224923
22 1 1.82619 6.94571 10.4343 6.81839 0.0020438 0.00120284 -0.000718506
23 1 1.77081 5.02221 12.0528 1.70335 0.00659829 -0.00418714 0.00358149
24 1 1.80468 6.87934 13.9856 3.24051 -0.00399949 0.00185771 0.00129152
25 1 1.53843 15.3485 8.41452 9.23392 -0.000838216 -0.000124342 0.00479808
26 1 1.74333 3.05446 10.4909 10.2945 0.00224891 -0.000649517 0.000977861
27 1 1.68752 15.4256 12.0841 12.2176 -0.00156064 -0.00406049 0.00300085
28 1 1.73437 3.33472 13.7146 13.8983 0.00233307 0.0020461 0.00216813
29 1 1.73072 4.85736 8.72642 12.014 0.0039422 0.00237409 0.00259013
30 1 1.83694 6.65394 10.4542 13.8019 0.000450863 0.00119452 0.00203708
31 1 1.70609 4.99387 11.9601 8.58133 -0.000192256 -0.000698703 -0.00141601
32 1 1.71684 6.62252 13.9221 10.2276 0.00112939 0.000285488 -0.00079332
33 1 1.78744 8.63689 1.65475 15.5483 0.00254061 0.00023633 0.00191645
34 1 1.71752 10.4116 3.35642 3.21597 -0.00413818 0.00120617 0.00566919
35 1 1.78965 8.58479 4.99626 5.03076 0.00476633 0.000452082 0.000230304
36 1 1.87739 10.2863 6.69977 6.87275 0.00340669 -0.0017084 0.000538267
37 1 1.70103 12.1392 1.56187 5.07022 0.00496361 -0.000819471 -0.00249332
38 1 1.88838 13.9976 3.17656 6.7625 -0.00487561 -0.000845746 0.00146301
39 1 1.68275 12.1488 5.15886 15.5982 -0.00168863 0.000139072 -0.000283644
40 1 1.77363 13.8228 6.7574 3.46567 0.00180116 -0.00100271 -0.00438372
41 1 1.84815 8.53731 15.6268 8.72861 -0.00403852 -2.52426e-05 0.00529768
42 1 1.88805 10.2728 3.32219 10.3507 -0.000507776 -0.000417211 0.00154372
43 1 1.77018 8.50859 5.10661 11.9616 0.00130958 -0.000965232 0.00439934
44 1 1.70005 10.3017 6.94024 13.8934 0.000347189 -0.000186831 -0.00283721
45 1 1.71469 12.0781 1.60793 12.0751 0.00235024 -0.00740196 -0.00459094
46 1 1.82759 13.8955 3.16814 14.0442 -5.3408e-05 0.00308381 -0.00345918
47 1 1.88807 12.0552 4.82199 8.42411 -0.00263739 -9.09515e-05 0.000168708
48 1 1.81894 13.4917 6.34209 10.6253 0.0036762 0.00605457 -0.000571524
49 1 1.67557 8.48374 8.73555 15.6198 -0.00434543 0.000334872 0.000822953
50 1 1.75878 10.3379 10.332 3.31424 0.000618968 0.00163253 -0.00205218
51 1 1.77496 8.669 12.234 5.01493 -0.000959309 0.00147074 -0.00256111
52 1 1.6563 10.3637 13.9811 6.87272 0.00146514 0.000198188 0.00424314
53 1 1.79082 12.0409 8.56621 5.16483 -0.000432889 -0.00148494 0.00334378
54 1 1.74458 13.856 10.0992 7.11424 -0.00111546 0.00569822 0.00681483
55 1 1.68733 11.7464 11.7373 15.0452 -6.88194e-06 0.00226493 -0.000394763
56 1 1.29856 13.4534 13.7243 2.48397 -0.0046539 0.00451167 -0.000637257
57 1 1.93808 8.65213 8.646 8.48709 -0.00236835 -0.000284602 0.00286457
58 1 1.86266 10.3287 10.402 10.2678 -0.0036882 -0.00507226 -6.96129e-06
59 1 1.8808 8.40626 12.0717 11.8547 0.00184504 -0.00556266 0.000986802
60 1 1.77642 10.131 13.9265 13.6063 -0.00587968 0.00191733 -0.0036267
61 1 1.7826 11.9592 8.49005 11.9963 0.000109436 -0.000871073 -0.000105499
62 1 1.69407 13.8833 10.0336 13.7683 -0.00300307 0.00255601 0.00186097
63 1 1.74499 12.0865 12.114 8.58205 0.00373685 -0.00155835 0.000153507
64 1 1.72014 13.8476 13.9364 10.3279 -0.0013733 0.000328929 0.00213065
65 2 -0.815195 2.70424 1.93779 2.56943 0.0024088 0.000701794 0.00178001
66 2 -0.833663 2.64766 14.8032 14.7521 0.000186536 0.000908815 -0.000615858
67 2 -0.872897 14.8585 2.44758 15.0261 0.00254524 -0.00531451 0.00691919
68 2 -0.787672 14.8899 14.3147 2.11025 0.00471276 -0.00377441 0.000959458
69 2 -0.861236 2.26543 3.86957 3.8392 -1.36984e-05 -0.00668475 -0.000466792
70 2 -0.932747 4.41872 2.59577 4.22614 0.00237761 -0.0010364 0.00152847
71 2 -0.923794 4.02333 4.10447 2.05714 -0.00315652 -0.000956805 -0.000872196
72 2 -0.91369 2.87881 5.63202 5.26239 0.00722288 0.0028315 0.00435244
73 2 -0.930303 14.9956 3.92281 5.89516 0.00590165 0.00605136 7.98574e-05
74 2 -0.902439 14.596 5.67422 4.17279 0.00259433 0.00300867 -0.00286927
75 2 -0.971344 4.21203 5.75463 7.36803 0.00564811 -0.00142684 -0.000680546
76 2 -0.854415 4.7362 7.61152 5.70574 -0.000718868 0.000772168 0.00414408
77 2 -0.783281 2.53472 7.5529 6.53093 -0.00402057 -0.00754 -0.00449367
78 2 -0.895812 5.99927 2.27671 6.1271 -0.000252611 0.00291757 0.000978253
79 2 -0.878448 4.1232 14.6874 5.65377 -0.00331138 -0.00103925 0.00985624
80 2 -0.925032 6.16659 15.019 4.06439 -0.00462098 -0.00974171 -0.00218408
81 2 -0.928124 6.0789 4.20637 7.83623 -0.00331179 0.000687785 0.000807158
82 2 -0.929456 7.57256 4.0837 5.79183 -0.00368257 7.16006e-05 0.00253341
83 2 -0.922632 7.99865 2.51413 7.70449 0.00160424 -0.00380595 -0.00393241
84 2 -0.968366 5.71987 6.09275 2.40979 0.00218612 -0.00235069 0.00230755
85 2 -0.857945 4.19178 5.93751 14.4283 -0.00324871 0.00215916 -0.00366599
86 2 -0.87691 5.98307 4.41231 14.6103 0.00520298 -0.00565571 0.00678822
87 2 -0.8704 6.21902 8.00218 3.95637 0.00396462 -0.00135226 0.000942859
88 2 -0.847671 7.61321 5.98461 4.2845 0.00820895 -0.00339565 -0.00268537
89 2 -0.90279 7.80888 7.59291 2.28348 -0.00384154 -0.00563399 0.00227104
90 2 -0.924085 2.48639 2.65985 9.2091 -0.00669855 -0.00484356 0.00232466
91 2 -0.899299 2.52655 14.9005 7.56799 0.00379753 0.0013997 -0.00299028
92 2 -0.907038 14.6959 2.35101 7.84623 -0.00323501 -0.00112089 0.000916158
93 2 -0.877016 15.05 14.5649 9.56381 -0.00357577 -0.00151087 -0.00197921
94 2 -0.96204 2.30534 4.18297 11.1308 -0.00696579 0.00642243 -0.0032388
95 2 -0.957374 3.959 2.44166 11.3091 0.00586514 0.0104509 0.00248511
96 2 -0.914283 4.28813 4.30294 9.45207 -0.000534913 -0.000307984 -0.000698631
97 2 -0.952567 2.30582 5.90382 13.0667 -0.000317569 -0.000735769 -0.00149915
98 2 -0.9048 14.8396 3.90766 13.1001 0.00367051 0.00159515 0.00627304
99 2 -0.987007 14.4213 5.6139 11.5837 -0.0053422 0.000771978 0.000888149
100 2 -0.928596 2.51796 7.73603 14.9335 0.00314564 -0.00423258 -0.00414925
101 2 -0.954351 3.88906 7.8528 12.7679 0.00241331 -0.00289606 -0.00683715
102 2 -0.942221 5.74871 2.35577 13.132 -0.00580224 -0.00167635 -0.00761008
103 2 -0.9362 4.15573 14.555 12.844 -0.0027835 0.000163528 -0.00283667
104 2 -0.886819 5.8365 14.8862 11.1695 0.00150436 -0.00283371 0.00149069
105 2 -0.953067 7.7302 2.60774 14.7009 -0.00574921 0.0054561 -0.0025913
106 2 -0.919648 7.63025 4.04908 12.7348 -0.00326613 0.00270372 0.00137757
107 2 -0.880918 5.92811 6.31249 9.17537 -0.0063659 -0.00109509 -0.00337822
108 2 -0.880805 5.88701 7.79141 11.2662 0.00513536 -0.000209168 -0.00383064
109 2 -0.922215 7.57388 5.87771 11.0955 0.000664545 0.000593004 0.00620804
110 2 -0.93029 7.69957 8.07122 9.49215 -0.00352472 -0.00080416 -0.00886459
111 2 -0.890044 2.39351 9.65796 2.22725 0.0028331 -0.00714661 -0.00338058
112 2 -0.870624 14.8918 7.74743 2.81971 0.00369251 0.00171821 0.00184759
113 2 -0.860102 14.4282 9.17581 15.0141 -0.0100051 0.0125958 0.00449658
114 2 -0.892601 2.01589 11.2513 4.22939 -0.00890911 0.00601618 0.00149205
115 2 -0.950967 4.10865 9.49295 4.13139 0.00461299 -0.0019495 -0.000671016
116 2 -0.891602 4.09498 11.4022 2.70931 0.00129507 0.00187499 -0.000327101
117 2 -0.839707 2.73893 12.6503 6.19986 -0.0027518 0.00209564 -0.00212184
118 2 -0.885593 14.8471 11.0002 6.41499 3.32664e-05 0.000113189 -0.00813783
119 2 -0.716146 14.7204 13.2486 5.4035 -0.00735754 0.00530594 -9.62475e-05
120 2 -0.874857 4.43939 13.1509 7.69667 0.000118544 -0.00609016 -0.00627043
121 2 -0.891349 5.87383 9.7319 5.97122 0.00623719 0.00299612 -0.00296502
122 2 -0.881906 6.208 11.2295 7.91232 -0.00374949 0.00506293 -0.00404509
123 2 -0.890535 7.66793 11.3871 5.83743 0.00250477 -0.00803338 0.000611793
124 2 -0.967647 7.88545 9.37203 7.40855 -0.00340893 -0.00266015 -0.00627124
125 2 -0.918621 5.83564 13.1825 2.3949 0.000118154 0.00284595 0.00104546
126 2 -0.933898 4.09414 12.8394 14.8585 -0.00483748 -0.000761779 -0.00265318
127 2 -0.933185 5.98949 11.1749 14.9514 0.00287748 0.000287059 -0.00779824
128 2 -0.939171 7.78824 14.7568 2.19518 0.00464099 0.00152233 0.00420316
129 2 -0.965041 7.84537 13.0488 3.99438 -0.00261287 0.000263033 -0.00225921
130 2 -0.81184 1.7745 9.67318 9.99635 2.71566e-05 -0.00170162 -0.00244078
131 2 -0.859122 14.3272 7.41382 9.93691 0.00188094 0.00250644 -0.00703986
132 2 -0.873858 14.728 9.04191 7.92059 -0.000517496 0.00223563 0.00172293
133 2 -0.866032 2.41859 11.516 11.258 -0.00279368 -0.000906389 0.00233927
134 2 -0.85155 4.1179 9.53953 10.8919 -0.0066722 -0.00733404 -0.00186812
135 2 -0.883553 3.84214 11.018 9.1122 0.00271514 -0.000216864 -0.00654335
136 2 -0.897913 2.1117 13.0472 13.1337 -0.000359379 0.000160276 0.00143821
137 2 -0.875449 14.9345 10.8557 12.9712 0.00554985 -0.0020045 0.00209603
138 2 -0.859991 14.307 12.8914 11.4153 0.00132647 -0.00205606 -0.00449885
139 2 -0.958066 5.6302 9.70955 13.0109 0.00541534 0.00674484 -0.00211077
140 2 -0.907637 7.5745 9.44537 14.5265 0.00699979 -0.000118411 0.00783203
141 2 -0.918294 7.6427 11.3611 12.9548 0.00476128 0.00239909 0.00515188
142 2 -0.831666 5.6277 12.7495 9.72237 -0.00384625 0.0105545 -0.000127744
143 2 -0.925403 7.33374 14.8622 9.24793 0.000709751 -0.00152508 0.00549646
144 2 -0.893845 7.70214 12.9512 10.813 0.00394298 -0.00426254 -0.00285631
145 2 -0.966284 9.64697 2.46135 2.21197 6.18586e-05 0.0018329 0.00146552
146 2 -0.973556 9.49493 14.8266 14.6466 0.00647123 -0.0103393 -0.00343597
147 2 -0.927132 9.3189 4.05446 4.08047 0.000706171 -0.00626688 0.00239548
148 2 -0.846998 11.3709 2.57734 4.19133 -0.00728678 -0.000423801 -0.000402853
149 2 -0.819452 11.4661 4.35406 2.62085 0.002482 0.00290146 0.000949094
150 2 -0.937159 9.60175 5.70393 5.92236 0.000407611 0.00152695 -0.00193143
151 2 -0.940558 11.3038 5.90567 7.71474 -0.00505368 0.00132845 -0.0040173
152 2 -0.907762 11.0476 7.74577 6.02888 -0.00115524 0.00306527 0.00372137
153 2 -0.942853 9.36358 7.45891 7.83541 0.0110771 9.29834e-06 -0.000558182
154 2 -0.914182 13.2949 2.11612 5.94752 0.00150985 0.00684319 0.0087769
155 2 -0.913688 10.999 15.0174 5.93217 -0.00756333 -0.00444783 -0.000226404
156 2 -0.72218 12.8116 14.6529 4.18301 0.0056942 -0.000669975 0.00499129
157 2 -0.936172 12.9106 4.07915 7.3435 0.00126298 0.00173205 -0.00270807
158 2 -0.88442 12.8402 6.22585 2.41499 0.0028397 0.000450834 0.00148955
159 2 -0.907287 11.3441 5.99856 14.5355 -0.00538562 0.00410984 0.00280742
160 2 -0.886819 13.1092 4.10223 14.9625 0.00191037 0.00286795 -0.00567734
161 2 -0.907097 12.9537 7.49325 4.49115 -0.00549166 0.00364511 -0.00387003
162 2 -0.926987 9.24185 2.32235 9.79784 -0.00571317 -0.000275922 -0.000531537
163 2 -0.874303 9.57754 14.7036 8.05522 0.00178583 -0.000741356 0.00125623
164 2 -0.939888 9.49639 4.40792 11.0484 -0.00578486 -0.00423189 0.000420158
165 2 -0.92673 11.0804 2.59556 11.4345 -0.00486428 -0.00134873 0.00286926
166 2 -0.945673 11.0568 3.86416 9.15177 0.00324666 0.00286252 -0.003118
167 2 -0.873698 9.21638 6.05152 13.0379 0.00132778 -0.00494494 0.00617324
168 2 -0.914241 9.48654 7.83546 14.8118 0.00193237 -0.000173356 -0.00330609
169 2 -0.885642 10.8834 7.99141 12.9273 -0.00380697 -0.00147261 -0.00293853
170 2 -0.931941 12.9122 2.30693 13.2129 -0.00325328 0.0030278 -0.006189
171 2 -0.91267 11.2946 14.666 12.8799 -0.000689316 0.00366629 -0.000638108
172 2 -0.860833 12.9023 15.0006 10.9039 -0.00508131 0.00418197 -0.00853769
173 2 -0.949382 12.8906 5.42551 9.5261 -0.00228766 0.0097717 -0.00579774
174 2 -0.880292 12.3225 7.14902 11.3172 -0.00325604 0.00405265 -0.000386057
175 2 -0.929974 9.24799 9.57342 2.55045 -0.00241906 0.000733789 -0.00195397
176 2 -0.958342 9.66653 11.2882 4.3419 0.0031727 0.00473171 0.00116243
177 2 -0.948113 11.3297 9.38627 4.07293 0.00413264 0.00540409 -0.0038582
178 2 -0.934289 10.9922 11.1601 2.1853 -0.00144149 -0.00889502 0.0018703
179 2 -0.896308 9.27032 13.2368 6.05929 0.004503 -0.00541053 0.000112583
180 2 -0.852385 11.3628 12.8916 7.4261 -0.000728935 -0.00606515 0.00172567
181 2 -0.900618 12.9955 9.38843 6.03688 0.00313587 -0.00256244 0.0012509
182 2 -0.885115 12.8626 10.9067 8.02437 0.00221864 0.000989188 0.00274857
183 2 -0.738673 12.7173 12.8567 15.399 -0.00604692 -0.0017768 0.0059748
184 2 -0.844686 10.7556 12.7039 14.301 0.00198248 -0.000363298 0.00257619
185 2 -0.895337 12.7194 10.893 14.1896 0.00474242 -0.000979106 -0.00612375
186 2 -0.97148 9.71362 9.49401 9.21089 0.00102091 0.00325432 0.00520462
187 2 -0.942684 9.284 11.0205 11.1781 0.00388981 -0.00102768 0.0028843
188 2 -0.912435 11.3083 9.58341 11.1337 0.00570573 -0.00102769 -0.00120472
189 2 -0.891896 11.0408 11.6169 9.57318 -0.00483955 0.00200737 0.00538369
190 2 -0.866868 9.23034 13.1118 12.6299 0.00491395 -0.00101596 -0.00307064
191 2 -0.848185 13.2257 9.05242 12.7114 0.00186567 0.000148706 -0.00200316
192 2 -0.854707 13.091 13.109 9.2726 0.000551464 -0.00122631 -0.00398171
193 2 -0.64326 13.8099 12.4528 3.2355 0.00330138 0.00222082 -0.00297704
194 2 -0.56492 5.03276 5.26241 12.0015 0.00101305 -0.00610848 -0.000231355
195 2 -0.636282 6.67246 6.95523 13.6733 -0.00199193 -0.000645994 0.00186932
196 2 -0.573767 6.82367 13.9178 13.8903 0.000767747 -0.00885986 0.00185425
197 2 -0.659719 1.68889 5.22769 8.28098 -0.00175766 0.002005 -0.00138876
198 2 -0.60526 8.49635 1.52773 4.8443 0.00714518 -0.000635275 -0.00224109
199 2 -0.624145 5.01697 8.68727 1.59625 0.00463587 8.13523e-05 0.00265431
200 2 -0.633681 10.3505 13.7146 3.25682 -0.00343339 -0.000537165 0.000125085
201 2 -0.602924 15.4557 15.4834 12.026 0.00535933 0.00346929 -0.00595496
202 2 -0.56734 10.4332 6.93605 3.28407 -0.00713839 -0.000368755 0.00670312
203 2 -0.666273 12.197 15.2205 15.6013 -0.00566259 0.000968004 0.00628599
204 2 -0.676017 2.50824 7.5534 9.12683 0.00300812 0.00260563 -0.00556003
205 3 0.429659 14.8391 12.2113 3.15492 0.0127607 -0.000516884 -0.00562586
206 3 0.509679 13.9595 13.8708 5.12598 0.0258706 -0.0176699 0.00458488
207 3 0.424473 6.02139 5.19178 12.0057 -0.0122399 -0.00533056 -0.0168955
208 3 0.444725 4.88756 6.09751 12.4788 0.0283816 -0.0372999 0.00971274
209 3 0.42747 6.49643 7.82964 13.9664 -0.0108946 -0.00953939 -0.0169666
210 3 0.421732 7.64413 6.87226 13.706 -0.0061151 0.00397928 -0.0112772
211 3 0.391465 6.86942 14.9127 13.8327 0.00337116 0.00358197 -0.022904
212 3 0.40992 6.21792 13.7426 14.6208 0.00264878 -0.0116852 -0.00915297
213 3 0.387116 2.33612 4.99751 7.61295 -0.0268903 -0.00057096 -0.0141864
214 3 0.422679 1.87788 4.5209 8.86995 0.00397315 -0.00466722 -0.00511387
215 3 0.429946 8.62414 2.43695 5.14237 0.0214683 0.0092672 -0.0012159
216 3 0.430664 9.07512 15.1232 5.35219 -0.00992039 0.0156739 0.0350689
217 3 0.440563 4.10022 8.93782 15.6097 0.00372918 0.0152487 0.00191985
218 3 0.412741 5.07435 7.96123 2.20719 -0.000224658 -0.0155596 0.0227246
219 3 0.408126 9.40812 13.9014 3.01722 0.00567761 0.0245744 -9.85859e-05
220 3 0.408004 10.3775 12.7446 3.20762 0.00693682 0.0181703 0.021073
221 3 0.40317 1.70201 14.6091 12.0953 -0.011147 -0.0135497 -0.0193721
222 3 0.407492 2.06573 1.90421 11.6607 -0.0109104 -0.0216985 0.00622341
223 3 0.410864 9.86091 7.53483 2.77611 -0.0166343 0.0146704 0.00706026
224 3 0.417392 11.3282 7.33658 3.23365 0.0140079 -0.02127 0.0130509
225 3 0.440521 12.1973 15.2538 14.6298 -0.00357786 0.00708979 0.0134507
226 3 0.426286 11.2682 15.0155 1.70916 -0.0102853 0.00552317 -0.0071367
227 3 0.440259 2.43531 6.82806 8.41568 -0.00947932 -0.00756767 -0.00507611
228 3 0.482023 1.84736 8.17636 6.71743 0.0143378 -0.0142013 0.0184048
ITEM: TIMESTEP
14000
ITEM: NUMBER OF ATOMS
228
ITEM: BOX BOUNDS pp pp pp
1.5285213932273871e+00 1.5631478606772523e+01
1.5285213932273871e+00 1.5631478606772523e+01
1.5285213932273871e+00 1.5631478606772523e+01
ITEM: ATOMS id type q x y z vx vy vz
1 1 1.774 1.87088 15.5997 15.399 -0.000314383 0.000812139 -0.00149485
2 1 1.81369 3.44527 3.18977 3.25083 -0.0012289 0.00181348 -0.0026471
3 1 1.70893 15.506 4.70263 4.86919 -0.00206604 -0.000199328 -0.00453136
4 1 1.83915 3.44315 6.49527 6.39736 0.000787807 0.0016201 0.00233642
5 1 1.96275 5.1493 1.66535 5.13737 0.00297066 0.00394265 0.0036657
6 1 1.84091 6.89704 3.25525 6.93252 -0.00268913 0.00100137 0.0013547
7 1 1.7432 4.74491 5.26992 1.46646 -0.00245671 0.000239199 0.00178944
8 1 1.78941 6.75285 6.72029 3.3475 -0.00152385 -0.00145878 -0.00273741
9 1 1.73462 15.5841 1.63557 8.53544 0.001101 0.00320156 0.00262034
10 1 1.77296 3.36782 3.42546 10.2034 0.00104995 -0.000348037 9.16831e-05
11 1 1.71579 15.5746 5.12396 11.8805 -0.000594382 -0.00455646 -0.00166939
12 1 1.73712 3.16944 7.06127 13.5988 0.00261796 -0.00206496 -0.00556575
13 1 1.63119 5.1189 1.55951 12.0527 0.00437983 -0.00278064 -0.00144787
14 1 1.81074 6.60261 3.42486 14.034 0.00507638 -0.00257505 9.31771e-05
15 1 1.95686 5.15251 5.14158 8.48915 -0.00129363 -0.000905762 -0.00361029
16 1 1.7833 6.80207 6.94407 10.2586 0.000861422 -0.00269348 0.00385438
17 1 1.77646 15.5632 8.76327 15.4883 0.000999348 0.00024852 -0.000917179
18 1 1.74486 3.07448 10.3523 3.47236 0.00353394 -0.000498224 0.000281802
19 1 1.69759 15.6662 11.9865 5.63347 0.00293101 -0.00297796 -0.0048651
20 1 1.73227 3.37652 14.0802 6.80052 0.00129752 -0.00125238 -0.0014681
21 1 1.82202 5.01758 8.61039 4.9552 0.00226124 -0.00325828 -0.00289839
22 1 1.83224 6.6362 10.3634 6.78533 0.000733105 -4.19471e-05 0.00157121
23 1 1.6986 5.01149 12.012 1.77938 -0.00294714 0.00210889 0.00365999
24 1 1.84417 6.79859 13.921 3.42802 -0.00329538 -0.0054713 0.000664392
25 1 1.58757 15.3736 8.6275 9.39462 -0.00260065 -0.000176283 -0.00261843
26 1 1.75148 3.32278 10.6581 10.3994 -0.00043984 0.00019214 -0.000347679
27 1 1.83417 15.4862 12.1467 12.1978 0.00186782 -0.0007581 -0.00113594
28 1 1.78286 3.52602 13.645 13.7806 -0.00332235 0.00269442 0.00118602
29 1 1.77673 5.14146 8.83341 12.0332 -0.00343586 0.000886515 -0.0012303
30 1 1.72138 6.84358 10.4158 14.0469 -0.0073515 -0.00304753 0.000367828
31 1 1.73959 5.05511 12.3784 8.6214 -0.00472701 0.00340458 0.00116538
32 1 1.78843 6.8359 13.9356 10.4103 0.00192228 -0.00145469 -0.00468363
33 1 1.76328 8.5186 1.60663 15.6605 0.00072452 -0.000172877 0.00198564
34 1 1.75375 10.5044 3.21372 3.19467 -0.00186482 -0.000657085 -0.000832736
35 1 1.83479 8.58654 4.85486 4.95568 -0.00493321 -0.00187314 -0.00123568
36 1 1.82269 10.2927 6.79036 6.51841 0.00151337 0.00340053 0.00355851
37 1 1.78757 12.0968 15.4546 5.02319 -0.000128012 -0.000365746 0.00251736
38 1 1.79205 13.6596 3.20043 6.81217 -0.0027321 -0.000743181 -0.00306554
39 1 1.63306 12.2952 4.95897 15.466 0.000681637 -0.000186519 -0.00192704
40 1 1.79281 14.0656 6.8207 3.17864 0.00407096 0.000842658 0.00163825
41 1 1.77859 8.71599 15.5252 8.62255 -0.00210638 0.00105644 6.04439e-05
42 1 1.82599 10.254 3.34345 10.395 -0.00198187 -0.00217152 -0.00373959
43 1 1.7828 8.36306 5.06444 12.1542 -0.00222166 0.00658858 -0.00317693
44 1 1.7135 10.2648 6.72523 13.8952 -0.000199438 -0.00264243 -0.00680338
45 1 1.80769 12.0781 1.54769 12.0873 0.00537231 -0.00520385 0.00154793
46 1 1.70716 14.078 3.19953 13.7452 0.000549007 0.00230733 -0.000150974
47 1 1.9229 11.8842 5.0509 8.48524 -0.00137102 -0.00127194 0.00454527
48 1 1.76849 13.3666 6.65721 10.4687 0.00457112 0.000356795 -0.00376747
49 1 1.76919 8.57717 8.50937 1.60434 -0.00178167 -0.000749907 -0.000413622
50 1 1.80739 10.4417 10.2458 3.34239 0.0017497 0.00246105 0.0022641
51 1 1.77123 8.54267 11.9736 5.04554 -0.00201112 0.00403449 0.000626146
52 1 1.81414 10.3461 13.6657 6.78103 -0.00405248 0.00174053 -0.00254814
53 1 1.83443 12.3034 8.57035 5.03245 -0.00114322 6.87009e-05 -0.000834887
54 1 1.75287 13.8769 10.075 7.12378 -0.00245064 0.000793167 -0.00176957
55 1 1.71739 11.8131 11.8902 15.23 -0.00167696 9.2209e-05 0.00508272
56 1 1.42228 13.6192 13.9489 2.46228 0.00413509 -0.00510269 0.00308516
57 1 1.67253 8.52069 8.52555 8.25262 -0.000672484 -0.00386659 -0.00563966
58 1 1.72279 10.0956 10.3252 10.1734 -0.000908671 -0.000196709 0.00467379
59 1 1.77845 8.47985 12.0029 12.0222 -0.00171193 0.00110813 -0.00118546
60 1 1.70105 10.1363 13.909 13.6653 0.00420436 0.000609823 -0.000159131
61 1 1.76685 11.7649 8.56827 12.0172 -0.00499236 -0.000958489 0.00488233
62 1 1.834 13.7289 10.1267 13.5731 0.00268485 -6.57367e-05 0.00229412
63 1 1.83653 12.0804 12.0691 8.65802 0.00035922 -0.00317036 0.00397487
64 1 1.76315 13.8061 13.9111 10.2808 -0.00257981 0.00445112 0.00274572
65 2 -0.832137 2.77025 2.01052 2.47322 -0.00123052 -0.00161525 0.00771487
66 2 -0.879098 2.87598 14.6976 14.6726 -0.00187162 -0.00116155 0.00443091
67 2 -0.87312 15.1303 2.57061 14.7352 -0.0062586 -0.00201244 0.000298237
68 2 -0.781289 14.8869 14.6326 1.80539 0.00458654 0.000540052 0.00759302
69 2 -0.869096 2.26748 3.6723 4.06824 0.000674457 -0.00202702 0.000989981
70 2 -0.942015 4.59356 2.7031 4.1726 0.00825022 0.0047083 0.00125342
71 2 -0.905314 3.86818 4.20178 2.20862 -0.00343073 -0.000651118 -0.00891786
72 2 -0.928068 2.5958 5.43306 5.71558 0.000365222 -0.00721301 -0.00211669
73 2 -0.916687 14.4604 3.96667 5.71192 -0.00301221 0.000140152 -0.00370161
74 2 -0.905129 14.7735 5.71047 3.95335 0.0115774 0.002532 0.000215486
75 2 -0.970024 4.11207 5.72755 7.56429 -0.00650338 0.00511526 -0.00327502
76 2 -0.929879 4.46122 7.35592 5.66679 0.00307198 -0.00014899 -0.00147717
77 2 -0.875761 2.49973 7.51818 6.88899 0.00229485 -0.00228646 -0.00317629
78 2 -1.00074 5.87565 2.49439 6.17573 0.000101556 -0.00688997 0.00372409
79 2 -0.939208 4.01839 14.9408 5.69582 -0.000203827 -0.00195651 0.00233668
80 2 -0.974414 6.0414 14.7759 4.43861 0.00782585 -0.00122628 0.00196547
81 2 -0.96806 6.21949 4.40363 7.7048 -0.00214752 0.00129243 -0.000476074
82 2 -0.917221 7.99163 3.90089 6.02191 0.00386154 0.00249029 -0.00313117
83 2 -0.926909 7.62711 2.10813 7.76915 0.0026905 -0.000574962 0.000915153
84 2 -0.930472 5.56027 6.06065 2.55513 0.00119118 -0.00193522 0.00352635
85 2 -0.974809 3.89659 6.21042 14.669 0.00132571 -0.00565252 -0.00646352
86 2 -0.955099 5.7063 4.46401 14.6871 -0.000661487 0.00027214 -0.00206654
87 2 -0.876693 6.13296 7.89796 4.06094 -0.00270342 -0.00260187 0.00210148
88 2 -0.929233 7.55754 5.77946 4.28305 0.000643718 -0.00185806 0.000231257
89 2 -0.884446 7.66048 7.4714 2.36373 -0.00112358 0.00335838 -0.00299961
90 2 -0.947957 2.38707 2.6229 9.28536 0.00582336 -0.000404125 0.00127287
91 2 -0.874052 2.17367 14.9593 7.41164 -0.0041527 0.00254215 -0.00552521
92 2 -0.920142 14.6237 2.68114 7.86537 -0.00657723 -7.99816e-05 0.00540966
93 2 -0.908664 14.8918 14.7291 9.51623 -0.00411314 0.00210485 0.00554457
94 2 -0.957105 2.34083 4.32968 10.8723 0.00346555 0.00308691 -0.00103778
95 2 -0.904696 4.04132 2.40187 11.1573 -0.00346539 -0.00230509 0.00177429
96 2 -0.972849 4.45996 4.16475 9.40552 -0.0026748 -0.000601742 0.00486234
97 2 -0.86815 2.2229 6.15563 12.7945 -0.00284086 0.000134223 -0.00452277
98 2 -0.845492 15.0305 3.89635 12.7326 -0.00234029 0.0047202 -0.00054088
99 2 -0.859013 14.2459 5.74702 11.4087 0.00159452 0.00360988 -0.00336922
100 2 -0.923253 2.34189 8.09497 14.4368 -0.00357511 0.00203024 0.00119439
101 2 -0.911874 4.07003 7.88881 12.6233 0.00241761 0.00205828 0.0017778
102 2 -0.847504 5.7065 2.46818 13.2321 0.000162323 0.00449072 -0.000232217
103 2 -0.938072 4.39506 14.4763 12.7843 0.00239238 0.00312107 -0.00177156
104 2 -0.924185 6.27797 15.1031 11.2672 0.00229894 0.0132867 -0.00143341
105 2 -0.862661 7.40918 2.5326 15.0892 0.00536864 0.0095549 -0.00616863
106 2 -0.973328 7.48189 4.16298 13.0678 0.000328958 0.00026988 0.00668837
107 2 -0.922884 5.82026 6.23147 9.31744 0.00735397 -3.539e-05 0.00548635
108 2 -0.893618 6.04748 8.02018 11.0133 0.000939452 -0.00246387 0.00296588
109 2 -0.971593 7.47231 5.84168 11.2335 -0.00191491 -0.00599139 0.00272702
110 2 -0.842218 7.90034 7.52902 9.34445 -0.0032492 -0.000834398 -0.00448467
111 2 -0.919309 2.38338 9.62201 2.25776 0.00211895 0.000404784 -0.00210461
112 2 -0.923568 15.0198 7.73307 2.42777 0.00196512 -0.00415858 -0.000782862
113 2 -0.928805 14.4169 9.55328 14.7901 0.00200414 0.00593145 0.00136136
114 2 -0.886017 1.98769 11.1558 4.30377 0.00567386 -0.00483721 -0.00456899
115 2 -0.968324 3.95548 9.32917 4.1548 -0.00149519 -0.00950704 -0.00334311
116 2 -0.886849 4.06676 11.3364 2.8209 -0.0063411 0.00335151 -0.00835185
117 2 -0.836628 2.7562 12.7644 6.17796 -0.000807729 0.0006774 -0.00512827
118 2 -0.864523 15.0539 10.9186 6.53576 0.00090835 0.000644215 0.000629869
119 2 -0.777974 14.6722 13.1027 5.5158 0.00767611 -0.00916967 0.00502866
120 2 -0.915921 4.41237 13.4246 7.67535 0.00186166 0.00707262 -0.00162317
121 2 -0.915409 5.59428 9.56125 6.01013 -0.00402113 0.0033543 -0.00118328
122 2 -0.851794 5.96572 11.3376 7.77757 -0.00256533 0.00604034 -0.00209474
123 2 -0.904035 7.64479 10.9369 5.77347 0.00391634 -0.00518414 0.00266995
124 2 -0.868612 7.36091 9.39483 7.71704 0.00615127 -0.00363501 -0.000729606
125 2 -0.885049 5.90247 13.1788 2.43916 0.00295964 -0.00526549 0.000633713
126 2 -0.935924 4.33175 12.6995 14.6449 0.00210151 -0.00029072 -0.000909316
127 2 -0.912669 6.10579 11.2369 15.1547 0.00415821 -0.00187376 -0.000975837
128 2 -0.919132 7.84522 14.8012 2.66253 -0.00593947 -0.000604903 0.00254238
129 2 -0.943874 7.59071 12.8051 4.10694 0.0059211 0.000295681 -0.00132114
130 2 -0.846459 2.12838 9.76504 9.90666 0.000741311 0.00206111 0.00110367
131 2 -0.885594 14.3661 7.76144 10.1793 0.00471112 -0.000711266 -0.000609669
132 2 -0.880546 14.6786 9.06125 8.04312 0.00275366 0.00284706 -0.0062922
133 2 -0.920606 2.47312 11.6141 11.2729 -0.00104662 0.000630326 0.000346255
134 2 -0.865526 4.49539 9.90989 11.1161 0.001136 -0.0080685 -0.00482448
135 2 -0.837533 3.90888 11.3686 9.20542 0.000791507 0.00716214 -0.00163221
136 2 -0.896627 2.24637 12.9543 13.1668 -0.00147163 0.00464045 0.000774589
137 2 -0.953346 14.6944 11.0711 12.8976 -3.15153e-05 -0.00355447 -0.00195971
138 2 -0.861824 14.401 12.9759 11.3813 -0.00269401 0.00253417 0.00537992
139 2 -0.955945 5.88498 9.61243 13.0907 -0.00269956 -0.00378755 -0.00345874
140 2 -0.932308 7.84196 9.37059 14.6976 0.00543495 0.00577481 0.00453937
141 2 -0.878184 7.84708 11.2517 13.25 -0.00178871 -0.00353208 -0.00241702
142 2 -0.973242 5.73506 13.1677 9.66187 -0.00227592 0.00116447 -0.0013802
143 2 -0.877317 7.98711 14.4733 9.4976 0.000511857 -0.00155479 -0.00219603
144 2 -0.913136 7.41826 12.9229 11.3945 -0.00511386 -0.00170964 -0.00331975
145 2 -0.947792 9.59241 2.45605 2.22439 0.00609317 0.00178654 0.00949548
146 2 -0.863908 9.30042 14.986 14.5328 -0.00727323 0.0110427 -0.00587804
147 2 -0.902843 9.36467 3.91955 4.01804 -0.00637407 0.00159304 0.000244996
148 2 -0.969992 11.2929 2.38413 4.21369 0.00107128 0.000445779 0.00251915
149 2 -0.908871 11.4666 4.1854 2.42793 -0.00217545 -0.00351901 0.00147989
150 2 -0.91102 9.63898 5.74478 5.65256 -0.00282428 -0.00439595 0.000455237
151 2 -0.911731 10.993 6.00667 7.69125 -0.00311279 0.00256956 -0.000463055
152 2 -0.921732 11.375 7.66005 5.8772 -0.00445833 5.31342e-05 0.00287845
153 2 -0.851826 9.18288 7.75862 7.04856 -0.0042387 -0.0013654 -0.00144093
154 2 -0.890337 12.9281 2.06273 6.10835 -0.000302256 0.00446669 0.00117518
155 2 -0.956744 11.1631 14.4944 5.72825 -0.00051165 0.00219581 0.000437719
156 2 -0.761286 13.2097 14.8444 4.15338 -0.000455776 0.00310124 0.0060598
157 2 -0.926632 12.5832 4.09294 7.56245 -0.00793281 0.00325481 0.00111285
158 2 -0.842206 12.9956 6.13565 2.23269 0.00206413 -0.00889129 -0.000220366
159 2 -0.864794 11.3702 5.80347 14.4693 0.00210474 0.000586959 -0.00178778
160 2 -0.860345 13.363 4.29258 14.6237 -0.00202657 0.00266682 -0.000203274
161 2 -0.895184 13.2428 7.61794 4.20239 0.00236104 -0.00289063 -0.000206464
162 2 -0.932933 9.37694 2.43069 9.54085 -0.00275131 -0.00447196 0.00117587
163 2 -0.916805 9.75312 14.6945 7.79589 -0.00583951 8.23755e-05 0.00105387
164 2 -0.877041 9.4061 4.09271 11.4654 -0.00319021 -0.00242244 0.00456335
165 2 -0.882058 11.4062 2.56705 11.1427 0.000695418 0.000974577 -0.000859751
166 2 -0.947406 10.9361 4.25253 9.39447 -0.00499145 0.00278296 -0.00270221
167 2 -0.943482 9.26086 5.9771 13.0329 0.0023398 0.0015811 -0.00392077
168 2 -0.913842 9.39347 7.39619 14.9974 0.00200827 0.00836598 0.00372264
169 2 -0.869076 10.8179 7.97163 13.0583 -0.00167286 -0.00128192 0.00482697
170 2 -0.953355 13.151 2.16608 13.0394 -8.77967e-06 0.00473483 -0.00206368
171 2 -0.954672 11.1803 14.8901 12.9992 0.00138222 -0.00424847 -0.00740508
172 2 -0.875426 12.7232 14.8339 10.9435 0.0060869 -0.00228152 0.00260592
173 2 -0.966667 12.9111 5.84932 9.24328 0.000612168 -0.00434863 -0.0059169
174 2 -0.886341 12.1787 7.32168 11.2302 -0.00412679 -0.00410042 -0.00106649
175 2 -0.961162 9.51986 9.22908 2.54138 0.00875675 -0.000605715 0.00486743
176 2 -0.961516 9.60515 11.1924 4.23744 0.0113258 -0.00476799 0.000300238
177 2 -0.957806 11.4712 9.40018 4.06545 -0.0052555 -0.00209271 0.00665915
178 2 -0.934482 11.3073 11.0879 2.42915 0.00471712 0.00664111 -0.00219066
179 2 -0.959976 9.29075 12.7619 6.12207 0.00113067 0.00255287 0.00234531
180 2 -0.924666 11.3149 12.8346 7.57124 0.00408184 -0.00345078 0.0017941
181 2 -0.946416 13.2247 9.39519 5.93561 0.000128889 -0.00580413 -0.00307888
182 2 -0.902407 12.888 10.9772 7.89828 0.0028183 -0.00647792 0.00754815
183 2 -0.817591 12.6792 13.1019 15.6378 -0.000159933 -0.00221918 0.000493001
184 2 -0.870131 10.7557 12.7387 14.5365 0.00488259 -0.00477353 0.0064762
185 2 -0.88156 12.6612 11.103 14.2402 -0.000189721 -0.00507764 -0.00451159
186 2 -0.854844 9.63067 9.36572 9.00338 0.00925073 0.0017229 -0.00250434
187 2 -0.905224 8.94512 10.961 10.9834 0.000182055 0.00662412 -0.00263368
188 2 -0.910485 11.0485 9.61619 11.1305 0.00137651 0.00476438 -0.00305479
189 2 -0.869446 11.025 11.4859 9.63928 -0.00592982 -0.00159353 0.00125389
190 2 -0.887627 9.44673 13.029 12.6486 -0.00444026 0.00592979 0.00229908
191 2 -0.920919 13.0834 9.05788 12.677 0.00397305 0.00613117 0.00979214
192 2 -0.914803 13.1297 12.9171 9.34992 -0.00424267 -0.00280173 -0.000130748
193 2 -0.692785 14.4348 12.7568 2.92687 -0.000919928 0.0049602 0.00368418
194 2 -0.611962 4.92927 5.03872 12.1417 -0.00665568 0.000240327 -0.0026508
195 2 -0.658933 6.64959 6.96017 13.8376 0.00193592 0.000627829 0.00680413
196 2 -0.582988 6.81419 13.8601 14.0431 -0.00493152 0.000767001 -0.00102628
197 2 -0.666894 15.3935 5.29444 8.3196 -0.000560371 0.00873974 0.00498908
198 2 -0.614143 8.64088 15.5722 5.19345 0.00696191 -0.000749949 -0.00281717
199 2 -0.620266 4.96423 8.57759 15.4688 0.00233642 0.00441847 0.000326254
200 2 -0.66207 10.2559 13.7844 2.97206 0.00148942 0.00316206 0.00498609
201 2 -0.608963 1.71655 15.5198 12.0081 0.000103034 -0.00688813 -0.00179831
202 2 -0.584658 10.4699 6.69483 3.30696 0.00191672 0.00159536 -0.000287138
203 2 -0.651425 12.2732 15.5269 15.6601 -0.00282929 0.000694509 0.00370849
204 2 -0.604724 2.42411 7.48765 9.39959 -0.00417095 0.00190221 0.000777009
205 3 0.477187 14.9246 11.8964 2.9647 -0.01151 0.0141166 -0.0117851
206 3 0.531133 14.3885 13.8309 4.99859 0.0039218 0.014573 0.0208957
207 3 0.434605 5.85903 5.04999 11.9795 0.00688426 -0.0104681 -0.0118897
208 3 0.417756 4.80212 5.40458 13.0045 -0.0112786 -0.0180244 0.00387542
209 3 0.407569 6.6929 7.92347 13.8272 -0.0284256 -0.0157275 0.00951698
210 3 0.414215 7.57855 6.61811 13.9623 -0.00285174 -0.00302544 0.0202929
211 3 0.423212 6.33898 13.9197 13.1754 -0.00347744 -0.0383993 -0.00944104
212 3 0.440749 6.39069 13.1856 14.5631 -0.0025051 0.00205479 -0.000257597
213 3 0.400027 1.50483 5.00941 7.42187 0.0192752 -0.0104873 -0.0375027
214 3 0.443218 15.5621 4.53762 8.88551 0.0102655 -0.0130987 0.0117867
215 3 0.409769 9.37667 1.95432 4.7629 -0.0186983 -0.0125577 0.00732777
216 3 0.402597 8.75562 15.6043 6.11177 0.00462906 0.0302958 -0.0174666
217 3 0.433572 4.05237 8.56908 15.5619 -0.00892118 0.0106661 0.00711211
218 3 0.401395 5.218 7.62081 15.489 0.0307738 -0.0358778 -0.0112656
219 3 0.41343 9.4807 14.045 3.41101 -0.00160867 -0.00206578 -0.0103454
220 3 0.392523 10.2869 12.8026 3.13443 -0.0348012 -0.00379668 0.00959927
221 3 0.421204 2.61719 15.3867 11.7627 0.00433135 -0.000317219 -0.00629013
222 3 0.420372 1.39742 2.24801 11.6129 -0.00912902 0.0120846 -0.0056899
223 3 0.440034 10.4787 7.48562 2.8194 0.0220717 -0.0333679 -0.0193357
224 3 0.420992 11.0857 6.12779 2.84166 0.0243042 0.00519541 0.016088
225 3 0.41832 12.4268 15.3275 14.6682 -0.031138 0.037588 -0.0189751
226 3 0.409872 11.3541 15.2112 1.68133 -0.00296104 -0.012573 -0.0297811
227 3 0.450579 2.14673 6.68661 8.75515 -0.0037165 0.0153108 -0.00207906
228 3 0.503274 1.97631 8.28972 6.89057 0.0143165 0.00415969 -0.0225429
ITEM: TIMESTEP
15000
ITEM: NUMBER OF ATOMS
228
ITEM: BOX BOUNDS pp pp pp
1.5229324686790813e+00 1.5637067531320854e+01
1.5229324686790813e+00 1.5637067531320854e+01
1.5229324686790813e+00 1.5637067531320854e+01
ITEM: ATOMS id type q x y z vx vy vz
1 1 1.67291 1.61567 15.6954 15.518 6.26204e-05 -0.000236582 0.000316003
2 1 1.83968 3.4665 3.19577 3.26455 -0.000417933 0.000119874 -0.00615735
3 1 1.74609 15.6503 4.87421 4.94457 -0.00294018 -0.00144508 -0.00272826
4 1 1.80634 3.65047 6.63574 6.31478 0.00468447 0.000470652 0.00201746
5 1 1.80596 5.1437 1.50738 5.10184 0.0014806 -0.00182873 -0.00341475
6 1 1.6947 6.86821 3.35522 6.83563 0.00387123 -0.00457249 -0.000683
7 1 1.77063 4.96878 5.07733 15.5908 0.00185113 0.00121906 -0.00018373
8 1 1.84804 6.73452 6.85291 3.13177 -0.000595113 -0.000552755 -0.00238552
9 1 1.81311 15.5295 1.57756 8.47194 -0.00180358 -0.00424728 0.000976695
10 1 1.74038 3.30662 3.30902 10.2748 -0.000238438 -0.00425064 -0.00219945
11 1 1.74329 15.5731 5.07018 12.0105 0.00118556 -0.000646282 -0.00172612
12 1 1.77934 3.18144 6.86689 13.8901 -0.00181854 0.00110259 0.00153441
13 1 1.67493 5.06471 15.519 11.9912 -0.00130653 0.00506086 -0.00334853
14 1 1.67571 6.73785 3.36128 13.8085 0.00113781 0.00165592 -0.00283103
15 1 1.75471 5.02189 5.09325 8.53394 -0.000771115 0.000550857 0.000699858
16 1 1.72599 6.7511 7.00545 10.302 0.00253742 -0.000542083 0.000933562
17 1 1.77387 15.7258 8.59492 1.80421 0.00300476 -0.0014354 0.00254742
18 1 1.72128 3.23394 10.5066 3.47734 0.000998304 -0.00123875 0.00206452
19 1 1.61623 1.46176 11.8232 5.60024 0.000126885 -0.00148972 -0.00314709
20 1 1.78193 3.21859 14.0591 6.73863 0.00367633 0.00136112 0.00267329
21 1 1.75385 5.3404 8.7653 4.9866 0.00299204 -0.000137654 0.00439635
22 1 1.83106 6.79864 10.5693 6.89789 0.00487136 -0.00404513 0.00463041
23 1 1.74248 5.01342 12.1693 1.63258 -0.0023811 0.00440612 0.00123076
24 1 1.76604 6.90064 13.9642 3.21537 -0.0019605 0.00294378 0.00268126
25 1 1.64886 15.3368 8.49833 9.31457 -0.00503841 0.00502373 -0.00415027
26 1 1.92498 3.21391 10.4922 10.3971 -0.00130856 0.000377376 0.00119627
27 1 1.7594 15.5544 12.0341 12.1996 -0.000700339 0.00243669 0.00420788
28 1 1.66639 3.32942 13.837 13.7998 -3.50084e-05 0.00168522 -0.00133026
29 1 1.78358 4.93157 8.63995 12.106 0.000433349 0.00227223 0.00093303
30 1 1.79587 6.75621 10.4207 13.8014 -0.0062584 0.00446343 -0.00479982
31 1 1.81736 4.87091 12.2306 8.55949 0.00591155 0.00239468 -0.00057696
32 1 1.88554 6.80127 13.9091 10.1355 0.00360994 0.00148421 0.00251301
33 1 1.67247 8.65527 1.67009 15.4997 0.00139833 -0.00196801 -0.00319102
34 1 1.74348 10.4285 3.41719 3.20927 -0.000895858 -0.00265895 -0.000596281
35 1 1.87203 8.49748 5.14575 4.93064 -0.0045931 0.00137879 -0.00264916
36 1 1.82235 10.1921 6.84215 6.81261 -0.0014059 -0.000229934 0.00155735
37 1 1.83231 11.9909 15.5335 4.99748 0.00364893 -0.000176569 0.00173907
38 1 1.97084 13.8144 3.16203 6.63972 0.00155483 -0.00261591 0.000829892
39 1 1.85654 12.1396 5.12489 15.5664 -0.00110356 -0.00197992 0.000119459
40 1 1.79743 13.8311 6.74383 3.32824 -0.00112607 -0.00273897 -0.00217902
41 1 1.75369 8.63341 15.576 8.53339 -0.00270796 -0.00402302 -0.00322647
42 1 1.75278 10.2722 3.21654 10.3919 0.00493538 0.00443822 -0.00461416
43 1 1.80532 8.52831 5.10806 12.0021 0.00316489 -0.000991093 -0.00505475
44 1 1.69146 10.1219 6.88312 13.9235 -0.00445257 0.00261369 -0.00355569
45 1 1.86995 12.108 15.5608 12.0877 -0.000635443 -0.00371072 -0.00238301
46 1 1.76588 13.8176 3.31006 13.8002 0.000182589 0.000883189 0.000421264
47 1 1.83056 11.9523 4.82417 8.37356 -0.00136468 -0.0050465 0.00103483
48 1 1.74593 13.4789 6.47016 10.3811 0.000347276 -0.000203808 -0.00257436
49 1 1.6637 8.52574 8.7585 15.6755 -0.000744573 0.0039573 0.00108745
50 1 1.76467 10.4146 10.3927 3.35198 0.00452379 0.000805083 -0.00176304
51 1 1.77599 8.59128 12.1713 5.07182 -0.00360372 -0.000641471 0.00407268
52 1 1.76725 10.4209 13.7065 6.89976 -0.00326509 -0.0032042 -0.00312762
53 1 1.79381 12.1523 8.55536 5.14676 -0.00073712 -0.000541981 -0.00273711
54 1 1.81675 13.8948 9.92889 7.17949 -0.00050418 -0.00037977 -0.00271335
55 1 1.71315 11.8904 11.7666 15.1681 0.000915933 -0.000645978 -0.003819
56 1 1.4693 13.5974 13.8442 2.54242 0.00633058 -0.0049485 0.0017532
57 1 1.86303 8.5894 8.70109 8.54199 0.00464677 0.00348806 0.00291927
58 1 1.94106 10.3603 10.2769 10.4224 0.00343816 -0.00639739 0.00432265
59 1 1.88512 8.47376 12.0418 11.8653 -0.00246709 1.61859e-05 -0.00426848
60 1 1.64479 10.1612 13.8453 13.6309 -0.000469811 0.00388422 -0.00276868
61 1 1.81481 12.04 8.39564 12.1509 -0.00126866 0.00150561 -5.14841e-05
62 1 1.83126 13.8834 9.97734 13.8386 -0.000202996 0.00256388 -0.00362675
63 1 1.85127 12.0937 11.9283 8.66732 -0.00153138 -0.000557589 0.00410741
64 1 1.75064 13.8658 13.807 10.344 -0.00513385 0.00360014 0.000592358
65 2 -0.817503 2.76016 2.06852 2.40193 -0.00916827 0.0012894 0.00623699
66 2 -0.892155 2.40211 14.9482 14.4527 -0.00668055 -0.000918617 -0.00453181
67 2 -0.882421 14.9231 2.65266 14.7245 -0.00102542 0.000306684 -0.00304814
68 2 -0.828023 14.8548 14.6055 2.12355 0.00524088 -0.00167151 -0.00604522
69 2 -0.892404 2.31882 3.90578 3.97761 -0.00519123 -0.00372233 -0.00215763
70 2 -0.944458 4.47083 2.50212 4.16393 -0.00318766 0.00386513 0.00159096
71 2 -0.955401 4.11841 4.07719 2.23619 0.00569529 -0.00083074 0.00493341
72 2 -0.912033 2.72052 5.809 5.41043 0.00309486 0.00463619 0.00227315
73 2 -0.978875 14.8309 4.02871 5.94751 0.00030233 0.00126565 -0.0040583
74 2 -0.875743 14.6023 5.65036 4.11995 -0.00102786 -0.00343623 -0.0008931
75 2 -1.00213 4.1097 5.71836 7.43651 -0.00532918 -0.000882435 0.00530461
76 2 -0.898766 4.68205 7.48074 5.59908 0.00173625 -0.00330561 -0.00440767
77 2 -0.82149 2.64141 7.66966 6.66598 0.0031642 0.00487854 0.00359301
78 2 -0.928768 5.79863 2.47581 6.13314 -0.000501525 0.000830561 -0.00153401
79 2 -0.93764 4.15241 14.6295 5.71124 -0.000536474 -0.00169042 -0.00938504
80 2 -0.948844 6.12779 14.7566 4.2517 -0.00626691 0.00179228 0.0046076
81 2 -0.868843 6.17999 4.25503 7.87761 0.000506726 0.0013118 -0.00271093
82 2 -0.916687 7.56404 4.18897 5.73029 -0.0110725 -0.0012552 -0.00232009
83 2 -0.885085 8.04386 2.54082 7.55778 0.00222415 -0.00482597 -0.00605274
84 2 -0.936056 5.59877 6.16227 2.44334 -0.000736678 -0.00252199 0.00214288
85 2 -0.928052 4.10616 5.82499 14.5625 -0.00300322 0.0011475 -0.00370773
86 2 -0.881349 6.15806 4.43958 14.7578 0.00196374 0.0044065 -0.00572109
87 2 -0.882507 6.29731 8.12209 3.95787 0.00859466 0.0112218 0.000652264
88 2 -0.93594 7.54176 5.79626 3.97052 -0.003724 -0.00449128 -0.00495874
89 2 -0.919496 7.60959 7.60925 2.19646 0.0024244 -0.00450139 0.0045414
90 2 -0.912415 2.31885 2.56642 9.31287 0.00101603 6.4346e-05 0.00163545
91 2 -0.944923 2.28904 15.1076 7.32655 0.0045763 -0.0058451 0.00430687
92 2 -0.975504 14.5038 2.31715 7.73897 0.00212842 -0.00091253 0.00608744
93 2 -0.864781 14.8518 14.5832 9.38783 0.00268359 0.001149 -0.000650426
94 2 -0.90528 2.39354 4.3342 11.0071 -0.00388127 -0.00176062 0.00259052
95 2 -0.884368 4.00978 2.15242 11.0574 0.00420497 0.00225811 -0.00522586
96 2 -0.951363 4.2275 4.24784 9.52966 -0.000412449 0.00158476 0.00476525
97 2 -0.850479 2.16373 6.03257 13.0173 0.0013621 -0.0045679 -0.00468269
98 2 -0.831719 14.8512 4.03848 12.9462 0.00456247 0.000824838 -0.00557728
99 2 -0.865975 14.2861 5.5426 11.3269 -0.00355646 -0.00275441 0.00207539
100 2 -0.951216 2.49864 7.70536 14.9778 0.00372575 -0.0060316 -0.00246378
101 2 -0.951846 3.94592 7.79612 12.926 -0.00220519 -0.00696959 -0.00502222
102 2 -0.822082 5.62123 2.57706 12.9604 0.00616544 -0.00486448 -0.00394854
103 2 -0.909673 4.31584 14.4193 12.7227 0.000379525 -0.000125086 0.00113034
104 2 -0.924171 6.08656 14.9095 10.9887 0.00133331 -0.00160885 0.00173522
105 2 -0.880335 7.57076 2.35838 14.6401 0.00238153 -0.0111016 0.00257154
106 2 -0.885084 7.70017 4.11538 12.8214 -0.0042797 0.00527408 -0.00152763
107 2 -0.869636 5.73754 6.14721 9.45715 -0.000436344 0.00124159 0.00454826
108 2 -0.910501 5.94041 7.83201 11.2706 -0.00357751 -0.000127159 0.00578578
109 2 -0.876273 7.47887 5.81203 11.1221 -0.00691896 0.00248978 0.00289765
110 2 -0.928379 7.68825 7.93884 9.50851 -0.00874474 0.010606 0.00889087
111 2 -0.97181 2.55624 9.58323 2.48624 0.00445864 -0.00048717 -0.00214806
112 2 -0.913392 14.9205 7.71804 2.78287 5.03744e-05 0.00180769 0.00268853
113 2 -0.920625 14.7619 9.42991 14.9896 -0.00398215 0.00423745 0.000562546
114 2 -0.885204 2.14857 11.2217 4.27906 -0.00232253 -0.000259343 0.000310908
115 2 -0.887203 4.14752 9.62768 4.4573 -0.00332319 0.000662567 0.0033434
116 2 -0.95426 4.06424 11.5217 2.59559 0.000546849 -0.001918 -0.000836201
117 2 -0.837371 2.56108 12.7361 6.17689 -0.00146633 -0.00463006 0.00123446
118 2 -0.87582 15.1149 10.6722 6.53653 -0.0128559 0.00870992 0.000610387
119 2 -0.702802 14.3827 12.8501 5.62691 0.00332921 0.00273553 -0.00169434
120 2 -0.87141 4.15334 13.3893 7.80743 0.00413639 0.000841908 -0.00191103
121 2 -0.895914 6.01841 9.49305 6.13722 0.00138787 -0.00557523 0.00453543
122 2 -0.938607 5.77777 11.5058 7.51839 -0.00126693 0.00045852 -0.00129783
123 2 -0.90129 7.65612 11.1601 5.75377 -0.00214869 0.00373482 0.00648577
124 2 -0.915817 7.82027 9.80659 7.78984 0.00377079 0.00125232 -0.000232096
125 2 -0.937982 5.92742 13.1912 2.28038 0.000196915 0.0026294 0.00148732
126 2 -0.916114 4.24899 12.9676 14.6823 -0.00235673 -0.003042 0.00408428
127 2 -0.917965 5.96318 11.1524 14.9059 -0.0035276 -0.0055311 0.0110802
128 2 -0.911728 7.75762 14.7572 2.15529 -0.00612124 0.00441363 -3.25154e-05
129 2 -0.954035 7.8933 13.0302 4.03148 0.00504935 0.00194794 0.0078657
130 2 -0.888954 1.9842 9.78074 9.82731 -0.00297087 -0.00358341 -0.00160197
131 2 -0.908629 14.3259 7.73638 10.139 0.00205217 -0.000368406 -0.000585481
132 2 -0.934721 14.5357 8.87686 8.06546 -0.000283371 0.00308346 0.00654052
133 2 -0.95069 2.64276 11.4267 11.4146 0.000850975 0.00427786 -0.00179637
134 2 -0.935828 4.1636 9.49875 11.0282 -0.00279523 -0.00442378 0.00431506
135 2 -0.948975 3.91588 11.2476 9.30103 0.0044528 0.0064913 -0.00316719
136 2 -0.86437 2.18147 12.9255 13.1964 -0.000707026 0.00305523 -0.00365343
137 2 -0.862423 14.6783 10.8771 12.8628 0.000652826 0.00365121 0.000180725
138 2 -0.89061 14.5186 12.8028 11.3797 0.00127803 0.0043682 0.00113543
139 2 -0.93638 5.8801 9.32166 13.1341 0.00391793 0.000129191 0.00671971
140 2 -0.884422 7.84878 9.73314 14.6127 0.00509638 0.000123875 0.00402797
141 2 -0.920987 7.39294 11.3017 12.7167 0.00347084 0.000110468 0.00155061
142 2 -0.933586 5.77792 12.9272 9.57375 0.00374703 -0.00298394 0.00207768
143 2 -0.956844 7.56425 14.656 9.041 0.000983108 -0.000598689 -0.00485119
144 2 -0.897267 7.83929 12.9163 10.7659 0.00128291 0.0052938 0.00215509
145 2 -0.896288 9.46442 2.77344 2.18635 0.00393113 0.000491667 -0.000387723
146 2 -0.903062 9.52133 15.0326 14.4895 0.00445344 -0.0105089 0.00083716
147 2 -0.922509 9.47497 4.24955 4.18063 0.00844707 -0.00330497 0.0038688
148 2 -0.919488 11.2113 2.28932 3.98564 0.00853299 -0.00333608 0.00658662
149 2 -0.96095 11.4638 4.26013 2.46381 -0.00598994 0.00141475 -0.0012218
150 2 -0.914098 9.25358 6.08373 5.88757 0.00321211 -0.000634464 -9.90257e-07
151 2 -0.905136 10.8965 5.74362 7.71207 0.000338867 -0.00567807 -0.00146264
152 2 -0.921953 11.1212 7.81172 6.0574 0.00497429 0.00410691 -0.00541472
153 2 -0.911294 9.15719 7.61165 7.65084 0.00300056 -0.00640527 0.00404052
154 2 -0.966805 12.9478 2.40164 5.6753 -0.00764461 0.00608836 -0.00296428
155 2 -0.919006 11.1017 14.7105 5.91095 0.00209517 -3.57511e-05 -0.00344978
156 2 -0.808752 12.9208 14.5479 4.34158 -0.0028617 0.000911596 -0.00174533
157 2 -0.934688 12.7717 3.97726 7.38495 -0.00141609 -0.00523941 0.00219982
158 2 -0.962916 13.0411 6.11458 2.16798 -0.00363979 0.000645285 -0.00111946
159 2 -0.897334 10.979 5.87837 14.8244 0.00315988 0.00682353 0.00268795
160 2 -0.920399 12.8864 4.32889 14.4866 0.00134121 0.00131579 0.00272714
161 2 -0.923419 12.9158 7.45911 4.3381 -0.00234053 0.00555463 0.00254486
162 2 -0.854335 9.31204 2.10852 9.74553 0.00529827 -0.00121667 -0.00599723
163 2 -0.84834 9.81877 14.7526 7.90133 -0.00613619 0.0029051 -0.000956637
164 2 -0.889559 9.52679 4.41735 11.0433 -0.00439195 -0.00743725 -0.00633386
165 2 -0.890833 11.1433 2.44199 11.393 0.00131887 0.000403173 -0.00310534
166 2 -0.872354 11.2388 3.9222 9.40314 -0.00475777 0.00143827 0.00134094
167 2 -0.935179 9.13859 6.11251 12.9955 0.00571846 -0.00465471 0.00631418
168 2 -0.913071 9.54927 7.88105 14.9724 -0.000743281 -0.00152565 0.00318308
169 2 -0.882579 10.9378 7.86214 13.0369 0.00125539 0.000840325 -0.0136899
170 2 -0.950948 13.0598 2.22652 12.9728 -0.0029961 0.0028641 0.00449381
171 2 -0.934503 11.3437 14.5841 12.955 -0.0110705 0.00352853 0.00603855
172 2 -0.890095 12.8753 14.8118 10.9808 -0.000712106 0.000367987 0.00257553
173 2 -0.920365 12.952 5.65687 9.20824 -0.0036812 0.00256491 0.0039803
174 2 -0.839691 12.415 7.11048 11.3521 0.00298936 -8.87984e-05 0.00187175
175 2 -0.904687 9.30149 9.59791 2.64829 0.00029491 -0.00380465 -0.00180487
176 2 -0.914173 9.69356 11.3574 4.26996 0.00139068 0.00634817 0.00401994
177 2 -0.939498 11.3396 9.43291 4.18571 0.00313866 0.00127717 -0.00486698
178 2 -0.959688 11.2186 11.2031 2.2982 -0.0036375 0.0016172 0.00362119
179 2 -0.971975 9.3133 12.9785 6.15038 -0.00208839 -0.00220187 -0.0102182
180 2 -0.899085 11.4626 12.7204 7.48867 0.000219098 0.000156501 0.00389404
181 2 -0.947145 13.0637 9.45199 6.02098 0.000749904 0.00230083 -9.39633e-05
182 2 -0.906875 12.9886 10.8225 8.06281 0.0028197 -0.00215026 -0.00100202
183 2 -0.818239 12.9113 12.9792 15.6364 0.00219324 -0.000744076 0.00608679
184 2 -0.845703 10.8107 12.6118 14.4426 -0.00301918 0.000988252 -0.0033816
185 2 -0.929135 12.6935 10.8065 14.3069 -0.00267437 0.00821673 0.00642935
186 2 -0.943455 9.72116 9.44348 9.29237 0.00237263 -0.000401981 -0.00486351
187 2 -0.990646 9.40624 10.9765 11.3978 -0.00181492 -0.00207768 0.00214515
188 2 -0.931841 11.3583 9.47049 11.1959 0.00388327 0.00521854 -0.0041932
189 2 -0.96469 11.0603 11.3259 9.60162 -0.0091865 -0.00434253 -0.00705652
190 2 -0.878977 9.18933 13.1554 12.6269 0.00462898 0.000366496 0.00977876
191 2 -0.931454 13.1855 8.93805 12.9776 -0.00089269 -0.000728555 -0.000268227
192 2 -0.873345 12.9786 12.9366 9.42064 -0.0015425 -0.00581066 -0.000213413
193 2 -0.698196 14.3781 12.6942 3.08501 -0.000968801 -6.89646e-05 0.00657804
194 2 -0.589831 4.8875 5.14613 12.1003 0.000657696 0.00381037 0.00280106
195 2 -0.636519 6.74267 6.8199 13.7407 -0.00291679 0.00209209 -0.00250156
196 2 -0.598801 6.88155 13.8825 13.7825 -0.00266361 -0.00296441 0.0078654
197 2 -0.667437 1.62173 5.13959 8.28288 -0.00137808 -0.00209291 -0.00275614
198 2 -0.636082 8.50194 15.7477 4.90443 -0.000565081 -0.00141082 -0.00521537
199 2 -0.629231 5.03688 8.84601 15.601 0.000472677 -0.00333393 0.00242571
200 2 -0.654 10.3448 13.9158 3.10938 0.00400875 0.00674752 -0.00270777
201 2 -0.60446 15.6314 15.6706 12.0097 0.000194225 0.000150431 -0.000968322
202 2 -0.590582 10.27 6.98863 3.29002 0.00288125 -0.00157197 -0.000695576
203 2 -0.675315 12.3218 15.406 1.61363 0.00149876 -0.00571409 0.00507946
204 2 -0.675148 2.41063 7.43627 9.27742 -0.00540535 0.00283698 -0.000612993
205 3 0.464204 15.2847 12.2869 2.93129 0.0297295 -0.0136113 -0.0107993
206 3 0.51859 13.9161 13.6378 5.18128 -0.0175007 -0.0047308 -0.00548871
207 3 0.445352 5.37311 5.43051 11.3553 0.0018958 0.00264341 -0.016174
208 3 0.438102 5.38366 5.46756 12.872 0.0052827 -0.0102837 -0.00309789
209 3 0.432721 6.16913 7.55768 14.0313 -0.0178237 -0.0257144 0.00328642
210 3 0.432961 7.58438 6.86736 14.1196 0.0113392 0.00404626 -0.0170537
211 3 0.435552 7.42088 14.3998 14.317 -0.0127466 0.00290263 -0.00181433
212 3 0.429732 6.13527 13.6346 14.3551 -0.016001 0.0199972 0.0316682
213 3 0.400148 2.1811 5.14655 7.52038 -0.00238566 -0.00125804 0.00431963
214 3 0.424956 1.98113 4.52556 8.95958 0.0262194 0.0166901 0.00805091
215 3 0.419649 8.3301 2.5758 4.77093 0.0192469 0.00692121 -0.00471696
216 3 0.394218 7.93467 15.4048 5.54516 0.0124727 0.0150013 -0.000511219
217 3 0.422262 4.10815 8.56837 1.4957 0.00974162 -0.0149898 -0.00750197
218 3 0.400387 5.08087 9.71967 1.83174 -0.0222328 -0.0110401 0.0406476
219 3 0.407798 9.68933 13.9364 3.88028 -0.0237442 -0.0194424 0.0225878
220 3 0.415798 10.4708 12.9699 3.02047 0.00767191 0.00304572 0.0254308
221 3 0.41402 2.45232 15.5008 11.941 0.00194185 -0.0121825 0.0177745
222 3 0.438531 15.4237 1.748 12.9249 0.00777149 0.00141311 -0.035345
223 3 0.409706 10.3042 7.97176 3.36226 0.0119528 -0.0296254 0.0268554
224 3 0.430986 10.6035 6.78808 2.44702 -0.0264273 -0.0109356 0.00316311
225 3 0.422087 11.9714 14.9752 14.9619 0.0101031 -0.00516373 -0.032049
226 3 0.402163 11.4936 15.4703 2.2207 0.0188732 0.012442 -0.0166761
227 3 0.43464 2.16596 6.58172 8.73978 -0.00616547 0.0112106 -0.00182057
228 3 0.482175 2.2114 8.53119 6.53928 0.0101031 0.00803706 0.0054856
ITEM: TIMESTEP
16000
ITEM: NUMBER OF ATOMS
228
ITEM: BOX BOUNDS pp pp pp
1.5170880048613213e+00 1.5642911995138622e+01
1.5170880048613213e+00 1.5642911995138622e+01
1.5170880048613213e+00 1.5642911995138622e+01
ITEM: ATOMS id type q x y z vx vy vz
1 1 1.74688 1.64114 1.50705 15.3619 -0.002997 0.000595108 0.000981852
2 1 1.7665 3.31874 3.08956 3.13392 0.000261567 0.00263792 -0.00100748
3 1 1.82022 15.4878 4.73941 4.74626 0.000847635 -0.00119154 -0.00048254
4 1 1.77909 3.43499 6.39741 6.23357 -0.000797175 0.000896452 -0.00125225
5 1 1.67787 5.01149 1.5466 5.17053 -0.00273656 -7.4933e-05 -0.000701939
6 1 1.73855 6.92368 3.28443 6.85266 -0.00232426 -0.0015491 0.00359156
7 1 1.75 4.9855 4.95722 15.4562 0.00512833 -0.00273424 0.00300402
8 1 1.74327 6.76109 6.65737 3.14975 0.00423187 0.00396662 0.00390985
9 1 1.89933 1.62538 15.537 8.59089 -0.00468185 -0.00109702 -0.000982749
10 1 1.75234 3.35457 3.3708 10.1914 0.000614761 -0.00254236 0.00141949
11 1 1.84714 15.6535 5.09966 11.9178 0.00112536 -0.00561776 0.00310892
12 1 1.79309 3.17509 6.83424 13.8009 -0.00278898 -0.00488717 -0.000436902
13 1 1.7418 5.10635 15.6814 11.9714 -0.00163603 0.00486788 -0.00232745
14 1 1.74423 6.93373 3.31692 13.7302 0.00356128 0.001338 0.000610052
15 1 1.75623 5.12507 5.20052 8.4365 0.00317728 0.00181702 -0.00508001
16 1 1.79283 6.68269 7.12031 10.2664 0.00651389 0.00267896 0.00125594
17 1 1.81692 15.6306 8.60376 1.52933 0.00628303 -0.00348883 -0.00661607
18 1 1.7397 3.17999 10.2889 3.41566 -0.000324551 -0.00188152 0.00433117
19 1 1.67675 1.61346 11.8636 5.58198 -0.0016423 0.00185164 -0.00049201
20 1 1.84858 3.39187 13.8015 6.96255 -0.00458092 0.00295674 0.000142505
21 1 1.79658 5.16488 8.53109 4.93162 -0.000762211 0.000360254 0.000251058
22 1 1.8374 6.82207 10.2239 6.86657 -0.000235231 -0.00267354 -0.00140169
23 1 1.77657 4.96642 12.0187 1.6071 -0.00480071 0.00116997 0.00166207
24 1 1.75829 6.64082 14.0117 3.18954 -0.00322 -0.00170312 0.00299311
25 1 1.49932 15.4213 8.56854 9.23714 0.00217736 -0.00235462 0.00172193
26 1 1.78085 3.1609 10.6208 10.4468 0.000152364 -0.0084169 0.00171012
27 1 1.95394 15.4454 12.328 12.1402 -0.000488037 0.000315033 -0.00283784
28 1 1.66692 3.394 13.822 13.7116 0.000224998 -2.55401e-05 -0.0039771
29 1 1.94029 4.87822 8.75223 12.1177 0.0034242 0.000639352 -0.00692487
30 1 1.78013 6.75545 10.4054 13.8018 0.00182805 0.00134891 -0.00159038
31 1 1.88166 5.17627 12.032 8.59545 0.00020618 0.00544415 0.000528378
32 1 1.77869 6.8754 13.9767 10.186 -0.0031405 -0.00447575 -0.00184006
33 1 1.71422 8.58841 1.64495 1.59203 -0.00158332 0.00138667 0.00217986
34 1 1.78365 10.4429 3.34399 3.33421 -0.0010124 0.0016521 0.000553997
35 1 1.81021 8.61207 5.10728 4.99827 0.00189861 0.000213463 0.00237001
36 1 1.79387 10.3803 6.7957 6.84176 -0.000371586 0.0023375 -0.000427891
37 1 1.85457 11.9883 15.4514 5.0334 -0.00447318 0.0041781 0.00146193
38 1 1.81617 13.8923 2.98977 6.73942 -0.00168496 0.0017229 0.00182748
39 1 1.80535 12.0767 5.08035 15.5165 -0.00282606 -0.00193623 0.00359242
40 1 1.79532 13.7918 6.78347 3.25512 -0.00149845 0.000202351 0.000576325
41 1 1.88559 8.77567 1.6133 8.57501 0.00292173 -0.00136266 -0.00107448
42 1 1.74438 10.3657 3.41124 10.4214 -0.000134811 0.00820178 0.00160236
43 1 1.68807 8.5167 5.21753 11.9469 -0.00183594 -0.00684466 0.00319504
44 1 1.79191 10.1497 6.82312 13.9795 -0.00123673 0.00172405 -0.00391339
45 1 1.71813 11.9803 1.58164 12.1502 0.00737752 0.000265233 -0.00316135
46 1 1.70187 13.953 3.34556 13.7834 0.00204205 -0.000874072 0.00218321
47 1 1.77358 12.1486 4.84387 8.43448 -0.000628982 -0.000789803 0.00198091
48 1 1.85432 13.5131 6.63731 10.452 0.0016866 -0.00291447 0.002565
49 1 1.66963 8.40195 8.74068 1.60203 0.00211332 -0.00328419 -0.000280187
50 1 1.76255 10.2624 10.3584 3.40064 -0.00341881 -0.000425855 0.000746279
51 1 1.78363 8.36648 12.1274 5.02111 7.4233e-05 -0.00835442 -0.00143105
52 1 1.8544 10.204 13.7559 6.77046 -0.00244941 0.000992732 0.00601815
53 1 1.75528 12.1528 8.58857 5.1032 -8.36852e-05 -0.000586562 0.00500358
54 1 1.82 13.901 10.0662 7.08796 0.00283086 0.00502319 -0.00486024
55 1 1.83744 11.8117 11.8368 15.3338 -0.00189304 0.00382334 0.00391888
56 1 1.38996 13.6785 13.8965 2.58461 0.00482656 -0.000233085 0.000679519
57 1 1.85123 8.72736 8.54118 8.60321 -0.00240991 -0.00421986 -0.00196758
58 1 1.91899 10.3389 10.2958 10.3763 0.00051946 0.00241638 0.000868102
59 1 1.82839 8.55617 12.149 11.9723 0.00526701 -0.00159164 -0.00619371
60 1 1.66526 10.172 13.9378 13.8316 -0.00628198 -0.00245291 -0.000842401
61 1 1.81097 11.9865 8.48258 12.1758 -0.000642094 -0.00184647 7.4374e-05
62 1 1.77463 13.8675 10.2463 13.7357 0.000421915 0.00397694 -0.000869046
63 1 1.83317 12.1081 12.0238 8.57901 0.00243869 0.00124307 -0.000941053
64 1 1.85797 13.7308 13.9291 10.3291 0.00300448 -0.00156624 -0.00300228
65 2 -0.89913 2.4552 2.0436 2.42893 0.000296748 0.00333397 0.00317104
66 2 -0.90078 2.74189 15.0204 14.4486 0.00385591 -0.00185991 0.00154876
67 2 -0.90647 14.8357 2.59812 14.7712 -0.000836145 0.00302602 -0.00638822
68 2 -0.807632 14.7557 14.5787 1.6698 -0.00110187 0.000303343 -0.00262297
69 2 -0.876051 2.16764 3.91011 3.73469 0.00352084 -0.00648136 0.00399481
70 2 -0.854681 4.2749 2.65911 4.30708 -0.000274894 0.00174416 0.00194935
71 2 -0.886086 4.08294 4.01122 2.14385 -0.000841587 0.00233955 -0.0022259
72 2 -0.920747 2.56401 5.38623 5.49106 -0.00166715 -0.0071606 -0.00131646
73 2 -0.953684 14.6445 4.02919 5.85332 0.00259925 -0.00108286 -0.00193862
74 2 -0.941438 14.5967 5.74355 4.06925 0.00204161 -0.00245392 -0.00151117
75 2 -0.930313 4.03283 5.83726 7.50936 0.000187827 -0.000443513 0.0074038
76 2 -0.876101 4.44804 7.25777 5.4339 -0.00611378 0.005585 -0.00475663
77 2 -0.834468 2.47128 7.54542 6.49527 -0.0060265 -0.00217777 0.00382248
78 2 -0.904457 6.06762 2.25982 6.11357 -0.00787037 -0.00353169 -0.00336934
79 2 -0.874548 3.91675 14.8384 5.9327 0.00482951 -0.0049254 -0.00559525
80 2 -0.936411 5.83441 14.6733 4.34157 -0.00488231 -0.000743974 0.00199119
81 2 -0.871041 5.98313 4.34564 7.44723 -0.00121356 0.0033774 -0.00155501
82 2 -0.856557 7.72807 4.04357 5.69584 -0.00615671 0.000476892 0.000441198
83 2 -0.953737 7.93054 2.60439 7.85117 0.000614792 -0.00163136 0.00237876
84 2 -0.865946 5.64184 5.77906 2.46879 0.0129635 0.00258659 -0.00141461
85 2 -0.913048 4.07229 5.7069 14.449 -0.000650907 -0.00216519 0.00185277
86 2 -0.947494 6.14029 4.3763 14.5898 -0.000448229 0.00023383 0.000515635
87 2 -0.867135 6.17114 7.90564 3.92071 0.00061509 -0.00481718 -0.00645047
88 2 -0.927137 7.5823 5.83686 4.12688 -0.00465838 0.00740199 -0.00263605
89 2 -0.882323 7.6697 7.46281 2.19281 -0.000691035 0.00322183 -0.00283198
90 2 -0.9601 2.41453 2.56674 9.22281 -0.0104041 -0.00118469 -0.00635521
91 2 -0.982732 2.58996 14.5413 8.03609 0.0041588 -0.00524034 0.00658849
92 2 -0.961156 14.8758 2.1197 7.51184 -0.00539885 0.00583759 -0.00333857
93 2 -0.898789 14.788 14.7146 9.42198 0.00638961 -0.00458618 1.43005e-05
94 2 -0.963408 2.51398 4.40472 11.0185 0.00200589 0.00520716 0.00135052
95 2 -0.952146 4.1864 2.53861 11.1806 -0.00152976 0.00694099 0.00255561
96 2 -0.903552 4.31709 4.15556 9.30847 -0.000488575 0.00171352 -0.00749304
97 2 -0.88605 2.11753 6.08013 12.9491 -0.000343138 0.00685925 -0.00291141
98 2 -0.862443 14.9742 4.01217 12.7787 0.0088045 0.00375668 0.000186444
99 2 -0.909384 14.3772 5.67644 11.286 -0.00053068 0.00149467 0.00981462
100 2 -0.950676 2.3617 7.5739 14.8636 -0.00444206 0.00544447 0.00509691
101 2 -0.96501 3.96783 7.87374 12.9689 -0.00264695 -0.00218955 -0.00351891
102 2 -0.929216 5.86177 2.49905 12.9158 -0.00198477 -0.00737337 -0.00277478
103 2 -0.906527 4.22711 14.5226 12.5774 0.00292858 0.00275667 -0.00377547
104 2 -0.893458 6.09297 15.0794 10.9511 0.00220256 0.000957786 -0.00197469
105 2 -0.926855 7.71985 2.37238 14.6331 -0.00102747 0.00108121 0.00467515
106 2 -0.92414 7.84311 4.06232 12.7847 0.00144073 0.00360877 -0.00209974
107 2 -0.897439 5.95275 6.2396 9.19733 0.00256376 -0.00431371 0.000239532
108 2 -0.900688 5.54087 7.86769 11.117 0.00112824 -0.00138673 0.00173875
109 2 -0.885879 7.51582 6.26807 11.2506 -0.00250559 -5.60263e-05 0.00468374
110 2 -0.950567 7.60739 8.05595 9.53058 -0.000753749 -0.000730203 -0.0116249
111 2 -0.98186 2.40354 9.31597 2.47697 -0.000374264 -0.00262071 -0.00464912
112 2 -0.874631 14.7693 7.74008 2.48703 0.00283483 -0.0031063 -0.00166997
113 2 -0.908755 14.733 9.60864 14.8869 0.00285498 0.00208893 -0.00116793
114 2 -0.877598 2.27026 11.2919 4.21507 0.00111758 -0.00335477 -0.000584794
115 2 -0.955016 4.14217 9.43789 4.28249 0.00276884 0.00619041 -0.0024669
116 2 -0.955596 4.1746 11.0666 2.54407 0.0029724 0.00532774 0.0133774
117 2 -0.906222 2.75244 12.6409 6.21359 -0.00161865 0.00648252 0.00235141
118 2 -0.898755 15.1015 10.7118 6.40001 -0.00222009 0.00262513 -0.00653193
119 2 -0.743247 14.5787 12.8867 5.56651 -0.00364843 0.00411235 0.0033636
120 2 -0.915261 4.55861 13.0934 7.64536 -0.00291666 -0.00232481 0.00340503
121 2 -0.898927 6.01961 9.20407 6.03353 0.00130419 0.00427173 0.000679949
122 2 -0.965815 5.93255 10.9643 7.81038 -0.0018056 8.30783e-05 0.0033451
123 2 -0.9098 7.41521 11.214 5.79315 0.00485452 -0.00540437 0.00419406
124 2 -0.902835 7.99111 9.50369 7.63037 -0.00124702 0.000274555 0.00300247
125 2 -0.956642 5.87726 13.1084 2.23661 0.000996771 -0.00509469 -0.00328287
126 2 -0.873009 4.07466 12.7527 14.749 0.000319353 -0.00240486 -0.00273751
127 2 -0.932266 5.90405 11.2877 14.7665 0.00196965 0.000297597 0.00102816
128 2 -0.904953 7.47273 15.0386 2.40975 -0.00678118 -0.000301521 -0.00491749
129 2 -0.886994 7.59244 13.0144 3.96083 -0.00395904 0.00150441 0.00361011
130 2 -0.823211 2.00358 9.86017 9.75146 0.000995021 0.00423081 0.0012965
131 2 -0.864388 14.4023 7.85317 10.173 -0.000811662 0.00858766 -0.00553172
132 2 -0.88974 14.6177 8.99617 7.91213 0.00145307 0.000534001 -0.00283758
133 2 -0.927595 2.35726 11.7264 11.2287 -0.0023272 0.00102307 -0.000623949
134 2 -0.954653 4.03618 9.79294 11.3769 0.00276454 -0.0056257 -0.00110607
135 2 -0.878156 4.06656 11.2448 9.31279 0.00338812 -1.73854e-06 -0.00266145
136 2 -0.934433 2.15901 13.1785 13.0737 0.00143719 0.00468099 -0.00335604
137 2 -0.944163 14.7964 11.1982 12.9423 -0.00435447 -0.00230714 -0.0045652
138 2 -1.00433 14.4341 13.1494 11.4055 0.00331844 0.00369688 0.0045304
139 2 -1.01061 5.98544 9.50889 12.85 0.0011511 -0.00627301 -0.00848527
140 2 -0.954865 7.71529 9.49938 14.631 -0.00429808 0.00239925 0.0005079
141 2 -0.879329 7.63181 11.4986 13.0776 0.00218644 0.000546066 0.000592211
142 2 -0.933319 5.9726 12.8297 9.59081 -0.00662748 0.00274723 -0.00140359
143 2 -0.903341 7.72919 14.7477 9.16224 0.00449113 -0.00509463 -0.00633142
144 2 -0.893497 7.85405 13.1134 11.0262 -0.00548994 -0.00196621 -6.93171e-05
145 2 -0.940158 9.33327 2.57079 2.56308 0.000908021 -0.00298324 -0.00743206
146 2 -0.927993 9.29827 14.6256 14.9592 -0.0023451 0.00625311 -0.00996241
147 2 -0.944294 9.56679 4.10266 4.38644 0.00847288 -0.00318001 -0.000756815
148 2 -0.955885 11.2622 2.29831 4.12874 0.00421665 0.00399045 -0.00178792
149 2 -0.943271 11.3709 4.11562 2.39826 0.00515612 -0.0018523 0.00121985
150 2 -0.892943 9.28852 6.07905 6.01313 0.00673214 -0.00361448 -0.00501716
151 2 -0.884452 11.3273 5.72723 7.40502 -0.00107959 -0.00106568 0.0054035
152 2 -0.892763 11.1118 7.98063 6.0737 0.00388477 -0.00716215 -0.000903668
153 2 -0.915492 9.55663 7.42102 7.93309 0.00747703 0.00241019 0.000630669
154 2 -0.896389 12.7335 2.24221 6.05011 0.000246266 0.00471987 0.00350605
155 2 -0.970386 11.0845 14.5232 5.76185 -0.00378582 0.000956622 -0.00770043
156 2 -0.834455 12.9858 14.579 4.30715 -0.00262215 -0.00561603 0.000227951
157 2 -0.900984 13.0702 3.89716 7.63456 0.00444678 -0.00122543 -0.00201813
158 2 -0.931093 12.8069 6.13353 2.21793 -0.00208479 0.00554038 0.0036194
159 2 -0.958788 10.9919 5.82227 14.737 -0.00310387 -0.00608462 0.00267667
160 2 -0.86743 13.0351 4.43033 14.4862 -0.00459997 -0.0105441 0.0052056
161 2 -0.912349 12.9326 7.52781 4.26916 0.00297083 0.00176219 -0.000307729
162 2 -0.895717 9.61865 2.20366 9.69378 -0.00296113 -0.00225165 0.00453578
163 2 -0.90952 9.69889 14.9299 7.66833 0.0035715 -0.00322615 -0.000308884
164 2 -0.902555 9.37813 4.51711 10.8908 -0.000850779 -0.00306513 0.00622139
165 2 -0.862815 11.2422 2.80761 11.5485 0.00114155 0.00192823 0.0027788
166 2 -0.896271 11.3667 3.93138 9.39198 -0.000112109 -0.00163763 0.0023512
167 2 -0.954628 9.16375 6.07395 13.073 -0.000209024 -0.00381371 0.00366497
168 2 -0.861818 9.44296 7.80492 14.9645 0.00166946 0.0007461 0.00368605
169 2 -0.883849 11.1111 7.81772 13.2787 -0.00385351 -0.00334241 0.00149902
170 2 -0.816113 13.1985 2.26375 12.9346 0.00527055 -0.000505238 -0.00196281
171 2 -0.942084 11.1342 14.9815 13.2063 0.00203183 0.00283838 0.00223245
172 2 -0.868407 12.7436 14.9314 11.0335 0.00131118 0.00206141 0.000339993
173 2 -0.928069 12.8582 5.97766 9.26018 -0.000856238 0.00263107 0.00312365
174 2 -0.885129 12.4806 7.23075 11.3814 -0.000993218 -0.0028068 0.00484266
175 2 -0.932735 9.22679 9.48335 2.72454 -0.000681476 0.00407498 0.00282256
176 2 -0.946702 9.49016 11.3437 4.29934 0.00108359 -0.00135698 0.00061763
177 2 -0.874088 11.4339 9.58376 4.07892 0.00314164 0.00320836 0.000903282
178 2 -0.931977 10.7912 11.1899 2.20113 0.000640565 0.00606517 0.0107813
179 2 -0.979971 9.16094 12.9903 5.97737 -0.00243627 -0.00622924 -0.00330134
180 2 -0.895138 11.0675 12.7748 7.60167 0.00185623 0.000369602 -0.00123021
181 2 -0.911445 13.0869 9.49204 5.89846 0.00274177 0.000189173 0.00536586
182 2 -0.952935 12.9577 10.9989 7.82477 0.00208631 0.00473198 -0.00283811
183 2 -0.868826 12.7175 12.8413 1.80767 0.00281152 -0.00226184 0.00231862
184 2 -0.897197 10.9429 12.7801 14.5523 -0.00449138 0.00830304 0.00347503
185 2 -0.92438 12.6504 10.8986 14.4492 -0.00445147 -0.00172565 0.00507333
186 2 -0.980139 9.77323 9.337 9.39173 0.000711938 -0.00581591 -0.00109395
187 2 -0.987513 9.40029 11.079 11.2489 0.00336941 0.00604597 -0.00347919
188 2 -0.947762 11.2903 9.46218 11.2967 -0.00241804 0.000658067 0.00135691
189 2 -0.912891 11.2759 11.2935 9.62095 0.00250886 0.00263074 0.00234321
190 2 -0.870082 9.40121 13.1936 12.6739 0.0043433 0.000753032 -0.00454238
191 2 -0.867137 13.2445 9.15652 12.8276 -0.0107807 -0.00298884 -0.00674658
192 2 -0.934458 13.0037 12.9961 9.36507 -0.00399332 -0.00296113 -0.00357121
193 2 -0.690785 14.635 12.7475 2.94384 -0.00713638 0.00150097 0.000142847
194 2 -0.583109 4.99771 5.20806 12.0977 -0.00412782 0.00229411 0.00295233
195 2 -0.635174 6.59438 6.885 13.9275 -0.00246712 -0.00108245 0.000668282
196 2 -0.605674 6.73422 13.9518 13.8005 2.22384e-05 0.00161135 -0.000801602
197 2 -0.651125 1.41802 5.34709 8.41106 -0.00168327 0.00340617 0.00269691
198 2 -0.619083 8.50965 1.39229 5.28329 0.00102649 -0.00266652 0.00376628
199 2 -0.622123 4.95995 8.65566 1.58547 0.0094399 0.000765892 -0.00359422
200 2 -0.650457 10.2514 13.8702 3.29637 -0.00309703 0.003045 0.000132498
201 2 -0.57131 1.56061 15.5533 11.7632 -0.00155087 0.000532824 -0.0030606
202 2 -0.622237 10.4162 6.99716 3.36927 0.0015293 0.00712038 -0.00448309
203 2 -0.64376 12.2173 15.3754 1.82768 -0.00800498 -0.00289304 -0.00322277
204 2 -0.639421 2.56297 7.54756 9.26254 -0.000498341 -0.00628618 0.00451547
205 3 0.474526 15.1669 11.9953 2.7891 -0.00148244 -0.0280333 0.0105348
206 3 0.500196 13.803 13.3625 5.12693 0.00615087 -0.00160551 0.0304391
207 3 0.424073 5.40258 5.42998 13.0313 0.0205431 0.0173156 0.00685182
208 3 0.428617 4.95343 4.28286 11.981 -0.0014332 -0.00596941 -0.000440052
209 3 0.433617 6.88752 7.80028 13.7937 -0.0224727 0.0122514 -0.0327323
210 3 0.424182 7.29402 6.2494 13.8484 0.0313421 -0.00499211 -0.00296205
211 3 0.427462 7.47032 14.5442 14.0743 -0.000516947 0.00586108 0.00756493
212 3 0.456652 6.50787 13.2765 14.4229 0.00014411 -0.0129328 0.00469096
213 3 0.408121 1.09651 4.9199 7.59635 -0.035503 -0.0087425 0.00280762
214 3 0.405473 2.06845 4.68751 8.71293 0.00358668 -0.0136787 0.00930729
215 3 0.44933 8.63895 2.31943 5.04084 0.0118593 -0.0114295 0.0215479
216 3 0.41545 7.53435 15.3804 5.20232 -0.0379184 -0.00694025 0.0172588
217 3 0.406632 4.00965 8.47824 15.5528 0.0223409 0.020946 0.00712345
218 3 0.425351 5.00164 9.1624 2.35275 -0.00993097 0.00881962 0.0139446
219 3 0.429723 9.76229 13.9797 4.12276 0.00732803 0.0264142 -0.00589789
220 3 0.424989 10.1657 12.8862 3.11596 0.0211024 -0.0241733 0.0103866
221 3 0.402017 2.41641 15.1234 11.8506 -0.0165296 -0.00198879 -0.012841
222 3 0.399426 15.7015 2.02145 12.5747 0.00385103 -0.00200734 0.00605458
223 3 0.415047 9.68469 7.58328 3.11067 0.00108137 -0.0166103 -0.00189309
224 3 0.433033 10.893 6.82779 2.58709 -0.0259942 0.00544124 0.0166877
225 3 0.411222 11.9624 14.919 15.1242 -0.012559 0.00336091 -0.00581992
226 3 0.408081 11.454 15.1653 2.47791 0.0137774 0.0124979 0.0122731
227 3 0.440712 2.4509 6.93877 8.50714 0.00270715 0.0169846 -0.0135629
228 3 0.496598 1.76975 8.12651 6.46042 -0.00784109 -0.0042222 0.00303236
ITEM: TIMESTEP
17000
ITEM: NUMBER OF ATOMS
228
ITEM: BOX BOUNDS pp pp pp
1.5214983178484971e+00 1.5638501682151414e+01
1.5214983178484971e+00 1.5638501682151414e+01
1.5214983178484971e+00 1.5638501682151414e+01
ITEM: ATOMS id type q x y z vx vy vz
1 1 1.85944 1.65502 1.66434 15.4734 -0.00172392 0.00176871 -0.00420548
2 1 1.86963 3.34006 3.32811 3.16583 -0.000909834 -0.000347388 -0.00177562
3 1 1.86724 15.6663 4.91442 5.03376 0.0019246 0.003361 0.000295032
4 1 1.67416 3.43425 6.75142 6.45543 -0.00201715 -0.000911575 0.00125344
5 1 1.75176 5.10664 1.61145 4.91091 -0.000192769 0.00145215 0.00399635
6 1 1.79302 6.71505 3.28714 6.88699 0.000597199 -0.000556841 -0.0014818
7 1 1.77983 4.94361 5.27581 15.5576 0.000129191 -0.00310039 0.00177066
8 1 1.78228 6.80949 6.90606 3.26661 0.00372925 -0.00114453 -0.000629484
9 1 1.7374 1.63296 15.4842 8.45416 0.00132154 -0.00143333 -0.000362372
10 1 1.63682 3.21942 3.45259 10.1053 -0.00262425 9.45004e-05 0.00551591
11 1 1.71182 15.5669 5.09106 12.0101 -0.00278317 -0.00169561 -0.000789056
12 1 1.843 3.10279 6.94419 13.766 0.00109572 -0.00576503 0.000645207
13 1 1.66736 4.96626 1.66213 11.9932 0.000711148 0.000969913 0.00283438
14 1 1.66551 6.70739 3.34462 13.9562 -0.000500377 0.000608464 -0.00148641
15 1 1.77979 5.05077 5.23485 8.51882 0.00348223 -0.000354149 -0.00277538
16 1 1.80384 6.81629 6.98397 10.3158 0.000249134 0.0016958 -0.00357748
17 1 1.82905 1.46372 8.61544 1.61867 -0.000354874 -0.0027832 0.00161495
18 1 1.72245 3.13987 10.461 3.38164 0.00261705 0.00259921 0.00205885
19 1 1.71478 1.60942 11.8358 5.70122 -0.00192159 0.00220331 -0.00293861
20 1 1.77065 3.58312 13.8631 6.78608 0.000187151 0.00199661 -0.000649518
21 1 1.70711 5.15574 8.82268 5.02867 0.00176046 0.00199577 0.000713215
22 1 1.80003 6.87923 10.441 6.97487 -0.00442902 -0.00126524 0.000932324
23 1 1.8088 4.91659 12.1708 15.702 -0.00211439 0.000925196 0.00357889
24 1 1.8121 6.87351 13.897 3.21304 0.00239212 0.00427526 0.00317371
25 1 1.59405 15.2466 8.69652 9.61635 -0.0016989 -6.69229e-05 0.000384811
26 1 1.61935 3.27458 10.6988 10.4145 0.00449282 0.00196925 0.00218419
27 1 1.66009 15.4067 12.1057 12.2285 -0.00113174 0.00273428 -0.00104155
28 1 1.76924 3.29339 13.8544 13.7603 -0.000564841 0.000443772 0.00327803
29 1 1.75517 4.93096 8.72556 12.0799 -0.00189048 -0.00444228 0.000438862
30 1 1.80692 6.71096 10.4508 13.8824 -0.000655204 0.000263868 -0.00122837
31 1 1.85655 5.16689 12.2236 8.63933 0.00227481 -0.00424281 -0.00483155
32 1 1.80295 6.8118 13.9459 10.4577 0.00568215 0.00339082 -0.000338182
33 1 1.7752 8.69569 1.56314 15.5248 -0.00359547 -0.00374621 0.00551597
34 1 1.74248 10.3406 3.37173 3.2537 0.00119289 -0.00586571 -0.00122232
35 1 1.69593 8.4418 5.02823 4.97374 -0.00211773 0.00167416 0.00172894
36 1 1.83507 10.267 6.66635 6.76577 -0.00396345 0.00350396 0.000217824
37 1 1.75588 11.9441 15.5305 4.96859 -0.000752243 -0.000435858 7.88101e-05
38 1 1.75475 13.8663 3.03753 6.68825 -0.00689839 0.00578111 0.000970958
39 1 1.73404 12.2013 5.09375 15.5551 -0.00230461 0.00221068 -0.000963267
40 1 1.84939 13.8943 6.66863 3.3629 0.000696406 0.00112314 0.00257996
41 1 1.79078 8.60285 15.5667 8.52574 0.000908825 0.00249375 -0.000509856
42 1 1.91061 10.2544 3.18635 10.4317 0.000768615 0.00263472 -0.00130676
43 1 1.74072 8.43559 4.98735 12.0778 0.0051506 -0.00216467 -0.0027157
44 1 1.67627 10.1596 6.69071 13.9046 0.00740872 3.04154e-05 -0.00529949
45 1 1.78056 12.1895 1.4282 11.9821 0.0015253 -0.00257603 -0.00126206
46 1 1.83571 13.8998 3.24564 13.7333 -0.00147946 -0.000696707 -0.00360858
47 1 1.73316 11.8957 4.70082 8.34045 -0.00138268 -0.00392896 0.000738605
48 1 1.68583 13.3854 6.43307 10.4252 0.00207757 0.00340575 0.00398428
49 1 1.7122 8.55195 8.72359 1.49446 -0.00171504 -0.00575138 0.00130743
50 1 1.68243 10.5243 10.2008 3.37991 -0.00235057 0.00362576 -0.00237209
51 1 1.76806 8.58414 12.0228 4.92797 -0.0020094 -0.00510067 0.000124581
52 1 1.85602 10.2753 13.7254 6.75197 -0.00101252 0.00086274 0.00329582
53 1 1.80876 12.1468 8.41831 5.18076 -0.00117007 0.00354024 0.000127658
54 1 1.69712 13.9203 9.91552 7.15594 -0.00124373 -0.0044169 0.00259709
55 1 1.74201 11.9109 11.8507 15.3845 0.00201876 -0.00312859 -0.00307572
56 1 1.44038 13.7079 13.9319 2.60297 -0.00065325 -0.00115008 -0.00347555
57 1 1.94472 8.68859 8.52509 8.50734 -0.00310326 0.00597447 0.00279962
58 1 1.79337 10.4096 10.3068 10.2485 -0.00214717 -0.00169423 -0.00241404
59 1 1.80614 8.56732 11.9917 11.9651 0.00225876 0.00022098 0.000377965
60 1 1.70996 10.359 13.8081 13.6328 -0.000610425 -0.00373862 0.000819266
61 1 1.79482 11.8759 8.43295 12.1214 -0.00119957 0.00187881 4.76164e-05
62 1 1.81337 13.7392 10.0711 13.8103 -0.0018083 0.00183106 0.00366144
63 1 1.8816 12.0907 12.0074 8.45079 0.00344658 0.000100354 -0.00378542
64 1 1.68787 13.9021 13.7449 10.1212 0.00433035 -0.00067142 0.00536203
65 2 -0.965597 2.57115 2.25666 2.40169 -0.00225894 -0.00504987 -0.000553546
66 2 -0.936544 2.41028 14.7886 14.5913 0.00197197 -0.0032905 -0.00458806
67 2 -0.913766 14.8859 2.75632 14.7692 8.23795e-05 -0.00320061 0.00247125
68 2 -0.836051 14.762 14.9547 2.1117 -0.000993483 -0.000349457 0.000649645
69 2 -0.899563 2.33466 4.21153 3.8892 0.00433747 0.00202767 -0.00558041
70 2 -0.917573 4.40275 2.66501 4.06909 0.00385173 8.26976e-06 -8.28043e-05
71 2 -0.914701 4.03667 4.42393 2.33665 0.00747293 -0.00413453 0.00151396
72 2 -0.917738 2.64466 5.63487 5.7207 0.000291267 0.00453217 0.00358417
73 2 -0.909917 14.9598 3.89439 5.98843 -0.00111588 0.000643295 -0.00794686
74 2 -0.953543 14.6229 5.85149 4.41619 -0.00624757 0.00208348 0.00140388
75 2 -0.886389 4.13517 6.23625 7.80347 -0.002249 -0.000460866 0.00386019
76 2 -0.860788 4.36043 7.62571 5.5897 0.00683609 0.00128046 0.000566484
77 2 -0.790302 2.43708 7.87061 6.82238 0.00570534 0.000988881 0.002037
78 2 -0.950643 5.93404 2.33525 6.03885 -0.000996498 -0.00762859 -0.000786551
79 2 -0.86922 4.11567 14.7008 5.53428 -9.41566e-05 0.00183759 0.000544051
80 2 -0.960145 6.09518 14.9333 3.95448 -0.00909556 -0.0045646 0.000212504
81 2 -0.877524 5.7775 4.40179 7.43205 0.00268409 0.00730912 -0.000191541
82 2 -0.893876 7.74557 3.96659 5.95363 0.00496807 -0.00460871 0.00252127
83 2 -0.911014 7.6171 2.46849 7.86561 -0.00536822 0.00871313 0.00296276
84 2 -0.879487 5.66301 6.29397 2.40345 -0.0020582 0.00357606 0.00221725
85 2 -0.980159 4.09126 6.12134 14.595 -0.000170395 0.00138116 0.00186842
86 2 -0.943942 5.89188 4.43778 14.6501 -0.000653145 -0.00209898 0.00191163
87 2 -0.839699 6.13779 8.01385 4.11586 0.00172276 -0.00163057 0.00475239
88 2 -0.900506 7.33816 5.82719 4.16933 0.00181467 -0.000892878 0.00193604
89 2 -0.907546 7.78274 7.82415 2.48464 -0.000683702 0.00120019 -0.00368567
90 2 -0.918898 2.20399 2.58594 9.27715 0.00599508 0.000403941 0.00185127
91 2 -0.901372 2.76216 14.8388 7.63494 -0.00334392 -0.00244036 0.00178951
92 2 -0.856942 14.689 1.9762 7.48892 0.00280799 -0.00518992 0.00386392
93 2 -0.924678 14.9833 14.4714 9.31419 -0.00295193 0.00425193 0.00272195
94 2 -0.889801 2.38743 4.53422 10.854 0.00703702 -0.00392072 -0.0033794
95 2 -0.900228 4.15118 2.7132 11.1411 0.00757294 -0.0020009 0.000916161
96 2 -0.891602 4.10253 4.16257 9.03777 -0.00160319 -0.00292155 0.00463049
97 2 -0.890388 2.04076 6.24746 12.9129 0.00316962 -0.000265342 -0.00214705
98 2 -0.866725 14.9275 3.94601 12.8712 -0.00231715 0.00102874 0.00132745
99 2 -0.866357 14.3182 5.51825 11.2649 0.00519011 0.00139209 -0.000958288
100 2 -0.933462 2.38701 7.83124 14.7299 -0.00364248 -0.000284577 0.00231031
101 2 -0.881009 3.82006 7.97475 12.8256 -0.000326314 -0.00116625 -0.00243281
102 2 -0.893764 5.59688 2.47769 13.207 0.00155836 0.00355848 0.00567964
103 2 -0.879364 4.11919 14.6791 12.6707 -0.00274482 -0.00116878 0.00421864
104 2 -0.935193 6.0395 15.053 11.161 0.00481995 0.00293671 0.00428614
105 2 -0.939572 7.56382 2.33234 14.8246 -0.00205295 0.0032848 0.00475635
106 2 -0.930067 7.44203 4.07004 12.8083 -0.0026952 0.00619578 -0.0085271
107 2 -0.924772 6.06308 6.01949 9.40905 -0.00288903 -0.0087158 0.00150074
108 2 -0.875819 5.75103 7.9309 11.0049 0.00485251 -0.00215969 -0.00376519
109 2 -0.88565 7.85333 6.18932 11.1979 0.00895363 -0.00166701 0.00256499
110 2 -0.946677 7.68591 7.87007 9.45144 -0.00499549 0.00322647 0.000825118
111 2 -0.961837 2.38355 9.62673 2.31325 -0.00764678 0.00363151 0.000754736
112 2 -0.923339 14.8459 7.57457 2.5103 -0.00228093 0.00267283 -0.00193375
113 2 -0.90229 14.563 9.41941 14.98 0.0045427 -0.00135032 -0.00171311
114 2 -0.923942 2.20096 11.2046 4.40348 -0.00561788 0.00104074 0.00180284
115 2 -0.920529 4.20292 9.68597 4.14701 0.000182218 -0.00158057 0.00153294
116 2 -0.95079 3.99637 11.4771 2.54522 -0.00424272 -0.000560446 -0.000827939
117 2 -0.878662 2.71365 12.6434 6.48352 -0.00076328 0.00422622 -0.00769553
118 2 -0.901024 15.0068 10.7438 6.47587 -0.000330685 -0.00276076 -0.00060929
119 2 -0.736152 14.6228 12.8975 5.58989 -0.00275649 -0.0080508 -0.00346161
120 2 -0.932079 4.72783 13.2319 7.58668 0.00342741 0.00366394 -0.000767774
121 2 -0.889624 5.79569 9.66266 6.22579 0.00134826 -0.00184183 0.00315787
122 2 -0.937679 6.20428 11.2901 8.07823 0.00529148 0.00197612 -0.00874512
123 2 -0.87823 7.59081 11.3385 5.92465 -5.9142e-05 0.00418626 -0.000821147
124 2 -0.926467 7.92369 9.45643 7.57493 0.00331373 -0.00671258 -0.00736868
125 2 -0.942332 5.9041 13.1398 2.27904 -0.0042773 -0.00248879 0.00772805
126 2 -0.947871 4.16795 12.967 14.6356 0.00565181 0.00527664 0.00243325
127 2 -0.931956 5.70228 11.1208 14.8287 0.00108991 -0.00118403 -0.00434229
128 2 -0.895544 7.86903 14.59 2.17965 -0.00456347 -0.0028793 -0.0041857
129 2 -0.962422 7.61144 12.8541 4.00131 -0.000530379 0.00446004 -0.000447465
130 2 -0.839263 1.95651 9.90739 10.089 0.00652246 0.000390906 -0.00518817
131 2 -0.826548 14.22 7.72563 10.2662 -0.00175938 -0.0015565 -0.00739332
132 2 -0.898249 14.7006 9.10695 8.24972 0.00402804 -0.000345533 -0.00121603
133 2 -0.773563 2.51511 11.7073 11.322 -0.000826439 0.00765391 -0.000813754
134 2 -0.832366 4.27383 9.95583 11.3941 -0.000812828 -0.00300713 -0.0017934
135 2 -0.870724 3.95729 11.4154 9.16276 -0.0013657 -0.00199467 -0.00306526
136 2 -0.845444 2.13177 12.968 13.2184 -0.00405275 -0.00350245 0.000648038
137 2 -0.847129 14.8464 10.8232 13.0075 -0.00775613 0.00206415 -0.000983696
138 2 -0.940483 14.5115 12.9437 11.3202 0.000228443 -0.00425746 0.0037899
139 2 -0.892739 5.97387 9.35281 13.0155 -0.00601962 0.00333153 0.000304654
140 2 -0.957441 7.66789 9.54319 14.6442 -0.0079469 -0.00375388 -0.00687314
141 2 -0.908136 7.61408 11.3748 13.0148 -0.000220644 -0.00341678 0.000931021
142 2 -0.898522 5.77668 12.9785 9.81472 0.00160244 -0.00550828 -0.00464729
143 2 -0.854208 7.65732 14.6201 9.27681 -0.000910022 -0.00172777 0.00537803
144 2 -0.909852 7.77174 12.9619 11.1043 0.00269639 0.00443614 -0.00322308
145 2 -0.937346 9.46092 2.38478 2.40644 -0.000305529 0.00196621 -0.000318407
146 2 -0.914042 9.6884 14.9123 14.6127 0.00762888 0.00267345 -0.00576238
147 2 -0.933819 9.30525 4.10767 4.08469 -0.000546421 -7.37171e-05 -0.00212841
148 2 -0.934377 11.3477 2.47656 3.99617 -0.00332429 0.00621657 0.00254252
149 2 -0.863093 11.0944 4.2277 2.15887 -0.000932911 -0.010734 0.00533362
150 2 -0.870075 9.47416 6.03608 5.62981 -0.000278396 -0.00269822 0.000864053
151 2 -0.91086 10.8089 5.4433 7.53391 0.00195861 0.00138174 0.000225196
152 2 -0.921331 11.4372 7.53738 6.19996 0.00325057 0.000975982 -0.00860968
153 2 -0.967205 9.32146 7.49566 7.63196 -0.000133586 -0.000271807 0.00117234
154 2 -0.88107 12.8977 2.33279 5.72794 0.00342188 0.00117523 -0.00451942
155 2 -0.91656 11.1134 14.8147 6.03533 0.0032654 0.0047491 -0.000494663
156 2 -0.774738 12.9134 14.5386 4.34612 0.0027645 0.00172555 -0.00113072
157 2 -0.944028 13.0989 3.99247 7.61262 -0.00513144 0.00273868 -0.00220051
158 2 -0.977468 13.1298 5.72771 2.46995 -0.0025059 -0.00301312 0.000548649
159 2 -0.862228 11.4086 6.1829 14.8348 -0.0055933 0.00239807 0.00319913
160 2 -0.8758 12.9114 4.24925 14.4399 -0.00806792 0.000101982 -0.00619697
161 2 -0.926339 12.836 7.59257 4.05416 0.0031926 0.000215605 -0.00137027
162 2 -0.92685 9.40957 2.23522 9.61293 -0.000353021 0.00833073 -0.00258663
163 2 -0.936409 9.57249 14.693 7.72964 0.00111319 -0.00105143 -0.00091204
164 2 -0.935064 9.36348 4.19969 11.1411 0.00300471 -0.00185331 0.00423578
165 2 -0.944224 11.0746 2.34776 11.3808 -0.000442361 0.00276069 -0.000284233
166 2 -0.92322 11.229 3.90618 9.48577 0.00129966 -0.00660378 -0.000954549
167 2 -0.934928 9.22746 5.69776 13.2143 0.000223598 0.00309236 0.000921482
168 2 -0.882914 9.22308 7.53392 14.8123 0.00132856 -0.000433481 0.00209273
169 2 -0.878659 10.8211 7.80993 13.0518 -0.00373941 0.00911042 0.000572816
170 2 -0.940174 13.1699 2.20707 12.8674 -0.00681737 -0.00174475 0.00314402
171 2 -0.926505 11.5005 14.5379 12.9484 -0.00325215 -0.0048781 0.0023945
172 2 -0.880443 13.0314 14.8434 10.8768 -0.00845498 -0.00676006 0.00165786
173 2 -0.836964 12.6714 5.80512 9.15367 0.00192235 -0.00928578 0.00132524
174 2 -0.813417 12.3574 7.11389 11.3705 -0.00604638 0.00228828 -0.00708161
175 2 -0.903922 9.66131 9.33482 2.34757 0.000656838 0.00413793 -0.00129915
176 2 -0.91517 9.36867 11.0565 3.99867 0.0026012 0.000392713 -0.000282134
177 2 -0.933035 11.2566 9.43384 4.52646 0.000150635 -0.00186968 -0.00187245
178 2 -0.946082 11.4634 11.1417 2.56174 0.00608971 0.00409345 -0.000447196
179 2 -0.991479 9.43688 12.9412 5.75125 0.00314439 -0.001289 -0.00297315
180 2 -0.930554 11.1545 12.6511 7.42088 0.00405208 -0.000840246 -0.00820981
181 2 -0.835265 13.3563 9.01254 5.99565 -0.000171343 0.000491247 -0.00634392
182 2 -0.880214 12.7532 10.8458 7.67836 -0.000363736 -0.00376518 -0.00267045
183 2 -0.798943 12.9432 13.0076 1.59186 0.0082578 0.000596293 -0.00368602
184 2 -0.88425 10.9076 12.7045 14.5537 -0.00220978 0.00280314 -0.00331718
185 2 -0.938223 12.6563 10.9542 14.4306 -0.00228721 0.00501372 0.00546555
186 2 -0.931846 9.78911 9.31687 9.22469 0.00067325 -0.00136641 0.00286491
187 2 -0.918705 9.27657 10.8735 11.1091 -0.00185103 -0.00273937 0.00121648
188 2 -0.915043 11.4263 9.46287 11.1364 0.000861899 0.00279675 0.00382185
189 2 -0.959172 11.2872 11.3615 9.52488 -0.000296737 0.00221234 0.00317891
190 2 -0.882428 9.61787 12.9675 12.5623 -0.0037321 -0.00013095 -0.00109977
191 2 -0.918964 12.9966 9.05888 12.9817 0.00250077 0.00479498 -0.000501646
192 2 -0.912786 13.1211 12.9889 8.9618 0.00336371 0.00169488 0.00339629
193 2 -0.704507 14.6902 12.86 3.15815 0.00474465 -0.00166215 0.000674075
194 2 -0.62728 5.0104 5.15634 12.0672 0.00490223 -0.000950753 -0.00315944
195 2 -0.627923 6.73351 6.92772 13.7574 -0.00100543 0.00709291 0.00265183
196 2 -0.572072 6.88167 14.0182 13.8018 0.0031916 -0.000283832 0.00929221
197 2 -0.613484 15.4916 5.42451 8.2662 0.00580847 0.00149611 0.00400096
198 2 -0.661404 8.48368 1.52797 4.91499 -0.0036483 0.0021678 -0.0050439
199 2 -0.585657 4.85035 8.86031 1.29908 -0.00643244 -0.00152289 -0.000688215
200 2 -0.635039 10.2869 13.6197 3.14751 -0.00167359 0.00115103 0.00475119
201 2 -0.546768 15.7916 15.6313 11.8252 -0.0029703 0.000367241 0.0095123
202 2 -0.584838 10.403 6.7162 3.21596 -0.00329776 -0.00279926 -0.00398273
203 2 -0.624833 12.1869 15.2992 1.67787 -0.00488035 -0.00126143 0.00585105
204 2 -0.654178 2.2934 7.60249 9.60075 -0.00263211 -0.00232528 0.00127108
205 3 0.479517 15.4516 12.3349 3.06885 -0.00495828 0.00944475 0.0166788
206 3 0.531695 13.9488 13.5235 5.21539 0.00373537 -0.00880089 0.0126447
207 3 0.439695 5.34451 5.3679 12.96 -0.0010127 -0.00905471 -0.0221026
208 3 0.427038 4.98507 4.19837 12.0126 0.00838527 0.0210704 -0.0194118
209 3 0.441982 6.63501 7.81965 14.1985 -0.000886505 -0.0144207 -0.0096383
210 3 0.420588 7.61495 6.92532 13.4017 -0.0266276 -0.0097884 0.0127997
211 3 0.383884 6.80911 15.0165 13.6105 0.018841 -0.0150713 0.033793
212 3 0.42027 6.24397 13.8969 14.5222 0.0145995 0.0136145 -0.00618408
213 3 0.448907 14.8764 4.8192 8.01405 -0.0102017 0.0107979 -0.0102822
214 3 0.42448 16.0062 4.96816 8.98175 0.0214504 -0.0200595 -0.021369
215 3 0.457643 8.64924 2.40513 4.96537 -0.00340609 -0.0260525 0.00685264
216 3 0.410257 7.60969 15.444 5.20922 0.0286724 0.00716511 0.0274118
217 3 0.414863 4.1757 8.22686 1.66404 -0.00413496 -0.0199765 -0.0153119
218 3 0.428273 4.55387 9.70999 1.61253 -0.00898973 -0.00053281 -0.00481975
219 3 0.399256 9.30691 13.755 3.29468 -0.0171764 -0.0108294 0.0134828
220 3 0.393211 10.3736 12.6621 3.33 -0.00522159 -0.0020415 0.00516754
221 3 0.386719 1.34557 14.6735 12.0383 0.0070187 0.0092087 -0.00724628
222 3 0.378723 15.5946 1.63949 10.8267 0.0270126 -0.0371571 0.0323518
223 3 0.434732 9.9211 7.32218 2.64481 0.019473 0.03469 -0.0405784
224 3 0.41386 11.3081 6.66707 2.90095 -0.0166963 0.00265594 -0.00529311
225 3 0.432884 11.8399 14.9943 14.9392 0.012121 -0.00926328 -0.00710502
226 3 0.407336 11.3363 1.25153 2.30023 0.00961728 -0.0108733 0.00359151
227 3 0.446077 2.6639 7.36876 8.68937 0.0107416 0.00422367 -0.00145117
228 3 0.480915 2.15869 8.7539 6.99303 0.000707171 0.0113507 -0.0119194
ITEM: TIMESTEP
18000
ITEM: NUMBER OF ATOMS
228
ITEM: BOX BOUNDS pp pp pp
1.5153936529393466e+00 1.5644606347060563e+01
1.5153936529393466e+00 1.5644606347060563e+01
1.5153936529393466e+00 1.5644606347060563e+01
ITEM: ATOMS id type q x y z vx vy vz
1 1 1.70672 1.60811 1.60497 1.40762 0.00390754 -0.00228646 -0.00232668
2 1 1.77846 3.47495 3.14081 3.20454 -0.00196712 -0.000892841 0.00165572
3 1 1.71294 1.5537 4.83918 4.91268 0.00291443 -0.00366412 0.00694394
4 1 1.72661 3.6364 6.63365 6.23311 -0.00049686 -2.85414e-05 0.000897546
5 1 1.81528 5.05086 15.5426 5.09085 0.0028809 0.00114544 -0.00136152
6 1 1.75492 6.82137 3.16312 6.85408 0.00289556 0.00269602 0.000935618
7 1 1.72127 4.92976 5.02075 15.4031 -0.00202412 -0.00826241 0.000824069
8 1 1.71657 6.70092 6.86546 2.98382 -0.00352325 -0.00238396 0.000209518
9 1 1.7055 15.5513 15.5562 8.63873 0.000712078 -0.00030684 0.000704816
10 1 1.74372 3.2154 3.339 10.2059 0.00178445 -0.00176981 0.00145817
11 1 1.67182 15.5026 5.03826 11.967 -0.00189459 0.00430656 -0.00192847
12 1 1.73683 3.08722 6.82437 13.7322 -0.00172867 0.00114724 -0.00292732
13 1 1.76065 5.11727 1.66666 12.045 0.000839003 0.000864547 -0.00377217
14 1 1.81093 6.94592 3.41174 13.7456 0.00179114 0.00192377 -7.19768e-06
15 1 1.77085 5.0114 5.02871 8.47116 -0.00676268 -0.00119946 0.00172079
16 1 1.81916 6.71346 6.88796 10.2303 -0.00167241 -1.88635e-05 -0.00574982
17 1 1.73473 15.7013 8.5214 1.68774 0.00337687 0.00198933 0.00437671
18 1 1.70259 3.21067 10.4657 3.44886 0.00232895 -0.00212551 -0.00175396
19 1 1.71794 1.5543 11.9003 5.57526 0.00141413 -5.27748e-05 0.00191231
20 1 1.76134 3.36608 13.9056 6.92132 -0.00663655 -0.00133986 0.00468783
21 1 1.72267 5.25755 8.7378 4.8503 0.00435316 -0.000960947 0.00016552
22 1 1.89448 6.86002 10.255 6.89969 0.000241607 -0.0069246 0.000888962
23 1 1.68158 5.03145 12.1064 1.54158 0.00164342 0.00458234 -0.0067706
24 1 1.75796 6.8551 13.8318 3.25757 -0.00145213 0.00457238 0.000765028
25 1 1.60067 15.4231 8.76914 9.38018 -0.00276385 0.000502587 0.00410791
26 1 1.8041 3.26151 10.7231 10.5914 0.00225616 -0.00051442 0.00587626
27 1 1.73336 1.48124 12.3082 12.4423 -0.000117154 -0.00475188 -0.00289731
28 1 1.76027 3.49589 14.1069 13.9588 -0.00266559 -0.00233003 0.00103853
29 1 1.82896 4.91029 8.58673 11.9785 0.000380539 0.00199057 -0.00323802
30 1 1.71959 6.59455 10.4329 13.6561 0.0042801 -0.00235674 -0.000209664
31 1 1.80776 5.13844 12.0914 8.5703 0.00489477 0.000478184 0.00341622
32 1 1.74665 6.8838 14.0103 10.1711 -0.00126321 -0.00133584 -0.00262127
33 1 1.75602 8.52854 1.52447 1.46444 -0.00209089 -0.00173712 -0.00378842
34 1 1.7634 10.2755 3.28282 3.23994 -0.00503497 0.000213102 0.000150979
35 1 1.78654 8.33764 5.05186 4.86615 -0.000930154 0.00051578 -0.00378187
36 1 1.88244 10.1362 6.6318 6.68147 -0.00503639 0.00581918 0.00239046
37 1 1.68505 12.0393 15.5831 4.97584 -0.000557341 0.0016801 -0.00647978
38 1 1.8502 13.8973 3.15186 6.70839 -1.3109e-05 0.00332349 0.000745499
39 1 1.83652 12.0105 5.16719 15.6761 -0.0034871 -0.000621223 0.00100057
40 1 1.80704 13.8185 6.75966 3.36852 -0.000548212 -0.00119849 -0.00318821
41 1 1.89308 8.75316 1.57379 8.54383 0.000368868 -0.00129329 0.0027424
42 1 1.93311 10.3845 3.23585 10.3952 -0.00320483 -0.00299823 -0.000482243
43 1 1.81434 8.68792 5.17505 11.9438 0.00117789 0.00300841 0.000135221
44 1 1.75465 10.2551 6.94284 13.8858 0.00441504 -0.00466242 0.00525612
45 1 1.81863 12.1049 15.6655 12.2111 -0.00572328 0.00147572 -0.00156071
46 1 1.74419 13.821 3.33506 13.9815 -0.000761851 -0.000233217 0.00691035
47 1 1.78199 11.8958 4.78878 8.28661 0.000504699 -0.000805449 -0.000969998
48 1 1.71209 13.485 6.56552 10.3169 -0.000495115 -0.0031784 -0.00268574
49 1 1.61158 8.46763 8.81141 15.5051 0.00154741 -0.00189713 0.00110845
50 1 1.77704 10.293 10.2072 3.34966 0.000592052 0.00347667 0.00463008
51 1 1.74834 8.52202 12.0519 5.11041 0.00149928 -0.00172269 0.000223445
52 1 1.71755 10.4524 13.8166 6.89513 0.000529098 0.000590378 -0.000401749
53 1 1.79028 12.0864 8.53365 5.19452 -0.00187435 0.00449101 0.000123957
54 1 1.75533 13.8609 10.0613 7.13289 0.00208689 0.000702512 -0.000215853
55 1 1.70706 11.7766 11.76 15.2871 0.000123221 -0.000531029 0.00120887
56 1 1.48361 13.5665 13.9049 2.44719 0.0013374 0.000402387 -0.00138025
57 1 1.90394 8.65322 8.4728 8.53677 0.00288821 0.00168168 0.000770121
58 1 1.78924 10.4111 10.2575 10.3471 0.00233205 0.00184998 0.000223038
59 1 1.79068 8.49755 12.0565 11.8436 -0.00572133 0.000275175 0.00291026
60 1 1.77187 10.134 13.7961 13.7016 0.000170281 7.14372e-05 0.000844671
61 1 1.77417 12.1597 8.54973 12.1033 -0.00146032 -0.00261712 -0.00615176
62 1 1.80677 13.9773 10.1424 13.8753 -0.00214968 -0.000204752 0.000291984
63 1 1.81553 12.0822 12.0592 8.66762 0.00267417 -0.00103559 -0.00124302
64 1 1.71536 13.8029 13.8182 10.4388 -0.00358407 -5.52725e-05 -0.00385756
65 2 -0.841152 2.4917 2.10451 2.62592 0.00111111 0.00229257 0.00160787
66 2 -0.874952 2.7533 15.29 14.5776 -0.004888 -0.00410298 0.00403858
67 2 -0.888309 14.8154 2.72318 15.0236 -0.00515443 -0.00221174 0.00336064
68 2 -0.844742 14.7615 14.5806 1.76056 0.00533935 -0.00241913 -0.000682752
69 2 -0.862225 2.3969 4.0851 3.8678 -0.00107951 -0.00402515 0.00207119
70 2 -0.926806 4.44159 2.48074 4.18102 0.00345353 -0.00123407 -0.00309269
71 2 -0.879025 4.2917 3.87 2.1155 -0.00548837 -0.00834604 -0.00161893
72 2 -0.905964 2.72055 5.54289 5.71557 -0.00206641 -0.00261251 0.002854
73 2 -0.921608 14.9849 3.94129 5.99333 -0.00137739 0.00251374 0.0074119
74 2 -0.893216 14.6468 5.88689 4.35053 0.00188579 -0.00347113 -0.00525369
75 2 -0.915336 4.39392 5.94916 7.43553 -0.00225888 0.000534032 -0.00495334
76 2 -0.845117 4.58464 7.38711 5.26548 -0.000811327 -0.000616464 0.00594801
77 2 -0.785193 2.77392 7.79316 6.66405 -0.00208801 -0.0109764 0.00568222
78 2 -0.886609 5.89015 2.12156 6.15632 -0.00125532 3.98552e-05 -0.000901452
79 2 -0.910543 3.93057 14.827 5.86886 -0.00113364 -0.00854986 -0.00450776
80 2 -0.873457 5.79842 14.4416 4.26991 0.000733891 -0.00344006 0.00491447
81 2 -0.827331 5.82476 3.88596 7.76527 -0.00229667 0.00268554 -0.000575606
82 2 -0.908079 7.40311 4.14886 5.74997 0.00178932 0.00382689 -0.00125537
83 2 -0.949672 7.95615 2.56239 7.69568 0.000377718 0.00111402 -0.00671147
84 2 -0.862869 5.56316 6.05949 2.26623 -0.00165221 -0.000274233 0.0023109
85 2 -0.949639 3.89507 5.78385 14.4995 5.26614e-05 0.000816821 -0.00247107
86 2 -0.908424 6.098 4.33031 14.6944 0.00250074 0.00320615 -0.000848088
87 2 -0.875806 6.20439 8.05225 3.86175 0.00648587 0.00441509 0.00770968
88 2 -0.857546 7.60333 5.80729 3.72843 0.000414952 0.00274816 0.0014103
89 2 -0.861263 7.68333 7.52911 2.01355 -0.00443281 -0.00114652 0.00502109
90 2 -0.952719 2.15344 2.4011 9.59837 0.0024497 0.00289261 -0.00693397
91 2 -0.860467 2.56278 14.6574 8.0136 0.00312716 -0.00101117 0.00142811
92 2 -0.938032 14.5578 2.20578 7.70105 0.0012019 0.00254543 -0.00272714
93 2 -0.905719 14.7361 14.499 9.41651 0.00311067 -0.00367835 -0.00563811
94 2 -0.913335 2.41993 4.40418 10.976 -0.000479237 1.06218e-05 -0.000666384
95 2 -0.910565 4.25301 2.57974 11.1511 0.00513907 -0.00044513 0.00151782
96 2 -0.915179 4.00831 4.06081 9.11593 0.00474134 0.00138945 -0.00115135
97 2 -0.851356 1.95166 6.1315 12.9429 0.00311902 0.0025302 -0.00379278
98 2 -0.82761 14.6116 4.08286 12.8951 -0.00449386 -0.000609466 -0.00177391
99 2 -0.878981 14.4303 5.61652 11.0031 -0.00295057 0.00154148 -0.000929394
100 2 -0.895062 2.56 7.74364 14.9053 -0.00158011 -0.00140716 0.00431521
101 2 -0.890598 3.80837 7.72337 12.6795 0.00483465 -0.00384802 0.00987869
102 2 -0.970825 5.99558 2.62907 12.8865 -0.00712837 0.00485887 -0.0085554
103 2 -0.955753 4.30011 14.7347 12.8329 0.000846042 -0.000526968 9.87105e-05
104 2 -0.836894 6.17518 15.0832 11.1098 0.00717074 -0.000414558 -0.000645489
105 2 -0.871223 7.90644 2.69607 14.7342 -0.00641503 -0.000872106 0.00951088
106 2 -0.912736 7.81251 4.20513 12.7611 -0.00503448 0.00886889 0.00120693
107 2 -0.883488 6.00099 5.73798 9.46075 0.00328329 -0.002806 0.00338379
108 2 -0.911124 5.6284 7.77287 10.8651 -0.00201329 0.00746259 -0.00397605
109 2 -0.900645 7.76404 6.19578 11.1633 -0.00229932 -0.000662263 0.00552103
110 2 -0.943188 7.58722 7.74965 9.32142 -0.00412041 0.00435958 0.00224925
111 2 -0.930746 2.4517 9.37841 2.61773 0.00104069 0.00388457 -0.00116508
112 2 -0.914061 14.8156 7.48824 2.51045 0.00507122 -0.0085242 0.00223861
113 2 -0.930356 14.7972 9.41686 14.9206 0.0029504 -0.000735633 0.00309086
114 2 -0.901193 2.07145 11.1988 4.23479 -0.00408469 0.00087193 -0.00101997
115 2 -0.940125 4.26507 9.79834 4.36068 0.0020237 0.00273386 -0.00105092
116 2 -0.915113 3.98356 11.3082 2.38597 -0.00110954 -0.00666103 -0.00316172
117 2 -0.884529 2.65779 12.6381 6.30497 0.00234987 -0.00713381 -0.00183598
118 2 -0.914813 14.9984 10.8224 6.41144 0.0051841 0.000858436 -0.00294011
119 2 -0.769204 14.6511 13.0142 5.43469 -0.00375359 -0.00155299 0.00453824
120 2 -0.85833 4.55865 13.1558 7.62197 0.00809421 0.00425137 -0.00171814
121 2 -0.872835 6.00021 9.17819 6.17313 0.00388568 -0.00440229 0.00308346
122 2 -0.949197 6.08329 11.1025 7.89317 -0.00316609 0.000546565 -0.00810359
123 2 -0.923204 7.51659 11.1054 5.81049 0.00201287 0.0031311 0.000329285
124 2 -0.928019 7.90697 9.53543 7.68019 0.00252983 -0.00172392 0.0016555
125 2 -0.919368 6.07916 12.8394 2.35272 -0.000874794 0.00549044 -0.00051764
126 2 -0.913418 4.3722 13.367 14.976 0.00438444 0.00255488 -0.00462835
127 2 -0.948618 5.58163 11.162 14.5268 -0.000114149 -0.00288515 -0.00703778
128 2 -0.99076 7.61713 14.8522 2.35365 0.00488605 0.00179678 0.000931667
129 2 -0.942462 7.82185 13.01 4.10739 0.00283398 -0.00736255 0.00133329
130 2 -0.869244 2.01637 9.97817 10.0674 0.000159679 0.00536822 0.000506995
131 2 -0.833744 14.4447 7.78657 10.0585 -0.00138874 -0.00193617 -0.0028133
132 2 -0.890271 14.5735 9.15375 8.14434 0.00400279 -0.00112697 0.00198024
133 2 -0.854565 2.64211 11.7978 11.5502 -0.00331636 0.000767214 -0.00236254
134 2 -0.923924 4.17239 9.78691 11.3415 0.001991 -0.000116861 0.00265665
135 2 -0.895211 4.02608 11.4555 9.46153 -0.0113179 0.00561702 -0.00130712
136 2 -0.889216 2.31335 13.2395 13.4148 -0.000718141 0.000884162 -0.00110061
137 2 -0.936709 14.7762 11.1731 13.104 -0.00509894 0.000873598 0.00590134
138 2 -0.917196 14.7665 13.1861 11.5073 0.00637398 -0.000816814 -0.00198822
139 2 -0.936277 5.8426 9.25962 12.9466 0.00568498 0.00211687 0.0038737
140 2 -0.887028 7.63726 9.83496 14.6763 0.000806227 0.000952417 0.0029971
141 2 -0.890659 7.37324 11.3356 12.6141 -0.00746466 0.00364118 -0.00319117
142 2 -0.850566 5.97459 12.9698 9.56728 -0.00376898 -0.00254875 0.00162525
143 2 -0.900749 7.71833 14.751 9.07352 0.00462021 0.00197328 -0.0013144
144 2 -0.839848 7.85217 12.9335 10.7572 0.00068202 -0.00370058 -0.000476198
145 2 -0.942758 9.51523 2.30126 2.33082 0.00571512 0.00178705 -0.00188044
146 2 -0.953202 9.22613 14.5599 14.6948 0.00223869 -0.00321412 -0.000253292
147 2 -0.94127 9.3843 4.05587 4.23491 -0.00458203 0.00436488 -0.00125331
148 2 -0.943016 11.264 2.43942 4.09791 -0.00601577 -0.00585772 0.00269497
149 2 -0.895561 11.0555 4.1611 2.21031 0.00136356 0.000380039 0.000254999
150 2 -0.923133 9.06917 5.95218 5.80351 0.00492086 0.0077931 -0.00381424
151 2 -0.932485 10.7803 5.49529 7.49597 -0.000184976 2.49362e-05 -0.00569519
152 2 -0.916089 11.1902 7.52044 5.95603 0.000475799 -0.00766064 -0.000669249
153 2 -0.96012 9.31848 7.56198 7.54339 -0.00278476 -0.00158146 -0.00329848
154 2 -0.898306 13.0777 2.33873 5.70316 -0.00541607 -0.00322769 -0.000698048
155 2 -0.965115 11.1462 14.6514 5.84993 -0.000245917 0.00204783 -0.00397007
156 2 -0.735585 13.0479 14.6545 4.1897 -0.00116287 0.00413294 0.00299905
157 2 -0.945213 12.9367 4.14341 7.38042 -0.00174219 0.00134648 -0.00463931
158 2 -1.00153 12.8794 5.88871 2.50298 -0.00453942 0.00425574 0.00311882
159 2 -0.930919 11.0634 6.13936 15.0185 -0.00585634 0.00129635 0.00212088
160 2 -0.848264 12.8052 4.42188 14.5162 -0.00172765 -0.000126117 0.00317535
161 2 -0.92188 12.7499 7.67033 4.09067 -0.0017614 0.00500253 0.00591738
162 2 -0.976545 9.35916 2.38849 9.67751 0.00193097 -0.00266794 0.000754244
163 2 -0.939658 9.85632 14.8456 7.91434 0.00281011 0.00161502 0.00107959
164 2 -0.961173 9.70263 4.32919 11.1654 -0.00207127 -0.00660951 0.00792667
165 2 -0.948443 11.2268 2.51004 11.4571 -0.00267836 0.00122081 -0.00160012
166 2 -0.948307 11.3286 3.77061 9.30511 0.00131985 0.000447516 -0.000820432
167 2 -0.93417 9.37889 6.05285 13.0061 -0.00471392 0.00290122 -0.00695149
168 2 -0.886931 9.31212 7.88557 14.5613 -0.00712767 -0.00154604 0.00912302
169 2 -0.857716 11.0575 8.02174 13.0406 0.00376534 0.000476894 -0.00040498
170 2 -0.910985 12.9753 2.26354 13.2667 -0.00336428 0.00577115 -0.0037876
171 2 -0.941393 11.2512 14.7359 13.1465 0.00579869 -0.00441572 0.0103061
172 2 -0.942452 12.9031 14.8897 11.1548 -0.00183821 -0.000801019 -0.0053158
173 2 -0.833727 12.6336 5.93177 9.09977 0.00533385 0.00276292 -0.00235295
174 2 -0.865694 12.5295 7.31349 11.2894 0.00217232 0.00296421 -0.00283868
175 2 -0.945645 9.4947 9.31115 2.43393 0.00311648 -0.00574321 0.00432856
176 2 -0.917582 9.4523 11.1843 4.15855 0.0066777 0.00319182 0.0023041
177 2 -0.879721 11.2647 9.63869 4.45276 -0.00496938 0.00369462 0.00506609
178 2 -0.934121 11.1045 11.0851 2.32988 0.00328596 0.000205499 -0.00407862
179 2 -0.83473 9.28579 12.7868 6.21255 0.00431186 -0.00418252 -0.00423086
180 2 -0.926389 11.4697 12.9271 7.5826 -0.00763391 0.00377274 -0.00373878
181 2 -0.90155 13.1516 9.16112 6.0781 0.00569904 0.00464833 -0.00182445
182 2 -0.865118 12.786 10.9305 7.87998 0.0041061 -0.000459273 6.19438e-05
183 2 -0.829293 12.6359 12.9969 15.7315 0.00382885 -0.0130576 0.00414407
184 2 -0.859291 10.7316 12.5431 14.4399 -0.0012883 0.00225123 -0.00610826
185 2 -0.8905 12.6709 10.7502 14.4453 -0.00608743 0.0043059 0.00332254
186 2 -0.864654 9.68837 9.08642 9.53454 -2.20422e-06 0.00554344 -0.000174852
187 2 -0.898624 9.30284 10.9047 11.1981 0.00631763 -0.00419115 -0.00271954
188 2 -0.903685 11.5406 9.6385 11.2364 0.0138152 0.00424816 0.000828748
189 2 -0.914659 11.0012 11.1855 9.32658 -0.0015832 0.000769312 -0.00202765
190 2 -0.930108 9.38262 13.0664 12.6316 0.000664609 -0.000756016 0.000591204
191 2 -0.845078 13.4233 9.02714 12.92 0.000562007 0.00525476 0.00171288
192 2 -0.918598 12.9911 12.6946 9.74874 -0.00679655 -0.00195964 0.00234019
193 2 -0.728892 14.2244 12.6798 3.06462 0.00438754 -0.00164098 0.000885379
194 2 -0.599825 4.81923 5.17865 12.0383 -0.0054366 0.00455914 -0.00410026
195 2 -0.652289 6.55187 6.76706 13.6883 0.0026041 -0.00131391 -0.00293019
196 2 -0.64229 6.84016 14.1502 13.576 -0.00216556 -0.00142701 -0.000133281
197 2 -0.659661 15.6516 5.48313 8.48702 0.000917531 0.00311874 0.00467166
198 2 -0.636837 8.63732 15.7455 5.12332 0.000373042 0.00428308 -0.00025528
199 2 -0.639596 4.98903 8.72679 15.752 -0.0011103 -0.00616097 -0.00631751
200 2 -0.661053 10.3153 13.7161 3.19656 -0.00122054 -0.000698543 -0.0112567
201 2 -0.582402 1.36868 15.7849 11.9483 0.00544564 0.00550349 -0.000397234
202 2 -0.571383 10.191 6.99706 3.35121 2.48785e-05 -0.00229033 0.00121747
203 2 -0.673937 12.1508 15.5425 1.73717 -0.004731 0.00443701 0.00205998
204 2 -0.706947 2.53753 7.88662 9.08961 0.0024421 0.00170479 -0.00121761
205 3 0.484795 14.8472 11.989 3.08334 0.0120973 -0.00636217 -0.00390767
206 3 0.536721 13.9333 13.5793 5.06256 0.00477103 -0.0124447 -0.0355651
207 3 0.408999 5.11833 5.48203 12.9189 -0.0161095 0.0113041 0.0123943
208 3 0.425038 4.89993 4.23152 12.0454 0.0155934 0.00278635 -0.030851
209 3 0.422647 6.52193 7.3371 14.4604 0.0287365 -0.0181905 0.014708
210 3 0.432389 7.49428 6.79374 13.4796 -0.0126217 0.0138605 -0.0244601
211 3 0.416241 7.28598 14.016 14.3408 0.000123236 0.000346682 -0.0210447
212 3 0.412783 6.01349 13.7491 13.6851 0.0205518 -0.00329494 -0.0238259
213 3 0.41929 1.89417 5.34715 7.59068 -0.00741072 0.0279455 0.00531354
214 3 0.408288 1.68671 4.65537 8.97651 0.00859549 -0.0367637 0.0255575
215 3 0.398245 9.50683 15.6886 5.44496 -0.00242911 0.018211 0.0359502
216 3 0.404404 8.41588 2.56056 5.10762 0.0205601 0.0289329 0.0014667
217 3 0.430695 4.09934 8.43597 1.85539 0.00090181 0.000195406 -0.0100749
218 3 0.417545 4.87033 9.65015 1.45171 -0.00507351 0.0105561 -0.0020037
219 3 0.412708 9.39459 14.006 3.28527 -0.00728379 0.0043125 -0.00223629
220 3 0.4394 10.292 12.795 3.1806 -0.0176622 0.00736851 -0.00164796
221 3 0.416529 15.7558 14.8432 12.0262 -0.00220229 -0.00708601 -0.0215431
222 3 0.397858 0.945246 15.8582 11.0676 -0.0135261 0.00800655 -0.000177626
223 3 0.43681 9.87279 7.35196 2.49459 -0.0231832 -0.0123588 0.0230366
224 3 0.421091 11.1382 6.88956 3.14604 -0.00932546 -0.0157878 0.00582519
225 3 0.445124 11.8655 15.3881 14.9501 -0.00194695 0.0127082 -0.00721058
226 3 0.430028 11.4081 15.4919 2.34575 0.00701327 0.0191801 0.0323211
227 3 0.453172 2.27468 6.90743 9.14125 -0.0112213 0.0118398 0.0270367
228 3 0.482732 2.28255 8.53035 7.05529 0.0156975 -0.0104378 0.0257088
ITEM: TIMESTEP
19000
ITEM: NUMBER OF ATOMS
228
ITEM: BOX BOUNDS pp pp pp
1.5166782570080120e+00 1.5643321742991846e+01
1.5166782570080120e+00 1.5643321742991846e+01
1.5166782570080120e+00 1.5643321742991846e+01
ITEM: ATOMS id type q x y z vx vy vz
1 1 1.7915 1.79726 1.65489 15.2976 -0.00146564 -0.00229185 0.00374385
2 1 1.86819 3.32315 3.29276 3.13646 -0.003 0.00413721 -0.00185455
3 1 1.81695 15.5818 4.98743 4.86034 -0.00126717 -0.00359876 0.00222367
4 1 1.76026 3.63514 6.61269 6.27883 -0.000621375 0.00428928 -0.00450972
5 1 1.81107 4.96862 1.51775 5.00086 3.21714e-05 -0.00424946 0.00316507
6 1 1.79376 6.89982 3.18396 6.77784 -0.000708507 0.00352463 0.0030629
7 1 1.72784 4.96595 5.14074 15.5324 -0.00259773 0.00479688 0.00214266
8 1 1.81355 6.93896 6.72903 3.10798 -0.00129377 -0.00216134 0.000803271
9 1 1.7571 1.56672 15.5797 8.55091 0.0033997 -0.00291812 -0.000475276
10 1 1.73146 3.39323 3.28999 10.2318 0.0013064 0.000632337 0.00366998
11 1 1.77713 1.60332 5.08967 11.9129 -0.00311498 0.000465479 -0.00489219
12 1 1.76161 3.10447 6.97218 13.7996 -0.00312648 -0.0024116 -0.00171211
13 1 1.66273 5.2134 1.55971 12.0207 0.00625265 0.00512925 0.00244421
14 1 1.73028 6.88311 3.31637 13.9206 0.000914178 -0.000766684 0.00355049
15 1 1.90092 5.11442 5.04225 8.3769 0.00478624 4.86711e-05 0.00133791
16 1 1.75574 6.78489 6.82783 10.2638 -0.00163719 0.000595137 0.00438782
17 1 1.77271 15.4672 8.64665 1.56014 0.00249816 -0.00374383 -0.000215937
18 1 1.77438 3.14288 10.4049 3.34026 0.00413385 0.000353176 0.000310722
19 1 1.74262 1.56346 11.8292 5.72788 -0.000512943 -0.000371482 0.00255459
20 1 1.88262 3.39423 13.8922 6.78761 0.00227537 -0.00152036 -0.00291218
21 1 1.79137 5.21423 8.68828 4.74704 -0.00122153 0.000259095 0.000609618
22 1 1.92539 6.74572 10.2529 6.87127 0.00160917 -0.000251494 -0.00120514
23 1 1.74723 4.96383 12.0615 1.565 0.000973288 0.00330044 -0.00422365
24 1 1.71286 6.72404 13.868 3.24093 -0.00207323 0.00565154 -0.00149208
25 1 1.61601 15.3455 8.68341 9.33164 0.00337772 0.00177812 0.00116743
26 1 1.66223 3.11111 10.6508 10.3999 0.000916866 -0.00287531 -0.00193683
27 1 1.7385 15.3776 12.2044 12.2117 0.000457576 -0.00247193 -0.00314144
28 1 1.69568 3.41779 13.8798 13.61 -0.00254059 -0.00389604 -0.00177178
29 1 1.77232 4.88363 8.617 11.9171 0.0050266 -0.00546182 -0.00318082
30 1 1.72545 6.66961 10.3298 13.8008 -0.00483495 -0.00531755 0.0013725
31 1 1.75608 5.03899 12.1583 8.61395 0.00169599 0.00232274 -0.000162807
32 1 1.76801 6.89366 13.8729 10.2807 -0.00165248 0.00529419 -0.00323938
33 1 1.78506 8.62862 1.43393 15.629 0.00265624 0.000340845 -0.0016068
34 1 1.83064 10.4566 3.21714 3.21293 0.000259126 -0.0020932 -0.00265583
35 1 1.86081 8.6203 4.9187 4.93281 -0.00116751 0.00129879 -0.00244635
36 1 1.80699 10.141 6.74689 6.91671 0.00147335 -0.000854179 -0.00277057
37 1 1.75544 12.1935 15.5696 5.01595 -0.000355706 0.00123874 -0.000939313
38 1 1.81259 13.9282 3.21801 6.73758 -0.00326962 0.000598363 0.000629675
39 1 1.73086 12.1367 5.075 15.5829 -0.000571891 0.000969076 0.000541866
40 1 1.81211 13.697 6.87116 3.33431 -0.00304716 0.00158264 0.00292629
41 1 1.84821 8.70765 1.50764 8.62154 0.0009992 9.32363e-05 -0.00239485
42 1 1.91207 10.2946 3.18201 10.4867 0.00024281 0.000187783 -0.000165447
43 1 1.77559 8.58745 5.06269 12.1085 0.00276959 -0.00377475 -0.00205739
44 1 1.72803 10.2357 6.86995 13.9483 0.00385946 -0.00746306 -0.00181132
45 1 1.79622 12.1039 15.6195 12.1784 -0.00132004 0.000528354 -0.00320311
46 1 1.83681 13.9575 3.35239 13.7329 -0.00105981 0.00254008 -0.000489673
47 1 1.77539 11.9636 4.76217 8.49408 0.00111673 0.000675318 -0.00316309
48 1 1.82833 13.5231 6.53762 10.4457 -0.000707252 0.00102509 0.00366567
49 1 1.6931 8.5534 8.82126 1.52554 -6.99142e-05 -0.00390137 -0.00173448
50 1 1.79434 10.2158 10.4416 3.55061 0.000800375 0.000974205 -0.00360794
51 1 1.82839 8.36426 12.2152 5.23231 0.000993781 0.00121092 -0.00349821
52 1 1.64866 10.3498 13.9174 6.83736 -0.00310359 -0.00307841 0.0020021
53 1 1.81776 11.984 8.57942 5.18052 -0.000642861 -0.00186929 0.00129747
54 1 1.80338 13.8082 9.97984 7.08255 -6.60072e-05 0.00070801 -0.00160195
55 1 1.79815 11.9686 11.8526 15.4988 0.00320195 0.00462057 -0.00273857
56 1 1.4511 13.7784 14.0134 2.54901 0.00054363 0.0081543 0.00320352
57 1 1.96715 8.50443 8.54787 8.58982 -0.000549555 0.000169647 0.00486081
58 1 1.84266 10.2893 10.2849 10.2579 -0.00411082 0.00224361 0.00129696
59 1 1.81418 8.53454 11.978 12.082 -0.0034828 0.00220357 -0.00186109
60 1 1.7928 10.3743 13.7615 13.8231 0.00253749 0.00347269 0.00118284
61 1 1.80475 11.9292 8.48229 12.0326 0.0024989 -0.00204095 0.00512315
62 1 1.80292 13.6753 10.1466 13.7807 0.00106952 0.00363667 -0.00152677
63 1 1.7323 12.0281 11.9944 8.51485 -0.00199296 0.000852138 -0.00391626
64 1 1.7469 13.7659 13.906 10.2332 0.000919281 0.000248579 -0.00337644
65 2 -0.917666 2.45346 2.29967 2.38489 -0.00214143 0.00046864 0.00924601
66 2 -0.904798 2.7827 14.9803 14.4694 0.00610225 0.00102461 -0.00383609
67 2 -0.894748 14.995 2.73104 14.6826 0.00616052 -0.00389197 0.00122728
68 2 -0.774641 14.7894 14.7635 1.58579 -0.00212838 0.00171468 -0.00494241
69 2 -0.903597 2.24659 4.13986 3.87517 0.0027983 0.00150075 0.00174945
70 2 -0.888258 4.21908 2.59035 4.16837 -0.00182996 -0.000493325 0.00125602
71 2 -0.914256 4.27152 3.99158 2.17298 0.00115316 0.00205449 0.00769753
72 2 -0.91279 2.66613 5.66145 5.52069 0.000729633 -0.0029396 0.0016179
73 2 -0.967892 14.8606 4.12752 5.95302 -0.00427762 -0.00326762 -0.00546626
74 2 -0.934655 14.6147 6.02801 4.23167 0.00155445 0.00456033 -0.00180791
75 2 -1.00346 4.28985 5.84753 7.42908 -0.00478106 -0.00557659 0.0018416
76 2 -0.849796 4.50074 7.37535 5.27796 0.00190088 -0.00358876 -0.00324175
77 2 -0.812604 2.70472 7.741 6.69175 0.00651306 -0.00446462 0.000335333
78 2 -0.893433 5.96329 2.15828 6.01612 -0.000903296 0.00436174 0.00380022
79 2 -0.940247 3.9529 14.7171 5.66064 0.00236715 -0.00616784 5.44178e-05
80 2 -0.848787 5.63977 14.8618 3.86914 0.00446408 0.00539247 -0.00194717
81 2 -0.97078 6.00415 3.94762 7.73785 0.00195075 0.00251872 -0.00431956
82 2 -0.98031 7.78555 3.96199 5.76107 0.00554116 0.0012035 -0.00470526
83 2 -0.928926 7.97698 2.36339 7.53635 -0.00503462 -0.0012169 0.00271462
84 2 -0.885163 5.81179 5.93329 2.39665 -0.00113948 0.00377204 -0.00479717
85 2 -0.941183 3.87986 6.01911 14.773 0.00441275 -0.00369854 -0.00540543
86 2 -0.88492 6.019 4.37849 14.6427 -0.000389224 -0.00141563 -0.00239522
87 2 -0.888387 6.2602 7.88556 3.9521 0.00792395 -0.00450223 -0.00453131
88 2 -0.927766 7.8314 5.77198 3.90262 -0.00260816 -0.003259 -0.00695818
89 2 -0.911391 7.75466 7.60663 2.1755 0.000672343 -0.00595964 -0.00679044
90 2 -0.944601 2.57981 2.35458 9.27701 0.0105444 -0.00262307 -0.00102122
91 2 -0.892096 2.32596 14.8368 7.42869 0.00437726 0.00477364 -0.00235418
92 2 -0.887473 14.7538 2.45371 7.82794 0.00201406 0.00349148 0.00265959
93 2 -0.953135 14.8769 14.6266 9.46288 0.00117421 0.00412145 0.00302924
94 2 -0.974488 2.38528 4.1821 10.9615 -0.00169717 -0.00474501 0.00544001
95 2 -0.903335 4.42345 2.57249 11.1148 -0.00571884 -0.000573884 -0.000432775
96 2 -0.930195 4.18883 4.32222 9.30545 0.00332856 -0.00445871 0.0062164
97 2 -0.881542 2.1932 6.19466 12.8404 -0.00352342 3.12822e-05 -0.000571479
98 2 -0.854761 14.9548 4.16196 12.9031 0.00363979 -0.00766084 -0.00516447
99 2 -0.888417 14.449 5.63813 11.2111 -0.00175769 -0.00162305 0.00664306
100 2 -0.902945 2.28589 7.97892 14.6075 -0.000401356 -0.00702951 -0.00236849
101 2 -0.891401 3.84301 7.88102 12.7794 -0.00478995 0.000749951 -0.00321168
102 2 -0.919142 5.84552 2.32548 13.2379 0.00177904 0.000594379 0.00438157
103 2 -0.916167 4.27013 14.5268 12.5109 0.00241975 -0.00168047 0.00744341
104 2 -0.886253 6.12848 14.9886 10.9879 -0.00612385 -0.000702736 -0.00171232
105 2 -0.859593 7.69143 2.52335 15.0019 -0.0014775 0.000807524 0.00229269
106 2 -0.923606 7.80959 3.99037 12.9188 0.00243781 -0.00423708 -9.40569e-05
107 2 -0.89598 5.91718 6.1064 9.16645 -0.000847503 -0.000750957 -0.00795795
108 2 -0.878713 5.74013 7.54226 11.2265 0.000506151 0.0011102 0.00685624
109 2 -0.93115 7.73739 5.98029 11.135 -0.00317612 -0.000992355 0.000747549
110 2 -0.955159 7.53563 7.97867 9.61571 -0.00385943 -0.004968 -0.00545812
111 2 -0.950967 2.23182 9.45067 2.51098 0.00255465 0.00125967 -0.00719451
112 2 -0.882083 14.6075 7.58142 2.24046 -0.0043334 0.00277558 0.000255941
113 2 -0.905893 14.5899 9.65668 14.9279 0.00453667 -0.00473174 -0.000807983
114 2 -0.851331 2.21045 11.1736 4.36574 -0.00507121 0.00211747 0.00161381
115 2 -0.958608 4.09684 9.5406 4.15788 -0.00155531 -0.000274488 0.00511599
116 2 -0.97807 3.93502 11.2953 2.40802 0.00227908 -0.00210471 -0.00350924
117 2 -0.949569 2.6508 12.6764 6.27632 -0.00554705 0.0041877 0.00576205
118 2 -0.935698 15.0485 10.7538 6.57057 0.00348876 0.000787252 0.00540147
119 2 -0.73195 14.5831 12.8401 5.34681 -0.00574521 -0.000978499 -0.00268834
120 2 -0.899399 4.45299 13.3194 7.71188 -0.00109473 -0.00273539 -0.00280219
121 2 -0.932063 5.81909 9.37892 5.96165 -0.00163236 0.00326497 0.000690834
122 2 -0.905099 5.84037 11.1082 7.7649 0.000788916 -0.00518856 0.00299475
123 2 -0.947235 7.40624 11.204 5.89133 0.00428095 0.00228598 0.000979193
124 2 -1.00244 7.71148 9.5767 7.76685 -0.00287195 0.00343121 0.0044911
125 2 -0.959307 5.99242 12.9203 2.33807 0.00171824 0.00212225 -0.00129365
126 2 -0.879778 4.15917 12.9361 14.6851 -0.00302778 0.00173874 0.00723142
127 2 -0.965256 5.85149 11.0724 14.8891 -0.00325794 0.00261452 0.00342433
128 2 -0.919058 7.87019 14.5848 2.37876 -0.00826438 -0.00163645 -0.0034382
129 2 -0.909771 7.42701 13.0383 4.3965 -0.00186352 0.00406145 0.00099558
130 2 -0.859044 1.84073 9.94957 9.88984 -0.00569942 0.00162228 -0.00757824
131 2 -0.883283 14.3769 7.76784 10.1175 0.00311907 0.00206808 0.0010961
132 2 -0.8845 14.5372 8.9794 8.00085 -0.00258245 0.00304187 0.00208104
133 2 -0.866269 2.35781 11.5669 11.4055 -0.00219849 -0.00129795 0.00507905
134 2 -0.863852 4.21778 9.59517 10.9084 -0.00493049 -0.0040125 0.00171334
135 2 -0.830451 3.77882 11.6877 9.40482 -0.00108876 0.000337797 0.00929844
136 2 -0.873169 2.17122 13.0717 13.1432 -0.00185061 0.0122012 0.00249774
137 2 -0.876566 14.4579 11.1187 12.8896 0.00600481 0.00541123 -0.000152089
138 2 -0.918236 14.4153 13.0802 11.3669 0.00535433 0.00167204 0.00105548
139 2 -0.949749 5.821 9.29807 12.9307 0.00138594 0.00806042 -0.00104547
140 2 -0.94423 7.76953 9.65179 14.6041 -0.00506461 -0.00646195 -0.00288594
141 2 -0.919893 7.37199 11.352 12.8802 -5.61774e-05 -0.00153318 -0.00221252
142 2 -0.87765 5.92214 12.8556 9.63839 0.000615314 0.00212135 -0.00273005
143 2 -0.891552 7.7079 14.6259 9.18881 -0.00544509 -0.000855444 0.00321655
144 2 -0.835577 7.91524 12.9281 11.0461 0.00381891 0.000914379 0.00924074
145 2 -0.88654 9.33662 2.3258 2.51833 -0.000204575 -0.000471913 -0.000528083
146 2 -0.962227 9.65592 14.7837 14.7598 -0.000877313 -0.00276878 0.00827171
147 2 -0.93901 9.61877 4.03254 4.21317 -0.00405292 0.00341168 0.000787084
148 2 -0.92099 11.3588 2.4316 4.1481 -0.00178661 0.002699 -0.00162067
149 2 -0.930322 11.1326 4.08703 2.19489 -0.00325301 0.00133774 0.000235063
150 2 -0.874021 9.3769 5.94087 5.84475 -0.00374667 0.000985701 -0.00437885
151 2 -0.88485 10.8905 5.65697 7.75612 0.00182216 0.00684094 0.00501105
152 2 -0.909427 11.1776 7.60568 6.06216 -0.00385475 -0.00508114 -0.00199991
153 2 -1.02547 9.12146 7.51371 7.70788 0.00993393 0.00338792 -0.00759114
154 2 -0.898436 13.2693 2.17646 5.82093 -0.00400632 0.00384313 0.00134851
155 2 -0.880088 11.115 14.9728 5.94516 0.00121445 -0.00350413 0.00476969
156 2 -0.769719 13.145 14.6403 4.33271 -0.00431944 0.00539479 0.00592273
157 2 -0.904359 12.7868 3.98439 7.43965 -0.000253519 0.000338955 -0.00220142
158 2 -0.934243 12.9932 5.89759 2.46666 -1.32044e-05 -0.0024022 0.000836858
159 2 -0.89156 11.367 6.11465 14.7368 -0.00483319 -0.00171676 -0.00558246
160 2 -0.875536 13.0389 4.2769 14.5542 0.00446586 -0.00277379 -0.000321861
161 2 -0.940814 12.7097 7.86596 4.00446 -0.00225201 -0.00841867 1.21641e-05
162 2 -0.984155 9.30124 2.28411 9.76218 -0.00391073 0.0045343 -0.000318397
163 2 -0.903812 9.8372 14.9335 7.86599 -0.00263647 -0.0103548 -6.94777e-05
164 2 -0.936974 9.59504 4.29194 11.276 0.00187073 0.000496799 -0.0083711
165 2 -0.946612 11.0338 2.38067 11.5386 0.00456276 0.00524117 0.00551702
166 2 -0.929921 11.3192 3.77679 9.50995 0.00179426 0.00372597 0.00392723
167 2 -0.895417 9.23868 6.07419 13.149 -0.00627727 -0.00456323 -0.00367747
168 2 -0.845519 9.62655 8.01208 14.9421 0.000126126 0.00100425 0.000629474
169 2 -0.846454 10.8214 7.81759 12.8999 -0.00111812 -0.00406873 -0.00585823
170 2 -0.983523 13.1065 2.33227 13.0044 -0.00405738 -0.00943482 0.00332679
171 2 -0.945335 11.515 14.5726 13.1423 -0.0062795 0.0119687 0.000562377
172 2 -0.891745 12.9311 14.9536 10.9997 -0.00166252 -0.0114376 0.0024139
173 2 -0.908496 12.8743 5.71073 9.29875 0.00444561 0.000678753 -0.0020837
174 2 -0.874995 12.4331 7.19351 11.3288 0.00556407 0.000748812 -0.00296411
175 2 -0.951976 9.34911 9.55972 2.64374 -0.00450563 -0.00147023 -0.00402014
176 2 -0.980583 9.36729 11.4682 4.30438 -0.00249882 0.00216236 0.00440616
177 2 -0.94628 11.0524 9.64576 4.54574 0.000195518 0.000940036 -0.00762118
178 2 -0.931073 11.1359 11.2804 2.56051 -0.00165922 -0.000536548 0.00277531
179 2 -0.914179 9.1151 13.1744 6.14958 0.00526587 -0.00349243 -0.000957982
180 2 -0.874771 11.1807 12.7094 7.42011 -0.00648161 -0.0130809 0.00363789
181 2 -0.95845 13.1456 9.19863 5.94229 0.00132657 -0.00199346 -0.000567303
182 2 -0.937188 12.9228 10.9108 7.88545 -0.002933 0.000160559 0.00742046
183 2 -0.868496 13.0265 12.862 1.84274 0.00582246 -0.00127886 -0.000457653
184 2 -0.946343 10.9796 12.8091 14.7898 0.00889676 0.00220608 0.00595259
185 2 -0.933211 12.5383 10.934 14.4432 -0.00151187 0.00108404 0.00201219
186 2 -0.96593 9.64556 9.29905 9.25426 -0.00725882 -0.00176544 -0.00143682
187 2 -0.896937 9.17837 10.9622 11.1544 0.00673538 -0.00329661 -0.000136175
188 2 -0.946597 11.3065 9.58059 11.1209 -1.78526e-05 0.000132435 0.000844631
189 2 -0.908706 11.0519 11.4091 9.55586 0.00581712 0.0047651 0.00336884
190 2 -0.909933 9.53153 12.9418 12.7924 0.00207212 0.00787477 -0.000967344
191 2 -0.90639 13.008 8.99308 12.9448 0.000113283 -0.00221235 -0.0056325
192 2 -0.850643 13.1196 12.9549 9.1607 -0.0013516 -0.00810675 0.00458291
193 2 -0.654025 14.9105 13.2396 3.23196 -0.00142996 -0.00541145 0.00205543
194 2 -0.594786 5.00605 5.0445 12.3591 0.000613372 -0.00505516 -0.00466366
195 2 -0.606639 6.77696 6.90847 13.6864 0.000167391 0.000444512 -0.000866161
196 2 -0.610457 6.8007 13.8335 13.8655 0.000907929 0.00490113 0.000596753
197 2 -0.653909 15.7125 5.44469 8.36722 -0.00202487 -0.000402254 0.00505111
198 2 -0.640929 8.41496 15.5312 4.95649 0.00118633 0.00396869 -0.000851847
199 2 -0.623072 4.83805 8.49743 1.56792 0.00447147 0.000460345 -0.00163504
200 2 -0.64329 10.2559 13.878 3.38761 0.00368453 0.000616749 0.00299343
201 2 -0.594613 1.80408 1.39276 11.795 -0.0054388 0.00579608 -0.00232707
202 2 -0.579682 10.3387 6.94167 3.30882 0.00200912 0.00358688 -0.0017131
203 2 -0.664615 12.3096 15.4093 15.7451 -0.000914897 0.00358882 0.00771579
204 2 -0.683326 2.43293 7.70978 9.20934 -0.0019189 0.00104391 0.00537071
205 3 0.482632 15.5196 12.541 3.15227 0.0151189 -0.0181167 0.0110317
206 3 0.51735 13.9392 13.6039 5.42041 -0.0132451 0.00255825 0.00453825
207 3 0.387176 5.00293 5.3992 13.2665 0.0146012 -0.0117087 -0.0238951
208 3 0.396397 4.89764 4.0758 12.4179 0.0330152 -0.015221 0.0184193
209 3 0.420404 6.5453 7.76736 14.0202 -0.00792753 -0.0132801 0.00235181
210 3 0.425186 6.92657 7.0065 12.7394 -0.00992306 0.0179768 0.00805174
211 3 0.40313 6.72956 13.1706 14.5671 0.00306339 0.0151743 -0.00997673
212 3 0.377509 5.9023 14.1687 13.7827 0.0167853 -0.000983106 -0.0161563
213 3 0.423541 1.64191 5.03154 7.52442 -0.0173868 0.0202663 0.00857935
214 3 0.418476 2.18378 4.90402 8.98465 0.0140356 0.0123629 -0.0129757
215 3 0.430453 8.59757 15.4173 5.87416 0.0073479 0.00990006 -0.000145552
216 3 0.457558 8.70846 2.2542 4.79706 -0.00132451 -0.000545807 -0.00212412
217 3 0.397643 3.84191 8.60012 1.57435 0.0125211 -0.00449165 0.0145101
218 3 0.390734 5.15682 9.37655 1.65672 0.00277004 0.00383753 0.00388471
219 3 0.432812 9.36591 14.1034 3.71082 -0.00941881 0.0130212 -0.0275776
220 3 0.435821 10.216 12.9582 3.20788 0.012923 0.000490779 0.003847
221 3 0.40342 15.7836 14.5643 11.7866 -0.00914311 0.0234192 -0.0129222
222 3 0.392701 1.59012 1.70119 10.9019 0.0075027 -0.022499 0.0067105
223 3 0.428284 9.7555 7.5871 2.95004 -0.00416867 0.00358932 -0.0215813
224 3 0.410275 11.1617 7.00289 2.7917 0.0111065 -0.00822595 0.000153161
225 3 0.422405 12.5301 15.655 14.8157 -0.0126495 0.00509808 -0.0178286
226 3 0.415694 11.4761 14.8344 15.64 0.0123017 0.0175212 -0.0152017
227 3 0.460951 2.27975 7.05215 8.48443 0.0100765 0.00310926 0.0117496
228 3 0.478048 2.03005 8.44995 6.66938 -0.0107343 0.0144168 -0.0183745
ITEM: TIMESTEP
20000
ITEM: NUMBER OF ATOMS
228
ITEM: BOX BOUNDS pp pp pp
1.5195510116380611e+00 1.5640448988361785e+01
1.5195510116380611e+00 1.5640448988361785e+01
1.5195510116380611e+00 1.5640448988361785e+01
ITEM: ATOMS id type q x y z vx vy vz
1 1 1.71383 1.65235 1.68254 15.3622 0.000411972 -0.000702931 0.000488914
2 1 1.86851 3.27079 3.28918 3.15208 -0.00210958 0.00277799 -0.000278958
3 1 1.80341 15.6556 4.96871 4.8899 0.00250816 0.00325777 -0.00408889
4 1 1.73593 3.52124 6.68276 6.3784 0.00138891 0.00343009 -0.000390983
5 1 1.82198 4.908 15.5569 4.94098 0.00307851 -0.00233733 -0.00365889
6 1 1.95344 6.69319 3.1539 6.72247 -0.00177933 -0.000324141 0.00659769
7 1 1.80141 4.93287 5.04362 15.4164 0.000465506 -0.00222822 0.00529368
8 1 1.76195 6.74392 6.7128 3.15014 -0.00227627 0.00245646 0.00188214
9 1 1.77537 15.5089 1.63928 8.54849 0.00355948 -0.000853201 0.00304657
10 1 1.77988 3.33361 3.36185 10.2342 0.000314703 0.00234952 0.00073482
11 1 1.78523 15.5666 5.06921 11.9654 -0.00314412 0.00283018 0.000754555
12 1 1.81205 3.08424 6.88621 13.7893 0.00426284 -0.00214492 0.000323043
13 1 1.74135 5.14367 1.57403 11.9443 0.00258777 -0.005957 -0.00145493
14 1 1.73146 6.8681 3.29791 13.9094 -0.00203905 -0.00127623 0.00436802
15 1 1.87916 5.12735 5.05239 8.43912 -0.00158189 0.0014011 0.00118713
16 1 1.7246 6.80489 6.78181 10.2463 -0.00158114 -0.00580834 0.00203327
17 1 1.68836 15.6635 8.6755 1.63539 -0.000444595 0.000888414 0.00190553
18 1 1.66131 3.26406 10.2942 3.55586 -0.00221367 -0.000544573 -0.000298993
19 1 1.59337 1.58738 11.8609 5.66771 -0.00196153 0.0016868 0.000562501
20 1 1.83565 3.25057 14.0525 6.87852 0.00063179 -0.000710162 -0.00611048
21 1 1.73812 5.36826 8.6635 5.02402 0.00184977 0.000671322 0.000945441
22 1 1.8524 6.7816 10.4216 6.99047 -0.00402875 0.00187532 -0.000106722
23 1 1.61795 4.90673 11.988 1.59227 -0.00408995 -0.0018639 -0.000402087
24 1 1.79374 6.74767 13.6212 3.40543 0.00275526 -0.0040496 -0.000108614
25 1 1.506 15.3958 8.72816 9.53461 -0.000347298 0.00173841 0.00218008
26 1 1.80969 3.3237 10.7367 10.4538 -0.000388136 -0.00242685 0.000455826
27 1 1.77927 15.6272 12.3232 12.2227 0.00332399 0.00159567 -0.00108283
28 1 1.6861 3.50126 13.9929 13.8454 0.00286437 0.00486675 0.00343357
29 1 1.72107 4.88194 8.58897 11.9412 -0.000679799 -0.000223707 -0.00161659
30 1 1.72488 6.60884 10.3376 13.7663 0.000654145 0.00151865 -0.00119616
31 1 1.78194 5.0532 12.3149 8.65442 0.000666173 -0.00512139 0.00070952
32 1 1.78339 7.0146 13.9195 10.3291 0.000287675 0.00257144 0.002931
33 1 1.75316 8.36197 15.4788 1.60876 0.000910593 0.00498696 -0.00040063
34 1 1.75911 10.2534 3.22726 3.21641 0.00117727 0.000275171 -0.00053634
35 1 1.82971 8.4877 4.92984 5.00604 -0.0050468 -0.00272359 0.00115656
36 1 1.83333 10.1349 6.89213 6.73759 -0.00456558 0.00443739 -0.00105881
37 1 1.83423 12.1381 15.6038 4.96438 -0.00326271 0.000294162 0.000497252
38 1 1.84129 13.8055 3.3054 6.6785 0.000803469 -0.000124033 0.00381125
39 1 1.77534 12.0618 5.00938 15.5981 -0.00221629 -0.00407465 -0.000276903
40 1 1.74427 13.8153 6.74528 3.21271 0.00532771 0.00320104 -0.00333912
41 1 1.90323 8.57363 15.5843 8.36978 0.00145968 0.000521912 0.00216779
42 1 1.82133 10.3224 3.21419 10.0817 0.000426906 -4.69523e-05 3.03945e-05
43 1 1.65604 8.61928 4.90525 11.9517 -0.00196281 0.00467547 0.000171096
44 1 1.73297 10.2338 6.79392 13.8672 -0.00187696 0.00309736 -0.00120195
45 1 1.74989 11.9564 1.52081 12.0641 -0.00306918 0.00221704 0.000169469
46 1 1.74455 13.7667 3.31943 13.7421 0.00264885 0.000554824 0.00530235
47 1 1.73321 11.962 5.07407 8.29786 0.00105508 -9.50147e-05 0.00161384
48 1 1.70179 13.3496 6.63201 10.5089 0.000624599 0.00171858 0.000875162
49 1 1.64944 8.46101 8.64107 15.5567 0.000818234 0.00293806 0.0053273
50 1 1.73871 10.3538 10.1572 3.29356 0.00251627 -0.0012967 -0.000312922
51 1 1.76423 8.68569 11.9202 5.16375 0.00271615 -0.0043329 -0.000539073
52 1 1.87757 10.4627 13.7807 6.78891 -0.00255434 0.00411233 0.00022795
53 1 1.76193 12.1948 8.5546 5.15186 0.00311798 0.0021432 4.02098e-05
54 1 1.75967 13.9169 9.99017 7.14169 0.000800168 0.00120732 -0.00109063
55 1 1.6986 11.9098 11.8695 15.4135 0.0039396 0.00154131 0.000370823
56 1 1.42245 13.7438 13.9733 2.58011 -0.0027784 -0.00388402 -0.00366743
57 1 1.86709 8.54092 8.62335 8.65344 0.00289047 -0.00446458 0.00280608
58 1 1.89954 10.4069 10.3394 10.3389 -0.000650309 0.00286461 0.00119355
59 1 1.82297 8.56867 11.9753 12.0172 0.00176978 0.00150742 -0.00524037
60 1 1.69868 10.1677 13.8166 13.81 -0.000202788 0.000117839 -0.00344325
61 1 1.74198 11.9118 8.67722 12.2643 -0.000952686 -0.00409037 -0.00282651
62 1 1.75425 13.9841 10.3195 13.8017 0.00043156 0.00260592 0.00418985
63 1 1.91598 12.2288 12.0671 8.54031 -0.00290397 0.00128096 0.00179296
64 1 1.7585 13.8343 13.9419 10.3465 0.00142574 -0.000593544 -0.00844995
65 2 -0.898143 2.39492 2.23028 2.4938 -0.00542586 0.00111937 0.0012984
66 2 -0.920943 2.63318 15.1889 14.3716 0.00418622 -0.00151468 -0.00410489
67 2 -0.855349 14.8156 2.74434 14.7441 -0.00510302 -0.00108741 -0.0011531
68 2 -0.777751 14.6402 14.7725 15.6337 0.00757649 0.000799931 0.00163763
69 2 -0.927712 2.24255 4.16822 3.78543 0.00084654 -0.0016034 -0.000709382
70 2 -0.932332 4.20312 2.58365 4.16118 0.00497397 0.0023936 -0.0078721
71 2 -0.93881 3.98586 4.07347 2.02197 -1.3209e-06 0.00104249 0.00526065
72 2 -0.971581 2.61929 5.62492 5.76691 -0.00155751 0.00330828 0.000344226
73 2 -0.940973 14.8643 3.96231 5.79817 0.000453768 -0.000954835 0.00813093
74 2 -0.905681 14.806 6.0484 4.18437 -0.00085026 -0.00410454 -0.00162759
75 2 -0.923055 4.3798 6.06047 7.51381 0.0046215 0.00494782 -0.00579636
76 2 -0.902147 4.40195 7.51506 5.43383 0.000881471 0.00455939 -0.00393983
77 2 -0.795525 2.72087 7.90774 6.86041 -0.000592095 -0.00423573 -0.00183934
78 2 -0.958734 5.79739 2.17391 5.984 -0.00106987 -0.000585356 -3.45412e-06
79 2 -0.94161 3.87902 14.7196 5.67294 -0.00132039 0.00238029 0.00404125
80 2 -0.927548 5.68956 14.5163 4.06427 0.00084033 -0.00959004 0.001398
81 2 -0.979044 5.88132 3.96443 7.7065 -0.00376862 -0.00782332 0.00142349
82 2 -0.961858 7.46911 4.07543 5.73928 -0.00504628 -0.00109929 0.00135947
83 2 -0.981429 7.76033 2.46123 7.52718 -0.00435244 -0.000227673 -0.00341263
84 2 -0.892854 5.69737 5.85817 2.35721 0.000768118 -0.000396389 -0.0019986
85 2 -0.927812 4.1329 5.92644 14.4054 0.00269364 0.000864941 0.00270616
86 2 -0.944303 6.04448 4.33367 14.609 0.00403869 0.00700346 -0.00553961
87 2 -0.864737 6.34291 7.86739 4.03185 -0.00365785 -0.0014801 0.00310283
88 2 -0.862528 7.57907 5.66299 3.97793 -0.000586734 -0.000890191 0.00023644
89 2 -0.834829 7.64839 7.51347 2.17822 0.00394937 -0.00319098 -0.0014383
90 2 -0.877454 2.56796 2.42633 9.20601 0.00327258 0.00455804 0.00467839
91 2 -0.911467 2.11858 14.944 7.47674 0.0052786 -0.00270784 0.00209136
92 2 -0.928629 14.6029 2.65261 7.82105 -0.00406253 -0.00377962 0.00558357
93 2 -0.898882 14.5887 15.0737 9.59169 0.000652338 0.00311637 0.00339178
94 2 -0.939326 2.33565 4.25449 10.957 -0.0010558 0.00258752 -0.00280172
95 2 -0.971504 4.24277 2.52735 11.1834 0.00412674 -0.00893165 -0.00412112
96 2 -0.950506 4.06137 4.35909 9.32516 0.00023515 0.00244972 -0.00295618
97 2 -0.90679 2.07629 5.99669 13.045 -0.0024856 -0.00258867 -0.00194887
98 2 -0.843263 14.6852 4.06131 12.7029 -0.00220649 0.00459364 0.00269831
99 2 -0.871627 14.4051 5.77849 11.234 -0.00133207 0.0129136 0.0010128
100 2 -0.923686 2.50617 7.71721 14.9286 -0.00665769 0.00121355 0.000817415
101 2 -0.892715 3.79951 7.7568 12.7271 -0.00441329 0.00366037 0.00380389
102 2 -0.915765 5.83527 2.44705 13.0474 0.00117375 0.00153916 -0.00216497
103 2 -0.922865 4.41682 14.6165 12.7517 0.000554266 -0.00106904 -0.00670975
104 2 -0.918213 6.33678 14.9531 11.2428 0.000156183 -0.00636874 -0.00312195
105 2 -0.884936 7.42242 2.34375 15.0191 -0.00527288 -0.0048715 -0.00121216
106 2 -0.894102 7.97545 3.89481 13.0169 -0.00306238 -0.00207997 0.00132027
107 2 -0.920429 6.18819 5.82067 9.15796 0.00549146 0.00152582 0.00245477
108 2 -0.904755 5.79863 7.77284 11.0107 0.00277308 0.00329891 -0.00516807
109 2 -0.883255 7.60507 5.93193 11.2707 -0.00373536 0.00162081 0.000686635
110 2 -0.914678 7.8361 7.72263 9.62798 -0.00306144 -0.00329351 0.00242996
111 2 -0.915517 2.4763 9.23202 2.74642 0.00680844 -0.00513347 -0.00139314
112 2 -0.857636 14.5602 7.69861 2.20737 -0.00294571 -0.00147359 0.00473966
113 2 -0.901155 14.9802 9.73606 14.8638 0.00453355 -0.00100967 -0.00182802
114 2 -0.858689 2.36285 11.2768 4.34101 0.00325206 0.000255596 0.000121679
115 2 -0.887206 4.52518 9.76388 4.27607 -0.00677758 0.00250268 0.00131909
116 2 -0.880571 3.9431 11.0522 2.34583 -0.00330977 0.00194159 -0.00253363
117 2 -0.882475 2.60237 12.7847 6.41786 -0.00319472 0.00337938 -0.00170525
118 2 -0.865869 15.1556 10.5849 6.37385 0.000560892 0.00331297 0.00194661
119 2 -0.740139 14.4694 12.7552 5.48978 -0.00477816 0.00214368 0.00230636
120 2 -0.859391 4.268 13.503 7.90763 0.000963854 0.00407512 0.00331248
121 2 -0.944309 6.11604 9.41534 6.09952 0.00337955 0.00176257 0.00333794
122 2 -0.918337 5.90504 11.5493 7.54565 -0.000584595 0.00490605 0.00247839
123 2 -0.894805 7.94379 10.9409 6.14672 0.00421272 -0.0104888 -0.00191894
124 2 -0.905338 7.43512 9.56229 8.121 -0.000231594 0.00565753 -0.00138874
125 2 -0.889511 6.08614 12.6495 2.4089 -0.00318637 0.000590466 -0.00194923
126 2 -0.913334 4.27836 13.1818 14.8745 0.000758529 0.0136666 -0.00525307
127 2 -0.877551 5.52548 11.0605 14.5835 0.00561827 -0.00711272 0.000147013
128 2 -0.948293 7.57981 14.4048 2.38466 -0.00465135 -0.00614801 0.000420971
129 2 -0.9331 7.65109 12.8386 4.3807 0.0023899 0.000140885 -0.00434902
130 2 -0.856927 2.02608 10.0348 10.0689 -0.000961402 0.00106542 -0.000237453
131 2 -0.781021 14.2821 7.83907 10.1924 0.00273801 -0.000773807 0.00275936
132 2 -0.815689 14.6295 9.0528 8.20886 0.000140919 0.00145454 0.00198486
133 2 -0.839482 2.68509 11.8819 11.2683 0.00343565 2.18975e-05 0.00526215
134 2 -0.907355 4.20036 9.84349 11.3436 -0.00196107 0.000635236 0.00173161
135 2 -0.95804 4.08033 11.4153 9.32411 0.00487279 -0.00145454 -0.00368897
136 2 -0.873156 2.335 13.0334 13.271 0.0029751 -0.000275268 -0.00135508
137 2 -0.91136 14.7703 11.2074 12.8273 -0.00436936 -0.00285185 -0.000277965
138 2 -0.930047 14.7939 13.3142 11.3845 -0.0016952 -0.00527226 0.000206748
139 2 -0.885559 5.88115 9.21136 13.0022 -5.89736e-05 -0.00329601 -0.0030793
140 2 -0.915549 7.54341 9.60359 14.8071 0.00581695 -0.00071238 0.00649828
141 2 -0.87017 7.38424 11.1389 12.6947 -0.0074363 0.000580918 0.00329335
142 2 -0.891822 5.90502 13.01 9.75432 -0.00232817 0.000328457 -0.00236092
143 2 -0.900373 7.57595 14.6527 9.08135 -0.00452784 -0.00372633 0.00213379
144 2 -0.91377 8.07963 13.1311 11.147 0.00088578 0.00102497 0.0016019
145 2 -0.924759 9.12045 2.37522 2.5494 0.00223762 -0.000922225 0.00740219
146 2 -0.919036 9.33109 14.6708 14.8474 0.00375754 0.00255777 0.00333522
147 2 -0.952248 9.56313 4.11235 4.22582 0.00288007 -0.0088474 0.00414983
148 2 -0.942212 11.1274 2.26806 4.06417 -0.00203365 -0.00189798 0.00263126
149 2 -0.908129 11.1778 3.95703 2.18066 0.00248635 -0.000468932 -0.00291265
150 2 -0.89815 9.19338 5.93743 5.93598 0.00555379 -0.00551992 0.00391496
151 2 -0.888608 10.8641 6.00608 7.73816 0.00036541 0.00315857 -0.00272933
152 2 -0.902262 11.265 7.62136 6.00578 0.00384671 0.00223047 0.000663426
153 2 -0.910059 9.19998 7.86392 7.5195 0.00431915 -0.0036171 -0.00397594
154 2 -0.96811 12.8379 2.41575 5.89059 -0.000134885 -0.00162472 -0.000599505
155 2 -0.955592 11.3778 14.5242 5.79654 0.00299003 -0.00568788 -0.000171204
156 2 -0.800607 13.1581 14.8215 4.2174 -0.00659208 0.000256072 0.00186571
157 2 -0.883902 12.9226 4.44284 7.22523 0.00270657 -0.000154289 0.00392484
158 2 -0.945273 12.8937 5.71855 2.51544 0.00320979 0.000152251 -0.00210592
159 2 -0.924456 11.1643 6.1225 14.8544 0.00658317 -0.00531544 0.00149041
160 2 -0.887786 12.943 4.40317 14.5019 -0.00198766 0.000204683 0.00244607
161 2 -0.889493 12.8711 7.62096 4.07537 0.00270205 -0.00167213 -0.00540237
162 2 -0.978994 9.49758 2.18732 9.29876 -0.00288056 0.00109632 -0.00180128
163 2 -0.931883 9.46546 14.5448 7.67312 -0.00361931 0.00486737 -0.00415775
164 2 -0.89631 9.48224 4.27373 10.8499 -5.87479e-05 0.0066809 -2.47069e-05
165 2 -0.874716 11.258 2.49575 11.047 -0.00835421 0.000749976 -0.00131649
166 2 -0.873861 11.3495 3.88014 9.13991 -0.0042324 -0.00836444 -0.00651373
167 2 -0.807053 9.65913 5.77381 12.7863 0.00303119 0.00413314 -0.00369394
168 2 -0.87274 9.11769 7.6299 14.5586 0.00653104 0.0019539 -0.00438844
169 2 -0.892391 10.917 7.98819 13.182 -0.00010433 -0.000704584 -0.000805551
170 2 -0.990087 12.9084 2.28002 13.0193 -0.00706379 -0.0012071 -0.000254193
171 2 -0.922573 10.9146 14.8169 12.8629 0.00280571 -0.00136188 0.00646399
172 2 -0.922135 12.7925 14.7184 11.1313 -0.00468855 -0.00297525 0.00217577
173 2 -0.853221 12.7531 6.05648 9.1709 -0.000604484 -0.00546599 -0.00201878
174 2 -0.814146 12.3338 7.39177 11.4303 0.00395858 -0.00756617 -0.002163
175 2 -0.90013 9.32382 9.17623 2.63281 3.22938e-05 0.00325192 0.00145498
176 2 -0.90854 9.46318 11.2527 4.03692 0.00316226 0.00407224 -0.00127763
177 2 -0.904744 11.3432 9.58003 4.35125 -0.00218821 0.00295831 -0.00182997
178 2 -0.964429 11.0684 10.8751 2.2002 0.00195705 0.00112939 0.0034097
179 2 -0.931708 9.65398 12.7224 6.02209 -0.00734309 -0.000719359 0.00891631
180 2 -0.950459 11.3891 13.066 7.74976 -0.00164864 -0.000945918 -0.00439913
181 2 -0.923952 13.279 9.21575 6.0053 0.00350999 0.00344551 -0.00227072
182 2 -0.979563 13.0199 10.9557 7.88872 1.88696e-05 -0.00357394 -0.00071478
183 2 -0.83061 12.8134 12.7975 2.16095 0.000211253 0.00106883 -0.0061491
184 2 -0.913442 11.0746 12.9507 14.7306 -0.00397542 0.00291632 0.000723212
185 2 -0.88565 12.8296 11.2191 14.358 -0.00197929 0.00513144 -0.00310605
186 2 -0.905956 9.75701 9.32189 9.35172 -0.00584052 -0.00555448 -0.00166643
187 2 -0.976932 9.33998 10.9823 11.1214 0.00702439 -0.00343714 -0.0120824
188 2 -0.962394 11.3624 9.71448 11.321 0.00189037 -0.000802917 -0.00300925
189 2 -0.910313 11.2612 11.3719 9.50246 -0.00365936 -0.00256221 0.00106722
190 2 -0.895844 9.42697 12.6643 13.0522 0.00380869 0.00822036 -0.00199353
191 2 -0.850871 13.2284 9.22585 13.0453 -0.0135724 0.00143626 0.00166993
192 2 -0.900321 13.269 12.8915 9.3021 0.000271436 0.000843466 -0.00243242
193 2 -0.714187 15.0301 13.262 3.05792 0.00465633 -0.000171482 -0.000264208
194 2 -0.60653 4.97403 5.0374 12.0958 -0.000104365 0.0011484 0.0104834
195 2 -0.603516 6.70336 6.74842 13.572 0.0063229 0.00220765 -0.0012856
196 2 -0.601621 6.81429 13.6401 13.9644 -0.00495944 -0.00437189 0.00172875
197 2 -0.64801 1.5267 5.38839 8.42059 -0.0027272 -0.00720463 0.00822659
198 2 -0.617418 8.73604 15.4628 4.95698 -0.000769565 0.0041632 0.00105201
199 2 -0.622671 4.95456 8.48416 1.57098 0.00416903 0.00300477 -0.00594166
200 2 -0.627455 10.1806 13.572 3.23397 -0.00763403 -0.00907163 -0.00593864
201 2 -0.583014 1.40569 1.69989 11.8282 -0.00374097 0.00286108 -0.0101903
202 2 -0.579391 10.3191 6.8361 3.36671 0.000943163 -0.00637767 -0.0010943
203 2 -0.62372 12.1147 15.2638 1.66376 -0.000731668 -0.00287923 -0.00759862
204 2 -0.66428 2.49431 7.69148 9.34374 -0.00291565 0.00281333 -0.00132141
205 3 0.471705 15.8582 12.806 3.00304 -0.0276254 0.0202751 -0.00308611
206 3 0.512766 14.0171 13.4507 4.99035 0.035185 -0.00239963 0.0127913
207 3 0.433003 5.44008 5.39747 12.9049 0.0138237 0.0144561 -0.0130028
208 3 0.410245 4.98473 4.07846 12.2463 -0.014487 -0.00715229 0.00255641
209 3 0.436677 6.73115 7.61867 14.0697 -0.0109107 -0.0117008 0.0167234
210 3 0.404923 6.71992 7.04243 12.6549 0.0241191 0.0295888 -0.013312
211 3 0.433579 6.21579 13.599 14.7212 0.0100213 0.0258977 -0.0152045
212 3 0.421686 6.39825 14.2208 13.3571 0.00403851 0.0149099 0.00640585
213 3 0.411608 1.51904 4.94161 7.53928 0.0143447 0.00111859 0.0285114
214 3 0.438995 1.89318 4.77021 9.01853 0.00725891 -0.00100772 0.00885962
215 3 0.399001 9.63687 15.1221 4.73548 0.00920494 -0.0184311 -0.0196068
216 3 0.408737 8.69445 2.19654 4.53324 -0.00991853 -0.0185877 -0.0094088
217 3 0.441902 4.07296 8.24727 1.85868 -0.0034388 -0.00380891 -0.000168288
218 3 0.439564 5.00626 9.44188 15.6542 0.0054532 -0.00588368 0.0129115
219 3 0.392541 9.20371 13.4664 3.3774 0.0191894 -0.00603954 0.00354239
220 3 0.401873 10.3024 12.6931 2.77983 0.0125032 -0.00924873 0.00366976
221 3 0.419036 15.7308 15.2087 12.5458 0.0188159 0.0138474 0.00451207
222 3 0.420972 14.5826 1.65104 11.6557 0.0122948 -0.00566413 0.0291245
223 3 0.42092 9.75132 7.20661 2.71679 -0.00634548 -0.00533213 0.00238689
224 3 0.404637 11.2541 6.91663 2.98884 0.0210062 -0.0150772 -0.004338
225 3 0.396034 12.0084 15.4465 14.8177 0.00378394 -0.00393532 -0.00290005
226 3 0.408357 11.2608 14.7043 1.89231 0.000810298 -0.00324613 0.00830121
227 3 0.47078 2.34341 7.03167 8.64359 -0.00927318 0.00822523 -0.0106595
228 3 0.476777 2.22427 8.71447 6.64412 0.0109919 -0.000788263 0.00784367
