LAMMPS data file via write_data, version 29 Aug 2024, timestep = 20000, units = real

228 atoms
3 atom types

1.519551011638061 15.640448988361785 xlo xhi
1.519551011638061 15.640448988361785 ylo yhi
1.519551011638061 15.640448988361785 zlo zhi

Masses

1 28.0855
2 15.9994
3 1.008

Atoms # charge

2 1 1.868513730035293 3.2707887131597433 3.2891771798503795 3.152081231490734 0 0 0
4 1 1.735929869489089 3.521242942447655 6.682758816729331 6.378401345858538 0 0 0
6 1 1.953439302373717 6.693186028863547 3.1539017942019214 6.722467286737054 0 0 0
8 1 1.761947482913739 6.743921778529967 6.712802347451228 3.15014114279394 0 0 0
65 2 -0.8981426348300532 2.3949211785573987 2.230280134477322 2.4938008460142465 0 0 0
69 2 -0.927712408022218 2.24254660713279 4.1682162581476305 3.7854305748895083 0 0 0
70 2 -0.9323317159577296 4.20312225429867 2.5836492710385635 4.161182603864878 0 0 0
71 2 -0.9388095247817174 3.98585613746947 4.07347075921905 2.021969494338759 0 0 0
72 2 -0.9715809966637838 2.6192866696524426 5.6249242619336615 5.766913174634539 0 0 0
75 2 -0.9230549293142136 4.379797842903066 6.060466630328328 7.513810643498842 0 0 0
76 2 -0.9021473910168099 4.401945759390772 7.515063144201394 5.433825561066056 0 0 0
77 2 -0.7955251165607882 2.720870542546494 7.907740964886323 6.8604063190537765 0 0 0
78 2 -0.958734171009164 5.797385985938619 2.173906806823685 5.984003582667076 0 0 0
81 2 -0.979043743718204 5.881318199790415 3.964434650337127 7.706500013166446 0 0 0
82 2 -0.9618578632932737 7.4691111079661034 4.075430572603629 5.739284743266102 0 0 0
83 2 -0.9814294299623901 7.760330932257074 2.461231851204939 7.527183519023939 0 0 0
84 2 -0.8928539356281223 5.697374122885258 5.858174433836328 2.3572144069954635 0 0 0
87 2 -0.8647367838657747 6.3429068427596675 7.867387989628591 4.031849714254891 0 0 0
88 2 -0.8625277550177127 7.579068114020562 5.662988178655611 3.9779257231958027 0 0 0
89 2 -0.8348286293435848 7.648385739994231 7.5134714543755345 2.17822075503055 0 0 0
15 1 1.879164175097828 5.127345740095919 5.052387923918442 8.439116869749375 0 0 0
35 1 1.829710309403313 8.487695767672331 4.929843140630371 5.00604315177493 0 0 0
197 2 -0.648009857397052 1.5266961905236374 5.388388547334982 8.420587600166602 0 0 0
228 3 0.4767765188786734 2.224274504174355 8.714474155152018 6.6441219522502974 0 0 0
217 3 0.4419017150947575 4.072962241485855 8.247272528523109 1.8586812261656247 0 0 1
57 1 1.86708502470648 8.540916117322887 8.623353951994599 8.653437839127118 0 0 0
5 1 1.821981026053425 4.908002110910708 15.556890884468944 4.940983149631014 0 0 0
227 3 0.4707799184436363 2.3434065771010055 7.031667121967136 8.643594922350019 1 0 0
3 1 1.803413933183066 1.5346774236466771 4.968711886357703 4.889902461485324 1 0 0
213 3 0.4116078095140832 15.639935527108445 4.941607405854686 7.539281905937879 -1 0 0
216 3 0.4087370859317241 8.694452763976049 2.196536226357778 4.533242297409151 0 1 0
34 1 1.759111375244578 10.25340777551135 3.2272615059198086 3.216406214500549 0 0 0
36 1 1.833330811020708 10.134923579073572 6.892128495686206 6.737590196849562 0 0 0
38 1 1.841289721481009 13.805510073040555 3.305396378565721 6.678498275526734 0 0 0
40 1 1.744265730674474 13.815337403740678 6.7452824004787875 3.2127079170953765 0 0 0
73 2 -0.9409734996879875 14.86431344121843 3.9623116739833044 5.798171554837511 0 0 0
74 2 -0.9056809552230887 14.805955158734026 6.048403760258677 4.184365636687298 0 0 0
92 2 -0.9286287163046337 14.60292446766798 2.6526066254178238 7.821052483518436 0 0 0
112 2 -0.8576361514454119 14.560189539348011 7.6986116427906515 2.2073739890269435 0 0 0
145 2 -0.9247594145605861 9.12045062141112 2.3752192666434975 2.549401851098536 0 0 0
147 2 -0.9522480288069672 9.563127576421996 4.112348099831472 4.225820555115894 0 0 0
148 2 -0.9422116234041015 11.127368943117641 2.2680579140838564 4.064173320353275 0 0 0
149 2 -0.9081286121881484 11.177769794981895 3.9570254045847753 2.180661829760021 0 0 0
150 2 -0.8981501498580372 9.193382225230767 5.937432176199624 5.935978726691493 0 0 0
151 2 -0.8886084934599822 10.864141262927042 6.006082003582589 7.738163873347392 0 0 0
152 2 -0.9022621197965025 11.264972744645 7.6213552990186635 6.00578402167064 0 0 0
153 2 -0.9100591334282953 9.199983565457178 7.8639193188356975 7.5194974066901175 0 0 0
154 2 -0.9681099546276862 12.837937023436071 2.4157541805819855 5.8905857809457425 0 0 0
157 2 -0.8839023101913843 12.922563978405641 4.44283785693987 7.2252303697076785 0 0 0
158 2 -0.945272689469161 12.893676369389826 5.718545075764502 2.5154396397403724 0 0 0
161 2 -0.889492890554937 12.8710711431078 7.620962148446131 4.07537183772443 0 0 0
202 2 -0.5793907213551598 10.31908857159637 6.836104495920847 3.3667102140760097 0 0 0
223 3 0.4209197459352315 9.751318387200536 7.206611672682513 2.7167928834674275 0 0 1
224 3 0.404637086699829 11.254087046445864 6.916625996630608 2.988841451553414 0 0 1
47 1 1.733214695465381 11.962035342852742 5.074071879814137 8.297863003594234 0 0 0
53 1 1.761925655627165 12.19480052462877 8.554602981530063 5.151859022230234 0 0 0
198 2 -0.6174183204478411 8.736040995059263 15.46277195891506 4.956982903172822 0 0 0
33 1 1.753164591097567 8.361974294336274 15.478791655685063 1.6087627571698138 0 0 0
215 3 0.3990010454260121 9.636873690219014 15.122100315769098 4.735484046043435 0 0 0
21 1 1.738119650697575 5.368264701308441 8.663495241113601 5.024017060112721 0 0 0
18 1 1.66131134517293 3.264056095370406 10.294231265642805 3.5558618174235552 0 0 0
20 1 1.835651532334641 3.25057201211595 14.052470248189806 6.87852492642164 0 0 0
22 1 1.852404827086393 6.781597522048823 10.421568008416417 6.990465613038382 0 0 0
24 1 1.793737937469748 6.74766979595188 13.621163984588277 3.405430460066137 0 0 0
79 2 -0.9416103253894136 3.879016633203756 14.719644990196114 5.67294331721974 0 0 0
80 2 -0.9275483965385762 5.689559447957388 14.516270044314128 4.0642711233729605 0 0 0
91 2 -0.9114666505600485 2.1185833175099327 14.943975229287926 7.476744814648177 0 0 0
111 2 -0.9155174304714572 2.4762981335056 9.232022707749977 2.7464180724733263 0 0 0
114 2 -0.8586892198076673 2.3628477219919284 11.276764223850776 4.34101305481239 0 0 0
115 2 -0.887205654810684 4.525180721472128 9.763876530011338 4.276066250519813 0 0 0
116 2 -0.8805713605546841 3.9430972663423485 11.052246137852778 2.3458259621461255 0 0 0
117 2 -0.8824751960926068 2.6023717001880753 12.784717070283559 6.417861096843421 0 0 0
120 2 -0.8593913725769503 4.2680047011463085 13.503045138041465 7.907626968351044 0 0 0
121 2 -0.9443090721333043 6.116038910929476 9.415335974639392 6.099524154309675 0 0 0
122 2 -0.9183371627018818 5.905041811739927 11.549294178121254 7.545648581266876 0 0 0
123 2 -0.8948048316443714 7.943791575953617 10.940881475444467 6.146718599164481 0 0 0
124 2 -0.9053378611280398 7.435122977663127 9.562290215285357 8.120997139237325 0 0 0
125 2 -0.889510911643045 6.086135924579614 12.649454026080493 2.4088967739698117 0 0 0
128 2 -0.9482928575125744 7.57981229256936 14.404775840491904 2.384659765863798 0 0 0
129 2 -0.9331003025482968 7.651088554837952 12.838648916209783 4.380696214835117 0 0 0
51 1 1.764230018926097 8.685686163738186 11.9201905795694 5.163751851012124 0 0 0
23 1 1.617953723420771 4.906725933648373 11.987961298170754 1.5922687117352987 0 0 0
9 1 1.775366681083419 15.508895012353634 1.6392807094328055 8.548489496398151 0 1 0
17 1 1.688357247015814 1.5426246449048833 8.6755026715057 1.6353913335575627 1 0 0
19 1 1.593368326403693 1.5873759048763834 11.860930086979826 5.6677135370383365 0 0 0
226 3 0.4083571244530758 11.260829906626663 14.704270409788437 1.8923145270745059 0 -1 1
205 3 0.4717047052082181 1.7373399359540667 12.805991222818706 3.003043178258766 1 0 0
37 1 1.834227031239356 12.138094018152003 15.603759619612667 4.9643805496407625 0 0 0
50 1 1.738705152930889 10.353822430990062 10.157213331229642 3.2935603136151244 0 0 0
52 1 1.877572691615429 10.462728970125388 13.780716984539863 6.788909719074612 0 0 0
54 1 1.759668772419102 13.916943648171513 9.990172005524238 7.141688006118726 0 0 0
56 1 1.422450820673884 13.743816141119733 13.973347833452017 2.58011056268803 0 0 0
68 2 -0.7777508015734748 14.640189800833959 14.772486217234805 15.633655091324396 0 0 -1
118 2 -0.8658690754273287 15.155614531974269 10.584901297438341 6.373846800172212 0 0 0
119 2 -0.7401394039917697 14.469383623251472 12.755176535186667 5.489778514167321 0 0 0
132 2 -0.8156885736445656 14.629505360763053 9.052799861072678 8.208860801466534 0 0 0
155 2 -0.9555916962101645 11.377803208768766 14.524204428897953 5.796541180539894 0 0 0
156 2 -0.8006065955847765 13.158100817705352 14.821504955924802 4.217398916149401 0 0 0
163 2 -0.9318834050135114 9.465455222431459 14.544781985475526 7.673120754134121 0 0 0
175 2 -0.9001297991317168 9.323823105871568 9.176231335917885 2.6328068285908994 0 0 0
176 2 -0.9085397108189122 9.463183257325888 11.25272128161235 4.036916503644727 0 0 0
177 2 -0.9047440720837026 11.343209239442224 9.580034186492131 4.351246447153786 0 0 0
178 2 -0.9644288999965377 11.068371960696574 10.875092595454383 2.200203746215173 0 0 0
179 2 -0.9317078889941631 9.653977214449842 12.722408373266981 6.022094605524029 0 0 0
180 2 -0.9504591654187212 11.38911028870439 13.06595702502184 7.749759186449799 0 0 0
181 2 -0.9239522187576826 13.279003034679507 9.215749268265698 6.005295416378052 0 0 0
182 2 -0.9795632289812556 13.019946062495345 10.955693695546804 7.888722403815979 0 0 0
193 2 -0.7141868578087833 15.030068092896695 13.262037122632252 3.05791557783692 0 0 0
200 2 -0.6274550618605617 10.180641831408224 13.572029272618765 3.233972432069935 0 0 0
206 3 0.5127657041352525 14.017118480004228 13.450729533512062 4.990353380100876 0 0 0
219 3 0.3925413776065972 9.203713304978503 13.46641372821914 3.377402978933764 0 0 0
220 3 0.4018728213030555 10.30244683256547 12.693149129844773 2.7798314462539775 0 0 0
203 2 -0.6237200792449195 12.114710897804342 15.263761525930216 1.6637622948721242 0 -1 1
183 2 -0.8306104072565198 12.813448657673069 12.79749709800834 2.160947375999265 0 0 0
7 1 1.801406265169712 4.932866397423669 5.043616443434571 15.416445557667227 0 0 -1
204 2 -0.6642803154216322 2.4943095457552267 7.691481577637142 9.343736594616654 1 0 0
10 1 1.779881848164324 3.3336066582875827 3.361849459585505 10.234231118008148 0 0 0
12 1 1.81204674106544 3.084242573878798 6.886211557756397 13.789292804631074 0 0 0
14 1 1.73145690398573 6.86810442632109 3.297907087141752 13.909385747850793 0 0 0
16 1 1.724603021401239 6.804889496695959 6.781807600176976 10.246323350652798 0 0 0
85 2 -0.9278124131143366 4.132902710075573 5.926442407777823 14.405410885022112 0 0 0
86 2 -0.9443034966172053 6.044484295026063 4.333672086215278 14.609048050051047 0 0 0
90 2 -0.8774544336670529 2.5679600943435332 2.4263343387613303 9.206005723784681 0 0 0
94 2 -0.9393260772357024 2.3356511762831396 4.254492671739916 10.956957347063804 0 0 0
95 2 -0.9715037217232092 4.242766083490727 2.5273545031105007 11.183389816555652 0 0 0
96 2 -0.9505060807079437 4.061374462063168 4.3590915118163185 9.325160769684901 0 0 0
97 2 -0.9067904816463637 2.0762905544240366 5.996694990718921 13.045006704918375 0 0 0
100 2 -0.9236861633541729 2.5061671341138663 7.7172115993202555 14.928619373110129 0 0 0
101 2 -0.8927150157505291 3.7995075664005125 7.75680094588509 12.727101174988087 0 0 0
102 2 -0.9157650474208799 5.835274560896795 2.4470534720095856 13.047397425110255 0 0 0
105 2 -0.8849363575247592 7.422424662009246 2.3437548886584763 15.019085403916261 0 0 0
106 2 -0.8941016190190746 7.975453538402261 3.8948082445688574 13.016856603433627 0 0 0
107 2 -0.9204290476256414 6.1881907270951615 5.820667857950304 9.157964754816522 0 0 0
108 2 -0.9047547456445505 5.798628374588796 7.772835403314001 11.010683961532484 0 0 0
109 2 -0.8832552956093598 7.605068051623334 5.93193293880586 11.270681575692986 0 0 0
110 2 -0.9146781311064489 7.8360962827327585 7.722633196981443 9.6279817788204 0 0 0
194 2 -0.6065299620042982 4.974026667448584 5.037395062786897 12.095784072555242 0 0 0
195 2 -0.6035157939579382 6.703355932866596 6.748423305074541 13.57201997587666 0 0 0
207 3 0.4330030193255697 5.440076499404378 5.397468390221317 12.90486498881675 0 0 0
208 3 0.4102446150890638 4.98473478660067 4.078461851583333 12.246272882742257 0 0 0
209 3 0.4366765081655835 6.731153300030683 7.61867060115982 14.069734415336361 0 0 0
210 3 0.4049228695784759 6.719922601242634 7.042425312513608 12.654853402211728 0 0 0
214 3 0.43899525350631 1.8931791818623391 4.7702062896648485 9.018526145243325 0 0 0
13 1 1.741347502917372 5.143671187248216 1.5740273887763157 11.944314305345861 0 1 0
1 1 1.713828436839008 1.6523457915400284 1.6825435818491437 15.362194959437529 0 0 -1
43 1 1.656041940482099 8.619277321579705 4.905253289950402 11.95170040442235 0 0 0
222 3 0.420971980585697 14.582641666490307 1.6510385709417872 11.655674664134782 0 1 0
39 1 1.775340130599782 12.061811928125916 5.0093772728052555 15.598112435807902 0 0 -1
11 1 1.785234255737418 15.566618327097542 5.069209415709981 11.965377828574141 0 0 0
42 1 1.82133334770123 10.322369554708228 3.214188492986652 10.08170239718091 0 0 0
44 1 1.732970050765148 10.233807181856033 6.793919197087609 13.867215650891728 0 0 0
46 1 1.744549250375325 13.766696124588936 3.319431241850295 13.742067454070938 0 0 0
48 1 1.701790978025406 13.349646168395525 6.6320085851925805 10.508901322948956 0 0 0
67 2 -0.8553494259204963 14.815605781648662 2.7443430109466833 14.744080445129446 0 0 0
98 2 -0.8432630796216313 14.685208565826624 4.061310572598704 12.702887808007228 0 0 0
99 2 -0.8716270659271139 14.405081718509713 5.778490121294025 11.234024209594352 0 0 0
131 2 -0.781021397464005 14.282070557501163 7.839067309203103 10.19235833491272 0 0 0
159 2 -0.924455764695895 11.16429408274443 6.1224969198189205 14.85444537540202 0 0 0
160 2 -0.8877855314027782 12.942953946926078 4.4031716387751585 14.501947158240613 0 0 0
162 2 -0.9789944998164821 9.497583367529375 2.1873243218154967 9.298758175427023 0 0 0
164 2 -0.8963100300792272 9.48224242696411 4.2737290193893065 10.849870431539046 0 0 0
165 2 -0.8747163336538639 11.258035774958113 2.4957452484745373 11.046980840185928 0 0 0
166 2 -0.8738614690825851 11.349458107781647 3.880136462018366 9.139907087158596 0 0 0
167 2 -0.8070533868233724 9.659134670751136 5.773805326564603 12.786327492820545 0 0 0
168 2 -0.8727403718279407 9.117687168308404 7.629897225372678 14.558626221878173 0 0 0
169 2 -0.8923907279333869 10.917013319925461 7.988194686969421 13.181998683863458 0 0 0
170 2 -0.9900873326651979 12.908428930399229 2.2800234876068255 13.019321312711517 0 0 0
173 2 -0.8532211078884098 12.75306433716278 6.056484949932226 9.170900412620592 0 0 0
174 2 -0.8141462456444646 12.333817960824053 7.391770245084229 11.43030058626685 0 0 0
61 1 1.741976773908165 11.911769955469767 8.677215742024874 12.26433357980105 0 0 0
201 2 -0.5830143702801726 15.526588188387361 1.6998855438180378 11.828207575299853 0 1 0
218 3 0.439564427472271 5.006256978216303 9.441877499724871 1.5332916246370498 0 0 1
199 2 -0.6226707468666808 4.9545572082993 8.484161351252158 1.5709771444837857 0 0 1
49 1 1.649441939424021 8.461013386564698 8.641066033786917 15.556685038332809 0 0 -1
31 1 1.781943778926425 5.053198010482832 12.314914146804767 8.654419198878983 0 0 0
29 1 1.721069885046486 4.881941937782967 8.588970792664764 11.941200863471408 0 0 0
26 1 1.809687589838353 3.323696402797049 10.73665608156899 10.453822263367876 0 0 0
28 1 1.686097546182627 3.501259261678094 13.99291380984238 13.8454236698681 0 0 0
30 1 1.72487758291733 6.608841285343901 10.337622648105075 13.766263642514303 0 0 0
32 1 1.783385858764883 7.014597952590285 13.919522440958087 10.329147948801934 0 0 0
66 2 -0.920942989298305 2.633184848168945 15.188871687960294 14.371594891103785 0 0 0
103 2 -0.9228649445761249 4.4168188419542815 14.616517645913163 12.751713491573597 0 0 0
104 2 -0.9182128916176375 6.336783660610306 14.953057032791937 11.242773196982975 0 0 0
126 2 -0.9133335470426567 4.278361755171322 13.181840061333936 14.874517173421374 0 0 0
127 2 -0.8775507368981559 5.525477836380632 11.06051840665851 14.583502147643374 0 0 0
130 2 -0.8569271934436069 2.026082400968102 10.034767910865261 10.068850388832324 0 0 0
133 2 -0.8394817159750788 2.685090267595239 11.881946433498845 11.268274600884101 0 0 0
134 2 -0.9073551540857977 4.20035953185722 9.843486711707998 11.3435784396171 0 0 0
135 2 -0.9580401704904453 4.080325010807986 11.415346962209133 9.32411042584153 0 0 0
136 2 -0.8731562799249154 2.3350010738866303 13.033380649172 13.27098634340376 0 0 0
139 2 -0.8855593701500397 5.881146914160563 9.211361628613307 13.002239446338159 0 0 0
140 2 -0.9155492678155368 7.543405626213132 9.603590928506172 14.807149290401306 0 0 0
141 2 -0.870170398908202 7.384239551719224 11.13891332179188 12.694740892501667 0 0 0
142 2 -0.891822232854614 5.905016536839025 13.00995427281252 9.754323836342174 0 0 0
143 2 -0.9003728790996453 7.57594674101508 14.65268352083128 9.081347211899981 0 0 0
144 2 -0.9137703801901489 8.079626017723555 13.131146437693296 11.147041336818486 0 0 0
196 2 -0.6016214170810799 6.814286514414748 13.640139211594612 13.964367498507325 0 0 0
211 3 0.4335786815402747 6.215791041130653 13.599022200200837 14.721162128282115 0 0 0
212 3 0.4216862599144526 6.398253647094107 14.220808668022372 13.357149402217642 0 0 0
59 1 1.822967090872333 8.568672762296575 11.975342946848182 12.017158971433306 0 0 0
41 1 1.903231306422059 8.573631332581684 15.584317506137984 8.369780990341017 0 -1 0
45 1 1.749886432927534 11.956425969446864 1.5208124332565909 12.064098830592904 0 0 0
221 3 0.419036490468743 1.609864601695861 15.20873036198684 12.545817060140973 1 0 0
63 1 1.915975942485912 12.228846303047458 12.067099262263818 8.540309247445409 0 0 0
25 1 1.506004382196757 15.395779257619333 8.728157914623974 9.534607039591238 0 0 0
225 3 0.3960344218115165 12.00843847832098 15.446464929405659 14.817687721294655 0 -1 0
55 1 1.698599211720807 11.909848732302308 11.869517991030992 15.413492969994902 0 0 -1
27 1 1.779270156778279 15.627175824669346 12.323153921286822 12.222704040111774 -1 0 0
58 1 1.899537991008821 10.406897196652363 10.33936960020495 10.338936158614448 0 0 0
60 1 1.698679915008048 10.16768577454227 13.816555754916243 13.810020876997394 0 0 0
62 1 1.754253227281099 13.98414364127309 10.319531089312555 13.801656738524809 0 0 0
64 1 1.758503802767645 13.834256368893518 13.941949292223471 10.346545128675478 0 0 0
93 2 -0.898881794976808 14.588709396792009 15.073697520910098 9.59168503490675 0 0 0
113 2 -0.9011550677423498 14.980191994190562 9.736056882448914 14.863812356409113 0 0 0
137 2 -0.9113599369147515 14.770317435011139 11.207401169577606 12.827289142963444 0 0 0
138 2 -0.9300467361576785 14.793921102091227 13.31415755604387 11.384459147093695 0 0 0
146 2 -0.9190363795641615 9.331088638334986 14.67078280687354 14.847369239414366 0 0 0
171 2 -0.9225727278642983 10.914633235310449 14.816900843501388 12.86294784236579 0 0 0
172 2 -0.9221352073443408 12.79251827885915 14.718380806161969 11.131287932458845 0 0 0
184 2 -0.9134416041653614 11.074571116919973 12.950673588608586 14.730587092657307 0 0 0
185 2 -0.8856499250712044 12.829637596504403 11.219129630330704 14.357967238979091 0 0 0
186 2 -0.9059562482958 9.757006662295042 9.321886044053244 9.351715412474364 0 0 0
187 2 -0.9769324412661898 9.339981045788372 10.982294587256998 11.121415482376952 0 0 0
188 2 -0.9623936821391007 11.362408338028738 9.714479793358969 11.321010778560556 0 0 0
189 2 -0.9103128455509956 11.26115545788469 11.37191496963801 9.50246460068956 0 0 0
190 2 -0.8958440797737266 9.426970974735552 12.66429153956016 13.052244614098939 0 0 0
191 2 -0.8508714053139032 13.228361139868623 9.225851820299875 13.045341392967984 0 0 0
192 2 -0.9003205087088557 13.268986846157684 12.89147855517993 9.30209960236261 0 0 0

Velocities

2 -0.002109582128808963 0.00277798894654569 -0.00027895774633583664
4 0.00138891431463101 0.0034300912443140093 -0.0003909834592253287
6 -0.0017793335741890831 -0.0003241411550338664 0.006597690986134245
8 -0.0022762662033223215 0.0024564592535399983 0.0018821413876661886
65 -0.005425864669867902 0.0011193711366032824 0.001298397055831156
69 0.0008465396482807345 -0.00160340465802046 -0.0007093824751349686
70 0.004973966745641405 0.0023935992446514113 -0.007872097896360643
71 -1.3209006598150431e-06 0.00104248793188642 0.005260649900667329
72 -0.001557506048733856 0.0033082807720511516 0.0003442257753581894
75 0.0046214959064884474 0.004947817576751589 -0.00579636153750038
76 0.0008814712139398479 0.0045593862812334995 -0.0039398296779280355
77 -0.000592094672746592 -0.004235729089984178 -0.0018393372389912306
78 -0.0010698676143023702 -0.000585355788860435 -3.454122651298026e-06
81 -0.0037686170633359608 -0.007823321492777547 0.0014234941485360678
82 -0.0050462799116272545 -0.001099288621549003 0.0013594668764036963
83 -0.004352436104665582 -0.00022767250018016397 -0.0034126281249979933
84 0.000768118499960674 -0.0003963891870350448 -0.0019985960864226755
87 -0.003657853097663595 -0.00148009719086486 0.0031028260145062572
88 -0.000586733968762251 -0.0008901906040351913 0.0002364399880814078
89 0.003949365258382526 -0.0031909821388806173 -0.0014382953602803624
15 -0.0015818916324609176 0.0014011025289386375 0.001187130537419402
35 -0.005046798792705448 -0.002723589589037207 0.0011565645534166392
197 -0.002727196822947035 -0.0072046297577356986 0.00822659180244067
228 0.010991904640256433 -0.0007882629922002187 0.007843665070747362
217 -0.003438802998043828 -0.0038089134265324224 -0.00016828824594725234
57 0.002890470924211876 -0.004464575038085008 0.0028060807040365676
5 0.0030785099187569448 -0.002337331080235129 -0.003658887967867613
227 -0.00927318441106203 0.008225233934339674 -0.010659493875825663
3 0.0025081634437062166 0.0032577652157362246 -0.0040888898870875615
213 0.014344723141241482 0.0011185865225799493 0.028511445499722603
216 -0.009918526651214786 -0.018587650432795144 -0.00940880019024499
34 0.001177269357907607 0.000275170846016222 -0.00053634030039496
36 -0.00456557598263634 0.004437390081951487 -0.001058806958673433
38 0.0008034686285738819 -0.00012403328972658076 0.003811254799641097
40 0.005327707125289806 0.0032010358936724955 -0.0033391213062013464
73 0.00045376753089819893 -0.0009548352112493971 0.00813092945822907
74 -0.0008502598262620107 -0.0041045411714797425 -0.0016275908428297627
92 -0.00406252638678297 -0.0037796219595218027 0.005583573421372283
112 -0.0029457061665277865 -0.0014735904099166868 0.004739663365765223
145 0.0022376191082012966 -0.0009222252688433972 0.007402186376926498
147 0.0028800658735308113 -0.008847395796455429 0.004149825486459454
148 -0.0020336494480835115 -0.0018979756101860385 0.0026312641940713036
149 0.002486346688459166 -0.00046893200648319433 -0.002912652358891242
150 0.005553785597218762 -0.005519920723772166 0.003914959155314312
151 0.0003654102937831662 0.0031585729721138834 -0.002729333129893095
152 0.0038467110406479772 0.0022304667247346503 0.0006634255801505844
153 0.004319153041526109 -0.0036170983997158143 -0.003975941985896319
154 -0.00013488466659253664 -0.001624721078479333 -0.00059950529899136
157 0.002706572522503564 -0.00015428947276934613 0.003924836065566656
158 0.0032097872389666446 0.00015225123333945643 -0.0021059158160546356
161 0.002702052522463787 -0.00167213107088449 -0.005402371311945691
202 0.0009431625279943263 -0.006377666084048748 -0.0010942989803112018
223 -0.006345475193239709 -0.005332131991528567 0.002386891885336103
224 0.021006246080085056 -0.015077178618693725 -0.004338000277701163
47 0.0010550781290626827 -9.501473789999087e-05 0.0016138431614284134
53 0.003117980715675132 0.0021432035340373736 4.0209757209651495e-05
198 -0.0007695653394799967 0.004163204975267068 0.0010520066086157685
33 0.0009105928569385142 0.004986963308144454 -0.00040062985318963277
215 0.009204937009554758 -0.01843113209178599 -0.019606787982377243
21 0.0018497742618847257 0.0006713217944698301 0.0009454411501537113
18 -0.0022136690424842 -0.0005445727961523422 -0.0002989928390468594
20 0.0006317895481223896 -0.0007101619725994988 -0.006110484728156449
22 -0.004028751711029266 0.0018753217088570233 -0.00010672205246521606
24 0.002755256552431077 -0.004049600564166562 -0.00010861355200019387
79 -0.001320386669370566 0.002380291375582544 0.004041251016407336
80 0.000840330128299475 -0.009590041859672096 0.0013980024771161332
91 0.005278604068210488 -0.0027078373206436434 0.002091360004585745
111 0.006808436301786436 -0.00513346853200913 -0.0013931415340256068
114 0.0032520588287211017 0.000255595787435101 0.000121678757038613
115 -0.006777584506903773 0.0025026835118318554 0.0013190862371819823
116 -0.0033097658492295353 0.0019415941172623618 -0.0025336312839441947
117 -0.003194724672041281 0.003379378600684361 -0.001705249496292286
120 0.0009638540029704544 0.004075119236683933 0.0033124763963805664
121 0.0033795528122065295 0.0017625690418904562 0.0033379379360648502
122 -0.0005845954793673625 0.004906049175220309 0.0024783908251787405
123 0.004212718310812911 -0.010488844612281391 -0.0019189375382981163
124 -0.0002315937461905176 0.005657528674748363 -0.001388738212785129
125 -0.003186365507491915 0.0005904662076003962 -0.0019492255165591064
128 -0.004651348595602153 -0.0061480116977838135 0.0004209711123302011
129 0.0023898970807714913 0.00014088508481636087 -0.004349021284884805
51 0.0027161537848504843 -0.004332895534180665 -0.000539072810588192
23 -0.004089949848258814 -0.0018638980528183373 -0.0004020871183418886
9 0.003559475881297443 -0.0008532009233827932 0.0030465659705321674
17 -0.00044459459536870234 0.000888414008904132 0.0019055316176997093
19 -0.0019615308154998326 0.0016868049585041858 0.0005625005331871406
226 0.0008102975034454792 -0.0032461316915271773 0.008301207346060567
205 -0.027625388153719743 0.020275083301999945 -0.0030861090910259603
37 -0.0032627076098959034 0.000294162425065946 0.0004972516562790791
50 0.002516269904943553 -0.0012966970992061163 -0.0003129217239783878
52 -0.0025543414704359275 0.0041123253194042435 0.00022794991640872388
54 0.0008001683852024362 0.00120731860908145 -0.0010906254687529794
56 -0.002778397788804091 -0.0038840229232485896 -0.0036674324367557474
68 0.007576487745330918 0.0007999307313655465 0.001637630473201562
118 0.0005608916315056465 0.0033129747564505023 0.0019466069250465119
119 -0.004778161462293557 0.002143684722088848 0.0023063573793830534
132 0.00014091898625893544 0.001454535826612564 0.0019848562930011924
155 0.002990026599321754 -0.005687879384018515 -0.00017120429263201917
156 -0.006592078109444453 0.00025607202848552913 0.0018657108559208824
163 -0.0036193141457845084 0.004867371949354515 -0.004157748797683462
175 3.229376174215651e-05 0.00325192276384128 0.0014549819604739234
176 0.003162257664786255 0.004072242863731188 -0.0012776276934275013
177 -0.0021882076314066164 0.002958306860322616 -0.001829974393633392
178 0.0019570462424972398 0.0011293879354023055 0.0034097044894418446
179 -0.007343092487084621 -0.0007193590788801643 0.008916309193665062
180 -0.001648638766013687 -0.0009459180140773762 -0.004399131764821332
181 0.0035099860839088526 0.0034455115624929347 -0.002270718982376542
182 1.886955402886497e-05 -0.003573943029033112 -0.000714780111157101
193 0.004656334958682772 -0.00017148226434297276 -0.0002642082396114849
200 -0.007634030219732173 -0.009071625471975143 -0.0059386378814624986
206 0.03518500838846011 -0.002399627092598452 0.012791252897293801
219 0.01918938966286059 -0.00603954038507322 0.0035423881004442207
220 0.012503158892411475 -0.009248727703200723 0.003669756918873636
203 -0.000731668196013874 -0.0028792263466049886 -0.007598620599213819
183 0.0002112530523258023 0.0010688319920463545 -0.006149098083110916
7 0.00046550606958339647 -0.002228217050852362 0.005293679442704633
204 -0.002915654145835045 0.002813327385886844 -0.0013214095076042674
10 0.00031470319153913606 0.002349521619739211 0.0007348202039416129
12 0.0042628361245295706 -0.0021449192257467016 0.0003230425742850468
14 -0.002039045515641767 -0.001276228910425642 0.0043680196987416426
16 -0.0015811417122865933 -0.005808337191301026 0.0020332670810804298
85 0.0026936417412142906 0.0008649405064210259 0.002706163119935086
86 0.004038687257343426 0.007003458153360989 -0.005539607084854691
90 0.0032725821875516183 0.004558035505196161 0.004678387090457246
94 -0.0010558047741300875 0.0025875166718502818 -0.0028017171797315994
95 0.004126744045500662 -0.008931652427702694 -0.0041211220563213335
96 0.0002351498532585765 0.002449720739930064 -0.002956183126115215
97 -0.0024856044076471432 -0.002588674771957512 -0.0019488731729564066
100 -0.006657694228448968 0.0012135451140909013 0.0008174145317551807
101 -0.004413291530157189 0.0036603716829249496 0.003803887169689209
102 0.0011737536098576765 0.0015391612023369196 -0.0021649679433869626
105 -0.0052728757558161594 -0.004871499469508395 -0.0012121608588360616
106 -0.003062382932924999 -0.002079969790699008 0.0013202725373757291
107 0.005491464715457472 0.0015258219123285924 0.0024547749634713277
108 0.0027730763159374895 0.0032989082043947014 -0.005168073631806087
109 -0.0037353595582698177 0.0016208092782925801 0.0006866349115364376
110 -0.003061436836878991 -0.003293506924076761 0.0024299622904988653
194 -0.00010436493931291425 0.001148398774972373 0.010483371477671892
195 0.006322895450499392 0.0022076490085978905 -0.0012855998755948593
207 0.013823714901528217 0.014456081260056198 -0.013002755427241698
208 -0.014486996801825096 -0.0071522886386907545 0.0025564063235718835
209 -0.010910677717580053 -0.011700752404708416 0.01672340200325184
210 0.02411906250256545 0.029588758801631886 -0.013312030205434634
214 0.007258914255807293 -0.0010077178913648931 0.008859620024988326
13 0.0025877741048072832 -0.005957001716994029 -0.0014549261088578848
1 0.0004119718178936462 -0.0007029313439455999 0.0004889142014712046
43 -0.0019628105600904065 0.0046754704922482475 0.0001710963001386696
222 0.012294842824741317 -0.005664131640026552 0.0291245222312332
39 -0.0022162902161677067 -0.0040746460518893005 -0.0002769027661995836
11 -0.003144117454702529 0.002830175328106825 0.0007545548997486519
42 0.0004269059582901055 -4.6952296860914316e-05 3.0394453662927087e-05
44 -0.0018769588947484532 0.003097356493076412 -0.0012019516109617683
46 0.0026488535465398273 0.000554823871656518 0.005302350856551633
48 0.000624598520777797 0.00171858034100027 0.0008751617489845231
67 -0.005103016962661135 -0.0010874100790952464 -0.0011531039010294645
98 -0.0022064863589921005 0.004593638463579998 0.0026983057790506484
99 -0.0013320727254074384 0.012913649466313426 0.001012800650962132
131 0.002738007879318907 -0.0007738070993538363 0.0027593556841401714
159 0.00658316705524202 -0.005315436232218045 0.0014904081409970633
160 -0.0019876632582314087 0.00020468275140598258 0.0024460707632454584
162 -0.0028805572647830338 0.0010963208029130431 -0.0018012791362113374
164 -5.874785749561768e-05 0.0066809031407145236 -2.470691211248699e-05
165 -0.008354212004809106 0.0007499764411243013 -0.0013164869407348196
166 -0.00423240092680256 -0.008364438342902661 -0.006513725143779146
167 0.0030311901769111706 0.004133135576626934 -0.0036939393232376895
168 0.006531041701240071 0.0019539029836596936 -0.004388439710045212
169 -0.00010432995490477354 -0.000704583699444015 -0.0008055509637333931
170 -0.00706378973733938 -0.0012070957303006215 -0.00025419316167728153
173 -0.0006044843112934769 -0.005465986682388776 -0.0020187792537115904
174 0.003958584307390658 -0.007566172683460657 -0.002163001097227732
61 -0.0009526863341183617 -0.004090366061973782 -0.002826510231121629
201 -0.003740969359245301 0.002861077305994294 -0.010190302188014706
218 0.005453199648654601 -0.005883675421372697 0.012911494665715634
199 0.00416902977843921 0.003004765481247577 -0.005941660387655489
49 0.0008182341955912573 0.0029380551052408514 0.005327301506614013
31 0.0006661734706272354 -0.005121392611232943 0.0007095195602191049
29 -0.0006797993687205999 -0.00022370721044267613 -0.001616592250707591
26 -0.0003881359296710379 -0.002426846664622762 0.00045582614305170676
28 0.0028643732652134167 0.00486675465531017 0.0034335721350950816
30 0.0006541445883992123 0.00151864667372444 -0.001196157065095186
32 0.0002876746262817411 0.002571437799585144 0.0029310004765169934
66 0.004186220569651513 -0.0015146783063766213 -0.0041048853502261146
103 0.000554266055216766 -0.0010690448621562376 -0.0067097492937331
104 0.00015618315625159706 -0.006368735957018388 -0.0031219456209761946
126 0.0007585289716767905 0.01366655345564234 -0.005253070300704712
127 0.0056182691924104985 -0.007112721326236941 0.00014701304511587486
130 -0.0009614018851799154 0.0010654174353469136 -0.0002374531208009326
133 0.0034356497486461484 2.1897545228296377e-05 0.005262152524306096
134 -0.001961066086447777 0.000635235875020373 0.0017316065664759951
135 0.004872789443835777 -0.001454537476997718 -0.0036889739471154775
136 0.0029751009840790687 -0.00027526758510001964 -0.001355081152461898
139 -5.897355666320623e-05 -0.0032960073920576833 -0.0030792994544026164
140 0.005816946736447884 -0.0007123801575604492 0.006498282062175653
141 -0.007436296828804607 0.0005809178168657846 0.003293353335350176
142 -0.002328168525105362 0.0003284565869145037 -0.0023609205045272332
143 -0.0045278426419094004 -0.0037263286631233515 0.002133794859334345
144 0.0008857804523346669 0.001024967557949129 0.0016018971776887447
196 -0.004959437661387464 -0.00437189297841841 0.0017287480774811953
211 0.010021260156574202 0.025897728790799865 -0.015204543265835807
212 0.0040385083532119845 0.01490993950979904 0.006405848778805886
59 0.00176978214077753 0.0015074164153345078 -0.005240373036946858
41 0.0014596793769276032 0.000521911829936709 0.002167789973664418
45 -0.0030691761074207475 0.0022170412516322544 0.00016946904947338494
221 0.01881593090271019 0.013847364732890792 0.004512067888484261
63 -0.0029039729801411673 0.001280957071138127 0.0017929634870000833
25 -0.0003472978419493208 0.0017384067467317477 0.002180078333509572
225 0.00378393821650232 -0.003935315451721258 -0.0029000493889861107
55 0.0039395963171939136 0.0015413134534915016 0.0003708232140984636
27 0.0033239885361349376 0.0015956709649575733 -0.0010828347407465335
58 -0.0006503094333240679 0.002864607106977006 0.0011935480317303477
60 -0.00020278753010739213 0.00011783944160405024 -0.003443246632039829
62 0.0004315601848545456 0.0026059249612679198 0.004189846275863673
64 0.0014257384542364453 -0.0005935435640297946 -0.008449946047983862
93 0.0006523378500013205 0.0031163679652765905 0.003391784293358114
113 0.004533550684660374 -0.0010096693222095855 -0.001828020038651921
137 -0.004369362442409913 -0.0028518484005022548 -0.00027796474152984963
138 -0.0016951981146526276 -0.005272258122761229 0.00020674802222792103
146 0.0037575428176517397 0.0025577652526967525 0.0033352160992743433
171 0.002805712711273244 -0.0013618813225298872 0.006463991527140417
172 -0.004688551951251099 -0.002975249991631697 0.002175770050916015
184 -0.003975421669269991 0.002916315022503462 0.0007232122271852198
185 -0.001979289728075776 0.005131435796372359 -0.00310604520638531
186 -0.005840523396617634 -0.005554480637529284 -0.0016664276939428312
187 0.007024391013950509 -0.003437138764835385 -0.01208241779292135
188 0.0018903707409360707 -0.0008029170396632817 -0.003009251849094675
189 -0.0036593595011925172 -0.0025622115909667703 0.0010672207576619972
190 0.003808693541654386 0.008220361632535313 -0.0019935347760017133
191 -0.013572420113793544 0.0014362638008359222 0.0016699259089417871
192 0.0002714364603460948 0.0008434660028411015 -0.002432418670109986
