LAMMPS data file via write_data, version 29 Aug 2024, timestep = 40000, units = real

216 atoms
3 atom types

1.5594833201680007 15.600516679832023 xlo xhi
1.5594833201680007 15.600516679832023 ylo yhi
1.5594833201680007 15.600516679832023 zlo zhi

Masses

1 28.0855
2 15.9994
3 1.008

Atoms # charge

2 1 1.860776503361074 3.323096871458436 3.273373123405333 3.221069600396461 0 0 0
89 2 -0.9287603570187826 7.823418046961887 7.880117551472597 2.7765847006624744 0 0 0
87 2 -0.9084364475192169 5.992860226905208 7.557731258357821 4.518922950176456 0 0 0
82 2 -0.9338955650252868 7.910689061605761 4.18241318997792 5.996459657232098 0 0 0
8 1 1.779854550744408 6.93647296404418 6.87313012870342 3.4922341502884366 0 0 0
72 2 -0.9548520308096135 2.601462856608072 5.936308338673289 5.7697711867875014 0 0 0
88 2 -0.9364979999301024 7.889859496126541 5.8112905722263895 4.100564044275945 0 0 0
65 2 -0.9593326082951573 2.5447238577850984 2.6414813054429884 2.079417818782801 0 0 0
69 2 -0.9008921219976043 2.257364159229431 3.95853194380076 4.164425729712746 0 0 0
70 2 -0.8929389331714969 3.980943525056855 2.2201969643748245 4.175253679135814 0 0 0
71 2 -0.9557757388760164 4.268931367751996 4.3530244989725 2.779713965556601 0 0 0
193 2 -0.6092242789767215 8.341966229323425 1.6020237870596978 5.188377763051412 0 1 0
84 2 -0.9467970983248988 6.042675656101053 6.135171168802619 2.4519605856964093 0 0 0
78 2 -0.9049569052391399 5.964463806523736 2.4293668464852027 5.6691486833915015 0 0 0
3 1 1.872168508375341 1.6159687006210028 5.07929953685675 4.939039325503877 0 0 0
208 3 0.3879251515106031 8.132295721310165 6.178206131385996 1.5975488187220452 0 0 1
76 2 -0.9402345419291992 4.17377319616201 7.874417444793395 6.138935921252533 0 0 0
7 1 1.801320337762226 5.1110509565270945 5.134207701817731 1.7679685253681399 0 0 0
4 1 1.906805482175668 3.276986092626719 6.840980116693327 6.845328812781603 0 0 0
6 1 1.87914293013665 6.866874876684063 3.2896486179215954 6.690957061811451 0 0 0
10 1 1.797141255071245 3.341979364245995 3.233481087414747 10.260512400978758 0 0 0
15 1 1.941576640215796 5.053028665845842 4.962630208065443 8.39145762387297 0 0 0
16 1 1.837563226016263 6.719865626017869 6.719432938789973 10.192250625394964 0 0 0
75 2 -0.9673881530760923 4.176567669302006 6.029299170514362 7.761440776878331 0 0 0
77 2 -0.9244232145075777 2.2512793346285784 7.6162880389453 7.68243244716711 0 0 0
81 2 -0.9727153004641795 5.901068104595772 4.226740165005536 7.3730135279718 0 0 0
83 2 -0.9819929294680341 7.557579100282508 2.4210290198525075 7.713787127231709 0 0 0
90 2 -0.9935155113016745 2.263651520924334 2.5371381952969507 9.422244864099888 0 0 0
96 2 -0.9503064853741308 4.189448398490959 4.007001582236702 9.23323327830168 0 0 0
107 2 -0.9469030685144417 5.995310836479975 5.777737391520618 9.280670707258341 0 0 0
110 2 -0.8662670948490789 7.432436514761676 7.834269589839057 9.388956747119646 0 0 0
41 1 1.884407580048742 8.561336024227373 1.6715312625520269 8.610997149981674 0 1 0
205 3 0.4215380125877469 1.7668336622583585 4.2324044207516085 8.35607484334454 1 0 0
95 2 -0.9043078071643451 4.2762367414898925 2.187394985271227 10.984661289092768 0 0 0
12 1 1.699733690141477 3.374465718600959 6.890305219452509 14.012194288972683 0 0 0
106 2 -0.9218277734381121 7.365598331062074 4.525889412146899 12.966551726733366 0 0 0
14 1 1.804400690927716 6.756167977776673 3.4279428064639355 13.84748793795522 0 0 0
105 2 -0.8799293026201754 7.79245760882067 2.4454694580988092 14.40787303917214 0 0 0
108 2 -0.8770483093866938 5.771802769227458 7.394147778644571 11.214057840408048 0 0 0
85 2 -0.8947119048986445 4.269307662739507 5.8072650630130145 14.7214833062152 0 0 0
86 2 -0.8694243047613448 5.939918138173306 4.002605156044732 15.048668423340654 0 0 0
94 2 -0.9853871262444505 2.6699792166174 4.207828314952979 11.220740258786693 0 0 0
109 2 -0.8773338443023746 7.835137647127395 5.899601309340549 10.929873425858837 0 0 0
97 2 -0.8499586558968465 2.383925868719614 6.184745627465059 13.05656606973758 0 0 0
100 2 -0.8860875641707111 2.323711691293025 7.54137181088336 14.919292214297958 0 0 0
101 2 -0.8848834653247661 4.3772350835709855 7.905765742372894 13.276194477169362 0 0 0
102 2 -0.9017710105414888 5.882617084652931 2.658443310764906 12.834873578917382 0 0 0
196 2 -0.5994837912827704 8.515985209140577 5.297017166630405 15.457728065590366 0 0 0
29 1 1.70381134446854 5.153917826913775 8.559117124815849 12.086550734152524 0 0 0
204 3 0.3901848428586671 1.6492749538434044 2.508935688250144 11.845498836432405 1 1 0
43 1 1.823229818772846 8.490500028665746 5.150421827181356 12.098264142170255 0 0 0
11 1 1.770054655427923 1.7759082518293 5.063161063350258 12.137812216026049 0 0 0
18 1 1.734559377478863 3.3566611905527473 10.210122520927454 3.1496013178260274 0 0 0
128 2 -0.9097349011989552 7.301940522127159 14.916682377028254 2.2529354652394264 0 0 0
121 2 -0.9116456503535273 5.7343957224186255 9.775916182596111 5.559245909221772 0 0 0
24 1 1.867264482650797 6.766272938156854 13.817147295477147 3.223941545936449 0 0 0
123 2 -0.9192496037445717 7.738713771141033 11.385236731693187 5.873251151105377 0 0 0
80 2 -0.9282889595311914 5.853702118909633 14.537181861719628 4.179240247838035 0 0 0
111 2 -0.8723975425841647 2.1706610868278386 9.44059054462467 2.4174020375632277 0 0 0
114 2 -0.9079146943593657 2.6327520064974888 11.296398140267357 3.994461164123564 0 0 0
115 2 -0.8929464354356329 3.963123489577696 9.053764492471531 4.02569106901546 0 0 0
116 2 -0.8905557822508275 4.466927909766552 10.907383767410826 2.3033666489097215 0 0 0
129 2 -0.9300886423584738 7.860340208100496 13.023408640429722 3.9873738382570925 0 0 0
117 2 -0.894289027902809 2.600875097822237 13.139195540886169 5.70827766193553 0 0 0
19 1 1.872160880477017 1.7350513794965488 12.086634210370462 4.9344428761830486 0 0 0
125 2 -0.9388245080248139 5.9373673056941225 12.798311812235994 2.4303738884143247 0 0 0
21 1 1.886263732993982 4.970377182123148 8.58007040062099 5.070566929398799 0 0 0
201 3 0.4454021296199986 7.636105552861567 15.1712703394107 5.606193740760937 0 -1 0
5 1 1.794481506686377 4.979851615316143 15.481974351927605 5.062696742383305 0 -1 0
20 1 1.84306232382518 3.210231922887636 13.815272183571718 6.941273572847598 0 0 0
22 1 1.726357783890039 6.721731254433763 10.449705097281083 6.574489524580032 0 0 0
26 1 1.75564983248205 3.3255622853678597 10.216734532949935 10.344856855079922 0 0 0
31 1 1.733400195748104 5.02847860307441 12.035864240578007 8.60810617334317 0 0 0
32 1 1.724423031290349 6.840943309860697 13.856198464480078 10.347916022364863 0 0 0
211 3 0.4378869895736059 6.962378930507372 12.970236928762143 6.895604284146203 0 0 0
91 2 -0.9440940808293142 2.1830352369858037 14.576127388787029 7.765096532172386 0 0 0
120 2 -0.9363699532662039 3.929421030192513 12.883058389112476 7.904729713745131 0 0 0
122 2 -0.9433491875130244 5.842381835534095 11.365409744733475 7.478935027665427 0 0 0
124 2 -0.8682858819986485 7.527511023224569 9.29184505586958 7.312054001616229 0 0 0
130 2 -0.9026728281966611 2.4810695137256773 9.453722584115804 9.283220633549234 0 0 0
135 2 -0.9450635390143191 4.415153914121664 11.053336815849827 9.611944380416606 0 0 0
142 2 -0.9448498551128436 5.802518977562177 13.110386968427921 9.421278825943377 0 0 0
143 2 -0.9098424276597245 7.831647723443806 14.694980983383491 9.570447022914768 0 0 0
198 2 -0.6415593562284307 6.629667168700634 13.838392107950716 6.702844613160949 0 0 0
212 3 0.4107320436485315 5.797850573960044 13.79405710413076 7.205268755197087 0 0 0
216 3 0.4097798300980064 8.494964804550186 11.498070226423119 9.444656929898022 0 0 0
200 2 -0.6297996371681226 8.51129064085653 11.956700001393239 8.541025327510896 0 0 0
57 1 1.731878327813532 8.380987475757212 8.656660197774372 8.49346998058381 0 0 0
79 2 -0.9170533854104862 4.238474905222052 14.747733412410374 6.273284132924226 0 0 0
28 1 1.785935763168182 3.169815515437687 13.841694464402817 13.822803143568343 0 0 0
210 3 0.4485937248777891 3.444244994611828 11.107582760348759 13.27612926794912 0 0 0
30 1 1.737666206988756 6.893485867362879 10.353140524478489 13.82004845315542 0 0 0
214 3 0.4068431448690233 5.075317668543517 13.093867001534896 12.299032696645886 0 0 0
66 2 -0.9254862267703611 2.1403068171737276 14.739407485330712 14.526797277128178 0 0 0
103 2 -0.9245647038020089 4.2888120862026815 14.761486436108182 13.158547444847589 0 0 0
104 2 -0.9449206685027776 6.074758825105019 14.635646847861727 11.42301715041358 0 0 0
126 2 -0.9068688077709427 4.018137793734983 13.046926799035273 14.841568610888316 0 0 0
127 2 -0.9435635021994777 5.896534192448047 11.321501854684366 14.4821766549259 0 0 0
133 2 -0.8920096795324565 2.24935731989855 11.042341676592137 11.154709943116213 0 0 0
144 2 -0.9014354018501991 7.625745836850242 12.688566952647317 11.136482219568528 0 0 0
136 2 -0.9407871030508496 2.550897748108497 12.872878285562352 12.804788668172636 0 0 0
139 2 -0.8789724341305138 6.295139588208822 9.464739567083113 12.622617196493286 0 0 0
140 2 -0.88906924844198 7.671094675029287 9.490308081877169 14.866855235826367 0 0 0
141 2 -0.844693946539364 8.019621020357661 11.176459902436758 13.190366178823863 0 0 0
134 2 -0.9480370326880092 4.053320009600966 9.228244386010722 11.270530642071252 0 0 0
197 2 -0.6174724362152273 3.3029684915951263 10.348496829648576 13.78161593535432 0 0 0
199 2 -0.6173523798034649 4.9076713278505775 12.14705769181439 12.027595128473779 0 0 0
209 3 0.4202456734994696 3.3037551640187477 9.59246343836828 13.189675711910887 0 0 0
213 3 0.4131662109489892 5.218088817823192 12.09500717951141 11.091667906389686 0 0 0
23 1 1.865728110579888 5.068739686527796 12.047972130054367 15.508716019579968 0 0 -1
13 1 1.778653118404437 5.097063434275011 15.58889199757066 12.144844802540316 0 -1 0
33 1 1.748062369199402 8.428875716518878 15.566331968200235 15.524830896036997 0 -1 0
34 1 1.86759452624458 10.403929431130486 3.248251420840452 3.161038009162534 0 0 0
161 2 -0.9259240841779725 13.034473600741151 7.536029532631942 4.4489482984260125 0 0 0
40 1 1.858337087974739 13.794726003323184 6.810313799061526 3.35872363757429 0 0 0
150 2 -0.9021469284878225 9.605768347131752 6.014517320170353 5.874477129720036 0 0 0
74 2 -0.9398018814660768 14.893012432229687 5.88714655732872 3.9035467026408326 0 0 0
112 2 -0.91663738917353 14.306816766629263 7.780357411921704 2.304838016613303 0 0 0
145 2 -0.8800659416422071 9.316804599180083 2.5003426650020995 2.409657094376862 0 0 0
147 2 -0.9859574904530553 9.722070470936284 4.16674733161101 4.168081967084804 0 0 0
148 2 -0.9485702464737762 11.319554956042355 2.250552419589448 3.8376343312994705 0 0 0
149 2 -0.9370571331559734 11.042044151303344 4.101399904164461 2.0440888581594714 0 0 0
53 1 1.789111031922105 12.094643633367184 8.476592607138866 5.255018613744692 0 0 0
73 2 -0.9278807302581175 14.536105893610515 4.490496334085088 5.8395383107764385 0 0 0
154 2 -0.9125436759570863 13.042559266085265 2.502014952920556 5.70625739862822 0 0 0
158 2 -0.8826587488168743 12.70362763782953 5.968104102268788 2.596963926277992 0 0 0
207 3 0.4234168038373168 8.747922027672086 4.991989088484127 2.2884063134606656 0 0 1
35 1 1.863731129212315 8.81099444310965 5.007858162391736 5.073180255214245 0 0 0
36 1 1.747906996786774 10.291225526854936 6.788558433158849 7.088050279230999 0 0 0
38 1 1.757927114177292 13.754913930143456 3.445020399097978 6.6661863627375695 0 0 0
42 1 1.922110807420863 10.255396998797606 3.272817092247738 10.556639616812522 0 0 0
47 1 1.704041551064394 11.987854203150077 4.968527819461876 8.754720583050487 0 0 0
48 1 1.831157278975517 13.840004736051606 6.738522049455747 10.46231094036815 0 0 0
92 2 -0.9440125029384256 14.755770327986712 2.6725245904744046 7.543923062131885 0 0 0
131 2 -0.9203825575278215 14.735373336228236 7.788955147187226 9.764324399323234 0 0 0
151 2 -0.8896548305472997 10.903259421584455 5.720776050801484 7.983579012806105 0 0 0
153 2 -0.8777826817970195 9.387832531770446 7.602208757507929 8.035803679612608 0 0 0
157 2 -0.9059798401374444 12.79643045335321 4.008572856220392 7.790769594337661 0 0 0
162 2 -0.9688302686530357 9.415386641806517 2.6062774977835472 9.444986425815689 0 0 0
166 2 -0.9007960302913737 11.291594591102967 4.200569733701643 9.896473189397486 0 0 0
173 2 -0.9300942325305411 13.079850304130161 5.98441444059596 9.369456520816662 0 0 0
206 3 0.4070220920106519 14.42748388901529 4.9555984537489 8.320485194315177 0 0 0
195 2 -0.5880062882280795 15.394197200216732 5.115677732908241 8.420397684355798 0 0 0
25 1 1.87801262208765 15.507176685549913 8.52146228689224 8.639855198419257 0 0 0
152 2 -0.8953839357517049 11.373738542412958 7.699027237425661 6.374888261033149 0 0 0
9 1 1.805141738186216 15.440854586272897 1.6488421757166414 8.495746850908546 0 1 0
164 2 -0.93772487914797 9.39881743859316 4.057537043955819 11.500599778943904 0 0 0
44 1 1.824667076256096 10.303004454951918 6.9593528220630025 13.766859542432773 0 0 0
170 2 -0.9171011252624964 12.759683816802793 2.683665412301617 12.914880402172512 0 0 0
46 1 1.78990141430481 13.856370183569103 3.3806025933455706 13.825001226085188 0 0 0
169 2 -0.9128487225053197 11.132814502888323 7.973461985720763 13.031315035497478 0 0 0
168 2 -0.9694633203740128 9.440581760243852 7.636856148304865 14.832098133531936 0 0 0
67 2 -0.9709001640318277 14.497292212535179 2.387474054746515 14.753786549973938 0 0 0
98 2 -0.8966918511560724 15.052348937327904 4.059036347465842 13.002893438990501 0 0 0
99 2 -0.8774216634265444 14.702642041843148 5.787967163521183 11.333165771331107 0 0 0
159 2 -0.8890952669996818 11.380169442506125 6.12139682570499 14.547319349176309 0 0 0
160 2 -0.8737740246742413 13.158166501393936 4.4468289749527425 14.724986999368008 0 0 0
165 2 -0.9734473412535694 11.07006588063075 2.1646338777146616 11.248886977520907 0 0 0
174 2 -0.9175255217695651 13.114639679065146 7.574903368381589 11.52021168354696 0 0 0
167 2 -0.8898308627688748 9.560931014962803 6.094361667528418 12.66494432747711 0 0 0
39 1 1.81353935661343 12.035518616741564 5.151901931179532 15.513476391483755 0 0 0
1 1 1.969786759491276 15.55465550920219 1.6638631703702416 15.517359843466114 0 1 -1
183 2 -0.9614187387366807 13.016300931005524 13.280692676920943 2.2915015882850387 0 0 0
177 2 -0.9125828749385372 11.122437523669666 9.174871803865116 4.300744672181601 0 0 0
50 1 1.891901176169835 10.463307772985234 10.299368191800014 3.4417332549686845 0 0 0
179 2 -0.9150000977023661 9.516785582106278 13.22505878379599 5.789787096695554 0 0 0
181 2 -0.8895930399095454 13.026796261607466 9.631315851319814 5.779647395452146 0 0 0
178 2 -0.9734656360481601 11.429153665095237 11.28923030598225 2.8187014951194147 0 0 0
56 1 1.88178535229496 14.01269587226352 13.886372955841072 3.25797539412241 0 0 0
68 2 -0.959822256679398 15.021099338223559 14.822957067994743 2.5811593368599715 0 0 0
51 1 1.807747089898763 8.703136013904338 12.219167866470857 5.007420581675994 0 0 0
119 2 -0.9480859740556135 14.851340468411697 12.912634351662973 4.080511916526132 0 0 0
176 2 -0.912729107679311 9.599709512716048 11.089398333894422 4.4081507210996005 0 0 0
156 2 -0.8859670118050325 13.192102299194277 14.638225207906647 4.370220866777909 0 0 0
175 2 -0.9144439238013604 9.566104115446521 9.63696492228996 2.4278906138161305 0 0 0
155 2 -0.9615560345051323 11.130655142978538 14.951692465377116 5.960172588844991 0 0 0
202 3 0.4435944986672706 9.089191131532882 15.264649546853912 5.62244838265504 0 0 0
49 1 1.773767459068695 8.635941176661525 8.642251864984908 1.6561488581259773 0 0 1
118 2 -0.9039790340074122 15.124770129000197 11.19579325986586 6.003776625744285 0 0 0
55 1 1.884002955986801 12.13124912789091 12.139406431520626 1.7226314265385736 0 0 0
37 1 1.821069765100342 12.122562843163337 15.566065905443065 4.975315375994959 0 0 0
192 2 -0.9305748914340333 12.748915988679157 13.02586631148455 9.517750204421652 0 0 0
186 2 -0.8867844322036046 9.197226496588016 9.514917196427957 9.495307837649474 0 0 0
189 2 -0.9506123466360188 11.133257230868182 11.008542291707544 9.259175602057098 0 0 0
52 1 1.635561837639545 10.40352702065651 13.977126640016005 6.883322933330434 0 0 0
54 1 1.851254529985596 13.985773524971282 10.347224706333355 6.78179023979865 0 0 0
58 1 1.751438603138772 10.387124724464114 10.183348691983843 10.305911716842623 0 0 0
63 1 1.759454849451865 12.099719813534293 11.974042310318255 8.546044378595752 0 0 0
64 1 1.754744306478699 13.651718761304897 13.945247368614499 10.256876804768055 0 0 0
93 2 -0.9448484760488342 14.39179659235695 15.02144010420908 9.378036461643362 0 0 0
132 2 -0.9635396722518124 14.613114220717375 9.318478255758741 7.681231909260442 0 0 0
163 2 -0.9313311975346328 9.301692415547375 14.791853775666672 7.688283092509564 0 0 0
180 2 -0.9013105817239345 11.109035998825016 12.841411330067993 7.79064846962001 0 0 0
182 2 -0.9434622502438968 13.157945116958214 11.285391571325478 7.555341032512511 0 0 0
215 3 0.4481717220711486 9.402020217354938 11.942949876338092 8.331210257593092 0 0 0
27 1 1.753966080575251 15.505169875864796 12.143256000601214 11.962682909057365 0 0 0
60 1 1.873261360408659 10.373076348646629 13.772278601538689 14.028766509557208 0 0 0
62 1 1.960582445004784 13.83560590524567 10.485396868885704 13.838988464184261 0 0 0
113 2 -0.9956056415946694 14.749713651465933 9.481601814677934 14.491434890155901 0 0 0
137 2 -0.9548636910597562 14.620413502543988 11.487304375164788 13.006230192351488 0 0 0
187 2 -0.883957523166314 9.602346758433917 11.201112129871301 11.178926096198094 0 0 0
146 2 -0.9168362750494281 9.316268698922325 14.427082998642852 14.965014492887295 0 0 0
171 2 -0.9339332718869922 11.23303798903571 14.825268983891327 13.344945498849846 0 0 0
61 1 1.931992568472361 12.193951138107542 8.668337217833642 12.133474902676205 0 0 0
184 2 -0.9902878495059889 11.257809923795401 12.77252877999396 14.746593208293982 0 0 0
185 2 -0.9281403175600066 13.106076309562253 11.172379620927474 14.999716662645989 0 0 0
191 2 -1.008934845765906 12.912802041183523 9.777955766632601 12.852938125285624 0 0 0
203 3 0.4082856300922135 15.290364748319053 15.152520487036996 11.26624977322348 0 0 0
190 2 -0.8810337013475888 9.607383622785754 13.098693652121947 12.861717852228681 0 0 0
172 2 -0.8909875581887461 12.975144608704767 14.622432441327412 11.519041733565876 0 0 0
138 2 -0.8948319217803736 14.76143596006825 13.138055647439039 10.975613460743537 0 0 0
59 1 1.693773873958829 8.682934304207048 12.109432335175036 12.091223681674805 0 0 0
194 2 -0.5772286677720719 15.539929815796343 15.586378412194886 12.081259572591163 0 0 0
45 1 1.887727534663848 11.99859432368638 15.593027670742444 12.24796213622159 0 -1 0
17 1 1.860173416370113 15.369973100064977 8.585743115217081 15.517735284216059 -1 0 -1
188 2 -0.9513827528801883 11.310333183590132 9.189375542544655 11.063882005677455 0 0 0

Velocities

2 -0.0018840326115432628 0.002130786231968348 0.002672790924879428
89 -0.006176374460533991 0.0016709146490553226 -0.0011104550182007645
87 0.0002605601755224604 0.004552972908754419 -0.0034634538016581006
82 0.002098811663460205 -0.001912490623909858 0.0008248362180235258
8 0.0010459511660172137 -0.001571237332605047 0.0011752812351596557
72 0.0014992583611665806 -0.003677568371698203 0.0019476899977778194
88 0.002901012917905907 0.0059128275038598365 -0.0024893140996042565
65 0.004298983230465448 0.004284235167694818 0.0026753257460496145
69 0.002954190256651452 0.00241496141368122 0.0013443411281942662
70 -0.004292260727441972 0.008093016303319845 -0.004673783307928393
71 0.0005659647133462348 0.0009740152198507834 -0.005249902657767866
193 -0.00021412008010930262 -0.00021780876111879163 0.0015205193530076174
84 0.0017330018975983562 -0.008042583911051901 -0.011595945843631168
78 0.0015287283969821386 0.009110634712918623 0.0015426547318135198
3 -0.0015297384795759207 -0.001170671526864121 0.0004465587273509282
208 -0.013351554795725624 -0.006243746526767256 0.012700354706915783
76 -0.0015411943958345935 -0.0020127324624398374 0.0024479510935319537
7 0.005312181900419319 -0.004502107771691727 -0.002352644231199577
4 -0.0029057210853230694 -0.004652629064250891 -0.0006483582048245255
6 -0.003213642987595812 -0.0011683641713381393 0.003199513243850337
10 0.0002165482931517983 0.0012658023025485631 -0.001671248429948033
15 -0.0018487683009743377 -0.004960986360918932 0.00161007482087808
16 0.0007720932988539133 -0.005055937648616173 0.002681850631929641
75 0.003252289506496071 -1.1862309730108456e-05 -0.0025145248612557067
77 -0.0027790133036798333 -0.003936488891607093 0.0021280113852762323
81 -0.000558042847474367 -0.001986928492815719 -0.002818517179905627
83 -0.0028925036327985434 0.0008021532313660194 -0.0020855333950692266
90 -0.0025349347765842353 0.0020302747645218272 -0.006193511101711846
96 0.0010922502117539396 0.0034403054161309676 0.004314388342097603
107 0.0015416575767086117 -0.0009974314353493603 -0.001157430600546909
110 0.005119968858528578 -0.005369663142253604 -0.002622098159162646
41 -0.0020242539439758686 -0.0005990058929903659 0.0005458040017074793
205 -0.009107632400683147 -0.0059645758816618205 0.030084365398121284
95 -0.0017628917769529908 -0.0062790153204399235 -0.006421026267799535
12 0.000523709285091835 0.0036876912761834926 0.0025423352103672125
106 -0.003549029824874141 0.0028095945777779404 -0.001833746380198168
14 0.0002002715593093812 -0.0004277605934103106 0.0015456623932479552
105 0.005714090561354583 -0.004739655328205394 -0.006213823023366482
108 -0.0022349129684831937 0.0038082601228642595 -0.002091127447900241
85 -0.0008664881570791002 0.004867838808919037 0.0043742699647223915
86 -0.0001014333835161375 -0.001742921215807044 -0.0007229304979276658
94 0.00625037711462844 0.0019087292876008189 -0.000592077774107376
109 -0.009697738981236674 0.004617770572487356 0.0003248305722516612
97 0.002816429345857719 0.004314787096711355 0.0020114803201131556
100 -0.0005701459067216108 0.003057255020829549 -0.0064860743560531476
101 0.0015376147071791784 0.0008923690151188551 -0.0017162152147372797
102 -0.0034297723964924584 0.002227508732547992 0.0031474092185887364
196 -0.000791715650563956 -0.003146254926637518 -0.0005137617836852053
29 0.0024910555317862685 0.0010802671312998846 0.005577790711651171
204 0.007796438300114471 0.00653721002098865 -0.010495102607452969
43 0.0027733775875847643 -0.00034529682922682266 -0.00017621679628656927
11 -0.0014247803848477548 0.0014198124668614205 -0.0033916924357396197
18 -7.636909040252173e-05 0.003553156003101993 -0.0017084645298986428
128 -0.00016339290197845007 -0.0007100290997015232 0.004784493435507139
121 0.0018393667695877761 0.006289428893970636 -0.007960341356047389
24 -0.0006869482003721278 0.00137736645975154 -0.0008658160250405815
123 0.0018612744195335986 -0.0006370977948634337 -0.002131333532930981
80 0.0070032012037502195 0.001216142958320498 -0.001017032245947863
111 0.002805566256709397 0.002888393584050264 0.001688826867559388
114 -0.011146307517055927 -0.0014039632678119474 0.0003087792658416498
115 -0.002352597202496219 -0.0024765998347822805 -0.0038595782001931375
116 0.0022399706247147244 0.002620213312896466 0.001302595977269834
129 -0.0012857976243342746 0.00022901488052548617 0.0006906942486406747
117 -6.228759199969407e-05 -0.003046366067832577 -0.0012785854743882943
19 -0.002121833850772229 0.0013959219174843535 0.006773638107271419
125 -0.002523573585652343 -0.006310383171577499 0.00483152747128838
21 -0.0003309460075535076 0.0022745079242829703 -0.002355759300322148
201 0.002332792577682721 0.028088644524793472 0.02703602090962539
5 -0.0015389317864402908 -0.003495208260701908 0.0018523353797821303
20 0.001512569249197994 0.005768620246660431 0.0035986465340533008
22 0.001977039433731121 -0.0008396948852162202 0.0026941420891267616
26 0.007265171053882087 0.001417533476378452 -0.0012027266871234908
31 -0.0027600035364166043 2.44224519138267e-05 0.0004938333037468903
32 0.0007075354381487836 0.005034659438393023 0.006525401806378582
211 -0.01142981026355952 -0.024027949301778994 0.015936378151039647
91 -0.0026073976206822604 -0.0021193654099377537 -0.001764399987204365
120 -0.0014043225793550565 -0.0010362102174377 0.0010500808670067586
122 -0.0018739928651171297 -0.0004578615549832585 0.005028905252322665
124 -0.0004304067884393777 0.006553808701629332 0.0008481444540531371
130 -0.005802772794122221 0.0018909102578682693 -0.0021271891288813074
135 0.0047065062054837264 -0.0006294038188411379 0.0088264859766178
142 -0.0016357287286078435 -0.00549157725654013 -0.0009583211419823529
143 0.006270621223732359 0.004812873406485786 -0.0014434432219030643
198 0.009150976827903754 6.896301918694043e-05 1.5395715037924504e-05
212 -0.0222369749089335 -0.0056922938396186205 -0.008592180550553299
216 -0.00598275485949364 0.004242831563912173 0.01370957648634627
200 -0.0003352076254778706 -0.0015616767977972709 0.004755859532525755
57 0.0020283075686098094 -0.004320286526248195 0.002980710432596505
79 0.0008506767590171413 -0.00312506444487998 0.0025837522681426786
28 0.002492196981974616 -0.0036620406120070692 0.003301925079910342
210 0.004766253187553042 -0.005236090675715779 0.006479719514041264
30 3.5393282450591315e-05 0.00018077794280709874 0.0028061843301792817
214 0.024804489222486324 -0.026158075610142058 0.009350061314857583
66 -0.006781872439846235 -0.004132902559195019 0.00010116205142064059
103 0.006003066385759412 0.001587940065265804 -0.003622015045353831
104 0.0030258284683915997 0.002210437405071716 -0.000782432210210479
126 7.011216982987744e-05 -0.0005450150478825615 -0.008670956973966809
127 -0.004494665536398746 0.0031111235220399516 0.00717123595128884
133 -0.008346442698072531 -0.003290656893228977 -0.005589341840329985
144 0.007418538202594279 0.002475588960584738 0.004962094286383686
136 0.004390007378745279 -0.0030304626928823897 -0.006260800718847103
139 -0.0010474919429464729 -0.0027920010026950483 -0.0012512041909737304
140 0.0005252288352731075 -0.0026653369026665807 0.0023162525390375316
141 0.004856770902426571 -0.0018708873205762501 0.003737657415911365
134 0.0007004582754046246 0.007924391236564805 -0.0034669359356205745
197 -0.003959423764049151 0.002962462950033816 -0.0006448343442834919
199 -0.0019007313934699648 -0.002901498836433266 0.003899272233403393
209 -0.016439502287479153 -7.545084714353574e-05 -0.0090569285576222
213 -0.008167349897103122 -0.011141374420047619 -0.006131797987274554
23 -0.0014438124162026995 -0.0009493556621933714 -0.0017423019773621137
13 -0.001478535850139422 -0.005259131418714091 0.004402475870331389
33 -0.00382771918287017 0.0017701023882203766 -0.00399572406479769
34 0.003488241265776077 -0.0015092303498420647 -0.005311298967973982
161 0.0043877661364652275 0.0016589046405053544 -0.0018360460720545054
40 0.004185636346486369 0.00366225375604841 -0.00336156051411573
150 0.0015065160959531307 0.003281113597921434 0.002155295561128855
74 -0.005569932784985114 -0.0010735040133352672 -0.004354095815442915
112 -0.0009945225396698358 0.0075492271066410176 -0.00031863849648716013
145 0.0033067975285569072 0.0024185880944902036 -0.008852160780401254
147 -0.002660532670692569 -0.0029073715616930256 0.002748329084674886
148 0.0027137246361269777 0.002028570631999086 -0.005821807343640394
149 0.002437972039254588 -0.0034130196274353977 -0.003606590974996352
53 -0.00452798695173264 0.004863545238428822 -0.0011040656127032544
73 -0.0024116291958289674 0.002186490110413428 0.0009627915214655154
154 -0.007802055318414377 -0.003018008660362896 0.0011993252437844197
158 0.003386657245071489 0.006513477069881923 -0.003911632628121439
207 0.004080777358898648 0.004894081562939777 0.0489453053215832
35 0.0006531097156249212 0.003422679035167839 0.0034831331071813326
36 0.0037330173699476553 -0.0016947282629459694 -0.0007815479954026488
38 9.600067871889463e-05 -0.004415890285228587 -1.8585755526646534e-05
42 0.00040272819025204983 -0.0009357315093893903 -0.00026908962017221797
47 0.0033124804946490843 0.0016623762637300882 -0.003900912686037498
48 0.0019422851347497166 -0.00041088921306181825 -0.0008921822327548721
92 -0.0009326799859883635 -0.002441330352777763 -0.00439072319372597
131 -0.0033343340633425547 -0.001069997017996381 -0.0079248805397663
151 -0.004773327880274116 -0.002017225387129942 -0.0067768292008534795
153 -0.000550085173943383 0.006361723332651871 0.00014635795935980794
157 0.0003018938151180258 0.0011022511379083035 0.00178826772939181
162 0.004087855628310777 0.0034526903432153667 -0.0026466055343239456
166 0.0003767649187197207 0.000359905988504852 -0.0060387253625929106
173 0.00015665973841480136 -0.0034702263535252922 -0.0012884285005294344
206 0.0062127608983157745 -0.0032930487799159194 -0.010001850315377094
195 -0.002205296775390195 0.0006652785110653678 -0.00022881857336412264
25 -0.0021354509967170623 -0.004138951076411372 -0.0008323360369053779
152 -0.004676582114504079 -0.0007614432194949319 0.00016112657629038286
9 -0.005562840930888716 -0.003400790729333856 0.0009221037571795045
164 0.007382620894642241 -0.011213748243146528 0.010246391448666273
44 -0.0019644915110128033 6.0793696596364066e-05 0.0004174632989842929
170 -0.001330073138201787 -0.0014217249187669964 -0.0011758149518862537
46 -0.002768362028136679 0.00189571732472921 -0.0003152772708581649
169 -0.003332672594310155 -0.00038515269815934125 0.0071154772852829095
168 -0.004707954191732162 0.003040761659624259 -0.003742865111089689
67 -0.0003778695109713302 -0.002084323871011349 0.0011683665595903603
98 0.0012275294056752909 0.008360154408734707 -0.0055341405310151415
99 -0.005900906192556478 -0.002005290182022072 0.0015250219930735842
159 0.002159313342422366 -0.0018666864204047878 -0.00038175739499390275
160 0.005129714512257131 -0.007212471813430427 0.004160325501160744
165 -0.0053716457649416165 -0.001817522485747711 -0.0024810777102761794
174 0.00014358395417140668 5.3319697382056885e-06 -0.0015492472909796045
167 -0.0006735582652628787 -0.004040748255002917 -0.0014078350230969283
39 0.00043874027266799475 -0.005819932456083898 -0.0031581880440197173
1 -0.00010369279840671126 -0.0007687191064080873 0.001715887297831472
183 0.0018773173632022633 -0.001674503506117193 -0.003051081899174038
177 0.0025445877734400226 -0.0028138839211256303 0.004328477771306193
50 0.0002987020969854187 0.005737832188213335 -0.0005032176399312377
179 -0.0056450521842871665 0.0009450843461774718 -0.004529004789886453
181 0.008194710386251268 0.0016484292689441847 0.0003965498946259046
178 0.007451629787918913 -0.002659845810744028 -0.0033664875383546487
56 -0.0025255692360389857 -0.003079960461871784 0.0025652427924477248
68 -0.002326472379676046 0.005599536640935374 -0.0011933900961049776
51 -0.001553135370677384 -0.003402554307776303 -0.0036750553425232532
119 0.00017437928905295546 -0.003506516426998966 -0.0014209681446308805
176 0.0011529252115911187 0.003421160951351123 -0.0018978614826358285
156 0.002270087614076454 -0.0037687535351079017 0.002707665843728255
175 -0.00564545817008449 0.006664920370848733 0.0011702905610918568
155 -0.002143980610052801 0.004024925667828804 0.0020108397543682423
202 0.0035825363775613423 -0.007899877640914392 0.033476391984500045
49 0.004382530582715604 0.0013843835057805298 0.004100814781400404
118 0.0016823951341110787 -0.0015446675084931668 6.743656065166436e-05
55 1.2319358624939692e-05 0.0031567731996458145 0.0008313783536562113
37 -0.00010300098828049854 0.00294458151305648 0.001807003311581815
192 -0.0002968258251482685 -0.004325606027101391 -0.0026470206491683913
186 0.0003330201583658 0.001186767236704065 0.0016050777046076575
189 -0.000559548516221259 0.0025237251054926395 0.005760428946523041
52 -0.006083319814485482 -0.0021139623107888955 0.0018364313405325285
54 0.0022722675061167697 5.7809995988105956e-05 -0.002734631233434872
58 0.004250195629335861 -0.0004387076346094664 0.005311853028553836
63 0.004438379758798683 0.000368749625638378 0.00014756169426673519
64 0.0018412679985145128 -0.0035401209341947913 0.004885382308733619
93 -0.0014827910453306184 -0.006968094421338775 0.0025822869084282485
132 -0.008301178957175095 -0.0008301307806536283 -0.002425040846894024
163 0.0034400074221142118 0.0022174714366648704 -0.0016559758234830336
180 0.004384658412583491 -0.000237203661939415 0.006907418256523299
182 0.0029791775971361035 -0.001562401855450001 -0.001368540942213174
215 0.018274044037490375 -0.0138427879680851 -0.015108902505357086
27 0.0011163001250114935 -0.0027786508544570304 0.0009176960645253623
60 -0.006168253276430955 0.0029047260387092453 -0.00566882138224261
62 -0.0019941823146915616 -0.0023289911556412446 0.0035770429593192142
113 0.006502590245775349 0.0013461553948575188 -0.0010919537181470857
137 0.0028123249404320904 0.005751113237034458 0.0005101008742053488
187 -0.007765178593908653 0.004043306707824458 0.0012403243248618268
146 -0.008477622209677549 -0.0026722958302315765 0.0006492719246864255
171 -4.550630390204402e-05 0.0054494321134115325 0.0009855042736490024
61 0.0016055871425961002 0.004118845679649481 -6.528068599296718e-05
184 -0.0006299055259639464 0.004281445382823626 -0.004652791391113255
185 -0.0014138927170646352 -0.004238444518389922 -0.0014595644990238583
191 -0.006759429409890512 -0.0016958505795901372 -0.0043472833419565095
203 -0.00948397124796566 -0.0009542130199825886 -0.029965547624473666
190 0.007420250037145048 0.002396283346274567 0.001683277605832439
172 0.006754655281325119 0.002794111805717911 -0.0002541799668559474
138 -0.004930960604748867 0.0021663249317624743 0.00011438442939491576
59 0.00043863023685015794 -0.003455326546566298 0.007217924898719374
194 -0.0015927186714226643 -0.005677425083559145 -0.008471621101965999
45 0.004722470560250304 0.004251842464129125 0.0008015048844343335
17 0.00021098259548561833 -0.0018050145139342523 0.0003311794356359388
188 -0.0033724417838625993 -0.0008286300201184594 0.0030294820066838336
