ITEM: TIMESTEP
0
ITEM: NUMBER OF ATOMS
228
ITEM: BOX BOUNDS pp pp pp
0.0000000000000000e+00 1.7160000000000000e+01
0.0000000000000000e+00 1.7160000000000000e+01
0.0000000000000000e+00 1.7160000000000000e+01
ITEM: ATOMS id type q x y z
1 1 0.86269 17.1319 0.0443551 0.0157168
2 1 0.91897 2.19958 2.1123 2.17583
3 1 0.893867 0.01399 4.32898 4.23083
4 1 0.885304 2.14614 6.38209 6.41176
5 1 0.912565 4.26906 17.1314 4.34065
6 1 0.847997 6.49401 2.17411 6.47788
7 1 0.912082 4.27786 4.23764 0.0197045
8 1 0.865236 6.45944 6.38243 2.12427
9 1 0.911651 17.158 17.1534 8.63782
10 1 0.909122 2.12131 2.13593 10.6806
11 1 0.89298 17.1303 4.31551 12.8273
12 1 0.891358 2.1969 6.38821 14.9821
13 1 0.864781 4.265 17.1249 12.8166
14 1 0.878255 6.38319 2.11552 14.9689
15 1 0.858274 4.2791 4.28259 8.63875
16 1 0.758111 6.46145 6.48742 10.7691
17 1 0.847266 17.1255 8.57078 0.018004
18 1 0.855362 2.16855 10.7523 2.16369
19 1 0.92094 0.029169 12.9051 4.31845
20 1 0.891156 2.15756 15.0085 6.45967
21 1 0.896677 4.27781 8.56303 4.24707
22 1 0.872527 6.40854 10.7847 6.40761
23 1 0.912506 4.33652 12.8217 0.0319019
24 1 0.777018 6.48287 15.0619 2.14349
25 1 0.889561 0.0310352 8.59039 8.57193
26 1 0.901884 2.11457 10.7634 10.694
27 1 0.893232 0.0127935 12.9161 12.895
28 1 0.870812 2.1191 14.9899 15.0506
29 1 0.884579 4.28919 8.5899 12.8768
30 1 0.885816 6.43321 10.772 14.9652
31 1 0.900019 4.23911 12.8424 8.52738
32 1 0.931851 6.39432 14.9608 10.7284
33 1 0.814642 8.63748 0.00750456 0.0489433
34 1 0.891306 10.6934 2.17915 2.17214
35 1 0.852228 8.56728 4.31053 4.28317
36 1 0.90805 10.7735 6.48707 6.37781
37 1 0.910144 12.8176 0.00368157 4.33021
38 1 0.880844 15.0733 2.13356 6.38973
39 1 0.873398 12.838 4.26194 0.00135062
40 1 0.789361 14.97 6.40795 2.15272
41 1 0.794278 8.6231 17.139 8.58495
42 1 0.885499 10.6832 2.13417 10.7334
43 1 0.902128 8.62623 4.28712 12.8389
44 1 0.927971 10.6754 6.45215 15.0445
45 1 0.793446 12.8854 0.012902 12.8821
46 1 0.875742 15.0132 2.18688 15.0421
47 1 0.892469 12.9061 4.31864 8.52816
48 1 0.922334 15.025 6.44452 10.7211
49 1 0.899589 8.60468 8.57027 17.1397
50 1 0.891397 10.7037 10.6718 2.19642
51 1 0.876197 8.5688 12.8755 4.32921
52 1 0.88244 10.7823 15.0303 6.41435
53 1 0.878557 12.8364 8.62075 4.307
54 1 0.787722 15.0417 10.7478 6.47677
55 1 0.907218 12.8742 12.8844 0.00699674
56 1 0.882044 14.9595 15.056 2.20213
57 1 0.882057 8.55126 8.61251 8.58759
58 1 0.924167 10.7509 10.6731 10.6739
59 1 0.811501 8.52305 12.8916 12.8872
60 1 0.847607 10.7197 15.0706 14.9598
61 1 0.910122 12.9172 8.55283 12.8169
62 1 0.837018 15.0318 10.7308 14.9921
63 1 0.865109 12.8424 12.9182 8.62007
64 1 0.854249 14.9752 14.9651 10.6737
65 2 -0.435185 1.11508 1.0937 1.05611
66 2 -0.450834 1.11514 16.1076 16.1143
67 2 -0.460086 16.1397 1.01269 16.0314
68 2 -0.46493 16.0352 16.0596 1.06778
69 2 -0.446125 1.06083 3.20398 3.21358
70 2 -0.468242 3.16935 1.11683 3.20126
71 2 -0.458833 3.19841 3.21828 1.02176
72 2 -0.455328 1.08398 5.40375 5.30811
73 2 -0.452803 16.1437 3.22592 5.39196
74 2 -0.44579 16.0979 5.3539 3.20722
75 2 -0.451452 3.21186 5.34388 7.53959
76 2 -0.439412 3.24434 7.49359 5.41008
77 2 -0.43 1.04258 7.54565 7.5161
78 2 -0.461876 5.31086 1.04345 5.33075
79 2 -0.45538 3.23698 16.1279 5.34349
80 2 -0.448254 5.32367 16.088 3.23164
81 2 -0.485123 5.36895 3.17442 7.50361
82 2 -0.494063 7.51115 3.18207 5.42116
83 2 -0.519884 7.51806 1.12892 7.53234
84 2 -0.45089 5.30881 5.34333 1.13173
85 2 -0.441532 3.18336 5.31196 16.106
86 2 -0.442979 5.32114 3.25027 16.0619
87 2 -0.448032 5.33109 7.5562 3.20424
88 2 -0.470283 7.53512 5.41686 3.23175
89 2 -0.443027 7.53381 7.5426 1.02656
90 2 -0.462295 1.0636 1.07316 9.66756
91 2 -0.442448 1.06938 16.1203 7.52701
92 2 -0.435344 16.0689 1.02071 7.49063
93 2 -0.441041 16.1083 16.102 9.65371
94 2 -0.442236 1.1048 3.27648 11.7971
95 2 -0.43893 3.18924 1.08135 11.764
96 2 -0.455571 3.20504 3.18567 9.61067
97 2 -0.440397 1.07336 5.33194 13.9433
98 2 -0.431965 16.0738 3.24544 13.946
99 2 -0.46203 16.04 5.34746 11.754
100 2 -0.405182 1.12226 7.52567 16.101
101 2 -0.446818 3.15918 7.56266 13.9847
102 2 -0.470715 5.35506 1.10493 13.9817
103 2 -0.429502 3.22885 16.0541 13.97
104 2 -0.419282 5.34394 16.1293 11.7953
105 2 -0.402627 7.56232 1.13189 16.0423
106 2 -0.431903 7.55076 3.26903 13.9312
107 2 -0.400427 5.36377 5.38817 9.63857
108 2 -0.458383 5.39463 7.5364 11.743
109 2 -0.441742 7.55796 5.33893 11.8154
110 2 -0.573269 7.51272 7.5645 9.61118
111 2 -0.443462 1.09528 9.6803 1.05496
112 2 -0.45518 16.0715 7.51405 1.05999
113 2 -0.560702 16.1414 9.69381 16.0494
114 2 -0.45826 1.04505 11.8277 3.26342
115 2 -0.448625 3.23907 9.61752 3.24642
116 2 -0.462762 3.27462 11.7784 1.0341
117 2 -0.458587 1.11777 13.9208 5.34682
118 2 -0.435148 16.1289 11.762 5.32004
119 2 -0.447527 16.1017 13.9606 3.25815
120 2 -0.465205 3.18074 13.9611 7.51138
121 2 -0.445072 5.30914 9.65686 5.41342
122 2 -0.449451 5.30608 11.8066 7.51759
123 2 -0.47885 7.48118 11.8267 5.32523
124 2 -0.444838 7.47626 9.63373 7.54922
125 2 -0.501554 5.4134 13.9233 1.09759
126 2 -0.443279 3.22928 13.9483 16.1022
127 2 -0.452631 5.32394 11.8325 16.0661
128 2 -0.464599 7.5616 16.079 1.10981
129 2 -0.515505 7.51749 13.9323 3.21112
130 2 -0.453076 1.09965 9.62299 9.59794
131 2 -0.454077 16.096 7.44854 9.67604
132 2 -0.441651 16.0938 9.70729 7.45248
133 2 -0.434778 1.07982 11.8189 11.8198
134 2 -0.415016 3.20077 9.68883 11.7655
135 2 -0.449604 3.22117 11.8196 9.69513
136 2 -0.483318 1.10017 13.9022 13.9098
137 2 -0.429459 16.0601 11.7875 13.9584
138 2 -0.489793 16.1395 13.9282 11.8396
139 2 -0.446226 5.30895 9.67218 13.9048
140 2 -0.426517 7.53836 9.62201 16.0443
141 2 -0.474428 7.45595 11.8489 13.9733
142 2 -0.44714 5.41247 13.9935 9.62559
143 2 -0.456902 7.52424 16.0415 9.6327
144 2 -0.496963 7.49648 13.962 11.8001
145 2 -0.587753 9.70314 1.04848 1.13221
146 2 -0.448516 9.66108 16.1041 16.0381
147 2 -0.480938 9.59363 3.1687 3.23037
148 2 -0.444442 11.7832 1.12148 3.27126
149 2 -0.458989 11.8168 3.17903 1.0863
150 2 -0.459019 9.63546 5.41541 5.34427
151 2 -0.45346 11.7734 5.39128 7.55463
152 2 -0.470725 11.7528 7.50435 5.38752
153 2 -0.453105 9.69182 7.52979 7.46529
154 2 -0.441613 13.9042 1.09673 5.40604
155 2 -0.468602 11.8156 16.0954 5.32257
156 2 -0.445394 13.9054 16.0413 3.23426
157 2 -0.434293 13.9025 3.18968 7.53935
158 2 -0.403663 13.9857 5.41319 1.02053
159 2 -0.438894 11.7808 5.41759 16.029
160 2 -0.445105 13.9612 3.23452 16.1221
161 2 -0.500583 13.8892 7.55919 3.17257
162 2 -0.455073 9.64295 1.07161 9.7093
163 2 -0.459456 9.63866 16.0523 7.48305
164 2 -0.46409 9.66926 3.20413 11.8031
165 2 -0.481496 11.8197 1.08211 11.8233
166 2 -0.417518 11.814 3.18683 9.59572
167 2 -0.455768 9.70702 5.3946 13.9586
168 2 -0.471942 9.71097 7.49163 16.0864
169 2 -0.421689 11.8296 7.56276 13.9177
170 2 -0.447442 13.9431 1.01748 13.9858
171 2 -0.532385 11.8288 16.0379 13.9438
172 2 -0.477634 13.8976 16.1417 11.8191
173 2 -0.451058 13.9806 5.35878 9.66449
174 2 -0.469131 13.9342 7.48175 11.8099
175 2 -0.447537 9.6453 9.67668 1.08777
176 2 -0.454666 9.62518 11.7536 3.24895
177 2 -0.481512 11.7393 9.63135 3.26469
178 2 -0.434234 11.8289 11.7838 1.06112
179 2 -0.437755 9.66872 13.8831 5.34575
180 2 -0.45613 11.8322 13.9717 7.51282
181 2 -0.451748 13.9974 9.67014 5.39106
182 2 -0.547449 13.9485 11.8435 7.46638
183 2 -0.432033 13.9276 13.9945 1.01601
184 2 -0.42444 11.8487 13.9565 16.0657
185 2 -0.482035 13.9279 11.8295 16.0384
186 2 -0.456938 9.70723 9.6699 9.66499
187 2 -0.417183 9.65323 11.7625 11.8105
188 2 -0.441603 11.7445 9.6202 11.7642
189 2 -0.475064 11.7603 11.767 9.65031
190 2 -0.463161 9.70059 13.8947 13.9575
191 2 -0.42785 13.977 9.69882 13.891
192 2 -0.518252 13.8858 13.9424 9.66066
193 2 -0.562961 13.4987 15.1683 16.6049
194 2 -0.563171 7.00008 16.2235 6.54103
195 2 -0.550729 6.97041 12.5348 1.6232
196 2 -0.575367 12.5367 12.8292 12.85
197 2 -0.546654 13.1264 15.8811 10.5805
198 2 -0.595788 7.74562 1.84841 0.713046
199 2 -0.69245 6.2595 5.77044 8.02587
200 2 -0.550615 14.7592 12.8108 5.83276
201 2 -0.579322 6.35564 15.1173 13.0339
202 2 -0.550679 17.0723 11.4448 14.9499
203 2 -0.568905 5.51202 7.70356 9.1621
204 2 -0.542995 14.2052 7.26045 0.697161
205 3 0.355527 14.4031 15.1475 16.2837
206 3 0.386618 12.9996 15.5737 15.892
207 3 0.389907 7.34455 16.9296 5.98936
208 3 0.397272 7.19372 16.5035 7.43863
209 3 0.418501 6.55906 13.3697 1.85829
210 3 0.391567 7.21216 12.1406 2.46451
211 3 0.349905 11.9491 13.4369 12.3949
212 3 0.344757 13.4187 13.1231 12.6106
213 3 0.395134 12.636 16.5848 11.0118
214 3 0.338362 12.8696 15.0853 11.0521
215 3 0.442947 8.68154 1.64706 0.78456
216 3 0.372197 7.37631 1.57744 1.55672
217 3 0.375284 7.21596 5.78836 7.94543
218 3 0.388313 5.98087 5.07438 7.42632
219 3 0.370565 14.3693 11.9637 5.60492
220 3 0.430382 14.7711 12.8196 6.79264
221 3 0.386863 6.8094 14.3251 13.3306
222 3 0.369214 6.52041 15.7621 13.7258
223 3 0.414026 16.834 10.8409 15.6571
224 3 0.352336 16.8727 12.316 15.3003
225 3 0.419779 6.20052 7.67471 9.83047
226 3 0.493359 5.80937 7.09234 8.48417
227 3 0.401127 14.4788 8.18045 0.67895
228 3 0.32242 14.1099 7.05646 1.63038
ITEM: TIMESTEP
40
ITEM: NUMBER OF ATOMS
228
ITEM: BOX BOUNDS pp pp pp
0.0000000000000000e+00 1.7160000000000000e+01
0.0000000000000000e+00 1.7160000000000000e+01
0.0000000000000000e+00 1.7160000000000000e+01
ITEM: ATOMS id type q x y z
1 1 0.883702 17.1666 0.0471316 -0.00122855
2 1 0.928757 2.15101 2.13721 2.13178
3 1 0.881377 0.0134854 4.2977 4.25554
4 1 0.938003 2.12781 6.47516 6.39264
5 1 0.900227 4.28364 17.1498 4.27888
6 1 0.861284 6.44883 2.17307 6.40592
7 1 0.939363 4.32003 4.23977 0.00801042
8 1 0.908575 6.43057 6.42236 2.12844
9 1 0.913276 17.1722 17.1254 8.60084
10 1 0.890205 2.10815 2.16954 10.6703
11 1 0.911642 17.1863 4.28542 12.8366
12 1 0.900382 2.20193 6.43266 14.9831
13 1 0.942063 4.18671 17.2414 12.7622
14 1 0.917381 6.3974 2.10127 14.9088
15 1 0.890083 4.37017 4.38994 8.59526
16 1 0.816172 6.34828 6.56243 10.7463
17 1 0.857218 17.3436 8.42449 0.103446
18 1 0.872814 2.18737 10.692 2.12156
19 1 0.982648 0.123079 12.78 4.27336
20 1 0.865125 2.19165 15.007 6.45638
21 1 0.913388 4.29996 8.56799 4.2704
22 1 0.84937 6.41303 10.7421 6.43333
23 1 0.95784 4.23475 12.9229 -0.0660024
24 1 0.847101 6.44006 15.0118 2.08922
25 1 0.934517 0.0266324 8.592 8.55624
26 1 0.926347 2.18173 10.6967 10.7009
27 1 0.920622 0.0065083 12.828 12.9745
28 1 0.892897 2.15243 15.0634 14.9489
29 1 0.871998 4.29461 8.60936 12.9047
30 1 0.866988 6.43017 10.7482 14.9841
31 1 0.86595 4.30723 12.8683 8.58722
32 1 0.838847 6.40414 15.0771 10.8901
33 1 0.784858 8.47496 0.0338462 -0.0410162
34 1 0.880063 10.8464 2.11684 2.22908
35 1 0.829746 8.5794 4.3164 4.32685
36 1 0.91206 10.7693 6.45337 6.42269
37 1 0.896142 12.8969 -0.0409018 4.35986
38 1 0.925934 14.9866 2.12233 6.44468
39 1 0.934947 12.9402 4.26657 0.00920619
40 1 0.749705 14.9826 6.41645 2.03872
41 1 0.834244 8.70515 17.1903 8.71331
42 1 0.875769 10.7423 2.17991 10.7722
43 1 0.881742 8.57815 4.30395 12.8702
44 1 0.969485 10.7422 6.44483 15.0067
45 1 0.862957 12.9737 0.00890087 13.0508
46 1 0.880784 15.1038 2.16963 15.0274
47 1 0.965255 12.9031 4.31706 8.54433
48 1 0.973187 15.0283 6.4354 10.7121
49 1 0.901395 8.58365 8.57258 17.1425
50 1 0.887081 10.7254 10.7593 2.11559
51 1 0.903222 8.62824 12.9269 4.4084
52 1 0.920891 10.7994 15.0083 6.50916
53 1 0.812008 12.9299 8.557 4.31114
54 1 0.78923 15.0205 10.8213 6.29388
55 1 0.897728 12.933 13.0649 -0.0446142
56 1 0.998514 15.0263 14.9436 2.25298
57 1 0.858016 8.66705 8.54341 8.62641
58 1 1.02162 10.7607 10.6659 10.727
59 1 0.864226 8.66626 12.7449 12.8606
60 1 0.976722 10.6784 14.977 14.9754
61 1 0.957446 12.8769 8.56071 12.8442
62 1 0.913197 14.9839 10.9215 14.7766
63 1 0.857989 12.8996 12.8176 8.67356
64 1 0.771734 14.9326 15.0896 10.762
65 2 -0.456884 1.24352 1.13676 1.12785
66 2 -0.449693 1.10538 16.0832 16.1
67 2 -0.476772 16.2286 0.941876 16.1108
68 2 -0.451532 16.0325 16.0495 1.04288
69 2 -0.4528 0.909446 3.2614 3.2231
70 2 -0.459897 3.11247 1.18135 3.19121
71 2 -0.463869 3.29619 3.22776 0.910127
72 2 -0.453351 1.21957 5.50089 5.32415
73 2 -0.438051 16.1297 3.1784 5.42471
74 2 -0.398056 15.9958 5.31806 3.27206
75 2 -0.435838 3.16857 5.35592 7.60539
76 2 -0.461585 3.21199 7.36198 5.44345
77 2 -0.458326 0.965946 7.68764 7.48548
78 2 -0.483258 5.28183 1.06195 5.19529
79 2 -0.449932 3.31302 16.2476 5.3498
80 2 -0.441439 5.39116 15.8853 3.1679
81 2 -0.524274 5.48858 3.23576 7.31943
82 2 -0.508923 7.49387 3.16196 5.53778
83 2 -0.491834 7.50463 1.04684 7.61664
84 2 -0.46997 5.43694 5.36883 1.25301
85 2 -0.440026 3.20302 5.31625 16.142
86 2 -0.451806 5.23696 3.2855 16.0756
87 2 -0.459466 5.29819 7.65138 3.22361
88 2 -0.461118 7.44549 5.48916 3.18608
89 2 -0.451784 7.51847 7.61464 0.918182
90 2 -0.463617 1.095 1.18522 9.79028
91 2 -0.446879 0.97244 16.1597 7.5583
92 2 -0.445397 15.9938 0.994714 7.44305
93 2 -0.427728 16.2162 16.0943 9.6063
94 2 -0.460663 1.05595 3.36433 11.8711
95 2 -0.470797 3.17542 1.07822 11.8902
96 2 -0.424301 3.29505 3.2307 9.49818
97 2 -0.446904 0.993109 5.31775 13.8791
98 2 -0.457634 16.0382 3.19303 14.061
99 2 -0.462859 15.9859 5.38247 11.665
100 2 -0.469967 1.12462 7.56224 16.1341
101 2 -0.464431 3.11376 7.49526 14.0762
102 2 -0.481232 5.42416 1.1177 13.9469
103 2 -0.454235 3.14372 16.022 14.0006
104 2 -0.439894 5.08257 16.3861 11.6214
105 2 -0.441975 7.37595 0.965504 15.7354
106 2 -0.453745 7.55836 3.36133 13.8396
107 2 -0.424235 5.2619 5.28232 9.92279
108 2 -0.456454 5.48484 7.37659 11.9332
109 2 -0.40842 7.59797 5.45973 11.7709
110 2 -0.543449 7.81302 7.51046 9.63897
111 2 -0.485622 1.20145 9.7705 1.15048
112 2 -0.500096 16.3225 7.54008 1.10278
113 2 -0.569618 16.1909 9.78175 16.1296
114 2 -0.479143 1.05951 11.9098 3.20207
115 2 -0.455726 3.25449 9.48887 3.31217
116 2 -0.459564 3.30539 11.8049 0.912521
117 2 -0.442785 1.17583 13.7928 5.28177
118 2 -0.443536 16.4547 11.6094 5.22412
119 2 -0.479201 16.1232 14.0199 3.16981
120 2 -0.44656 3.09358 14.031 7.48599
121 2 -0.457833 5.39353 9.74884 5.48666
122 2 -0.447695 5.1905 11.8363 7.58889
123 2 -0.467247 7.54076 11.909 5.25145
124 2 -0.439692 7.45068 9.57003 7.57464
125 2 -0.463441 5.21485 14.2421 1.02119
126 2 -0.467982 3.19519 13.909 16.1522
127 2 -0.447166 5.22889 11.9393 16.022
128 2 -0.476795 7.46215 15.9479 1.12488
129 2 -0.471192 7.58376 14.1646 3.4149
130 2 -0.459433 1.09356 9.51447 9.48419
131 2 -0.468117 16.0925 7.35228 9.7108
132 2 -0.386601 16.1081 9.83072 7.49311
133 2 -0.421417 1.09311 11.8401 11.8544
134 2 -0.44975 3.22514 9.73726 11.6525
135 2 -0.439251 3.17953 11.7599 9.80037
136 2 -0.478052 1.00374 13.9432 13.8056
137 2 -0.477674 15.4771 11.8543 13.5977
138 2 -0.408454 16.1443 13.984 11.8165
139 2 -0.452853 5.22567 9.66217 13.8194
140 2 -0.440292 7.60382 9.52508 16.0533
141 2 -0.473977 7.35917 11.7502 14.0174
142 2 -0.407131 5.47403 14.0156 9.68435
143 2 -0.439021 7.49377 16.0752 9.72652
144 2 -0.48863 7.7053 13.7491 11.7883
145 2 -0.497512 9.8694 1.05303 1.16606
146 2 -0.439627 9.63932 16.1383 15.975
147 2 -0.466905 9.61423 3.184 3.19724
148 2 -0.450073 11.7799 1.16587 3.30661
149 2 -0.446287 11.8825 3.18134 1.01269
150 2 -0.458493 9.55282 5.36389 5.28439
151 2 -0.473543 11.877 5.28764 7.60668
152 2 -0.450509 11.687 7.4653 5.41299
153 2 -0.467084 9.71002 7.42005 7.39441
154 2 -0.460732 13.9639 1.18085 5.49276
155 2 -0.46466 11.8472 16.1925 5.26169
156 2 -0.460417 13.9777 15.9451 3.17537
157 2 -0.468459 13.8153 3.25522 7.5794
158 2 -0.455529 13.9956 5.07251 1.0932
159 2 -0.450748 11.7818 5.42036 15.9512
160 2 -0.440758 13.9767 3.22341 16.2333
161 2 -0.472508 14.0296 7.47773 3.39892
162 2 -0.476934 9.55958 1.01004 9.73651
163 2 -0.463193 9.79998 16.0048 7.47607
164 2 -0.45868 9.76915 3.10312 11.7927
165 2 -0.478017 11.9009 0.993149 11.7566
166 2 -0.441955 11.8068 3.23986 9.53403
167 2 -0.455393 9.7554 5.39176 14.0314
168 2 -0.46221 9.76011 7.3493 16.0777
169 2 -0.459697 11.9002 7.64415 13.8967
170 2 -0.475696 13.8603 1.03052 14.0236
171 2 -0.552309 11.8307 15.901 14.1092
172 2 -0.519594 14.0706 16.2192 12.2032
173 2 -0.475483 14.0964 5.39398 9.72386
174 2 -0.473537 13.8134 7.5139 11.9194
175 2 -0.448545 9.66184 9.77082 1.18357
176 2 -0.463087 9.62335 11.7378 3.20195
177 2 -0.44212 11.7305 9.63375 3.1854
178 2 -0.412641 11.9216 11.8826 0.955751
179 2 -0.462908 9.66378 13.7783 5.42364
180 2 -0.471227 11.8365 14.0682 7.45699
181 2 -0.465113 14.1175 9.6742 5.44777
182 2 -0.505202 13.9321 11.7484 7.75569
183 2 -0.465169 14.0667 13.8494 1.38082
184 2 -0.486582 11.5579 13.9062 15.9661
185 2 -0.465515 13.9038 11.968 16.0758
186 2 -0.473936 9.84519 9.72217 9.68738
187 2 -0.488908 9.55066 11.7525 11.8895
188 2 -0.478848 11.7082 9.61293 11.6373
189 2 -0.489581 11.6645 11.6979 9.73336
190 2 -0.517357 9.69732 14.0537 13.947
191 2 -0.443489 14.0455 9.72768 13.9538
192 2 -0.468813 13.9656 13.6797 9.67436
193 2 -0.605934 13.537 15.1221 16.5647
194 2 -0.557935 6.94264 16.0744 6.42343
195 2 -0.547217 6.96374 12.3204 1.66075
196 2 -0.590308 12.5912 12.8363 12.8461
197 2 -0.584953 12.8892 15.8099 10.2132
198 2 -0.569416 7.62325 1.81052 0.806582
199 2 -0.647778 6.13798 5.56491 7.7303
200 2 -0.535938 14.6606 12.917 5.8291
201 2 -0.597936 6.25906 15.0589 13.1343
202 2 -0.54393 17.0859 11.7211 14.7879
203 2 -0.550773 5.26345 7.6984 9.27704
204 2 -0.535462 13.9285 7.55508 0.531664
205 3 0.354696 14.4368 15.1015 16.1526
206 3 0.389667 12.8948 15.3473 15.8118
207 3 0.380909 7.25327 16.8634 5.9644
208 3 0.400826 6.9309 16.3908 7.3484
209 3 0.325017 6.75319 13.3358 1.81165
210 3 0.390572 7.38002 12.0034 2.46641
211 3 0.350182 11.975 13.4242 12.4307
212 3 0.374049 13.4457 13.1383 12.5625
213 3 0.386093 12.7115 16.6496 10.7669
214 3 0.320256 12.53 15.1001 10.8084
215 3 0.369583 8.76326 2.01944 1.06572
216 3 0.363038 7.26868 1.48372 1.65665
217 3 0.364619 7.09996 5.72425 7.95004
218 3 0.402281 6.15767 4.66363 7.14749
219 3 0.298183 14.1187 12.0267 5.54415
220 3 0.386821 14.5334 12.967 6.8885
221 3 0.382727 6.92385 14.255 13.1577
222 3 0.375773 6.64536 15.7426 13.7452
223 3 0.389378 16.9272 10.3958 15.9364
224 3 0.343797 17.0442 12.4205 15.4659
225 3 0.321042 6.21923 8.04952 9.82401
226 3 0.41499 5.59471 7.24644 8.45992
227 3 0.396095 14.6855 8.21855 0.583234
228 3 0.305359 13.6165 7.29979 1.62245
