ITEM: TIMESTEP
0
ITEM: NUMBER OF ATOMS
1824
ITEM: BOX BOUNDS pp pp pp
2.6649685883089838e+00 3.1083031411690797e+01
2.6649685883089838e+00 3.1083031411690797e+01
2.6649685883089838e+00 3.1083031411690797e+01
ITEM: ATOMS id type q x y z vx vy vz
1 1 1.88858 30.8883 30.5914 30.9152 0.00503919 0.00545586 -0.00788525
2 1 1.69782 4.44513 3.75899 4.08356 -0.00128925 0.000223984 0.00682678
3 1 1.44473 2.78525 5.63779 6.05747 0.00524519 -0.0024785 0.00560022
4 1 1.56589 4.23886 7.80396 7.73175 -0.00237119 0.00461453 -0.0046213
5 1 1.65459 6.35155 30.9328 6.2378 -0.00190406 -0.00476544 0.000708139
6 1 1.6094 7.83267 4.26559 8.13553 -0.00811475 0.00197003 0.00315302
7 1 1.45781 5.99347 6.0709 2.78335 -0.00573696 0.00156469 0.00378919
8 1 1.55804 7.95296 7.84707 4.38134 -0.00845836 -0.0020353 -0.00629461
9 1 1.62269 30.9191 30.4456 9.42154 0.00404893 0.00331313 0.00802538
10 1 1.65728 4.19377 5.31753 11.8152 -0.00567377 -0.00274815 0.00255629
11 1 1.63878 30.7386 6.47564 13.7182 -0.00542689 0.000641305 0.00394974
12 1 1.51918 4.30873 7.98726 15.2645 -0.00519583 0.00366418 -0.0032063
13 1 1.75843 5.52732 2.9441 13.11 -0.00615357 0.00795515 0.00397691
14 1 1.43955 7.70009 4.28959 15.0755 -0.00236341 0.0042084 -0.00472653
15 1 1.59166 6.04338 6.32989 9.70023 -0.000176282 0.0147203 0.0171132
16 1 1.57864 7.80075 7.77994 11.6327 0.00202039 -0.00830392 0.00313569
17 1 1.80247 2.79755 2.77829 17.0478 0.00413286 0.0164166 -0.00684315
18 1 1.58288 4.35248 4.45599 19.1288 0.000925852 0.00702989 0.000441544
19 1 1.77048 30.8833 6.35665 20.6071 -0.0032619 0.00203942 0.0153375
20 1 1.58795 4.43725 7.95653 22.145 0.000447772 -0.00293003 -0.00745551
21 1 1.7322 6.29364 2.68837 20.4482 -0.00256883 -0.000669861 -0.00283873
22 1 1.65549 8.11238 4.37104 22.1645 -0.00446408 -0.00156786 -0.000605099
23 1 1.54949 5.98206 6.27505 17.2036 0.00208439 -0.000170869 -0.00223912
24 1 1.53312 7.96512 7.84581 18.9074 -0.0041004 -0.00591722 0.0024621
25 1 1.64547 2.6858 2.77059 23.7814 0.00452489 -0.00145825 -0.00120052
26 1 1.43637 4.50945 4.62045 25.4294 0.00040555 0.00402625 0.00401371
27 1 1.36127 30.76 6.0967 27.4148 0.000665533 -0.00186339 0.0095583
28 1 1.40261 4.20575 7.74227 29.2117 -0.00175775 -0.00343258 -0.0100973
29 1 1.69736 6.28764 2.87062 27.2932 -0.0035233 -0.00185935 0.00242649
30 1 1.65878 7.95676 4.44449 29.3863 0.0035957 -0.00154985 0.0105092
31 1 1.34942 6.69887 6.39715 23.7344 -0.000230323 -0.00393195 -0.00708617
32 1 1.63557 8.30449 8.22765 25.5792 0.000456205 0.00303984 0.000707896
33 1 1.61406 31.0369 9.82851 31.0306 8.35241e-05 -0.00245741 0.00792677
34 1 1.73259 4.52454 11.4867 4.47579 0.000887849 -0.00026288 -0.00434052
35 1 1.69308 31.0449 13.1031 6.2516 0.0075899 -0.00256517 0.00517031
36 1 1.49298 4.40948 14.8215 7.9984 -0.0007819 -0.00527415 0.00548159
37 1 1.52742 6.29824 9.59929 6.19973 -0.00538571 0.00543412 -0.00263457
38 1 1.71616 7.735 11.604 7.98622 0.00997545 -0.00246699 0.0076483
39 1 1.51478 6.34959 13.2878 2.83271 -0.00934288 0.00404761 -0.0119836
40 1 1.73564 7.97334 15.2354 4.5405 0.00828482 0.013551 0.000943868
41 1 1.60974 2.73759 9.53171 9.62929 -0.000595549 -0.00124186 -0.00271058
42 1 1.80193 4.21474 11.4475 11.3353 0.0120227 -0.000849041 4.92631e-05
43 1 1.57407 2.66941 13.2357 13.1239 -0.00124543 0.00525336 -0.0045609
44 1 1.43599 4.43608 14.7812 15.0949 -0.00467302 -0.00155014 0.00192232
45 1 1.1878 6.04377 10.0359 13.2815 -0.00627702 -0.00370715 0.00118637
46 1 1.75021 8.45259 11.3918 15.4683 0.000282828 -0.00431806 -0.00851192
47 1 1.67483 6.24394 13.3219 10.0601 -0.00962732 0.00736057 0.00630191
48 1 1.90086 8.03346 15.0302 11.8551 -0.00582454 -0.00640744 0.00463294
49 1 1.59666 2.72646 9.90638 16.9982 0.00245671 0.0019478 0.00372818
50 1 1.82971 4.51941 11.5981 18.8407 -0.00467208 0.000343551 0.00809876
51 1 1.77708 2.66526 13.4353 20.4053 -0.00543911 -0.0022256 -0.000487724
52 1 1.73685 4.37194 15.0655 22.2773 6.92231e-05 -0.00599804 -0.00359684
53 1 1.81507 6.24292 9.67162 20.4727 -0.00929433 0.00215169 -0.00193966
54 1 1.67896 7.95589 11.645 22.2149 0.000197225 0.00494514 0.0109902
55 1 1.67905 6.44898 13.0501 17.0719 0.0104453 -0.00874576 0.00016873
56 1 1.76609 7.95992 15.0665 18.731 -0.00658929 -0.000327368 0.000477423
57 1 1.96452 2.72436 9.82993 23.8645 -0.0133942 -0.00188112 -0.0184755
58 1 1.76521 4.42462 11.3297 25.7923 -0.0112532 0.00285002 0.00559588
59 1 1.7143 2.83935 13.4173 27.4973 0.00180516 0.00399786 0.0122264
60 1 1.47228 4.71142 15.0438 29.2922 -0.000305076 0.011015 -0.0100685
61 1 1.42992 6.17977 9.49631 27.4952 0.0024917 0.000217683 -0.00138715
62 1 1.57663 7.39035 10.6638 30.2182 -8.06105e-05 -0.00891427 -0.00146624
63 1 1.43483 6.29603 13.2885 24.2083 0.00563219 -0.001569 0.00745869
64 1 1.66172 8.08676 15.3747 25.5433 -0.0110298 -0.00466502 -0.0030597
65 1 1.47268 3.09133 16.8062 2.89688 0.00556086 -0.00418468 0.00209195
66 1 1.64007 4.53201 18.6564 4.64808 -0.0037225 0.00368652 -0.00608105
67 1 1.57418 2.72798 20.5118 6.15275 -0.00518509 0.00255494 -0.000716574
68 1 1.48818 4.35504 22.315 8.07682 0.0153369 -0.00668002 -0.00193637
69 1 1.5301 6.11968 16.8862 6.40757 -0.000950892 -0.00893066 -0.00680832
70 1 1.57217 8.0015 18.3962 8.2581 0.00459081 0.0014199 -0.0089585
71 1 1.39443 6.30123 20.5424 2.95886 0.00901505 -0.00669581 0.00383932
72 1 1.53171 8.05723 22.4404 4.68802 0.00270907 -0.000465094 0.00547867
73 1 1.52147 2.74392 16.5786 9.8221 0.000910093 0.0126432 -0.0104627
74 1 1.48179 4.59986 18.4371 11.4135 -0.00864621 -0.00265897 0.00638774
75 1 1.67912 2.67607 20.3655 13.0098 0.000759934 0.00339052 0.00486803
76 1 1.64069 4.24286 22.3789 14.9478 0.0122813 -0.00195719 0.00371904
77 1 1.64666 6.23063 16.7442 13.5274 0.00200977 0.00401813 -0.00484191
78 1 1.62989 7.64719 18.9876 15.1624 0.00771164 0.00216369 -0.00458651
79 1 1.48803 6.45442 20.535 9.73884 0.0023194 0.00357926 -0.0025013
80 1 1.797 8.09222 22.526 11.4756 -0.00166889 0.00277944 0.00451321
81 1 1.45119 2.90644 16.9653 16.7237 -0.00475156 0.00734603 -0.000989686
82 1 1.81422 4.53181 18.8117 18.5743 -0.00238267 -0.0116858 -0.00530614
83 1 1.64993 2.8665 20.5321 20.3182 0.00952572 0.00661298 0.00319524
84 1 1.68177 4.46404 22.1729 22.1759 -0.00284456 -0.00118028 0.00344433
85 1 1.68475 6.12437 17.0638 20.6069 0.00586404 0.00693445 0.00158418
86 1 1.66804 8.00529 18.7511 22.1893 -0.0116696 -0.00541532 -0.00115865
87 1 1.85935 5.99512 20.7735 16.8423 -0.00187116 -0.00765568 -0.000508318
88 1 1.61078 8.1759 22.2212 18.479 -0.00126823 0.00253435 0.000137161
89 1 1.93245 30.798 16.7679 23.863 -0.00431819 0.00379522 0.00118609
90 1 1.62769 4.30023 18.1839 25.5743 0.00285448 -0.00564006 0.00625877
91 1 1.59942 2.857 20.355 27.4821 0.00221665 -0.000984782 -0.0111471
92 1 1.45412 4.32713 22.2252 29.4831 -0.00620112 0.00407238 -8.62356e-05
93 1 1.61177 6.33605 16.9645 27.4312 -0.000375797 -0.00265984 -0.0047969
94 1 1.43744 8.07249 18.7032 29.418 0.00392413 -0.00445321 0.00528131
95 1 1.49213 6.06091 20.2557 23.984 0.00633494 0.00251499 0.00135936
96 1 1.55935 7.80465 22.2545 25.828 0.00540875 0.00580189 -0.00405944
97 1 1.72227 2.67192 24.1552 2.88091 -0.00708206 0.000715272 -0.00213659
98 1 1.78591 4.4665 25.7552 4.66244 -0.0039132 0.0105521 -0.0144633
99 1 1.70977 30.7948 27.2802 5.99961 0.00070994 -0.0120017 -0.0104869
100 1 1.69808 4.30776 29.0047 7.51775 -0.0056564 -0.00370511 0.00595588
101 1 1.59904 6.09643 23.9927 6.27184 0.00189236 -0.00199394 0.00605924
102 1 1.5848 8.09501 25.6853 8.07594 0.00429097 0.0056752 0.00985439
103 1 1.54375 6.45373 27.3984 3.22386 0.0101088 0.00928483 -0.00186299
104 1 1.60328 8.53392 29.211 4.63321 -0.0174238 -0.00804138 -0.00117017
105 1 1.56076 31.0725 24.3375 9.83285 0.00146999 0.0108697 -0.00767922
106 1 1.55611 4.48542 26.0833 11.8871 -0.00399305 0.00216047 0.0117823
107 1 1.72317 30.7792 27.7935 13.2703 -0.0100508 0.00432282 0.00833099
108 1 1.68262 4.16591 29.4226 14.9701 -0.000443139 -0.00551132 0.00288509
109 1 1.67501 6.33527 24.0271 13.4919 -0.00234764 0.00740741 -0.00336448
110 1 1.67961 8.14134 25.7614 15.2466 0.00650987 0.0111113 0.00220226
111 1 1.64187 5.96532 27.4849 9.54321 -0.000293899 -0.00483979 -0.00659315
112 1 1.46582 7.23328 29.6388 11.3162 0.00408187 -0.00257851 -0.00157244
113 1 1.80638 30.8102 23.9802 16.7827 0.0084622 -0.00232651 0.001577
114 1 1.61392 3.81018 26.41 17.8908 0.00529936 0.00412424 0.00553296
115 1 1.73355 2.87009 27.6954 20.4426 0.0044644 0.00129197 0.0047048
116 1 1.68609 4.62227 29.3853 22.2213 0.00646408 0.00471675 0.00573961
117 1 1.41581 6.25 23.8228 20.2955 0.00181519 0.000216227 0.000530782
118 1 1.60496 7.81869 25.9382 21.8788 0.00200429 -0.00266503 -0.00434422
119 1 1.86655 6.18416 27.7143 16.4495 -0.00789829 -0.00308869 0.00682471
120 1 1.6666 7.78709 29.1591 18.5957 0.00121195 -0.000955373 0.00418945
121 1 1.60029 2.93143 23.972 24.156 0.00167745 0.00437458 -0.000622666
122 1 1.72842 4.77834 25.6834 25.6405 0.00220282 0.00252901 0.0107206
123 1 1.58095 2.71725 27.4643 27.0105 0.000909744 -0.00653645 0.00629373
124 1 1.53708 3.69987 29.9681 28.1681 -0.00229563 -0.00437532 0.000617314
125 1 1.61615 6.16699 24.0805 27.8003 0.00243725 -0.000455282 0.00711676
126 1 1.66212 8.00521 25.8345 29.4762 -0.00334784 0.00996106 0.00878118
127 1 1.58308 6.38976 27.6596 24.0973 0.00272049 0.0009799 -0.00180803
128 1 1.77353 8.19426 29.5055 25.8167 0.00513097 0.00662026 -0.00284436
129 1 1.76158 9.67829 31.0418 31.0794 -0.00199839 -0.000597086 -0.00246107
130 1 1.78334 11.1987 4.31977 4.61729 -0.0114539 -0.00156684 -0.00240149
131 1 1.7854 9.46457 6.1336 6.3265 0.00128707 0.000825872 -3.15586e-05
132 1 1.72701 11.3171 8.03049 7.96591 -0.00348875 0.00478694 -0.0071515
133 1 1.66033 13.1716 30.9899 6.16972 -0.00162523 -0.00875763 -0.00458399
134 1 1.35846 14.6618 4.56058 7.93509 0.00387584 -0.00978511 0.00147251
135 1 1.64 12.9353 6.10705 2.82796 0.00306002 0.00717271 0.0101396
136 1 1.55045 14.8392 8.01047 4.28339 -0.00204803 0.00411345 -0.000467965
137 1 1.39195 9.78492 30.9091 9.74916 0.000665513 0.00206981 -0.00238486
138 1 1.28664 11.465 4.63738 11.7322 -0.00159664 0.00224216 0.00252461
139 1 1.51605 9.45251 6.27395 13.6305 0.000336327 -0.000423373 0.00175241
140 1 1.60947 11.5324 8.10099 15.1534 -0.00756225 -0.00406859 -0.00188981
141 1 1.37387 13.1743 2.74519 13.6409 -0.00310398 -0.00281301 -0.000536707
142 1 1.63312 15.2387 4.62264 15.39 -0.00315773 0.00973435 0.00162354
143 1 1.65681 13.0558 6.45133 9.75941 0.00440572 -0.00678071 0.00131257
144 1 1.7506 14.9653 8.01417 11.5304 0.00640431 0.0109588 0.00664444
145 1 1.54095 9.52797 2.6876 16.9107 0.00687993 0.00733805 -0.00207821
146 1 1.68919 11.5502 4.31432 18.6439 0.00182136 0.00860948 -0.000790738
147 1 1.61143 9.83137 6.06191 20.3524 -0.00544995 -0.007858 0.00670307
148 1 1.58284 11.7199 7.85244 22.2593 0.00136898 -0.000837489 -0.00349081
149 1 1.61518 13.4075 2.79757 20.6606 0.00156092 -0.00146328 -0.00191941
150 1 1.80235 15.1263 4.67193 22.2037 -0.0019374 0.00164392 -0.00446323
151 1 1.71602 13.2313 6.27902 16.9251 -0.00303929 -0.00509863 -0.00413509
152 1 1.76193 15.0314 8.13197 18.4643 0.00084363 -0.00449078 0.00713796
153 1 1.67114 9.79946 2.73259 23.9506 -0.00381747 -0.00169953 0.00031911
154 1 1.70903 11.7074 4.45212 25.867 0.00346695 -0.00216067 0.00431899
155 1 1.77327 9.70042 6.2192 27.4052 -0.00341495 0.00128846 -0.0123442
156 1 1.8005 11.4766 7.82092 29.2436 0.00838297 0.000161227 0.012165
157 1 1.7434 13.2145 30.9805 27.5927 -2.81578e-05 -0.000876046 0.00548236
158 1 1.81205 14.9033 4.26857 29.5337 -0.00292751 0.00328771 -0.00274137
159 1 1.72598 13.6641 6.31403 24.2242 -0.00147313 0.0007366 -0.0156366
160 1 1.72055 15.1655 8.18849 26.1225 -0.00819975 0.00209198 0.00501266
161 1 1.60971 9.89505 9.51743 2.8592 -0.00679911 -0.00463467 -0.00787072
162 1 1.59096 11.4261 11.4167 4.6253 0.00266593 -0.00813343 0.00804263
163 1 1.79773 9.58956 13.2748 6.16669 0.0117741 -0.00308438 -0.00277733
164 1 1.71137 11.3099 14.8619 8.14945 0.0033974 -0.00673508 -0.00761833
165 1 1.86704 13.29 9.7201 6.28061 0.00395566 -0.00607589 -0.00219571
166 1 1.75494 15.0038 11.5356 8.00503 -0.00590044 0.00263378 -0.0101547
167 1 1.75308 13.3695 13.312 2.85795 0.00831041 -0.00145779 -0.00111782
168 1 1.68379 15.2827 15.0521 4.53495 0.00285971 -0.00525757 -0.000786466
169 1 1.65775 9.46755 9.70197 9.88462 -0.000294246 -0.000703988 -0.00144815
170 1 1.51341 11.4866 11.6401 11.8883 0.0136976 -0.00325903 -0.00352497
171 1 1.7828 9.89457 13.3633 13.6914 0.0020798 0.00368815 0.00242199
172 1 1.80126 11.3996 15.4384 15.3303 -0.000826406 0.0043659 0.000461803
173 1 1.62167 13.4303 9.77413 13.4044 0.0035967 -0.00514269 -0.0030207
174 1 1.7638 14.875 11.7372 15.0975 -0.00107338 0.0121214 -0.00500813
175 1 1.79023 13.3769 13.2486 9.86364 -0.00270613 -0.0124488 0.000641241
176 1 1.69161 15.0033 15.092 11.5565 0.00883127 -0.00362278 0.000528517
177 1 1.72843 9.99978 9.53633 17.2497 0.00252796 -0.0152183 -0.0056282
178 1 1.6697 11.4487 11.5668 19.0551 0.00703237 0.000906476 0.00480169
179 1 1.78974 9.72092 13.4506 20.5677 0.00449325 -0.00359629 0.00550184
180 1 1.80677 11.6882 15.1806 22.0889 -0.000881329 0.00737998 -0.00142455
181 1 1.68697 13.4398 9.76587 20.4959 -0.00931229 0.00893293 -0.00368102
182 1 1.58913 15.6649 11.2942 21.8489 0.00799585 -0.0108437 0.00513402
183 1 1.5566 12.8882 13.5044 17.015 0.00835222 -0.00445573 0.00428176
184 1 1.65544 14.9742 15.0001 18.6141 -0.0027278 0.00293343 0.000556108
185 1 1.57627 10.0626 9.96238 23.8514 -0.00549527 -0.000965614 -0.00772064
186 1 1.4834 11.6817 11.9594 25.6651 -0.00610991 -0.0080433 -0.0018306
187 1 1.47524 9.60807 14.4098 27.9092 0.0102848 0.00446322 -0.0154758
188 1 1.60309 12.0288 15.4025 29.4389 -0.00291593 -0.0029252 7.19377e-05
189 1 1.6914 13.0425 9.77814 27.5338 -0.00347389 0.000785405 -0.000682056
190 1 1.78058 14.8681 11.491 29.4223 -0.0089386 0.00910549 -0.00198745
191 1 1.48666 13.7723 13.2492 23.4081 -0.000962067 0.0128083 0.000277596
192 1 1.75574 15.1428 15.0908 25.5507 0.00747796 0.00526083 0.0017061
193 1 1.72229 9.97947 16.894 2.79217 0.0095414 -0.00401144 0.00104307
194 1 1.74067 11.9484 18.5501 4.48913 0.00528166 0.00395986 -0.00154053
195 1 1.26462 9.89901 20.3644 6.06369 -0.000924738 0.000925208 -0.00545679
196 1 1.58447 11.565 22.3909 8.00475 0.000833136 -0.00245298 -0.00107264
197 1 1.75514 13.2851 16.5321 6.28571 -0.00820566 0.010003 0.0117878
198 1 1.62628 15.0141 18.5077 7.84077 -0.00472974 -0.00279599 0.00312408
199 1 1.52031 13.3083 20.4568 31.0543 -0.0028322 -0.000753926 0.00877245
200 1 1.50721 15.089 22.3664 4.22089 -0.00919554 -0.00086669 -0.00295595
201 1 1.97109 9.57031 16.6284 9.95761 -0.00292418 -0.00219674 -0.00132406
202 1 1.54751 11.2565 18.5956 11.449 -0.00191848 -0.00446284 0.000692865
203 1 1.64991 9.35357 20.422 13.2077 -0.00142114 0.00363715 0.0046314
204 1 1.45683 11.2304 21.8885 15.0505 0.0129041 -0.00279856 0.00056024
205 1 1.54859 13.3272 16.8779 13.3451 -1.25682e-05 -0.00753835 -0.00407554
206 1 1.5517 15.069 18.6338 15.1286 0.00473545 0.00355883 0.000149458
207 1 1.55745 13.0849 20.1923 9.58318 0.0072484 0.00635083 0.00330935
208 1 1.46862 14.933 22.0539 11.1753 0.010493 -0.00182482 0.00278956
209 1 1.55749 9.44776 17.1347 16.975 0.000848557 -0.00613067 0.00145871
210 1 1.56342 11.5065 18.6995 18.7497 -0.000111037 -0.00570509 -0.00194933
211 1 1.5566 9.74895 20.4691 20.3976 0.00265558 -0.013388 -0.0123239
212 1 1.68798 11.6128 22.4628 22.3209 0.000934315 -0.00837929 0.00901147
213 1 1.62407 13.394 17.1086 20.3995 0.00258917 0.00829986 -0.00303682
214 1 1.65303 14.8759 18.7393 22.4291 -0.00684189 0.00990876 -0.00313318
215 1 1.55259 13.317 20.4422 17.0829 0.000430368 -0.00187425 0.000699895
216 1 1.41587 15.1287 22.2346 18.8875 0.00617275 -0.00253077 -0.00266271
217 1 1.6585 9.89998 17.0185 23.7518 0.00372704 -0.000362508 -0.00491248
218 1 1.80979 11.6097 18.7712 25.7812 -0.00564602 0.00882226 -0.00844078
219 1 1.47832 9.57632 20.359 27.3877 0.0022578 0.00728885 -0.00694164
220 1 1.66209 11.529 22.1012 29.0508 -0.00746928 -0.00453094 -0.00183354
221 1 1.57525 13.6057 17.0817 27.4316 0.00091383 0.00549906 0.00433272
222 1 1.60737 15.3039 18.7509 29.4066 0.000311756 0.0114196 0.0021544
223 1 1.81838 13.3249 20.7335 24.2115 0.0153471 0.00512087 -0.00374343
224 1 1.77929 15.1833 22.2773 26.0823 -0.00117998 0.000740079 -0.00481252
225 1 1.55047 9.92463 23.9917 30.861 0.00504558 0.00232949 -0.0135899
226 1 1.50149 11.6375 25.5822 4.50527 0.003984 -0.0063047 0.00261577
227 1 1.76214 9.99978 27.3035 6.39162 -0.00138432 0.00467887 -0.00124785
228 1 1.61095 11.7872 29.2177 8.10394 -0.00231678 -0.00200896 0.00394152
229 1 1.56859 13.495 24.0464 6.33115 -0.015336 -0.000921888 -0.00927801
230 1 1.66484 15.1859 25.9866 7.96672 -0.00346086 0.0040469 0.00292771
231 1 1.38453 13.4323 27.3717 2.71413 0.0102317 0.00113751 0.00235926
232 1 1.48016 14.9918 29.0479 4.5923 -0.000488975 -0.00126983 -0.00603947
233 1 1.82614 10.021 24.2412 9.76867 0.00494997 0.00804079 0.00282035
234 1 1.67661 11.8673 25.685 11.4851 0.00430517 0.000969369 0.00696952
235 1 1.39369 10.45 27.2671 13.8566 -0.00272464 -0.000661584 0.00109675
236 1 1.48002 11.7836 29.3604 15.8384 -0.00372986 0.00766524 -0.0028283
237 1 1.53854 13.0455 23.3322 13.1447 0.00863113 0.00087525 -0.0038976
238 1 1.34391 15.3484 26.3928 15.4445 -0.00506722 0.00216377 -0.00828501
239 1 1.85086 13.6036 27.5245 9.95772 0.00844153 0.0158161 -0.00484579
240 1 1.7163 14.9351 29.5029 11.758 -0.0102449 -0.00288905 0.00785788
241 1 1.57036 10.0217 24.0694 16.9337 -0.00753664 -0.00638628 -0.00318559
242 1 1.7797 11.7779 25.8166 18.7632 -0.0009098 0.000921911 -0.000803324
243 1 1.74863 9.70255 27.472 20.0646 -0.0071284 0.000559995 0.00848413
244 1 1.52402 11.3242 29.2943 22.0413 0.00354772 -0.00333408 -0.00256276
245 1 1.63653 13.4992 24.1524 20.6227 0.00421651 0.00508727 0.0034379
246 1 1.64832 15.3371 25.747 22.6234 -0.00177853 -0.00447358 0.00352366
247 1 1.61111 13.6533 27.8049 17.398 -0.00516089 -0.00366779 0.00118636
248 1 1.63417 15.2595 29.5174 19.1015 -0.00904791 0.00249403 0.0128414
249 1 1.60022 8.98545 23.5376 23.407 0.0051464 -0.00634354 0.000116138
250 1 1.74682 11.7082 26.0272 26.1779 0.00308543 -0.00596643 0.0116211
251 1 1.83963 9.764 27.657 27.7177 0.00396255 0.00984516 0.00294706
252 1 1.63534 11.5704 29.3646 29.4232 -0.00056069 0.00553134 -0.00573686
253 1 1.67736 13.4781 24.187 27.8225 0.00357227 0.010022 0.00587156
254 1 1.69391 15.5062 25.5906 29.5103 0.00851791 0.0147671 -0.00109657
255 1 1.46562 13.2338 27.6695 23.8774 0.00210774 0.00389221 -0.00353238
256 1 1.51344 15.0799 29.5055 25.8269 0.00256339 0.00745147 0.00714953
257 1 1.35636 16.7645 30.6726 31.0772 -0.000280302 -0.00663895 0.00249955
258 1 1.58655 18.7833 4.36887 4.66751 -0.00564208 0.000416065 0.000232597
259 1 1.5699 16.6342 6.13291 6.02154 -0.0101494 -0.0134187 0.00171884
260 1 1.71476 18.2702 8.07512 7.7938 -0.00695599 -0.0058068 0.00603047
261 1 1.73101 20.7099 2.6845 6.30058 0.00363427 0.00810845 -0.0102435
262 1 1.7058 22.2934 4.50667 8.2416 0.00194898 0.00414056 -0.00603845
263 1 1.85172 20.2058 6.1205 2.70978 -0.0144927 -0.000112068 -0.00481104
264 1 1.73568 22.0952 7.91718 4.33321 0.00517618 0.00649313 0.00548078
265 1 1.4493 16.0757 3.61907 10.5244 -0.00319598 -0.000581335 -0.00331313
266 1 1.5315 18.8012 4.71724 11.6156 -0.00416687 0.000876094 -0.0110851
267 1 1.70848 16.6877 6.25019 13.2625 -0.0100018 -0.0035059 -0.000707315
268 1 1.66744 18.407 8.07481 15.1576 -0.00130225 -0.00662075 -0.00375214
269 1 1.52147 20.6216 31.0626 13.0184 -0.000306577 0.00517534 0.0015932
270 1 1.5371 22.4012 4.3157 14.9504 0.00608649 -0.00119906 0.00985745
271 1 1.58899 20.3276 6.50983 9.56609 -0.00300064 0.00320605 0.00462001
272 1 1.64523 21.9461 7.96292 11.6933 0.00404668 0.00261964 -0.001076
273 1 1.65966 16.8934 30.9074 16.969 -0.00243014 0.00422011 -0.00672574
274 1 1.46553 18.7447 4.19115 18.7807 0.0021271 0.00173543 -6.04307e-05
275 1 1.6214 16.7984 6.21626 20.2165 0.000652718 0.0062774 -0.0149271
276 1 1.51627 18.5568 8.019 22.0983 -0.000640132 -0.00544748 -0.00308095
277 1 1.84289 20.5144 30.8455 20.5906 -0.00295397 0.00820707 -0.0120714
278 1 1.68962 22.3218 4.31367 22.1607 -0.00380019 -0.00110073 0.00287973
279 1 1.24677 20.4643 6.09647 16.8086 -0.0038372 -0.00505469 -0.00733695
280 1 1.25811 22.3964 7.72538 18.5455 0.00550015 -0.00363243 -0.000473983
281 1 1.68653 16.9323 2.85474 23.7361 0.00686964 -0.00960563 0.00718258
282 1 1.42101 18.689 4.60482 25.6372 -0.0015599 -0.00941186 -0.00143509
283 1 1.62885 16.6302 5.98617 27.7107 -0.00130551 0.00893967 -0.00425775
284 1 1.74744 18.4702 7.74521 29.3291 -0.00663568 0.00237803 0.000752506
285 1 1.75585 20.3972 31.02 27.2747 -0.00309571 -0.00198923 -0.00629072
286 1 1.671 21.9988 4.65851 29.1898 -0.00235586 -0.00360673 -0.00244076
287 1 1.73065 20.5559 6.31689 23.5593 0.00120914 -0.00354254 -0.00018694
288 1 1.68128 22.0206 8.10962 25.5139 -0.00356578 -0.00111153 -0.00589825
289 1 1.55357 16.6938 9.68036 30.9533 0.00100175 -0.00246765 -0.00033881
290 1 1.32882 18.5345 11.3545 4.2121 -0.00145806 0.0106938 0.00315229
291 1 1.59074 16.8711 13.0488 6.3061 -0.000968666 0.00398458 -0.00896805
292 1 1.56796 18.7095 14.9672 7.90559 0.00138977 0.00466779 -0.0114049
293 1 1.722 20.2844 9.61164 6.11957 0.00606013 0.0025023 0.00146712
294 1 1.3978 22.1811 11.4543 7.7147 0.0081868 0.00273212 0.00150654
295 1 1.55623 20.6176 13.3779 2.78804 0.00439385 -0.00358802 0.00470687
296 1 1.50443 22.4204 15.2817 4.35693 -0.00304134 -0.00561285 0.00234312
297 1 1.78842 16.7506 9.71789 9.81662 -0.00867523 -0.00477729 0.00103929
298 1 1.56253 18.4864 11.7231 11.5032 -0.00213636 -0.000619074 0.00725541
299 1 1.77052 16.7497 13.3801 13.4433 0.00965643 -0.00083577 -0.00974827
300 1 1.59959 18.6213 15.2664 15.0185 0.00082848 -0.00282797 0.0021678
301 1 1.47288 20.2285 9.87717 13.4107 -0.00107052 0.00374233 0.000732359
302 1 1.45641 22.5011 11.8551 14.9634 -0.00495761 -0.00601076 -0.00365462
303 1 1.59057 20.4765 13.2837 9.70283 0.00890906 -0.00128951 0.00334641
304 1 1.61586 22.1506 15.1865 11.3609 -0.00754229 -0.00397342 -0.00578639
305 1 1.82074 16.7851 10.0229 16.8244 0.00132368 0.00324658 0.00363025
306 1 1.89952 18.8825 11.4918 18.4167 -0.00478833 -0.00706884 0.0138392
307 1 1.63875 17.0706 13.1942 20.0184 -0.00371324 0.000419735 0.00380679
308 1 1.55907 18.5408 15.3438 22.1311 -0.00105308 -0.00033221 0.00693328
309 1 1.62709 20.4191 9.5766 20.2332 0.00592367 0.0142444 0.0036439
310 1 1.26661 22.0393 11.3984 22.1084 -0.000118043 -0.000241562 0.00423606
311 1 1.64644 20.4725 13.4784 16.7734 0.00519926 0.00215758 0.0127402
312 1 1.76789 22.3889 15.1789 18.6318 0.00796465 0.00293932 -0.00503158
313 1 1.63313 16.9031 9.55486 24.0829 -0.00344669 -0.00328449 0.00413938
314 1 1.3686 18.4378 11.5464 25.8305 -0.00237354 -0.00788259 -0.00763882
315 1 1.37477 16.5888 13.495 27.8323 -0.00324171 0.000618361 -0.00553616
316 1 1.43851 18.828 15.2014 29.3616 0.0035596 -0.00393107 -0.00439759
317 1 1.44517 20.1992 9.76542 27.6184 -0.00898659 -0.0030293 -0.000167698
318 1 1.48444 22.3504 11.5646 29.3196 0.000318494 -0.011964 0.00317244
319 1 1.57245 20.1015 13.6099 23.9801 0.00741964 0.00337309 -0.00417033
320 1 1.86724 21.8885 15.3473 25.6338 -0.000613314 -0.00270437 -0.00503055
321 1 1.5972 17.1403 17.1456 2.88896 0.000500255 0.0044983 0.00932479
322 1 1.84318 18.9966 18.6064 4.5763 -0.0106973 -0.00579815 0.0038533
323 1 1.59159 16.806 20.2169 5.89736 -0.00707022 0.00155836 -0.000137183
324 1 1.47259 18.3007 22.2876 7.6834 0.0043711 -0.00117523 -0.00496252
325 1 1.78482 20.625 16.9372 6.35112 -0.00419808 -0.00254698 -0.010322
326 1 1.50632 22.219 18.7539 8.02669 -0.00627365 -0.00263706 0.00218253
327 1 1.63061 20.6885 20.2163 2.69186 0.000923554 0.00857209 -0.00710583
328 1 1.66617 22.0638 22.276 4.32396 -0.00647676 -0.000621565 0.00283706
329 1 1.63841 16.8582 16.7759 9.54749 0.00125263 0.00564861 -0.00341636
330 1 1.61636 18.5742 18.4913 11.3315 0.0059856 -0.00498257 -0.00620941
331 1 1.50434 16.6345 20.2021 13.0712 0.00457847 -0.00167254 0.00358089
332 1 1.43193 18.7521 22.1297 15.005 -0.00069015 0.00137996 0.0089737
333 1 1.52052 20.3095 16.9457 13.1782 0.000116351 0.000439844 0.00989659
334 1 1.59248 22.0889 18.6938 15.0412 0.0121879 -0.00156411 -0.00325496
335 1 1.49124 20.3464 20.3672 9.80911 -0.00338993 -0.00214498 -0.00791405
336 1 1.40373 22.136 22.3555 11.4055 -0.00376347 -0.000322833 -0.00567919
337 1 1.63534 16.6851 16.7316 16.8482 0.0120525 -0.00919352 0.00504868
338 1 1.26827 18.6271 18.4261 18.6229 -0.000153556 -0.00572542 0.00361676
339 1 1.42682 16.8773 20.1609 20.5417 9.43199e-05 -0.00917525 0.00144958
340 1 1.47016 18.8929 22.2094 22.3277 -0.00076913 -0.00753173 0.00238223
341 1 1.54564 20.5778 16.9353 20.3845 0.00187243 0.00174237 0.00106967
342 1 1.76271 22.4618 18.7028 21.9937 0.000947662 0.00444211 -0.00270688
343 1 1.55733 20.3009 20.3772 16.9145 -0.00399853 0.00368063 0.000320984
344 1 1.62287 22.1496 22.2592 18.5723 0.00116229 0.000328493 0.000658888
345 1 1.78166 16.6919 17.0904 23.9888 0.00599957 -0.00475626 0.00512125
346 1 1.65743 18.5901 18.7528 25.63 0.00624166 -0.000772032 -0.00910327
347 1 1.6198 17.0609 20.5613 27.6463 -0.00241213 -0.00956294 -0.00128332
348 1 1.68775 19.0772 22.0679 29.2975 -0.00458816 -0.00104363 0.000883463
349 1 1.77753 20.4034 16.9888 27.5556 0.00140242 -0.0064312 -0.00274499
350 1 1.7338 22.3336 18.4624 29.3536 -0.00116626 0.000921701 0.00963894
351 1 1.59866 20.7412 20.2988 23.9208 9.44918e-05 -0.0043951 -0.00508659
352 1 1.58187 22.3677 22.2151 25.6913 0.0034384 -0.0151665 0.00125008
353 1 1.74214 17.2857 23.5893 2.66845 -0.000580708 0.00241423 0.0025005
354 1 1.67115 18.8347 25.7251 4.10862 -0.00160506 0.00993633 0.00181726
355 1 1.74495 17.1495 27.4896 6.0621 0.000514622 0.00357001 -0.00294504
356 1 1.86033 19.1887 28.9513 7.76818 0.00129424 0.000744646 0.00135056
357 1 1.66045 20.3395 23.9148 6.09941 0.00534308 0.00670167 -0.00844794
358 1 1.73743 22.2091 25.5611 7.74362 -0.000393051 -0.000486062 0.00856933
359 1 1.76199 20.571 27.6193 30.8781 0.0135598 0.000306584 -0.0043885
360 1 1.55347 22.2703 29.5032 4.15536 0.00154182 0.0100553 0.00513509
361 1 1.65196 16.7727 24.0953 9.73226 0.00100244 0.00806923 0.00563726
362 1 1.72974 18.6079 25.9284 11.3864 0.00476955 0.00337479 0.00203122
363 1 1.67527 17.0866 27.7763 13.3018 0.00424709 -0.00112056 -0.00886651
364 1 1.47538 18.8137 29.6216 15.02 -0.00306217 -0.000472462 0.000691657
365 1 1.55294 20.4581 24.0583 13.3521 0.00272399 -0.00510531 0.00195924
366 1 1.77092 22.0897 25.9886 15.0171 -0.0028619 0.00264407 0.00272075
367 1 1.66348 20.7039 27.3382 9.71793 -0.00148438 -0.00676443 0.0107722
368 1 1.70801 22.5295 29.1552 11.4 -0.0123498 0.00160348 0.001537
369 1 1.48854 17.0819 24.0905 16.8337 -0.00335927 -0.000964159 -0.00500437
370 1 1.48348 18.4012 26.0207 18.6973 -0.00140776 0.000223139 -4.68618e-05
371 1 1.81967 16.8189 27.6315 20.8964 -0.00945596 0.00549547 -0.00436188
372 1 1.83298 18.833 29.2698 22.4438 0.0113284 0.00180975 -0.00672156
373 1 1.55724 20.3077 24.0861 20.2983 -0.00747935 0.0190214 -0.0026231
374 1 1.6022 22.3224 25.5399 22.1825 0.000619708 0.00350658 0.000880852
375 1 1.62255 20.5111 27.5821 16.918 0.0107975 0.00138708 0.00786205
376 1 1.59189 22.3734 29.2449 18.7905 -0.000214641 -0.000754362 6.32645e-06
377 1 1.68917 17.0895 23.9334 24.4169 -0.00290948 0.0035235 -0.000969313
378 1 1.59093 18.9913 25.8051 25.9651 0.00419375 0.0013639 0.00311775
379 1 1.48175 16.875 27.449 27.4707 0.00695383 0.00429605 0.0075537
380 1 1.68954 18.7188 29.4234 29.1587 -0.00158599 -0.00450907 -0.00711359
381 1 1.72322 20.7331 23.9308 27.5473 -0.00118757 -0.00498236 -0.00995851
382 1 1.76502 22.4405 25.7528 29.2422 -0.00180592 -0.000662295 -0.00941382
383 1 1.79647 20.5702 27.3454 23.9596 -0.0105276 -0.000100535 -0.00600262
384 1 1.65926 22.3117 29.2598 25.5697 -0.0113492 -0.00453527 -0.00113376
385 1 1.67789 23.8599 2.92499 30.8315 0.00763402 -0.00560348 -0.00324504
386 1 1.4332 25.6206 4.59252 4.5024 -0.00320882 0.00154511 0.00116215
387 1 1.61421 23.7835 6.24081 6.21461 0.00415339 -0.0013641 0.0149849
388 1 1.37444 25.4332 7.86429 8.42846 -0.000431813 0.00105607 0.000898703
389 1 1.25356 27.3064 30.7254 6.15136 0.00977611 -0.00173463 -0.0039366
390 1 1.50493 29.2757 4.25487 8.12051 -0.00734757 -0.0054938 -0.00490961
391 1 1.65479 27.5502 6.31354 31.0574 0.00571437 -0.00600416 -0.00748951
392 1 1.36908 29.5119 7.83997 4.37845 -0.00707559 -4.45751e-05 0.00279051
393 1 1.78922 24.1194 2.68578 9.68245 -0.000872951 -0.00413261 0.000378572
394 1 1.65094 25.8388 4.21552 11.4868 -0.0114684 -0.000200735 -0.00428354
395 1 1.43426 23.8632 6.06443 12.9517 -0.00827088 0.00393953 -0.00476089
396 1 1.45918 25.8131 8.05803 14.7484 -0.0135436 -0.00172551 0.00672016
397 1 1.55949 27.4606 31.0703 13.7737 -0.00502295 -0.00443073 -0.00246871
398 1 1.78255 29.3195 4.45456 15.4128 0.00563552 0.00622699 0.00537606
399 1 1.70061 27.5755 6.22918 9.88457 -0.00824931 0.0109316 0.00875684
400 1 1.60695 29.4108 7.94244 11.4477 -0.00667832 0.00462904 0.0073619
401 1 1.66769 24.046 30.8993 16.8914 0.000576786 -0.00491202 -0.000933604
402 1 1.55389 25.7977 4.30679 18.4842 0.00060898 -0.00325673 -0.000149539
403 1 1.50689 24.175 6.07225 20.4393 0.0122018 0.00307695 0.00581704
404 1 1.54823 25.5917 8.21488 22.2063 0.000588547 9.53494e-05 0.00294856
405 1 1.62159 27.5988 30.9567 20.39 0.00477474 0.00887903 0.0116042
406 1 1.77316 29.0739 4.5306 22.2399 0.00491861 0.00325485 0.0155946
407 1 1.69606 27.4197 6.27325 16.856 0.00357283 -0.0057845 0.00707052
408 1 1.73838 29.2724 8.01894 18.51 0.00364771 0.0043725 -0.000641795
409 1 1.45633 24.2222 31.0553 23.947 0.0035273 0.000302721 0.00364745
410 1 1.47679 25.7767 4.53144 25.7641 -0.00436886 0.00638974 0.00193788
411 1 1.62438 23.914 6.37078 27.3697 0.00492534 -0.00245225 0.00079858
412 1 1.83833 25.7785 7.97091 29.2197 0.0104088 0.00747005 0.0037322
413 1 1.57152 27.5852 2.76078 27.4987 0.00820861 0.00270026 -0.0104824
414 1 1.62567 29.1971 4.31444 29.5274 0.00174368 0.00130443 -0.00435136
415 1 1.70627 27.2704 6.3263 23.8152 -0.004702 -0.000261646 -0.00156057
416 1 1.76434 29.3698 8.05441 25.4955 0.00157053 -0.00145482 0.00573806
417 1 1.74074 24.0117 9.64634 30.9979 -0.00214307 -0.00120574 -0.00321625
418 1 1.67738 25.7904 11.3576 4.51749 -0.00297705 0.0022271 0.00375884
419 1 1.681 23.8864 13.3266 6.09503 -0.00727221 -0.00347454 0.00268851
420 1 1.64928 25.6151 15.0845 7.81719 0.00771035 -0.00836702 0.00429755
421 1 1.42511 27.5747 9.57289 6.43696 0.0135953 -0.00271634 -0.00480796
422 1 1.6566 29.2518 11.5078 8.10848 0.00880629 0.00934983 -0.00136557
423 1 1.67138 27.5724 12.9585 30.96 -0.00606067 -0.00182368 0.00570237
424 1 1.49065 29.3947 14.7996 4.20327 0.00836059 -3.50614e-05 -0.0104488
425 1 1.43831 23.8562 9.76853 10.1706 0.00408478 0.00397875 -0.00464541
426 1 1.71277 25.8269 11.7987 11.6264 -0.00379532 0.0137369 0.00685793
427 1 1.74228 23.9832 13.5853 13.0818 -0.00544111 0.00530224 0.00102946
428 1 1.61211 25.7435 15.0769 14.8725 0.00112628 0.0014045 -0.00609104
429 1 1.62801 27.697 9.78664 13.1931 0.00269919 -0.00122164 -0.00512081
430 1 1.65479 29.2676 11.5262 15.0689 0.00378141 -0.000365831 -0.00412144
431 1 1.7131 27.4905 13.4673 9.72735 0.00563227 -0.00101533 0.00336754
432 1 1.83654 29.1936 15.0427 11.5739 -0.00778264 -0.00745169 -0.00562526
433 1 1.49071 24.1956 9.95437 16.8807 -0.00307619 0.00477824 -0.0112091
434 1 1.44858 25.7538 11.7342 18.7838 -0.00353844 -0.00193307 -0.00791422
435 1 1.459 23.9686 13.5173 20.5741 -0.00122091 4.40677e-05 -0.00591077
436 1 1.58581 25.8794 15.3124 22.2666 -0.00147072 -0.00649796 0.00702046
437 1 1.62371 27.6575 9.65663 20.5717 0.0104966 -0.00871245 0.0014314
438 1 1.65217 29.3267 11.6513 22.2677 0.000838196 0.00030112 -0.00407338
439 1 1.4345 27.4972 13.6626 16.9558 -0.00144923 0.00667987 0.00789319
440 1 1.59891 29.4259 15.2911 18.7525 -0.000507935 -0.00428176 0.00775608
441 1 1.70173 23.856 9.78553 23.9639 0.00141392 -0.00378589 -0.00103924
442 1 1.74102 25.8222 11.3227 25.6292 -0.00289421 0.00364643 0.00172576
443 1 1.60248 24.0605 13.1487 27.3387 0.00298848 -0.00478172 -0.00421402
444 1 1.5629 25.8591 14.7866 29.2215 0.0107219 0.00152451 0.00536071
445 1 1.81249 27.6713 9.64152 27.4715 0.00513688 0.00868688 0.000903054
446 1 1.7544 29.5016 11.4005 28.9938 -0.00609278 0.0052582 0.000761018
447 1 1.70379 27.3929 13.2091 23.9998 -0.00355413 -0.00963592 0.000848232
448 1 1.71441 29.2655 14.9117 25.6767 0.00374486 0.00526129 0.00116682
449 1 1.50155 24.2742 16.738 30.8836 -0.00780768 -0.00931555 0.0154481
450 1 1.4953 25.8448 18.7373 4.15005 0.00430402 0.000259321 0.00164744
451 1 1.4583 24.1371 20.4783 5.99863 0.000502831 0.00788848 -0.00513543
452 1 1.59907 26.0359 22.0832 7.95884 -0.00199666 0.00573462 -0.0006246
453 1 1.21306 27.673 16.8369 5.94713 -0.00947861 0.000315691 0.00671642
454 1 1.19256 29.3601 18.6433 8.03475 -0.00929854 0.00645042 -5.47815e-05
455 1 1.59971 27.8438 20.441 30.8574 -0.0132142 0.00670222 -0.00545089
456 1 1.67777 29.3115 22.2922 4.37659 0.000130844 0.00604792 -0.00580761
457 1 1.50764 24.1883 17.0589 9.66482 -0.00695733 -5.2885e-06 0.00203536
458 1 1.90811 25.8254 18.6428 11.6228 0.00571821 -0.000835367 0.00719076
459 1 1.58463 24.0371 20.445 13.3861 0.00555293 0.00623422 -0.000427625
460 1 1.6651 25.8854 22.2376 14.9226 0.000749658 -0.0029635 0.00912625
461 1 1.82939 27.6658 16.9374 13.1936 0.00461482 -0.010318 0.00536372
462 1 1.69708 29.413 18.6944 14.8938 0.00250294 -0.00417866 -0.000504655
463 1 1.53518 27.6088 20.2747 9.88407 -0.00024258 -0.00895032 -0.00837317
464 1 1.77106 29.2715 22.4059 11.5263 0.00421682 0.00746111 0.00330797
465 1 1.72683 23.8839 16.8175 16.5858 0.00101883 0.00481081 0.00439396
466 1 1.53039 25.7942 18.4246 18.3879 -0.00297475 0.000434726 0.00955689
467 1 1.53747 24.1822 20.5022 20.2849 -0.00368102 -0.000806533 -0.00880226
468 1 1.60778 26.1972 22.1319 22.0986 -0.0133128 0.00250791 -0.00306919
469 1 1.88392 27.6004 16.9791 20.3698 -0.00276214 0.0076146 -0.00608276
470 1 1.56182 29.3688 18.7329 22.045 0.00446207 -0.0061149 -0.0112645
471 1 1.5271 27.5639 20.4356 16.6873 0.00478306 0.00375284 -0.00340869
472 1 1.89375 29.3587 22.041 18.5627 -0.00273116 -0.00186924 -0.00061754
473 1 1.57533 23.9085 17.057 24.1365 -0.00674296 0.00516427 -0.00248538
474 1 1.43645 25.7287 18.6167 25.9412 -0.00102533 -0.00447882 -0.00702557
475 1 1.7462 23.7774 20.5425 27.762 -0.00111257 0.00748212 -0.00327033
476 1 1.78355 25.7136 22.1187 29.4671 0.00288889 0.00185914 -0.00677502
477 1 1.36685 27.74 16.7574 27.6531 0.00347083 0.00245 0.00655849
478 1 1.71933 29.8465 18.5263 29.4079 -0.00318754 0.00299179 0.000564173
479 1 1.63301 27.5786 20.2943 24.0665 -0.0135699 -0.00508993 0.00457122
480 1 1.44039 29.3726 22.1982 25.7593 0.00357378 0.0111926 -0.00721035
481 1 1.60762 24.0078 23.9531 2.66577 0.00352259 0.000243138 -4.46818e-05
482 1 1.75327 25.8363 25.9168 4.18925 0.00570823 0.00670648 0.00382766
483 1 1.70152 23.7033 27.4512 5.89869 0.00120059 0.000435716 -0.00768406
484 1 1.91812 25.2305 29.1665 7.79204 -0.00210633 -0.00116029 -0.00321029
485 1 1.75423 27.5691 24.3046 6.07047 -0.00388366 -2.62337e-05 0.000572698
486 1 1.70112 29.162 25.8725 8.03856 0.00412033 0.00719996 -0.00766171
487 1 1.64201 27.4092 27.5777 30.5842 -0.00419588 -0.00709603 -0.00759449
488 1 1.72972 29.0352 28.9736 4.29565 0.0022136 0.00380965 -0.00111062
489 1 1.55673 24.0747 23.777 9.6302 0.0123073 -0.00383138 0.0140002
490 1 1.51807 25.6699 25.8602 11.5375 -0.00768922 -0.00618917 0.00231964
491 1 1.81908 24.1459 27.4943 13.4634 0.00110969 0.014797 -0.00551352
492 1 1.88335 25.7482 29.1861 15.2252 -0.00475509 0.0016969 0.0117752
493 1 1.79094 27.4748 23.9913 13.1948 -0.000491485 -0.00320958 0.00465705
494 1 1.65285 29.0429 25.7906 14.9703 0.00391887 -0.0056655 -0.00259034
495 1 1.68375 27.129 27.7029 9.61939 -0.00158568 -0.0170215 0.00447071
496 1 1.54181 28.8806 29.4988 11.6068 -0.00430813 -0.00198359 0.00995972
497 1 1.49387 23.9169 23.9796 16.3597 -0.0043195 -0.0121945 0.00326656
498 1 1.34151 25.9102 25.3894 18.7422 0.0052399 0.00979151 0.000697354
499 1 1.69599 24.0947 27.2445 20.3576 0.00645894 -0.00701594 -0.00909578
500 1 1.67932 25.8191 29.1262 22.0422 0.00295287 0.00338838 0.00183755
501 1 1.7293 27.9968 23.9889 20.5389 -0.0148984 0.00374214 -0.000789682
502 1 1.50006 29.5487 25.9481 22.1615 -0.0065863 -0.0025752 -0.00553166
503 1 1.57878 27.6101 27.5027 17.1009 3.22179e-06 0.0025827 -0.00837188
504 1 1.8696 29.4592 29.3304 18.6175 -0.00657869 -0.0037678 0.00256776
505 1 1.72316 24.1251 23.7406 23.7792 0.00236468 0.0022345 -0.00419122
506 1 1.61461 25.9182 25.5363 25.5328 -0.00217531 0.00559365 0.0111285
507 1 1.71195 24.0833 27.4032 27.3014 -0.00147959 0.00494743 0.00480811
508 1 1.73916 25.4889 29.4484 29.0628 0.00497207 -0.00243864 -0.00668698
509 1 1.56386 27.4949 23.9802 27.6719 -0.00357505 -0.00844644 -0.00416794
510 1 1.66551 29.4941 25.7511 29.1181 -0.00809229 0.0110409 -0.00525069
511 1 1.6459 27.5347 27.5445 23.922 0.00561476 0.00167962 -0.00180464
512 1 1.71925 29.3118 29.4379 25.5951 0.000258403 0.00401995 -0.00123506
513 2 -0.948607 3.75944 2.71784 3.2471 -0.00692427 0.00957321 0.00824851
514 2 -0.911644 2.98214 30.1038 29.6353 -0.0136079 0.00245744 -0.019353
515 2 -0.903055 30.1115 3.34147 30.4069 0.00119087 0.0105075 -0.000904833
516 2 -0.94237 30.0081 29.7112 3.34613 -0.0079271 0.00154991 0.00645643
517 2 -0.793499 3.46045 4.59377 5.05611 -0.00504534 0.00970312 0.000609012
518 2 -0.826967 5.38963 3.06123 5.08658 -0.00771212 0.00152358 0.0109741
519 2 -0.807716 5.36509 4.7306 3.27757 -0.00370779 -0.00133894 -0.00621405
520 2 -0.806605 3.60719 6.89316 6.5125 0.0100082 -0.00723872 -0.0128498
521 2 -0.857406 30.1483 5.00264 7.15657 -0.0028259 0.00708239 -0.00852147
522 2 -0.6934 30.1665 6.38779 5.0167 0.0012576 -0.00796916 0.00475856
523 2 -0.849351 4.87244 6.78663 8.71215 0.00977314 0.0155145 -0.00957962
524 2 -0.809263 5.45712 8.53907 6.93161 -0.000655001 -0.00935477 0.0073962
525 2 -0.849501 3.24148 8.77354 8.3659 -0.00344216 0.00896332 -0.000182881
526 2 -0.904301 6.96976 3.5905 7.10589 -0.00849705 -0.00552279 -0.0107332
527 2 -0.884119 5.46548 29.9588 6.97482 0.00926236 0.00151553 -0.0119063
528 2 -0.760492 7.65647 30.1278 5.50621 -0.0115738 -0.00352345 0.00210985
529 2 -0.820849 6.70511 5.06771 8.96981 0.0125728 0.0021779 0.0120512
530 2 -0.888728 8.63447 5.3687 7.36679 -0.000971716 0.0146628 0.00285813
531 2 -0.785124 8.87611 3.17224 8.64436 -0.00290196 -0.00413639 0.00896017
532 2 -0.82497 6.83014 6.93816 3.97272 -0.00793859 -0.00413861 0.012739
533 2 -0.800779 5.22124 6.79077 30.0234 0.00203732 -0.00512827 0.0041655
534 2 -0.808374 7.32109 5.46671 30.2152 -0.00195864 0.00384922 -0.0155267
535 2 -0.819707 7.45617 9.24036 5.22415 0.00429059 -0.00257313 0.00109525
536 2 -0.841464 8.62027 7.12736 5.51164 0.00904827 -0.00780845 -0.00532867
537 2 -0.876322 9.2466 8.38182 3.6112 0.01899 -0.0036648 -0.00938897
538 2 -0.776983 3.67997 30.8014 10.2573 0.00362897 0.00661347 0.000568803
539 2 -0.831442 3.04348 29.491 8.29424 -0.00148645 0.00522579 0.0081661
540 2 -0.822159 30.0419 3.29185 9.00672 -0.00465814 0.00159391 -0.00362559
541 2 -0.750089 29.8357 29.8628 10.4194 0.00050049 0.00424926 -0.00241836
542 2 -0.920797 3.48722 6.13249 12.8844 0.00590305 0.00725222 0.00255666
543 2 -0.823467 4.53307 4.01972 12.5798 0.00799377 0.00328802 -0.0114892
544 2 -0.906762 5.35834 5.70043 10.9499 -0.00120275 -0.00162057 0.00269094
545 2 -0.784035 2.88406 7.28573 14.9273 0.0073315 0.00719 -0.0172734
546 2 -0.79759 30.3252 5.12919 14.4229 0.00792527 -0.0021027 0.00135938
547 2 -0.777754 29.6129 6.95438 12.6986 -0.000288075 -0.00292073 0.00454929
548 2 -0.794542 5.29149 7.04545 15.9758 -0.0122165 0.00875206 -0.0047968
549 2 -0.661647 4.91757 9.03428 14.1439 0.00419937 0.0055631 0.00644738
550 2 -0.861256 3.71682 9.00888 16.22 -0.00752436 -0.00711615 -0.0117358
551 2 -0.785335 6.70372 3.64252 13.8439 -0.0086357 -0.00685609 0.00598445
552 2 -0.884996 4.6716 30.3717 13.7797 -0.000795012 0.0084434 0.00719726
553 2 -0.847174 6.19793 30.7914 11.8835 0.00724257 -0.00109028 0.000439555
554 2 -0.731839 6.90487 5.46342 16.3354 0.00649665 -0.000354466 -0.00505341
555 2 -0.829554 8.76847 5.24491 14.5171 0.00742645 -0.00323479 -0.0039948
556 2 -0.765935 8.41057 3.18744 15.917 -0.00193388 0.00542994 0.00207464
557 2 -0.823875 6.94636 7.35374 10.3941 -0.0136473 -0.0051205 0.00847549
558 2 -0.69431 6.76787 8.50362 12.5804 0.00578343 0.00298846 0.000165152
559 2 -0.919742 8.53739 6.74737 12.4932 -0.00840457 0.0064859 0.01842
560 2 -0.893281 8.72976 8.83759 10.9266 0.00820627 0.00202402 0.00442884
561 2 -0.877817 3.79254 3.51578 18.0029 0.00944805 -0.00592206 0.00601783
562 2 -0.938603 3.66734 30.2574 16.0934 -0.0166304 0.00777747 -0.00360244
563 2 -0.958506 30.271 3.67704 16.23 0.00448593 -0.00316735 0.0158026
564 2 -0.951 30.5097 30.1872 17.879 -0.00166742 0.000655222 0.00157866
565 2 -0.837159 3.15192 5.11793 19.9519 -0.00982225 -0.00731002 0.0080443
566 2 -0.914447 5.63319 3.80652 19.7283 -0.00113667 0.0189325 0.00810689
567 2 -0.798139 4.97054 5.60718 18.1235 0.00298729 0.00506613 -0.00705201
568 2 -0.9053 3.50138 6.95644 21.4146 0.000572586 0.00773229 0.0100127
569 2 -0.817308 29.7363 5.76732 21.476 0.00395376 -0.00810043 0.0012912
570 2 -0.840815 30.2889 7.32294 19.4882 0.00404221 0.00028025 -0.00272518
571 2 -0.623513 5.1822 6.9479 23.3622 0.00097275 0.00783475 0.00425158
572 2 -0.905133 5.42618 8.65148 21.1528 -0.0082945 -0.0110245 -0.00843528
573 2 -0.931061 3.50759 9.02862 22.9091 0.00973309 0.00256086 0.0108974
574 2 -0.834113 7.44965 3.28274 21.3341 0.00173298 -0.00175282 -0.00401773
575 2 -0.888009 5.5602 30.4645 21.6305 -0.000865879 -0.00104095 0.00876723
576 2 -0.831361 6.68136 29.9749 19.4181 0.00181232 0.0028211 0.00182307
577 2 -0.758951 7.19914 5.6474 22.4289 -0.00643477 0.0111037 -0.00835976
578 2 -0.821684 9.1631 4.92999 21.1696 -0.0023105 0.00625742 -0.00698747
579 2 -0.840035 8.72474 3.87887 23.4756 -0.00413192 -0.00277617 0.00375559
580 2 -0.696268 6.59998 7.53483 18.0546 0.0147499 0.000958159 0.00828008
581 2 -0.853711 7.32153 8.7669 19.9802 -0.00473277 -0.00285046 0.00125995
582 2 -0.797226 8.57932 6.52359 19.5444 0.0038792 -0.00694782 -0.0121653
583 2 -0.836714 8.93031 8.75294 18.0053 -0.000816843 -0.00779973 0.00541201
584 2 -0.818279 3.65609 3.56412 24.609 0.00327117 0.00969536 0.00322378
585 2 -0.757402 3.56133 29.9223 23.2742 0.0135454 0.00662875 -0.0122626
586 2 -0.901873 30.2203 3.78321 22.9199 -0.00479167 0.00606743 -0.0046974
587 2 -0.838279 30.0286 30.3852 24.5878 -0.00391392 0.00462145 -0.00754384
588 2 -0.66552 3.75168 5.46402 26.6442 0.00673952 -0.0170905 -0.00240992
589 2 -0.763105 5.43393 3.81463 26.4228 0.00903109 0.00425935 -0.00697002
590 2 -0.611519 5.80387 5.18977 24.5328 -0.00106901 -0.0045133 0.000697449
591 2 -0.69127 2.82718 7.07181 28.5803 -0.000440625 -0.00299941 -0.000439212
592 2 -0.797249 30.0234 4.90296 28.2345 0.0150531 -0.0108264 -0.0151652
593 2 -0.790089 30.1903 7.00398 26.1953 -0.0116079 0.00075102 -0.00571912
594 2 -0.780934 3.43846 8.81751 30.3164 -0.00010851 0.00959399 0.00470712
595 2 -0.737644 5.09772 8.29342 28.086 0.00684491 -0.010297 -0.00034848
596 2 -0.835945 7.1192 3.50382 28.4821 -0.0080887 -0.00131096 -0.00644041
597 2 -0.816219 5.17344 30.392 27.8772 0.00937951 0.00188544 -0.012136
598 2 -0.868988 7.09822 30.461 26.2525 -0.0123841 0.0123417 -0.00789134
599 2 -0.881907 8.63605 3.53457 30.4195 -0.00967681 0.0174971 -0.00885348
600 2 -0.753884 8.84001 4.97985 28.0695 0.000553804 0.00109646 -0.00321319
601 2 -0.779327 7.40735 7.6158 24.3868 0.00390479 -0.00825136 -0.0016162
602 2 -0.753455 7.35747 9.16675 26.2934 -0.00377678 0.00668861 0.00280665
603 2 -0.917535 8.90066 6.95099 26.4164 0.00480416 0.0113092 0.00938264
604 2 -0.851511 9.25707 9.14146 24.8745 0.000120382 -0.00580497 -0.00837878
605 2 -0.850843 3.61123 10.5267 3.69841 0.000971216 0.00147014 0.00943416
606 2 -0.783034 29.9818 9.11001 3.6287 0.00786967 -0.00240642 -0.00503275
607 2 -0.863239 30.6237 10.6809 29.8753 0.00521371 0.00799236 0.000345201
608 2 -0.813868 3.44368 12.1783 5.29168 -0.00499271 0.00924186 -0.00669648
609 2 -0.815132 5.36368 10.7523 5.50005 -0.00604715 0.0131469 -0.00854811
610 2 -0.869689 5.40562 12.6022 3.87253 0.00171349 0.0148348 -0.00814007
611 2 -0.897145 3.70364 14.0806 6.89838 0.00701678 0.00850696 -0.0053121
612 2 -0.88794 30.3464 12.1172 7.15549 -0.00131975 0.00197156 -0.00358289
613 2 -0.905354 30.1274 13.8529 5.24606 -0.00098024 -0.0033771 0.00657472
614 2 -0.775499 5.56172 14.0966 8.94136 -0.00517625 -0.0031393 -0.00739353
615 2 -0.795656 5.30359 15.973 7.39341 -0.0156442 -0.00549822 -0.0058492
616 2 -0.732276 3.30594 15.249 9.17335 -0.000791832 -0.00663084 0.00113258
617 2 -0.772925 6.73634 10.628 7.35213 -0.00247434 0.0068819 0.00233348
618 2 -0.802553 7.28072 12.4106 9.204 0.00135948 0.0171951 -0.00119166
619 2 -0.85462 8.4219 12.5331 6.99976 0.0102163 -0.00316375 -0.0195981
620 2 -0.749972 8.58625 10.5893 8.84273 0.00348807 -0.00594745 -0.0106906
621 2 -0.762629 7.53896 14.2007 3.49951 -0.00614441 0.000421188 -0.00122105
622 2 -0.712712 5.60174 13.853 29.8767 0.000579017 -0.00700389 0.00500838
623 2 -0.825206 7.04475 12.0062 30.6989 0.00927777 0.00763405 -0.00596218
624 2 -0.880298 7.0831 16.1323 5.36495 0.00733638 0.0146653 0.001314
625 2 -0.898025 8.89236 14.2157 5.27492 -0.000411856 0.0103499 0.00329446
626 2 -0.816353 8.98046 16.0299 3.6165 -0.00535989 0.000361562 -0.00195568
627 2 -0.896408 3.78154 10.459 10.2116 -0.00783935 0.0055203 0.00835066
628 2 -0.894239 30.4436 8.40369 10.4338 -0.00847636 0.00866127 0.00863197
629 2 -0.725908 29.8735 10.583 9.28099 0.00675237 -0.00457087 -0.0122443
630 2 -0.910684 3.23036 12.1649 12.1882 -0.000267954 0.00614307 -0.000512851
631 2 -0.769956 5.13178 10.527 12.1259 -0.0064419 0.00821482 0.00473424
632 2 -0.846617 5.0998 12.6016 10.9373 0.00540411 0.00920019 0.00991177
633 2 -0.82856 3.56952 14.2801 13.9177 0.0160163 0.00850564 -0.00470137
634 2 -0.857988 29.9262 12.6237 14.2281 0.0121665 0.000282301 0.0148228
635 2 -0.832353 30.0586 13.8634 12.1651 0.0131328 0.00533218 0.00541429
636 2 -0.752945 5.80831 13.7877 15.9398 0.000547107 0.000536178 -0.00864685
637 2 -0.743503 5.09926 15.9463 14.214 0.00123338 0.0112249 0.00640676
638 2 -0.715012 3.92362 15.9037 16.1085 0.00690646 -0.00124386 0.00114911
639 2 -0.780859 7.30413 10.7496 14.8414 -0.0135104 -0.0100727 0.000705389
640 2 -0.857952 7.60736 12.1433 16.5115 0.0165887 0.00084063 -0.00712491
641 2 -0.958946 9.15436 12.487 14.7194 -0.0131582 -0.00234741 -0.00775711
642 2 -0.892386 9.482 10.3591 16.0542 -0.00078884 0.00279103 0.0116606
643 2 -0.860327 7.01103 14.0989 11.1474 0.0123517 0.00842136 0.0126796
644 2 -0.906186 7.37707 15.8342 12.9177 0.00581089 0.0120138 -0.00276881
645 2 -0.910581 8.94391 14.057 12.5786 0.0102103 -0.00348141 -0.00480718
646 2 -1.04322 8.57769 15.8149 10.692 -0.00424412 -0.0010323 -0.00599642
647 2 -0.815785 3.48927 10.662 18.1323 0.00295604 -0.00983685 0.020524
648 2 -0.789564 30.106 9.22658 17.9151 0.000498267 -0.0110727 0.00611107
649 2 -0.890956 30.3393 10.9303 15.9255 0.00276958 -0.00285304 -0.00906961
650 2 -0.919356 3.64125 12.6443 19.5183 -0.00466556 0.0114885 -0.00401917
651 2 -0.924197 5.38326 10.7403 19.7011 -0.00160246 -0.00262039 -0.00955759
652 2 -0.921341 5.38832 12.0843 17.6516 0.00252239 -0.0124025 -0.00280923
653 2 -0.877417 3.46422 14.5551 21.1473 0.00693008 -0.0116637 0.000306729
654 2 -0.876094 30.4352 12.5312 21.446 0.00113752 0.00435067 0.0105085
655 2 -0.922433 30.2744 14.2496 19.3487 0.00220105 0.0132498 -0.0102933
656 2 -0.736746 5.27998 14.0447 22.8395 -0.0215896 -0.0170298 0.00546003
657 2 -0.780268 5.46135 16.0936 21.7182 0.0156176 -0.0153192 -0.00432067
658 2 -0.927606 3.42798 15.8801 23.1783 -0.00821639 -0.00873581 0.0170392
659 2 -0.825224 7.05992 10.8178 21.2791 0.00123075 0.0055527 0.000807815
660 2 -0.753863 7.02033 12.2869 23.2462 0.00442077 -0.00510598 0.0039165
661 2 -0.81922 8.82418 12.8814 21.6557 0.00778754 -0.00453147 -0.00380982
662 2 -0.805807 9.00073 10.6826 22.8467 0.00339926 -0.00646724 -0.00203618
663 2 -0.869153 6.99143 14.2404 17.9595 -0.00384888 0.00403714 -0.00272295
664 2 -0.720098 7.08605 16.1411 19.6664 0.0101696 0.00498979 0.00051307
665 2 -0.903907 8.68056 14.0899 19.5678 -0.00772089 0.0124098 -0.00629122
666 2 -0.845738 8.70371 15.9901 17.7322 -0.0140319 -0.00685732 0.0121699
667 2 -0.985206 3.54073 10.8024 24.7697 0.00742499 0.00486457 -0.00635421
668 2 -0.974571 30.3784 8.87413 24.7602 0.0127832 -0.00450363 0.00493935
669 2 -0.912856 30.1115 10.7229 23.2763 -0.018772 0.00098756 -0.000807999
670 2 -0.880787 3.56197 12.5146 26.4436 0.00673389 -0.00203107 0.00115182
671 2 -0.833139 5.16162 10.529 26.8424 -0.00454992 -2.74354e-05 -0.0069836
672 2 -0.826082 5.47759 12.3651 25.1081 0.00479926 -0.00176052 0.00210409
673 2 -0.873919 3.62498 14.3147 28.4046 -0.000256766 -0.0146308 0.00609968
674 2 -0.901342 30.34 12.4288 28.2443 0.0119645 0.00340094 -0.00879431
675 2 -0.920999 30.2761 14.3912 26.7709 0.000304884 0.0116123 0.00299902
676 2 -0.757763 3.89303 15.6236 30.5924 -0.00206922 -0.0065968 0.00217731
677 2 -0.816166 5.61884 15.8034 28.2481 -0.00594667 -0.00451885 0.0154558
678 2 -0.770386 6.73699 10.2063 28.8138 -0.00275697 -0.000510621 -0.00761429
679 2 -0.878266 8.89562 10.3956 30.4409 -0.00789494 -0.00102952 -0.00537669
680 2 -0.664636 8.68574 14.9611 29.043 0.001336 -0.0071627 0.00281538
681 2 -0.763906 7.65427 14.0733 24.7877 -0.00213015 -0.015582 -0.0030161
682 2 -0.892779 7.05586 16.3076 26.2282 0.00189572 -0.00448134 0.00311949
683 2 -0.869029 9.10469 15.1534 26.6752 -0.000889514 -0.00939876 0.00434637
684 2 -0.803188 8.85084 16.0811 24.4335 -0.00603488 0.00959387 0.0206964
685 2 -0.857931 4.24366 17.4314 3.70571 -0.00262614 -0.000455229 -0.00687571
686 2 -0.779588 30.2082 15.8103 3.30587 0.00687521 0.00146863 0.00981679
687 2 -0.854158 30.8095 17.8744 30.4334 -0.0179426 0.000200561 -0.0128703
688 2 -0.841065 3.4219 19.6372 5.04599 0.010161 -0.00194447 -0.00406625
689 2 -0.827014 5.32795 18.136 5.95281 -0.000812888 0.00216828 0.0185473
690 2 -0.776582 5.54073 19.5016 4.01743 -0.0139065 0.0040395 0.00800486
691 2 -0.822729 3.32172 21.3863 7.2879 -0.00819555 -0.00270829 -0.00399619
692 2 -0.770272 30.518 19.4975 7.11197 0.0163715 -0.000545937 0.00400095
693 2 -0.816708 30.0276 21.2547 5.2873 -0.00976568 0.0046622 -0.00918813
694 2 -0.761674 4.95588 21.4369 9.23856 0.00691317 0.00886715 0.00343909
695 2 -0.944874 5.11068 23.1662 7.09784 -0.0101572 -0.000924422 -0.00786249
696 2 -0.797494 3.35386 23.3263 9.06251 -0.0179026 -0.00843339 -0.0180754
697 2 -0.727121 7.33036 17.2241 7.45689 -0.0038489 0.0132782 -0.0118439
698 2 -0.794667 7.12305 19.5943 8.66357 0.0171491 0.0100394 0.00993998
699 2 -0.571287 8.93541 19.282 7.11324 -0.0013458 0.00616042 0.0072318
700 2 -0.949826 8.97346 17.7363 9.21202 -0.00600457 -0.00825763 -0.00680357
701 2 -0.763408 7.06455 21.7344 3.71352 -0.00952267 -0.00180087 -0.0020088
702 2 -0.711802 5.09204 21.1425 30.4575 0.00800474 0.011881 0.00571067
703 2 -0.743593 7.44667 19.802 30.5158 -0.00182644 -0.000593393 0.00778572
704 2 -0.837258 7.44221 23.2058 5.92907 0.0069506 -0.0114271 0.00449769
705 2 -0.704562 8.68394 21.1897 5.20568 -0.001617 0.00588225 -0.00572645
706 2 -0.700075 9.13365 23.2188 3.68607 0.00200227 -0.00964077 -0.00471936
707 2 -0.826288 3.77838 17.2844 10.7403 0.00561439 -0.0147332 -0.00398385
708 2 -0.851014 30.1291 15.8125 10.5975 -8.70192e-05 -0.00344911 -0.0173177
709 2 -0.772598 30.2706 17.3255 8.6868 -0.00918497 -0.00170089 0.00297415
710 2 -0.765746 3.73399 19.3461 12.5324 -0.000546153 0.00522877 0.00631689
711 2 -0.750104 5.49284 17.5533 12.3945 0.00819377 -0.011287 0.00610622
712 2 -0.688469 5.76252 19.4355 10.6074 0.00734842 0.00220506 -0.00663113
713 2 -0.70214 3.34087 21.6495 13.7918 0.000303266 -0.00168528 0.000103578
714 2 -0.888764 30.4765 19.5885 14.0533 0.000750443 0.00596098 -0.00273751
715 2 -0.826502 30.2056 21.4412 12.3051 0.00685229 -0.020004 -0.00248369
716 2 -0.887418 5.01494 21.635 16.1602 0.00501416 -0.00279844 0.00259539
717 2 -0.833797 5.36948 22.9839 14.0901 -0.00722787 0.00317661 -0.00263725
718 2 -0.868794 3.28705 23.2957 15.7426 1.5758e-05 -0.00104625 -0.00240706
719 2 -0.784972 7.15508 17.6034 14.4107 0.00981372 0.0109581 -0.000559674
720 2 -0.896476 6.535 19.6311 15.9973 0.0043037 -0.00362836 0.00541435
721 2 -0.872409 8.2199 19.9254 14.0102 0.0111914 -0.00141957 -0.0175037
722 2 -0.769938 8.60873 18.4525 16.2169 -0.00287599 -0.00267902 0.0064201
723 2 -0.812057 7.4138 21.2822 10.6745 0.0132087 -0.0112261 -0.00538188
724 2 -0.960758 7.30125 23.3641 12.4201 -0.00349932 0.0110847 0.0104973
725 2 -0.852205 8.96189 21.6864 12.3348 -0.00211774 -0.0154004 -0.0130465
726 2 -0.957456 8.88081 23.407 10.5118 0.0110869 -0.00904782 -0.00424587
727 2 -0.803039 3.8125 17.9945 17.4651 -0.00794552 0.00260839 -0.00379491
728 2 -0.628493 30.6326 16.4091 18.127 -0.000520059 0.00177971 -0.0145712
729 2 -0.853145 30.1201 17.6711 15.9004 -0.00158685 0.000131443 -0.00490562
730 2 -0.884299 3.57476 19.2848 19.6315 -0.00220669 -0.00983233 0.0126807
731 2 -0.842451 5.2844 17.8247 19.564 -0.00149554 -0.011773 0.00286204
732 2 -0.959925 5.28479 19.9146 17.9054 0.0101579 -0.000138168 0.00645097
733 2 -0.833524 3.90514 21.5285 20.8943 0.00791377 0.00326617 -0.00544873
734 2 -0.791503 30.3241 20.0061 21.4259 0.00322741 -0.0157522 -0.0054326
735 2 -0.927389 30.4289 21.4926 19.4439 0.00073512 -0.0169063 0.000392617
736 2 -0.797776 5.33716 21.0217 22.7704 0.00453252 0.00590742 0.000981927
737 2 -0.744385 5.49893 23.0697 21.4941 0.00293414 -0.000227621 -0.00133639
738 2 -0.85129 3.59144 23.0692 23.0633 0.00288167 -0.000379736 -0.00132444
739 2 -0.871901 7.14683 17.9498 21.2386 -0.000309284 0.00712109 0.0173912
740 2 -0.775739 7.09187 19.175 23.4526 0.0049983 0.00163544 0.00974651
741 2 -0.894684 8.97102 19.6098 21.4775 -0.0175065 -0.00554345 0.0028916
742 2 -0.772707 9.00123 17.5508 22.6758 0.0162428 -0.00553919 0.00186219
743 2 -0.871606 7.17842 21.6578 17.3121 -0.0026471 -0.000158303 -0.0108678
744 2 -0.733599 7.46725 23.0144 19.6092 0.0113818 0.00661361 -0.00712535
745 2 -0.879568 8.74609 21.2766 19.543 -0.0010012 -0.00237621 0.00941512
746 2 -0.784617 9.09097 23.3756 18.0411 0.00944984 -0.0127899 -0.00961725
747 2 -0.919614 3.18385 17.4253 24.996 -0.00757117 -0.0039277 0.000716036
748 2 -0.942461 29.8896 15.9169 24.7155 0.00657708 0.00430467 -0.00818908
749 2 -0.911322 30.1883 17.7672 22.9526 -0.00114646 0.00683801 -0.00899495
750 2 -0.774835 3.67008 19.4958 26.3737 0.000572189 -0.011477 0.00118963
751 2 -0.886685 5.26141 17.575 26.5984 -0.00778084 0.0121459 -0.0100952
752 2 -0.720449 5.1177 19.125 24.3999 -0.00164095 -3.92313e-05 -0.00464197
753 2 -0.898406 3.60657 21.1188 28.5076 0.00756711 0.000345142 -0.00744245
754 2 -0.879887 30.3988 19.3608 28.3067 -0.00415509 -0.00623054 -0.00677273
755 2 -0.78009 30.1205 21.278 26.9718 -0.0037357 -0.0097197 -0.00941672
756 2 -0.876724 3.35763 23.0077 30.3801 0.00306575 -6.46699e-05 0.00891337
757 2 -0.874576 5.44499 22.8738 28.5928 -0.00287859 0.00656674 0.00376229
758 2 -0.86098 7.04511 17.7372 28.654 -0.0076232 0.00917892 -0.00439328
759 2 -0.770764 9.16169 17.7902 30.2012 -0.00883936 0.00749021 4.08329e-05
760 2 -0.811668 9.01267 19.6622 28.6598 0.0161661 -0.00552389 -0.00894965
761 2 -0.768973 6.75869 21.3116 25.0534 0.00266565 -0.000492424 0.00967491
762 2 -0.841877 7.25435 23.2103 27.0639 -0.0044334 0.0020213 -0.00947406
763 2 -0.847947 8.92383 21.3152 26.2732 -0.000211086 0.00600157 -0.00342794
764 2 -0.856252 8.51456 23.1323 24.8031 0.000949887 0.00225614 0.000482608
765 2 -0.89471 3.73141 25.0503 3.54312 0.00350979 0.00444108 -0.0134107
766 2 -0.900358 30.3444 23.3269 3.87557 -0.00248092 0.013134 0.000954734
767 2 -0.878051 30.0646 24.9258 30.4002 0.0121496 -0.00676764 0.00817497
768 2 -0.9124 3.39471 26.1191 5.64977 -0.0100177 -0.00846288 0.00769451
769 2 -0.90192 5.61011 24.7954 5.08 -0.00565846 0.000646263 0.00199554
770 2 -0.83713 5.23253 26.9787 4.13344 -0.019676 -0.0191677 0.00771767
771 2 -0.808119 3.56763 28.4048 6.3369 -0.000627367 -0.0138848 0.0098418
772 2 -0.835351 29.877 26.9466 7.11192 0.0137658 -0.014184 0.0134392
773 2 -0.867924 29.9005 27.7534 4.93118 -0.00182358 -0.0088888 0.00872386
774 2 -0.901374 5.0189 28.1688 8.58899 0.0108037 -0.0083985 -2.67028e-05
775 2 -0.793349 6.87244 24.9656 7.33368 -0.00293572 -0.00305582 -0.00275237
776 2 -0.845278 7.2251 26.737 9.04931 -0.00810536 -0.00463995 -0.00263613
777 2 -0.839068 8.87449 26.5475 6.98749 -0.00345271 -0.00607875 0.00420244
778 2 -0.974462 9.21603 24.9297 8.72087 -0.00579554 0.00816035 -0.00423221
779 2 -0.720415 7.49496 27.9664 4.27063 -0.0116012 0.00507484 0.0125833
780 2 -0.688469 5.85162 28.8054 2.75069 0.00395047 -0.00836123 -0.00995663
781 2 -0.915006 7.12878 26.5925 30.5843 -0.00364741 0.00937196 0.00283055
782 2 -0.899429 8.99771 29.8605 3.33166 -4.91e-05 9.99613e-05 0.0106697
783 2 -0.814795 9.70971 28.4429 5.44467 0.00320509 0.0110301 -0.00863862
784 2 -0.680053 3.29573 25.3916 11.1865 0.00378511 0.00528567 -0.0117817
785 2 -0.858159 30.0456 23.3814 10.6702 -0.00477773 -0.00126001 0.000257614
786 2 -0.896392 30.1672 25.2814 9.06315 -0.00992256 0.00622148 0.000330202
787 2 -0.834684 3.58451 27.1211 12.6532 -0.00049526 0.00195954 0.0128421
788 2 -0.78378 5.35647 25.0876 12.9957 -0.00688514 -0.00316499 -0.00545976
789 2 -0.903899 5.38704 26.4826 10.7403 -0.0138528 -0.0149266 0.0030528
790 2 -0.901982 2.9154 28.724 14.3319 0.00251628 0.0107741 -0.0045996
791 2 -0.83211 30.0454 26.6401 14.0348 -0.0150691 0.0110714 0.0105997
792 2 -0.832688 29.8043 28.4256 12.2007 0.00427783 -0.0122888 0.00224383
793 2 -0.918403 5.37905 28.5053 15.4357 -0.0126311 -0.00332288 0.00729967
794 2 -0.813913 7.09032 24.7055 14.715 0.000823611 -0.0144401 0.00839541
795 2 -0.961235 7.10961 26.7939 15.7563 -0.00432565 -0.00110332 0.012192
796 2 -0.834191 9.2451 26.4387 14.2377 0.00168847 -0.000690816 0.00510357
797 2 -0.850532 9.16778 25.2293 16.1692 0.00639556 -0.00814029 0.00113207
798 2 -0.800925 6.48902 28.7074 10.2319 0.0113959 -0.0112045 0.00185545
799 2 -0.706604 8.50004 30.0471 10.4593 0.00494892 0.00812341 -0.00608506
800 2 -0.644836 10.0305 28.6146 13.0236 0.00753651 0.0142536 -0.000276489
801 2 -0.885916 3.25097 25.018 17.626 0.00465146 -0.01585 0.000642018
802 2 -0.938477 30.0329 22.9441 17.4863 0.00611666 0.0111173 0.0086692
803 2 -0.824704 29.7325 24.8968 16.0894 -0.00364228 -0.0132519 0.0134346
804 2 -0.823305 3.69805 26.8544 19.3791 -0.00425378 -0.00818443 -0.00193774
805 2 -0.661399 5.11082 24.0257 19.2387 0.0173009 0.0162288 -0.0107861
806 2 -0.912765 5.04677 27.1549 17.2577 0.00644325 -0.0109196 -0.0113498
807 2 -0.882027 3.83428 28.6442 21.1342 0.00724291 0.000696676 0.00699634
808 2 -0.846276 30.7467 26.7896 21.5258 -0.000936594 -0.0128245 0.0174591
809 2 -0.894097 30.3445 28.606 19.5469 -0.00797161 0.00172607 -0.000324783
810 2 -0.782332 5.30371 28.4484 23.2452 -0.00757464 -0.00703789 -0.000361592
811 2 -0.774234 6.76467 25.1346 21.1348 0.0120401 -0.00175965 -0.00630812
812 2 -0.758196 7.07798 26.833 22.9039 -0.00928547 0.0176342 0.00972273
813 2 -0.814029 9.08132 26.7026 21.3107 0.000993308 0.00114237 -9.1169e-05
814 2 -0.76633 8.27671 24.8434 22.9734 0.000632403 0.00425176 0.000532056
815 2 -0.894151 6.83483 28.6993 17.4836 -0.0016295 -0.0068283 0.002212
816 2 -0.78982 8.96058 30.1151 18.1306 0.0018853 0.010472 -0.0128592
817 2 -0.940135 8.59189 28.0302 19.1912 -0.00225635 -0.00686564 -0.00504503
818 2 -0.862344 4.25022 24.5961 24.6524 -0.00344752 -0.00369661 -0.000427952
819 2 -0.896973 30.5583 23.1046 25.0774 0.00664017 0.00402474 0.00578278
820 2 -0.707067 30.2203 24.915 23.375 -0.00623743 -0.00644206 -0.00643177
821 2 -0.855083 3.46081 26.4401 26.0402 -0.0159754 -0.000448758 0.00607572
822 2 -0.956382 5.2615 24.9137 26.8729 0.00281114 -0.000961241 0.00547923
823 2 -0.866128 5.73439 26.7373 25.1953 -0.00196906 -0.00161983 0.0100911
824 2 -0.873199 3.58808 28.5257 27.6635 -0.0102335 -0.000527568 0.014979
825 2 -0.777173 30.1975 26.7313 28.14 0.00280067 -0.000402507 0.0153009
826 2 -0.842184 30.1091 28.2917 26.0924 -0.00658062 0.00365751 0.00351226
827 2 -0.857616 6.95212 25.0009 28.7801 0.000887936 0.0149614 0.0021565
828 2 -0.873412 9.16056 24.9389 29.9342 -0.0118884 -0.00834562 -0.00895473
829 2 -0.852827 8.62905 26.9996 28.4776 0.00729044 -0.00332125 -0.00825352
830 2 -0.799226 7.47467 28.7123 24.7668 -0.00264976 -0.00251454 0.00102527
831 2 -0.911885 9.17757 30.1924 24.913 0.000190196 0.000916533 -0.00469601
832 2 -0.946261 8.90526 28.612 27.0047 -0.00128528 0.0122196 0.0129725
833 2 -0.848925 10.2243 3.31164 4.01609 0.00622507 -0.00673962 0.0028096
834 2 -0.904393 10.6915 30.6293 30.1064 0.0032234 -0.0183582 0.00596495
835 2 -0.921976 10.395 5.41785 5.38765 -0.00791933 -0.000832517 -0.0108505
836 2 -0.862474 12.0372 3.21076 5.35867 0.00574537 0.0111208 0.00668656
837 2 -0.894227 12.0555 5.13061 3.70297 -0.00166628 -0.00735892 0.00715074
838 2 -0.80805 10.3847 7.11346 7.21172 -0.000326228 -0.00460484 -0.000586553
839 2 -0.925181 11.8634 7.1303 8.9952 -0.0211535 0.012612 -0.00909623
840 2 -0.908513 12.3534 8.73494 6.95937 -0.000656295 -0.00363514 0.0169751
841 2 -0.81724 10.3026 9.00457 8.84083 0.00373578 0.016753 0.00158051
842 2 -0.79511 13.9623 3.86318 6.76139 -0.00567512 -0.0109474 0.00722121
843 2 -0.981153 12.6377 30.2112 7.37291 -0.00190984 -0.00749734 -0.000314428
844 2 -0.824649 14.2511 30.2323 5.38248 -0.00710178 0.00555931 0.0116646
845 2 -0.820342 14.0427 5.56338 9.10451 0.000252599 0.000719662 0.00146215
846 2 -0.702604 15.9555 5.05368 6.90717 -0.00115277 -0.000619192 0.00580116
847 2 -0.781914 15.6101 3.73478 8.98241 0.00258982 0.00893787 0.00385606
848 2 -0.770501 13.8771 6.89026 3.88128 -0.00474626 -0.0146091 -0.0192314
849 2 -0.872711 12.4856 6.93128 30.0466 0.0064282 -0.0143414 -0.0119574
850 2 -0.782306 13.8837 5.17676 30.3485 -0.00586512 -0.0034048 -0.00792056
851 2 -0.851738 13.812 8.90858 5.14714 -0.00612332 0.00884874 0.00296875
852 2 -0.67806 15.4431 7.10577 5.41252 -0.00920486 -0.00453676 -0.00834512
853 2 -0.774787 16.1432 8.5404 3.60835 -0.00513453 -0.000683813 0.00355379
854 2 -0.692907 10.3468 3.66733 10.6923 -0.000754533 -0.00125139 -0.0213425
855 2 -0.745726 10.7285 30.219 8.65206 -0.00363306 -0.0116655 -0.00808245
856 2 -0.719296 10.3701 5.23628 12.7899 -0.00464333 0.0129225 -0.0106797
857 2 -0.740821 12.2935 3.33291 12.3493 -0.00687164 0.0089288 0.00797221
858 2 -0.80879 12.3353 5.40631 10.6194 -0.0087935 0.00580623 -0.00800678
859 2 -0.821169 10.3836 7.50405 14.2737 0.00921663 0.00116074 0.00593142
860 2 -0.869934 12.4475 6.98638 15.7542 0.00419767 0.000850561 -0.00105798
861 2 -0.851143 12.3592 8.99298 14.0721 -0.0093154 0.000843633 -0.000895573
862 2 -0.84052 11.0743 8.70583 16.4984 0.00961937 -0.0046997 0.00786945
863 2 -0.718781 14.2407 3.85819 14.3711 0.0172714 -0.00535932 0.0070953
864 2 -0.683463 12.6306 30.361 14.8523 0.0121076 0.0142517 -0.00707358
865 2 -0.787162 13.9371 30.0176 12.8102 -0.00769508 -0.0053224 0.00104809
866 2 -0.900718 14.398 5.49347 16.3249 -0.00898151 -0.00537168 -0.00373308
867 2 -0.844804 16.0767 5.27721 14.3116 0.011455 0.00764605 0.0032012
868 2 -0.788016 16.2721 3.52533 15.8297 0.00246692 0.0059454 -0.000492471
869 2 -0.980424 13.9957 7.47457 10.5662 -0.00282562 -0.00394403 -0.00118051
870 2 -0.820305 14.5906 9.24454 12.3953 0.00276313 0.0111835 0.00143804
871 2 -0.965143 15.6907 7.02321 12.4961 0.000707341 -0.00884967 -0.00490959
872 2 -0.859849 16.1177 8.78012 10.7825 0.000800406 -0.00598883 -0.00311346
873 2 -0.816306 10.4246 3.73177 17.6801 0.00368102 0.00343836 0.0121064
874 2 -0.824625 10.4933 30.2434 16.1038 -0.00554526 -0.0022953 -0.00131926
875 2 -0.821702 10.7601 5.49395 19.2638 -0.00205083 0.00268804 -0.00367683
876 2 -0.839961 12.3812 3.51847 19.6417 -0.00204856 -0.000943545 0.0172899
877 2 -0.825935 12.5767 5.09716 17.807 0.00982046 0.0013712 0.0132995
878 2 -0.804985 10.7891 6.94308 21.3398 0.0138721 -0.0157789 0.0121836
879 2 -0.817565 12.8045 7.04169 23.1062 -0.0187416 0.00331592 -0.00328675
880 2 -0.808281 12.6056 8.86403 21.5021 -0.0108004 -0.000284476 0.0060977
881 2 -0.879581 10.922 8.98911 23.0461 -0.00553564 -0.00123707 0.00469934
882 2 -0.834007 13.9169 3.97384 21.6018 0.0127144 0.000996733 -0.00175605
883 2 -0.790021 12.5277 30.1258 21.4373 -0.00635737 -0.00516034 -0.0139023
884 2 -0.830985 14.65 30.6826 19.886 -0.00202217 0.00622253 0.0052783
885 2 -0.88455 14.6477 5.51714 23.4147 -0.0111819 -0.00640354 -0.00254587
886 2 -0.854432 15.745 5.57619 21.1729 -0.0144221 -0.00451654 0.00430176
887 2 -0.881408 16.1307 3.55541 22.6658 0.00509645 0.00408611 0.00926423
888 2 -0.861661 13.9735 7.42396 17.5737 -0.00440993 0.00212054 0.0108265
889 2 -0.869422 14.1248 8.87835 19.4259 0.00416847 0.0117292 0.00150099
890 2 -0.791732 15.8015 6.92404 19.1923 0.00298389 0.00373463 0.00509511
891 2 -0.914794 16.0466 9.06416 17.8 -0.0053328 0.00534842 -0.00583675
892 2 -0.798222 10.9467 3.62308 24.8157 -0.0142071 -0.00488507 -0.00706786
893 2 -0.859479 10.392 30.2905 22.8928 -0.00882485 -0.0066523 -0.00201018
894 2 -0.881978 10.7814 5.36852 26.7743 -0.00896762 -0.0022925 0.00503757
895 2 -0.9252 12.6477 3.74426 26.7661 0.0163943 -0.00495391 0.000366541
896 2 -0.777099 12.6524 5.22481 24.8188 0.00814989 -0.000457349 -0.00224855
897 2 -0.977087 10.4331 6.99736 28.5074 0.000963554 0.0112592 -0.00466156
898 2 -0.872968 11.001 8.75647 30.319 0.00318433 -0.00069987 -0.0101306
899 2 -0.940773 12.2079 8.70077 28.2398 -0.00879336 -0.0103352 -0.00647368
900 2 -0.859515 14.2394 3.26066 28.5731 -0.00532972 -0.00848124 0.0139854
901 2 -0.881311 12.2372 29.9457 28.1924 0.00201603 -0.0108611 -0.000342584
902 2 -0.838108 13.9788 30.0021 26.7347 -0.0123986 0.00270911 -0.000502734
903 2 -0.748794 15.5972 3.34779 30.4808 -0.0151555 0.0147148 -0.0169289
904 2 -0.948238 15.6608 5.14717 28.6499 0.000259577 -0.00297852 -0.00661112
905 2 -0.833476 14.1713 7.15655 25.3716 0.00602752 0.00283629 -0.0120817
906 2 -0.905026 14.2354 9.03463 27.0206 -0.000958674 -0.00737642 -0.00892513
907 2 -0.875377 15.9432 7.19073 26.9532 -0.00541076 -0.000700765 0.0033541
908 2 -0.877816 15.8495 8.67572 24.8326 -0.0124703 0.0121317 0.00322072
909 2 -0.825954 10.7462 10.6463 3.47125 0.00577123 0.00201069 -0.00751441
910 2 -0.861227 10.418 12.1839 5.43824 0.00226414 -0.0018827 -0.0217888
911 2 -0.866355 12.4456 10.8621 5.757 0.00553576 -0.00343712 0.00212154
912 2 -0.751754 12.276 12.6441 3.76512 -0.00485432 -0.0153534 0.00756342
913 2 -0.888845 10.4483 13.8983 7.30701 -0.010907 0.00741312 -0.00645234
914 2 -0.859035 12.292 14.0294 9.19525 0.00325681 -0.00467047 -0.00608803
915 2 -0.910353 12.325 15.6608 7.31274 -0.00769154 0.00343135 -0.00506843
916 2 -0.942814 10.5148 15.8436 8.94908 0.0174406 0.0122352 0.0187513
917 2 -0.89946 14.407 10.4088 6.99817 0.0022647 -0.00844416 0.00836703
918 2 -0.941717 13.9019 12.2257 8.93071 0.012111 0.00295434 0.000542039
919 2 -0.972477 15.7863 12.4817 7.1894 -0.0105183 -0.00168235 -0.0214506
920 2 -0.899151 15.9097 10.6554 8.94162 0.00582112 0.0089089 0.0143965
921 2 -0.875846 14.4363 14.1821 3.54838 0.00141263 0.00138937 0.00812533
922 2 -0.892355 12.8455 14.379 30.3263 0.00468264 -0.00357511 -0.00095644
923 2 -0.9734 13.9572 12.2746 30.3644 -0.0137471 -0.0216167 0.0026587
924 2 -0.922539 14.2983 15.6885 5.53104 0.0072628 -0.00546109 -0.00280695
925 2 -0.766407 16.223 14.0269 5.15443 0.00538249 0.00444441 0.00546273
926 2 -0.770676 16.3794 15.9013 3.78432 0.0108184 0.0181322 -0.014529
927 2 -0.679976 10.4692 10.6598 10.6042 -0.0019173 -0.00437184 0.000218193
928 2 -0.899645 10.4532 12.2921 12.7071 -0.00600199 0.00745795 -0.00874206
929 2 -0.808712 12.5018 10.8732 12.7136 0.0020346 -0.0110239 0.0153444
930 2 -0.770376 12.494 12.6397 11.0325 0.00714168 -0.00949343 -0.0150179
931 2 -0.932629 10.6786 14.2913 14.5249 -0.00437401 -0.00577035 0.00307084
932 2 -0.925377 12.3564 14.651 16.1867 0.000937518 0.0119063 0.000230788
933 2 -0.81654 12.1615 16.1388 14.1908 0.0180679 -0.0202691 -0.0103975
934 2 -0.883044 10.3759 16.3567 15.9938 -0.00365063 -0.00370625 0.00465768
935 2 -0.825158 14.0846 10.542 14.5884 -0.00387254 0.00828958 0.00185655
936 2 -0.757446 13.9862 12.5016 16.1658 0.000967061 -0.000357265 -0.00292488
937 2 -0.936125 15.7876 12.4064 14.1491 0.00423772 0.00375207 -0.00830367
938 2 -0.843639 15.9016 10.8479 15.8964 0.00170835 0.00446861 -0.00723652
939 2 -0.948782 14.2293 14.397 10.463 0.00167484 0.00323806 0.000226966
940 2 -0.928257 14.0483 15.9695 12.3192 -0.0106074 0.000491137 0.000201274
941 2 -0.868549 15.9508 14.0974 12.2869 0.0066253 -0.00358734 0.00815474
942 2 -0.790754 16.0115 16.0496 10.6704 -0.0141205 0.00871034 -0.00898482
943 2 -0.799697 10.6561 10.3273 18.4094 -0.00334517 -0.017136 -0.00376706
944 2 -0.936162 10.3222 12.3661 19.724 -0.00485962 -0.00239351 0.00263921
945 2 -0.875135 12.482 10.9721 19.9675 -0.00288712 0.0120906 -0.00257103
946 2 -0.788723 11.9823 12.3228 17.7542 0.020816 -0.012229 0.000746971
947 2 -0.94002 10.6032 14.5145 21.3196 0.0114388 0.0113582 -0.0121558
948 2 -0.779917 12.5167 14.0382 22.8574 -0.000662457 -0.00706391 0.00817941
949 2 -0.954169 12.7051 16.0835 21.349 0.000430798 0.0126371 -0.00355291
950 2 -0.829891 11.0266 16.0703 23.0686 -0.00895767 0.00495617 -0.00532821
951 2 -0.8285 14.6814 10.3318 21.1788 -0.00434348 0.011255 -0.00899891
952 2 -0.824442 14.4356 12.2493 22.5443 0.00488288 0.0113614 -0.0012401
953 2 -0.857764 16.4743 12.0079 20.6774 0.0109543 -0.00597288 0.00409935
954 2 -0.832721 16.5398 10.6542 22.9372 0.00336134 -0.00839113 -0.0094778
955 2 -0.849262 13.8598 14.1921 18.0413 0.0135465 0.00364569 -0.000938472
956 2 -0.779673 14.4427 16.2482 19.6182 -0.000722078 -0.017992 -0.00698729
957 2 -0.86789 16.0208 14.0241 19.212 -0.00411815 -0.0109081 -0.00221504
958 2 -0.823437 15.7268 15.6013 17.4055 0.0100247 0.00290235 0.00952318
959 2 -0.792934 10.7073 10.9578 25.002 -0.00195475 -0.0089936 0.00817394
960 2 -0.69165 9.08532 12.8225 27.8203 -0.0135947 0.00416852 1.55619e-06
961 2 -0.875131 12.5008 10.8415 26.5687 -0.00662268 0.00280153 -0.00992393
962 2 -0.709339 12.666 12.4346 24.5636 -0.0090341 -0.0108853 -0.000511257
963 2 -0.812539 10.9936 14.7594 28.4994 -0.00752364 -0.00582334 0.0199969
964 2 -0.815863 10.9724 16.0524 30.4948 0.0121201 -0.00719573 -0.00109945
965 2 -0.796323 12.6363 16.5669 28.5667 0.00905371 0.00385427 -0.00566247
966 2 -0.851815 13.8105 10.6289 28.6999 0.00917678 -0.0124833 -0.00343395
967 2 -0.972634 15.7615 10.6409 30.2683 0.01672 0.0113178 0.00943152
968 2 -0.89867 15.6446 12.3923 28.4063 -0.0128727 0.00217865 -0.0010187
969 2 -0.86538 14.4372 14.23 24.5779 0.0119775 -0.00125745 0.013285
970 2 -0.955773 14.286 16.0216 26.617 0.000569699 -0.00779195 -0.000302614
971 2 -0.813879 15.9582 14.1325 26.3754 -0.0248854 -0.000350683 0.00366133
972 2 -0.989134 16.0733 16.0117 24.8866 0.000132041 0.000915314 0.00281809
973 2 -0.83119 10.8209 17.8735 3.6857 -0.00556995 -0.00706616 -0.00720186
974 2 -0.792128 10.7993 19.4944 5.25768 0.00284641 0.00197133 0.00236919
975 2 -0.935083 12.6715 17.4623 5.24571 -0.0149707 -0.00512523 -0.000600249
976 2 -0.923613 12.8145 19.3684 3.58535 0.00200489 -0.00602936 -0.00172065
977 2 -0.701322 10.3044 21.7052 7.48801 -0.00570414 -0.00694096 -0.00681347
978 2 -0.887955 12.4857 21.2833 8.57783 0.00286957 0.00788985 -0.00354668
979 2 -0.852069 12.3735 22.9146 6.80141 -0.00148586 0.00531118 0.00620436
980 2 -0.95842 11.0795 23.4391 9.09762 -0.0132755 0.00553006 -0.00366609
981 2 -0.904225 14.3036 17.4088 6.96568 -0.00394323 0.00687016 0.00874013
982 2 -0.800135 13.7714 19.0901 8.6568 0.000111359 0.00335548 0.000836597
983 2 -0.803083 15.7922 19.4993 6.88805 -0.0110947 0.00688935 0.00633737
984 2 -0.940173 15.9036 17.814 8.86877 -0.0122051 0.00565559 0.0173781
985 2 -0.750983 13.9216 21.7854 3.3483 -0.00116493 -0.00172486 0.00580617
986 2 -0.794805 12.458 21.0563 29.8562 0.00346501 0.00121766 0.0151074
987 2 -0.684611 14.6353 19.7104 30.3496 -0.0175217 0.00409214 0.00714517
988 2 -0.842191 14.413 23.0828 5.50669 0.00943107 0.00503349 0.00192249
989 2 -0.72347 15.8616 21.0375 4.90544 0.00119514 0.00965392 -0.00192312
990 2 -0.883574 16.0367 22.8945 3.15088 0.00336924 -0.00310058 0.00358487
991 2 -0.892256 10.5671 17.3155 10.8565 -0.00169391 0.000406044 -0.0121412
992 2 -0.719293 9.9832 19.5394 12.0324 0.00827188 -0.000370495 -0.012293
993 2 -0.684515 12.2484 18.0874 12.6074 -0.00924647 0.00205977 -0.00836242
994 2 -0.812995 11.9235 19.5812 10.4815 -0.00938854 0.0100925 -0.00159924
995 2 -0.786828 10.3677 20.7693 14.3781 -0.00887154 -0.00312412 -0.00904998
996 2 -0.686631 12.3477 21.2853 16.1186 -0.0029278 -0.00214092 0.0011591
997 2 -0.780591 11.7873 22.8661 13.8873 0.00767843 0.0092038 -0.0048246
998 2 -0.770816 10.3124 22.8226 16.0191 -0.00285352 0.0026924 -0.00218997
999 2 -0.758795 14.3436 17.378 14.4155 -0.00960575 0.00416135 0.00316523
1000 2 -0.761293 13.9995 19.5604 16.007 0.00955357 -0.00938842 -0.00506365
1001 2 -0.841473 15.5585 19.4008 13.905 0.00224494 0.00654183 0.00528398
1002 2 -0.837301 16.0228 17.9101 16.1521 0.00557092 0.0135682 0.00200443
1003 2 -0.78714 14.3003 20.7853 10.2674 0.017742 -0.00522268 -0.00910045
1004 2 -0.788688 13.8902 22.3204 12.2967 -0.00965798 0.0099813 -0.00290454
1005 2 -0.717972 15.9443 21.0824 11.9459 0.0127853 -0.00380324 0.00984767
1006 2 -0.791857 15.7109 23.3557 10.6715 -0.00143622 -0.00278654 -0.000830405
1007 2 -0.761893 10.3191 17.7293 18.1555 0.00297459 -0.00237196 0.00119178
1008 2 -0.830994 10.9024 19.684 19.8783 0.00506849 0.00509273 -0.00439982
1009 2 -0.835354 12.6424 17.7629 19.25 -0.011267 -0.00352752 0.00421151
1010 2 -0.807962 12.1541 19.5745 17.69 -0.00760622 -0.00078775 -0.0075546
1011 2 -0.735906 10.6783 21.6084 21.3653 -0.00646314 0.0153991 0.0107515
1012 2 -0.957166 12.4931 21.644 23.3154 -0.00839417 0.00153578 -0.00263964
1013 2 -0.860359 12.3825 23.2902 21.2895 0.00461052 -0.000304619 0.0027341
1014 2 -0.874627 10.5144 23.2578 23.0177 -0.00696539 -0.00439966 0.000505308
1015 2 -0.842623 14.1711 18.3102 21.1459 -0.000956254 0.00208215 -0.00376351
1016 2 -0.948425 13.9717 19.6435 23.3225 -0.00438538 -0.0135187 -0.00294457
1017 2 -0.792754 15.9787 19.5576 21.6602 0.00971094 0.00182857 -0.00428664
1018 2 -0.939304 15.4169 17.5398 23.2495 0.00687021 0.00898928 -0.000537435
1019 2 -0.860139 14.1793 21.4828 17.9846 0.00015651 0.00615225 0.000389887
1020 2 -0.796564 14.4931 23.4557 19.6414 -0.00615553 -0.0020924 -0.00229307
1021 2 -0.710047 16.181 21.428 19.9099 -0.00311354 0.00231959 -0.0122832
1022 2 -0.681014 16.2923 23.1707 17.9735 0.00539291 0.00994169 0.0068012
1023 2 -0.906513 10.7796 18.0022 24.6527 0.00659993 -0.00658072 -0.0099937
1024 2 -0.917247 10.6627 19.5468 26.6046 -0.0117948 -0.00787281 0.00576725
1025 2 -0.856082 12.586 17.8625 26.4771 0.00317932 -0.00183308 -0.00633809
1026 2 -0.959742 12.3487 19.9462 25.1417 0.00585785 -0.0109281 -0.00537157
1027 2 -0.840288 10.3547 21.5121 28.3106 -0.0178924 0.00179231 0.0121374
1028 2 -0.778692 10.9172 22.9548 30.1352 -0.0057733 0.00853366 -0.011836
1029 2 -0.830172 12.2974 23.3122 28.5163 0.0148584 -0.0150442 -0.0025369
1030 2 -0.805545 14.2091 18.2664 28.4181 0.00839942 -0.00549853 0.00258057
1031 2 -0.781901 16.0882 18.0207 30.5813 -0.00432969 0.0166486 -0.00753214
1032 2 -0.788126 16.3652 19.7563 28.7308 0.00121087 0.000225329 -0.00543405
1033 2 -0.986073 14.2314 21.5505 25.0693 0.00565337 -0.00241945 -0.00820332
1034 2 -0.89801 14.2833 23.0852 27.0755 0.000105377 0.00599256 0.0164208
1035 2 -0.863466 16.0589 21.2198 26.5885 0.00714187 -0.00557668 0.00645862
1036 2 -0.894501 16.2955 23.1815 25.4832 -0.000736047 0.00762065 0.00145248
1037 2 -0.722764 11.0637 24.5638 3.45767 -0.00522889 0.00702073 -0.00229114
1038 2 -0.83422 10.6071 26.2645 5.422 -3.27638e-05 -0.00235748 -0.00708642
1039 2 -0.791016 12.766 25.1637 5.56236 -0.00179579 -0.00495837 0.00787562
1040 2 -0.676211 12.2537 26.5427 3.26659 -0.00466511 0.00081011 0.00855697
1041 2 -0.801207 10.761 28.1337 7.48903 0.000874425 -0.0119114 0.00612114
1042 2 -0.832381 12.4021 28.2465 9.25761 0.00880471 -0.0027986 -0.00813616
1043 2 -0.89978 14.3531 25.0719 7.00487 -0.00625222 -0.00262563 0.0119541
1044 2 -0.990755 14.5591 26.9269 8.94736 -0.00382138 0.00380944 0.00241586
1045 2 -0.854489 16.447 26.4806 6.99454 0.0118043 0.00754435 0.00215209
1046 2 -0.876559 16.0493 25.0531 8.83804 0.00277984 0.00613333 0.00331065
1047 2 -0.739694 13.8324 27.9982 4.05141 0.000427928 -0.00484764 0.000350327
1048 2 -0.722306 12.369 28.4854 30.4297 0.00913856 -0.00888897 0.00451977
1049 2 -0.807673 14.7496 26.7359 30.1391 0.0132196 0.0145651 -0.0138648
1050 2 -0.696365 15.6043 29.7815 3.26668 0.00182147 -0.00223211 0.000323005
1051 2 -0.945132 16.1881 28.3201 5.24342 0.00702752 0.00431653 0.00182444
1052 2 -0.940743 10.5616 25.1757 10.8354 -0.0013698 0.00415717 0.00813406
1053 2 -0.678819 11.5368 26.5464 12.7687 -0.0132784 0.00498247 0.00705825
1054 2 -0.827533 12.4706 24.5629 12.4117 0.00441947 0.00310432 0.0139891
1055 2 -0.94492 12.9541 26.559 10.9312 -0.00659989 -0.00139154 -0.00230265
1056 2 -0.728988 11.3517 28.0745 14.8871 0.00424188 0.00340606 -0.00223241
1057 2 -0.853489 13.0525 28.8958 16.5148 0.00453899 0.00713372 0.0012071
1058 2 -0.747941 13.8758 25.9491 15.0342 -0.00360112 -0.000737095 0.0106483
1059 2 -0.74957 15.0079 27.3426 16.8108 -0.0127794 -0.00262043 -0.00905197
1060 2 -0.757231 16.2792 26.812 14.2589 -0.000411755 -0.0040792 -0.00519413
1061 2 -0.684961 16.0139 24.978 16.007 -0.00388775 0.0011216 -0.000859631
1062 2 -0.937551 14.3676 28.5827 10.6862 -0.00746088 0.00654415 -0.00448095
1063 2 -0.691316 15.2489 4.48489 11.4818 0.00644013 -0.0119363 -0.00639339
1064 2 -0.827684 15.9536 28.5065 12.5424 0.00106761 0.00789607 -0.00644389
1065 2 -0.823659 11.1749 24.7379 17.6973 -0.0118481 0.00501124 0.0135541
1066 2 -0.921036 10.4793 26.4517 19.2196 0.00344782 0.0111098 0.0124152
1067 2 -0.861869 12.686 25.1911 19.8125 0.0175063 0.00419004 0.00154898
1068 2 -0.896233 12.7369 26.8005 18.1766 -0.0172874 0.000510044 -0.0143555
1069 2 -0.812931 10.4781 28.4656 20.8997 0.00883585 -0.00131551 0.00154571
1070 2 -0.715122 12.0388 28.0612 22.8342 0.00878126 0.00971389 -0.00103464
1071 2 -0.861368 14.4036 24.7192 21.8582 -0.00905605 -0.0117739 0.00498788
1072 2 -0.796585 14.2256 26.5762 23.4469 0.0104135 0.0164902 0.00647098
1073 2 -0.937977 15.9132 26.9099 21.8447 0.00876024 0.00654179 0.00336196
1074 2 -0.939984 16.3154 24.8841 23.5016 -0.0075742 -0.00153408 0.00549926
1075 2 -0.756067 14.0585 28.599 18.6715 0.00423266 -0.00196244 0.0118749
1076 2 -0.880263 15.8744 30.0832 17.7585 -0.00618712 0.000779553 0.00149102
1077 2 -0.87245 15.9454 28.6276 20.2181 -0.00254504 -0.0146291 0.00587026
1078 2 -0.852139 11.2091 25.0858 25.1663 0.00767445 -0.00731247 -0.00324933
1079 2 -1.00274 10.6924 26.5847 27.1163 0.000754647 -0.019424 -0.00506457
1080 2 -0.926905 12.8494 25.3673 26.9043 -0.00786546 0.00797189 -0.00620983
1081 2 -0.752694 12.398 27.071 25.1711 0.0157745 0.000274803 0.00545861
1082 2 -0.889081 10.6794 28.3421 28.7592 0.00559008 0.00397054 0.0013405
1083 2 -0.93366 14.5023 24.7654 28.725 0.0141078 -2.8422e-05 -0.00410451
1084 2 -0.803707 16.5563 24.6479 30.0924 -0.00170583 0.00543886 -0.00621766
1085 2 -0.73748 16.5603 26.4083 28.617 -0.00555371 0.0101467 -0.00495625
1086 2 -0.723275 14.068 28.7051 24.7608 -0.00730283 0.00373687 -0.00197208
1087 2 -0.738209 15.929 30.3988 24.6605 0.000187344 -0.0134747 -0.00894299
1088 2 -0.802849 16.0083 28.568 26.7252 0.00729821 0.0065082 -0.0180888
1089 2 -0.657303 17.6615 3.56063 3.89662 0.00252124 -0.0123057 0.0028192
1090 2 -0.835779 17.4683 30.146 29.8229 -0.00847708 -0.00200143 -0.00109468
1091 2 -0.766169 17.6935 5.46511 5.23122 -0.000111523 -0.00414464 -0.00445047
1092 2 -0.935487 19.6402 3.65437 5.7128 0.000650124 0.00418825 0.0146044
1093 2 -0.905164 19.2552 5.34286 3.62483 0.00100677 -0.00114772 0.0109676
1094 2 -0.824971 17.2901 7.24801 7.01524 0.00167306 -0.000333137 -0.00498619
1095 2 -0.844318 19.5818 7.48567 8.56673 -0.00268644 0.00188188 0.00767046
1096 2 -0.865028 19.021 8.94205 6.80915 -0.00225881 0.0116871 -0.00743124
1097 2 -0.923769 17.547 8.74056 8.99784 0.0217411 -0.00775958 -0.00623359
1098 2 -0.80329 21.3648 3.37527 7.50254 0.00225668 0.00185527 -0.00647214
1099 2 -0.937474 19.9304 29.9786 6.89243 -0.0207991 -0.00513385 0.00166901
1100 2 -0.801032 21.7545 30.5699 5.2176 -0.00468107 -0.00760026 -0.0128078
1101 2 -0.828799 21.2199 5.44773 8.83863 -0.00186556 0.00368879 -0.00382943
1102 2 -0.831878 22.9887 5.27285 7.09377 0.0100331 0.00316963 -0.00174455
1103 2 -0.896514 23.3297 3.88334 9.18175 0.00671194 -0.00511115 0.00514682
1104 2 -0.880404 21.305 6.7683 3.51293 -0.0178619 -0.00588707 0.00731296
1105 2 -0.936834 19.447 7.08315 30.2101 0.0023473 -0.0101229 -0.00512501
1106 2 -0.924455 20.9555 5.25321 30.101 0.00222889 -0.00125824 0.0106727
1107 2 -0.892504 21.0119 8.71978 5.08881 -0.00301974 0.00326522 -0.00557033
1108 2 -0.905506 23.0467 7.39531 5.44327 -0.00622465 -0.00673324 -0.00563279
1109 2 -0.862036 22.8897 8.73197 3.37028 0.00949869 0.00966997 -0.000172823
1110 2 -0.730283 17.6311 3.74128 10.9982 0.00389228 0.00299884 0.0144243
1111 2 -0.809635 18.4747 29.9118 8.74049 0.00454564 0.00896523 -0.0111245
1112 2 -0.800078 17.9073 5.39755 12.6792 0.00120816 0.00292089 -0.000234953
1113 2 -0.828512 19.8425 3.7249 12.1963 0.00277745 -0.00134595 0.00872627
1114 2 -0.804493 19.2676 5.82513 10.5072 -0.00491517 -0.00183246 -0.00291192
1115 2 -0.759171 17.5525 7.36768 14.0384 0.00968612 -0.0110084 -0.00304004
1116 2 -0.690151 19.0813 7.01244 16.178 0.00643279 -0.00364074 -0.00136376
1117 2 -0.77492 19.2906 8.92717 14.277 0.00499689 0.00165706 0.00740351
1118 2 -0.836406 17.4394 8.97233 15.8716 0.00393139 0.00317946 0.00649977
1119 2 -0.832527 21.717 3.31829 14.0884 -0.00170191 -0.00808756 0.0152975
1120 2 -0.833199 19.5292 30.2483 13.84 0.00199231 -0.00727943 0.0112986
1121 2 -0.810489 21.5537 29.9165 12.368 -0.00439419 0.0136438 -0.0140041
1122 2 -0.732646 21.8381 5.35163 15.9705 0.0115078 0.00647708 0.0144087
1123 2 -0.761227 23.4654 4.98046 14.029 0.00498617 0.00108996 0.00756126
1124 2 -0.741994 23.4358 3.3785 15.808 0.00536691 -0.0170125 -0.00498705
1125 2 -0.858624 21.4126 7.06561 10.5459 -0.00888033 -0.00541116 2.59658e-06
1126 2 -0.84155 20.8323 8.75167 12.5494 0.00313933 -0.0184636 0.002817
1127 2 -0.852362 22.8402 7.19547 12.6642 0.00264945 -0.00186629 -0.0109319
1128 2 -0.854979 22.8483 8.95132 10.9352 -0.00544185 0.0103352 -0.0150254
1129 2 -0.815265 17.6374 3.41535 17.8826 -0.00295569 0.00462916 -0.010339
1130 2 -0.835567 18.1433 30.3808 16.3318 0.00123763 0.000797252 0.00615263
1131 2 -0.80564 17.8812 5.31007 19.6994 -0.00564357 0.0037595 -0.00186523
1132 2 -0.811692 19.4497 3.09548 19.6486 8.68925e-05 0.00218034 0.0190889
1133 2 -0.669828 19.9527 5.00311 18.0536 0.00623028 -0.00298233 -0.00421004
1134 2 -0.744388 17.358 7.42795 21.1883 -0.00185388 -0.0172894 0.00286273
1135 2 -0.841696 19.4833 6.94651 22.6908 0.0053362 -0.0045001 -0.00463837
1136 2 -0.891346 19.4707 8.99611 21.2203 0.0067274 0.0105199 0.0111342
1137 2 -0.803143 18.0668 8.69263 23.4985 -0.00565455 -0.00957635 -0.00988783
1138 2 -0.874384 21.6085 3.35519 21.1175 0.00661358 -0.00180907 -0.014556
1139 2 -0.947628 19.8139 30.3787 21.7749 -0.00604771 -0.00263239 -0.0116591
1140 2 -0.89722 21.2625 29.9607 19.6122 -0.00616599 0.00863968 -0.000859723
1141 2 -0.895184 21.4101 5.22756 23.0204 -0.00344777 0.00943444 -0.00410798
1142 2 -0.812323 23.1461 5.25733 21.3003 0.00631129 0.00405517 -0.00588366
1143 2 -0.758226 23.3115 3.76746 23.3033 -0.0177358 -0.00102197 -0.00378471
1144 2 -0.719862 21.299 7.27751 17.4649 -0.0013598 0.0064659 0.00418231
1145 2 -0.700597 21.2455 8.39161 19.5578 0.000252102 0.0139271 0.00481177
1146 2 -0.714595 23.3332 7.18383 19.7603 -0.003593 0.00166737 0.00700054
1147 2 -0.801224 23.2728 9.31111 17.8568 -0.00995696 -0.00993152 -0.00251935
1148 2 -0.749084 17.7079 3.97894 24.6031 0.00158067 0.00767939 -0.00457731
1149 2 -0.895301 17.8613 30.2499 23.1506 -0.00681395 0.00759764 -0.00217289
1150 2 -0.798916 17.3865 5.11924 26.6458 0.00960753 -0.00561465 -0.00822109
1151 2 -0.883214 19.5993 3.51732 26.3794 0.000271537 -0.000290175 -0.0066683
1152 2 -0.659726 19.5194 5.39954 24.3557 -0.00270427 -0.0139645 -0.0090544
1153 2 -0.928519 17.7835 6.60142 28.5705 0.0019113 -0.00694265 0.00307723
1154 2 -0.809797 17.8384 8.98001 29.9697 0.00601214 0.00660746 -0.000675979
1155 2 -0.771156 19.3668 8.59609 28.3308 -0.000971386 -0.000323686 0.0121559
1156 2 -0.892215 21.4744 3.4976 28.0919 -0.0131122 -0.00149045 0.00273366
1157 2 -0.956142 19.4301 30.4373 28.2145 -0.00495696 0.00265404 0.00217446
1158 2 -0.842937 21.0166 29.9414 26.4033 0.00132051 0.00215707 0.000284898
1159 2 -0.855939 22.8079 3.94055 30.1978 0.0010656 0.002746 -0.00992851
1160 2 -0.824664 23.0523 5.55055 28.4721 -0.00513075 0.0101744 -0.00767737
1161 2 -0.935754 21.2183 7.44212 24.4546 0.0099247 0.0053789 -0.010015
1162 2 -0.659917 21.0656 8.82035 26.6759 -0.0102885 -0.00238427 0.0159949
1163 2 -0.767488 22.8089 7.19409 26.6135 0.00916179 0.00904319 -0.00732863
1164 2 -0.89579 22.9821 9.14348 25.0309 -0.0135241 -0.0186399 -0.00452791
1165 2 -0.730126 17.6478 10.1538 3.58764 0.00702715 0.00517689 0.0081269
1166 2 -0.714068 17.9699 12.2995 5.4008 0.00555299 -0.000498553 -0.0123219
1167 2 -0.687108 19.71 10.6472 5.22055 -0.00715946 0.00715479 -0.00459461
1168 2 -0.710526 19.9059 12.1364 3.22899 0.0173303 -0.0029883 -0.0116345
1169 2 -0.790286 17.7313 14.2236 6.95255 0.00268581 0.00697638 0.00822514
1170 2 -0.782037 19.5492 13.781 8.60518 -0.0133956 -0.00528258 -0.00597947
1171 2 -0.851188 19.8279 15.9018 7.13964 0.00216625 0.0152017 -0.00148916
1172 2 -0.875992 17.6941 15.6737 8.78985 0.0083923 0.00186492 -0.0031374
1173 2 -0.83015 21.052 10.4141 7.16137 -0.0113971 -0.0101707 -0.00224612
1174 2 -0.6873 21.4138 12.2719 8.94432 0.00342444 0.00660679 0.00261589
1175 2 -0.830975 22.8234 12.5851 6.88137 -0.0020843 0.00514648 0.00588958
1176 2 -0.706171 23.0383 10.6674 9.10627 -0.00690404 0.00588069 0.000603564
1177 2 -0.793464 21.3216 14.3964 3.75737 -0.00733417 -0.00662956 0.0176032
1178 2 -0.810269 19.5535 14.3319 30.564 0.00665644 0.00253235 -0.000976587
1179 2 -0.802895 21.4957 12.6746 30.0513 -0.000781048 0.00519047 -0.00460116
1180 2 -0.793457 21.7127 16.0786 5.57431 0.02048 0.00297721 -0.00664317
1181 2 -0.799741 23.4149 14.1863 4.85361 0.00794267 -0.00820853 0.0039418
1182 2 -0.782179 23.031 16.5223 3.41583 0.00158108 -0.00956188 -0.00381582
1183 2 -0.801253 17.4064 10.864 10.7803 0.0107063 0.00266713 -0.00373822
1184 2 -0.773031 17.801 12.6453 12.7016 0.0102411 -0.0209972 -0.00932755
1185 2 -0.660017 19.3366 11.0039 12.8343 0.00866332 0.00238038 -0.0013358
1186 2 -0.77921 19.5162 12.6281 10.8972 0.00225198 0.00345318 0.00263893
1187 2 -0.804924 17.3079 14.3923 14.4611 0.0316923 0.00828419 -0.00117309
1188 2 -0.811622 19.7727 14.4136 15.7316 -0.000658991 0.00811666 -0.00363496
1189 2 -0.797656 19.151 16.2017 13.8962 -0.00565666 0.00837782 -0.00732826
1190 2 -0.802921 17.8264 16.204 15.8974 0.016135 -0.00433141 0.00831353
1191 2 -0.665198 21.4559 10.9474 14.1469 -0.0139783 -0.00824012 0.00366843
1192 2 -0.747555 21.6513 12.8527 15.8983 -0.0031983 0.0113219 -0.0163437
1193 2 -0.830291 22.9848 12.6193 13.7428 0.00972602 -0.00444224 -0.000955414
1194 2 -0.834703 23.4823 11.1537 16.0244 0.0110471 -0.0106174 0.0120436
1195 2 -0.79773 21.3218 14.4828 10.2205 0.00246973 0.00482112 0.00263512
1196 2 -0.802107 21.2042 15.7607 12.4103 0.00233092 0.00314661 -0.00606748
1197 2 -0.794023 23.2195 14.1144 11.7704 0.00717614 -0.00998154 0.000803255
1198 2 -0.711874 23.2047 16.2117 10.8447 -0.00139822 -0.00624652 0.0101073
1199 2 -0.956235 17.9675 10.7056 17.5371 0.00504199 -0.0016164 0.00189877
1200 2 -0.93697 18.2677 12.4326 19.3642 0.00466755 -0.016263 0.00225944
1201 2 -0.952836 19.8819 10.5976 19.1408 -0.000200844 0.00254773 -0.000965538
1202 2 -0.919925 19.5556 12.3999 17.3384 -0.0112653 -0.0095685 -0.00457006
1203 2 -0.729393 17.7375 14.1463 21.2555 -0.0003909 -0.00861795 0.00233918
1204 2 -0.885966 19.283 14.5532 23.2295 0.0110315 0.00191072 0.0108
1205 2 -0.78952 19.5775 15.9174 21.194 0.0151484 -0.00693699 -0.00703891
1206 2 -0.859316 17.7106 16.4546 23.0203 0.0150122 0.00681553 0.00197108
1207 2 -0.833831 21.4836 10.4142 21.0396 0.0140558 0.00125341 -0.0026522
1208 2 -0.605002 21.1148 13.0161 22.7585 -0.000625941 0.00431101 -0.0147854
1209 2 -0.652408 23.0388 12.5748 21.5185 0.00142536 -0.00602202 -0.000815171
1210 2 -0.77677 23.0946 10.8173 23.2299 -0.00861264 0.00194342 -0.0035946
1211 2 -0.816777 21.3974 14.2728 17.7177 -0.000585481 -0.000504907 0.00457474
1212 2 -0.823506 21.5152 16.1699 19.3161 0.00127703 0.00818963 -0.00253178
1213 2 -0.908245 22.8051 14.3263 19.7426 -0.0030162 -0.00394369 -0.00651081
1214 2 -0.864422 23.0419 15.7602 17.3949 0.0141787 -0.00393013 0.00243055
1215 2 -0.843141 17.6646 10.4902 24.9824 0.00227195 0.00529836 -0.0065158
1216 2 -0.714537 17.6557 12.4268 26.9436 -0.00574468 0.0199756 -0.00789888
1217 2 -0.780234 19.7024 10.7058 26.5459 0.00332374 -0.00369107 -0.00155462
1218 2 -0.786694 19.4399 12.4485 24.8932 -0.00878357 -0.00780798 -0.0144282
1219 2 -0.787373 17.7528 14.4023 28.3763 0.00832753 -0.0208498 -0.00611751
1220 2 -0.700232 18.0193 16.356 30.2189 0.00869336 0.0018475 0.00639758
1221 2 -0.893239 19.8924 15.8957 28.4412 0.0142829 -0.00035018 -0.00120748
1222 2 -0.652474 21.5447 10.4644 28.5303 0.0141826 -0.00254569 0.00305519
1223 2 -0.834575 23.4548 10.7844 30.235 0.00576134 0.00123 -0.00862094
1224 2 -0.762189 23.0423 12.272 27.9653 -0.00430369 0.00941041 -0.00680899
1225 2 -0.922163 21.1171 14.3763 24.861 -0.0104743 -0.00479499 0.000529279
1226 2 -1.02342 21.2419 16.3573 26.516 -0.000310641 -0.00887362 0.00578971
1227 2 -0.736746 22.6794 14.2763 26.4654 0.00394519 -0.00421333 0.00402715
1228 2 -0.885613 22.9407 15.9919 24.7837 0.00304227 0.00197732 -0.00159212
1229 2 -0.917896 18.1414 18.0751 3.48328 -0.00105973 0.0221252 0.00644916
1230 2 -0.894614 18.0499 19.3879 5.55976 4.58674e-05 -0.00304156 0.0104722
1231 2 -0.978317 19.8697 17.5583 5.19485 -0.000107592 -3.0172e-07 -0.00310848
1232 2 -0.934909 20.0134 19.5831 3.845 -0.00310669 -0.00965687 0.00415918
1233 2 -0.773023 17.3213 21.4002 6.84638 -0.00374307 0.000299127 0.00595446
1234 2 -0.615719 19.4189 21.2605 8.90656 0.000790403 0.00171346 0.00137868
1235 2 -0.793966 19.4814 23.2043 7.19728 -0.00111084 0.00783736 0.00617465
1236 2 -0.838225 17.6224 23.1523 8.81301 -0.0117088 -0.013044 0.010733
1237 2 -0.947651 21.2228 18.0638 7.14452 0.00916136 0.00842675 0.000522395
1238 2 -0.814054 21.4217 19.4087 9.22833 6.60788e-05 -0.00476271 -0.00237355
1239 2 -0.763369 23.3469 19.7219 7.22859 0.00175841 0.0106251 0.00239743
1240 2 -0.799565 23.1283 17.5254 8.73367 0.00885942 0.00687224 0.0147506
1241 2 -0.86187 21.6282 21.535 3.12888 -0.00479244 -0.00815467 0.00419951
1242 2 -0.810669 19.7817 20.8592 29.8179 -0.0121686 0.00275512 -0.0133676
1243 2 -0.86205 21.5882 19.1546 30.5558 -0.00285207 -0.00959425 0.0105042
1244 2 -0.874048 21.0683 22.7813 5.34506 -0.00657025 0.00114265 0.00271893
1245 2 -0.773425 23.0276 21.3832 5.32033 -0.00204502 0.00506481 -0.011034
1246 2 -0.785248 23.0662 23.3315 3.78618 -0.00253792 0.00366359 -0.0119523
1247 2 -0.826322 17.9307 17.3463 10.4312 0.00659439 -0.00130399 0.0096771
1248 2 -0.823585 17.6209 19.1389 12.3819 0.00676829 -0.00956766 0.000810907
1249 2 -0.801265 19.8112 17.8442 12.0209 0.00209749 -0.00787706 0.010785
1250 2 -0.820667 19.0975 19.6479 10.4556 -0.00403338 -0.0076404 0.00301925
1251 2 -0.685867 17.4094 21.0922 14.1235 0.00551707 -0.00348799 0.00107271
1252 2 -0.838397 19.6052 21.5531 16.1369 -0.000286646 0.00180587 0.00881772
1253 2 -0.868595 19.541 23.1338 14.0798 0.000327619 -0.0105848 -0.00157598
1254 2 -0.743634 17.7185 23.0217 15.9778 -0.0064251 -0.00223215 0.000300862
1255 2 -0.769966 20.8801 18.1214 14.1611 0.0124174 -0.00479416 0.00682192
1256 2 -0.77048 21.3696 19.5143 16.1344 -0.0108468 -0.01125 -0.00907235
1257 2 -0.867652 22.9805 19.6978 14.1964 0.00228807 0.00266253 0.00365906
1258 2 -0.854321 22.8632 17.81 16.0483 0.00571595 -9.19151e-05 0.00235671
1259 2 -0.877326 21.1004 21.2544 10.8981 -0.0111089 0.00373888 0.00913436
1260 2 -0.904551 21.2694 23.2663 12.342 0.000927989 -0.00905404 5.29346e-05
1261 2 -0.776445 23.2374 21.6121 12.6438 -0.00753667 -0.00561417 0.00277741
1262 2 -0.9115 22.8454 23.2941 10.4254 -0.00394105 0.00480909 0.00454771
1263 2 -0.684982 17.6095 17.1931 18.0371 -0.00669827 0.00146963 0.00399902
1264 2 -0.652748 17.1578 19.0929 19.4925 -0.00249064 -0.000686912 0.00465475
1265 2 -0.748983 19.8207 18.0995 19.6824 -0.00113582 0.00638468 -0.000119114
1266 2 -0.742647 19.4046 19.2604 17.4629 0.00161913 0.00246563 -0.00214437
1267 2 -0.613246 18.197 20.986 21.3801 0.00782418 -0.0100334 -0.0014748
1268 2 -0.805157 19.8081 21.1735 23.0025 3.01996e-06 0.00731681 0.0177434
1269 2 -0.782172 19.4235 23.2736 21.3885 0.00675827 -0.00360045 0.00106707
1270 2 -0.852546 17.8075 23.0024 23.455 -0.000184463 0.00407423 -0.00382604
1271 2 -0.823998 21.6459 17.5224 21.4264 -0.00639999 0.0020272 0.00644686
1272 2 -0.811631 21.5725 19.7055 22.7697 0.00662614 -0.0248021 0.0098444
1273 2 -0.863104 23.4385 19.6566 21.271 -0.0103734 0.00776679 0.0127825
1274 2 -0.855554 23.2461 18.012 23.0946 0.00112032 -0.00497754 0.00150326
1275 2 -0.799536 21.3296 21.1644 17.8916 -0.00784125 -0.00718373 -0.00425253
1276 2 -0.821555 21.1251 23.126 19.3747 0.00148796 -0.0119757 0.00310762
1277 2 -0.78943 23.0149 21.4562 19.5796 -0.0044119 0.00474073 -0.00214594
1278 2 -0.775086 23.1283 23.048 17.6594 -0.000891981 0.0168126 -0.00787096
1279 2 -0.965517 17.4054 18.0753 24.8725 0.00193365 0.0102457 -0.00509255
1280 2 -0.835463 17.9808 19.8178 26.5653 -8.13765e-05 -0.0157881 0.0136806
1281 2 -0.798502 19.2449 17.7186 26.6001 0.0014349 -0.0103022 -0.000339546
1282 2 -0.833841 19.8275 19.3779 24.8422 -8.67685e-05 -0.0112833 0.00344921
1283 2 -0.782638 17.7263 21.6351 28.5878 0.00170158 0.00461604 0.00248452
1284 2 -0.8476 18.3676 22.6411 30.5647 -0.00190917 -0.00542218 -0.00533764
1285 2 -0.877569 19.8579 23.1999 28.5915 0.00551281 -0.0022509 -0.00607637
1286 2 -0.893231 21.2366 18.0445 28.354 -0.0173534 0.00760281 -0.00464209
1287 2 -0.780318 23.3641 17.3624 29.7091 -0.0143216 0.00492838 0.00543077
1288 2 -0.881273 23.2153 19.5837 28.8459 0.00726978 0.00758284 -0.00724878
1289 2 -0.861671 21.7892 21.2331 24.6963 -0.00257178 0.00364232 0.000250831
1290 2 -0.895006 21.0685 23.0638 26.4191 0.00337415 0.00789076 -0.00663075
1291 2 -0.853497 22.8365 21.3632 26.9856 -0.00309869 0.00729837 0.0182076
1292 2 -0.818947 23.5349 22.9181 25.0439 -0.00193649 0.008859 0.000786358
1293 2 -0.942528 17.9613 24.5702 3.61789 0.00439144 -0.00288655 0.00510005
1294 2 -0.866538 18.0098 26.8158 5.00918 -0.0015746 -0.0030769 -0.000154251
1295 2 -0.874016 19.6993 24.9519 5.17958 0.0136077 0.00548942 6.33138e-05
1296 2 -0.908976 19.671 26.6523 3.13524 -0.0129857 0.00410798 0.00642811
1297 2 -0.97362 18.2532 28.2004 6.91782 0.0131286 0.00304168 -0.000368864
1298 2 -0.934639 20.1696 28.1364 8.52471 -0.00124284 -0.00856871 -0.00741934
1299 2 -0.828778 21.6764 24.479 6.80921 -0.00786041 -0.00261283 -0.00360685
1300 2 -0.854073 21.4804 26.1762 8.87926 -0.000149775 0.00722346 0.00404043
1301 2 -0.880945 22.8309 26.4334 6.70101 0.00879794 -0.00155085 0.00562533
1302 2 -0.726165 23.3336 24.6123 8.53549 0.00642146 -0.00557891 -0.0123222
1303 2 -0.895028 21.5422 28.2861 3.44195 -0.0139194 0.0150188 0.009019
1304 2 -0.868338 19.7791 28.6757 29.9811 -0.012508 0.00571132 0.000403519
1305 2 -0.828005 21.5412 26.7482 29.9465 0.0021131 -0.00901486 0.000232071
1306 2 -0.843516 23.2908 30.5055 3.48052 0.00444392 0.0111539 0.000182418
1307 2 -0.788544 23.2218 28.6824 5.1331 -0.00691365 0.00274565 -0.00531148
1308 2 -0.816035 17.4604 25.1576 10.6708 0.00108994 -0.00153413 -0.00146556
1309 2 -0.87204 17.8869 26.9095 12.2903 -0.00503822 -0.00941692 0.0110936
1310 2 -0.778312 19.4101 24.8381 12.349 -0.000592101 -0.00294849 -0.00259991
1311 2 -0.941975 19.43 26.6464 10.381 0.00201955 0.0112696 -0.000232762
1312 2 -0.835847 17.7611 28.6725 14.3893 0.00419387 0.00417734 0.00134064
1313 2 -0.715674 19.9762 28.6961 15.8604 0.0120327 0.00383393 -0.00572412
1314 2 -0.874421 21.3047 25.3421 13.8467 -0.00455792 0.00835391 0.000706367
1315 2 -0.935331 21.206 26.513 16.1129 0.00318538 0.00961425 -0.00977859
1316 2 -0.920434 22.9535 27.0073 14.3133 -0.00691374 0.00664945 -0.00484087
1317 2 -0.82617 23.1961 24.9421 15.3701 0.00735023 -0.000253497 -0.00667298
1318 2 -0.905082 21.7572 28.247 10.3761 -0.00327148 0.00778877 -0.000498119
1319 2 -0.876616 23.1533 30.3535 10.7501 0.00236859 0.00485866 0.00126688
1320 2 -0.901515 23.4302 28.2818 12.2992 -0.0084304 0.00208071 -0.00133137
1321 2 -0.76949 18.0734 25.1222 17.4242 0.00471642 -0.0130806 0.0110225
1322 2 -0.859041 17.4028 26.6631 19.8563 -0.00478964 -0.000480052 -0.0172927
1323 2 -0.74622 19.5233 25.1506 19.3404 -0.012952 -0.0141796 0.00880229
1324 2 -0.747584 19.4773 26.9809 17.9522 0.00483691 0.00365038 -0.00304082
1325 2 -0.934394 18.0564 28.4491 21.498 -0.00160673 -0.00377149 -0.00873615
1326 2 -0.960884 19.5341 28.1845 23.2343 -0.00420689 -0.0161252 0.00361961
1327 2 -0.769245 21.4604 24.643 21.1491 0.00841023 -0.00458396 0.00109876
1328 2 -0.909368 21.2582 26.4773 22.9625 -0.00928255 0.0052604 0.0176605
1329 2 -0.872078 23.1975 26.1836 21.0001 -0.000915301 -0.011606 0.00642788
1330 2 -0.925262 23.0218 24.5048 23.0865 -0.00207852 -0.0014272 -0.00477307
1331 2 -0.773485 21.6177 28.4033 17.6828 -0.00761059 0.00322222 -0.00266329
1332 2 -0.781911 23.1839 30.5224 18.1471 0.00316572 -0.0109875 -0.00516648
1333 2 -0.82995 23.3764 28.1439 19.3414 -0.0121115 0.0117595 -0.0200578
1334 2 -0.852453 18.2705 24.5691 25.2807 0.0157953 -0.00467897 0.00322185
1335 2 -0.726014 17.7349 26.7155 26.3805 0.0095888 -0.00188343 0.004888
1336 2 -0.732367 19.8139 25.2788 27.192 0.00731885 -0.00371821 0.00266883
1337 2 -0.906095 19.9701 26.695 25.1964 0.0158611 0.0073992 0.00763644
1338 2 -0.723742 18.1041 28.3044 28.3841 -0.0128458 -0.00246859 0.00706524
1339 2 -0.897243 21.8261 24.6443 28.3168 -0.00819419 -0.000987348 0.00439502
1340 2 -0.848839 23.2258 25.2174 30.5047 -0.00471169 0.00702249 -0.00367525
1341 2 -0.878628 23.1698 26.6064 28.247 0.0112288 -0.000260645 -0.00211894
1342 2 -0.881851 21.7324 28.2959 24.5621 -0.00140829 0.00638539 0.00321935
1343 2 -0.925524 23.2332 30.2469 24.9077 -0.00343365 0.00713906 0.0157859
1344 2 -0.886852 23.1918 28.3045 26.3876 -0.00362246 -0.0178462 -0.00327079
1345 2 -0.702501 24.7887 3.979 3.07762 -0.00728224 0.000209828 0.0111547
1346 2 -0.940627 24.7137 30.4822 29.7915 0.0123474 -0.000624678 0.00584392
1347 2 -0.867165 24.6983 5.15165 5.50102 -0.000427612 0.00788457 -0.0065487
1348 2 -0.675708 26.375 3.47442 5.1969 0.00668305 0.00728911 -0.0056061
1349 2 -0.856799 26.9298 5.44911 3.79912 -0.0132471 -0.00164227 0.0128952
1350 2 -0.767234 24.3866 7.11335 7.39443 -0.00299161 -0.00271448 0.00555485
1351 2 -0.783214 26.7295 7.19652 8.92371 0.0111848 -0.0128734 0.00766858
1352 2 -0.716809 26.3683 8.92068 7.58383 0.000397034 0.00251915 -0.0105612
1353 2 -0.778454 24.8575 8.59793 9.7289 -0.00454119 -0.0101658 -0.00861891
1354 2 -0.616554 28.5342 2.93078 7.45824 -0.0126422 -0.00604549 0.00322105
1355 2 -0.801335 26.0995 29.8079 6.74477 -0.00361704 0.00055744 -0.0180134
1356 2 -0.756602 28.2425 29.5358 5.46014 -0.0200982 0.00635048 -0.00636959
1357 2 -0.831082 28.4892 5.22719 9.17189 -0.0032361 -0.00993725 0.00697696
1358 2 -0.799428 28.6792 7.14891 3.33992 0.00564439 0.00434549 -0.0137876
1359 2 -0.900237 26.6561 7.39247 30.3539 0.0057356 0.00238463 -0.00702171
1360 2 -0.929778 28.3053 5.30447 30.202 -0.00126725 -0.00520887 -0.000876506
1361 2 -0.779455 28.3903 8.58176 5.53654 0.0142303 -0.00721327 0.00115342
1362 2 -0.885745 25.3705 3.18507 10.4556 -0.0090055 0.0145718 -0.00459612
1363 2 -0.974577 24.5163 30.2775 8.49309 0.00263818 0.00397556 -0.00406206
1364 2 -0.740922 24.8016 5.32735 11.8269 -0.0110781 0.00237429 0.000147083
1365 2 -0.708803 26.3787 3.64636 12.8308 0.000792127 -0.0217504 -0.00108021
1366 2 -0.797094 26.824 5.22661 10.7821 0.00412298 0.0086127 -0.0144993
1367 2 -0.66054 25.0632 7.01224 13.8178 0.00166969 0.00620569 -0.00154518
1368 2 -0.79003 26.5191 7.17402 15.8223 0.00965249 0.0171519 -0.017126
1369 2 -0.772282 27.0274 8.62696 13.9638 -0.00648414 0.00016665 0.00151179
1370 2 -0.756514 24.7901 9.14917 15.5527 0.00731963 0.00613657 -0.00825178
1371 2 -0.848458 28.2089 3.58525 14.6813 0.00625501 -0.00253338 0.00155867
1372 2 -0.894673 26.4138 30.4347 14.7203 0.00591144 0.00378428 0.00248526
1373 2 -0.815364 28.4705 30.6786 12.6126 0.0104293 0.00429013 -0.00975489
1374 2 -0.908816 28.626 5.4584 16.3311 0.000591076 0.0160549 -0.00824565
1375 2 -0.876078 28.1838 7.30719 10.7376 0.0048199 0.000179793 -0.00160185
1376 2 -0.84086 28.793 9.11848 12.3395 0.00449477 -0.00219859 0.0147875
1377 2 -0.827309 25.1633 3.41507 17.336 0.0139221 0.0158609 0.00980099
1378 2 -0.858076 24.5924 29.6483 16.1296 -0.00294985 -0.01829 0.0110184
1379 2 -0.735139 24.9339 4.90132 19.637 -0.00962989 0.00350253 -0.00234475
1380 2 -0.72975 26.4935 3.36022 19.5216 -0.00491383 0.00471452 -0.00466955
1381 2 -0.898334 26.404 5.62388 17.8173 -0.00844466 0.00205748 0.00231954
1382 2 -0.701555 25.2886 7.15272 20.9855 -0.000203662 0.00795409 0.00189544
1383 2 -0.901992 26.35 7.34404 23.1588 -0.00708708 -0.0121426 0.00484663
1384 2 -0.813348 26.6409 9.30084 21.6371 0.0114486 0.00471745 -0.0080788
1385 2 -0.811262 24.2071 8.85381 22.7224 -0.00693088 0.00748229 0.00843505
1386 2 -0.812655 28.3688 3.77286 21.0833 0.00410356 0.00419378 -0.00329712
1387 2 -0.873372 26.6682 30.1488 21.2593 -0.00219131 4.02778e-05 0.00171887
1388 2 -0.887597 28.7623 30.3041 19.5315 -0.00309172 0.00248467 0.0130714
1389 2 -0.918756 28.0337 5.30597 22.9732 -0.00358225 0.00539532 0.0104099
1390 2 -0.874865 28.2274 7.25579 17.6424 0.00597261 -0.00880871 -0.0100632
1391 2 -0.822765 28.462 8.74289 19.5151 -0.000293404 -0.0120705 -0.00840475
1392 2 -0.749694 25.3882 3.4696 24.6596 -0.00744747 -0.002675 -0.00815752
1393 2 -0.759467 24.7705 30.1205 22.6948 -0.00104224 -0.00146285 -0.00228295
1394 2 -0.769774 24.3091 5.40753 26.2952 -0.0126555 0.0178854 0.00675339
1395 2 -0.790851 26.8792 3.68158 26.4297 -0.0114656 -0.0110952 -0.00213717
1396 2 -0.787058 26.6271 5.66723 25.092 -0.00475604 0.00806675 -0.000952651
1397 2 -0.888442 25.0167 7.16436 28.1578 -0.00254235 -0.0129226 0.00716864
1398 2 -0.901814 24.8399 8.68792 30.163 -0.00495912 0.0122585 -0.00118623
1399 2 -0.901207 26.5497 8.88017 28.262 0.00423883 -0.000188258 -0.0157499
1400 2 -0.788004 28.291 3.25913 28.8387 -0.00132343 -0.00657384 -0.00142529
1401 2 -0.831096 26.5521 30.166 28.1349 0.00473398 -0.00165278 0.00145476
1402 2 -0.800757 28.5913 30.2188 26.6862 -0.0102586 -0.0111796 -0.00289308
1403 2 -0.783781 28.4444 7.25799 24.5254 0.00372056 -0.0144672 0.0199891
1404 2 -0.872571 28.423 8.58834 26.6806 -0.00386183 0.00979051 -0.00855968
1405 2 -0.811121 24.9977 10.3267 3.67431 0.00444288 0.0033846 -0.00421528
1406 2 -0.796933 24.712 12.1873 5.09735 0.0127453 -0.00836247 0.00568232
1407 2 -0.819567 26.7764 10.5372 5.49498 0.00424964 0.00534728 -0.00252797
1408 2 -0.838372 26.5067 12.0819 3.36816 0.00583426 -0.00253927 0.00477944
1409 2 -0.896695 24.553 14.0817 7.14249 -0.00746534 -0.00226425 -0.00166484
1410 2 -0.754506 26.5947 14.0919 8.62804 0.0101953 -0.00353453 0.00733266
1411 2 -0.647674 26.6559 15.5082 6.80347 0.00299916 -0.00510307 -0.00395607
1412 2 -0.892073 25.1457 16.1025 8.78418 0.00537491 -0.00537774 -7.1611e-06
1413 2 -0.817819 28.2477 10.5786 7.39004 -0.0109035 -0.00241484 -0.00193206
1414 2 -0.838582 28.5226 12.6362 8.84201 0.00580265 -0.00934734 0.00782604
1415 2 -0.803399 28.3628 14.0601 3.23769 0.00116515 -0.00957718 0.00381879
1416 2 -0.781526 26.8289 13.8719 29.9584 -0.0156798 -0.0128398 -0.00301294
1417 2 -0.84438 28.4135 12.1888 29.9221 0.00475945 -0.0023161 0.00331954
1418 2 -0.652522 28.2952 15.7458 4.77558 -0.00928206 0.00729786 -0.000716985
1419 2 -0.798466 24.8341 11.0225 10.6056 0.0140711 0.00249428 0.00559504
1420 2 -0.927126 25.0533 12.6409 12.6126 0.000786956 0.00337652 0.00948394
1421 2 -0.873845 26.6268 10.6746 12.4324 0.00446797 0.0163543 -0.00324884
1422 2 -0.871875 26.471 12.7524 10.638 0.00761429 0.00162284 0.00707009
1423 2 -0.920137 24.4687 14.5556 14.0864 0.00113155 -0.00613831 -0.00318032
1424 2 -0.876188 26.5814 14.2425 15.7923 0.00794614 0.0101056 0.00443699
1425 2 -0.830685 26.5963 16.2156 14.0393 -0.00844774 -0.0111971 0.00636044
1426 2 -0.857069 24.9218 15.9962 15.9027 0.0127442 -0.0145303 -0.019333
1427 2 -0.860864 28.3834 10.5475 14.4111 -0.000128957 0.0117964 0.00279937
1428 2 -0.690141 28.3513 12.485 16.1519 -0.00329595 0.000654924 -0.00682189
1429 2 -0.909759 28.0711 14.4521 10.8002 0.00534502 -0.0088395 0.000997642
1430 2 -1.01263 28.6493 15.8784 12.6641 0.0033004 0.0035181 0.00715998
1431 2 -0.856363 25.2522 10.6639 17.7055 -0.0063351 0.00462483 -0.000946967
1432 2 -0.831749 24.898 12.6225 19.5534 0.00431499 -0.00489329 0.00419176
1433 2 -0.659443 26.9159 10.7391 19.8501 0.00516932 0.00396982 0.00684635
1434 2 -0.764588 26.8199 12.9114 18.1133 -0.0071566 -0.0169573 0.00513687
1435 2 -0.787588 24.8572 14.2743 21.6152 0.000823095 -0.00146146 0.00348625
1436 2 -0.773401 26.8868 14.4758 23.0838 0.00946602 0.0147156 -0.00253248
1437 2 -0.909576 26.5899 16.2342 21.2861 -0.000354199 -0.00340917 0.00191146
1438 2 -0.757889 24.9916 16.1875 23.4374 -0.00998607 0.011044 0.00639474
1439 2 -0.741554 28.8446 10.5501 21.2249 -0.00346572 0.0187677 0.00233098
1440 2 -0.916945 28.3018 12.5122 22.9864 -0.00249989 0.00306612 0.00245785
1441 2 -0.837406 28.6115 14.7069 17.5311 0.00389247 -0.00396417 0.00561214
1442 2 -1.00501 28.6701 16.241 19.6567 0.0066118 -0.00184679 0.00724861
1443 2 -0.843852 25.0774 10.1896 24.8409 -0.0120526 0.0105715 0.00346726
1444 2 -0.807853 25.0076 12.125 26.7062 0.0017409 -0.0124183 0.00111141
1445 2 -0.849444 26.9596 10.565 26.392 0.00467199 -0.00578114 -0.00218476
1446 2 -0.905771 26.3065 12.271 24.5818 0.00124209 -0.00596642 0.0111746
1447 2 -0.848177 25.0226 13.7853 28.2543 0.00201351 0.0029619 -0.00456076
1448 2 -0.787015 24.8623 15.4166 30.2654 -0.00396452 0.00450185 -0.00214099
1449 2 -0.733684 26.5675 16.0642 28.5659 -0.00343239 -0.00583397 -0.000826281
1450 2 -0.983963 28.7128 10.4795 28.1368 0.000828882 -0.00608063 0.000995501
1451 2 -0.871121 28.1583 14.0062 25.0831 -0.00272735 0.00135124 0.00329787
1452 2 -0.765079 28.2366 15.6826 26.5037 -0.00492539 0.000528482 0.00162504
1453 2 -0.771961 25.1901 17.9626 2.9769 -0.0104559 0.00709143 -0.00545455
1454 2 -0.830027 25.2331 19.7159 5.13983 0.0194078 -0.00921197 -0.0117105
1455 2 -0.658376 26.4909 17.4611 5.12252 -0.00995672 -0.0033989 0.000837756
1456 2 -0.667786 27.1314 19.3404 3.4109 -0.00745934 -0.0107005 -0.0103096
1457 2 -0.714394 25.1491 21.4796 6.8017 -0.00788611 -0.00121234 -0.00310164
1458 2 -0.828256 26.8881 21.0538 8.64133 -0.00493782 -0.0054467 0.00667894
1459 2 -0.731344 26.5917 23.3289 6.94463 0.0064934 -0.00356957 0.00745796
1460 2 -0.852677 24.8654 22.7312 8.79145 0.0128383 -0.00221769 -0.00764634
1461 2 -0.651762 28.4731 18.0356 6.89074 -0.00782618 -0.0140059 -0.0187187
1462 2 -0.777748 28.5202 19.1649 9.41448 0.00244738 -0.00405597 0.0108761
1463 2 -0.769778 28.3208 21.3231 3.63322 0.00212001 -0.0145313 -0.00916028
1464 2 -0.889573 26.6769 21.1277 30.2789 -0.00461734 -0.0170086 0.00620149
1465 2 -0.768507 29.2539 19.5236 30.3421 0.0103531 0.0148128 0.00880356
1466 2 -0.794321 28.4825 23.3149 5.23099 -0.011006 -0.00171204 -0.00710749
1467 2 -0.951444 25.0323 18.1087 10.531 0.00449422 0.00123737 -0.0160092
1468 2 -0.839163 25.0427 19.2149 12.7847 0.00321843 0.0193576 -0.0107665
1469 2 -0.95887 26.9412 17.7676 12.0817 0.00374168 -0.0108603 -0.00256503
1470 2 -0.857526 26.5361 19.8184 10.9718 -0.00269198 0.00472422 -0.0011506
1471 2 -0.834692 25.0493 21.0161 14.3081 0.00808867 -0.00333135 0.00284445
1472 2 -0.778331 27.0067 21.6974 15.8963 -0.00279986 0.00273637 5.91365e-05
1473 2 -0.877693 26.3428 23.0583 13.7173 0.00125313 -0.00912548 0.00598665
1474 2 -0.820593 25.0997 23.1444 15.8808 -0.00549544 0.0146052 0.0008427
1475 2 -0.963702 28.4283 17.8165 14.1508 -0.00479591 0.00683927 0.00714071
1476 2 -0.810851 28.6582 19.6954 15.7074 0.00328359 -0.00552853 -0.00780375
1477 2 -0.838929 28.6564 21.3739 10.541 0.00899621 -0.0179321 -0.00121734
1478 2 -0.948223 28.4941 23.051 12.6494 -0.00168651 -0.00160714 0.0157
1479 2 -0.823404 24.6009 17.6463 17.739 -0.0102774 -0.0112938 0.00510475
1480 2 -0.730281 25.0791 19.5665 19.349 -0.0108424 -0.00758929 0.0147842
1481 2 -0.915933 26.8103 17.865 19.4219 -0.00873707 -0.00140081 -0.00459891
1482 2 -0.747854 26.3857 19.585 17.3268 -0.00793639 -0.00347162 -0.00444745
1483 2 -0.769242 25.3373 21.4267 21.0068 0.000381887 0.000824882 -0.0098833
1484 2 -0.83361 26.8287 20.844 22.8345 -0.014662 0.00605719 -4.82001e-05
1485 2 -0.956306 27.0792 23.1915 21.5296 -0.00630023 -0.00826109 0.00880385
1486 2 -0.867345 25.0369 22.7626 22.9638 -0.00198276 -0.00767021 -0.00944033
1487 2 -0.864561 28.2224 17.8927 21.3493 -0.00150648 -0.0193333 -0.00804558
1488 2 -0.72687 28.5227 19.337 23.2474 -0.0143555 -0.00886256 0.00648849
1489 2 -0.898714 28.3914 21.0818 17.8885 0.00329601 0.00182456 0.00303699
1490 2 -0.939916 28.5922 22.9701 19.4309 0.0114266 -0.0157568 0.00359112
1491 2 -0.783529 24.728 17.586 25.4749 0.00100298 -0.00605531 -0.00622215
1492 2 -0.748275 24.5145 19.616 26.7627 -0.0111901 0.00175371 -0.0127403
1493 2 -0.692014 26.8507 17.7618 26.7087 -0.00276191 0.0185564 -0.00670972
1494 2 -0.843913 26.6298 19.5588 25.0215 -0.00717821 -0.0127433 -0.00170177
1495 2 -0.907223 24.8042 21.5213 28.4649 0.00349282 -0.00248605 -0.00907452
1496 2 -0.914342 24.7273 22.8684 30.3509 -0.0103148 -0.00755036 -9.3091e-05
1497 2 -0.921899 26.6456 23.0221 28.5482 -0.00565235 0.00237731 -0.0117079
1498 2 -0.704288 28.6334 17.7504 28.82 0.0035098 -0.00695951 -0.00737636
1499 2 -0.901477 28.3501 21.4258 24.7945 -0.00201346 0.0136965 -0.00111217
1500 2 -0.775858 28.5617 23.2379 26.5105 -0.00781529 -0.0152938 -0.0140513
1501 2 -0.759422 25.202 24.6375 3.56184 0.00159928 -0.0139049 0.0083241
1502 2 -0.887089 24.9287 26.7754 5.0478 -0.00404934 -0.0109847 0.011261
1503 2 -0.899748 26.8455 25.1702 5.05308 -0.0112382 -0.00100912 -0.0124045
1504 2 -0.899268 26.4755 26.7347 3.02055 0.0042079 0.0013113 -0.00157267
1505 2 -0.88456 24.365 28.1143 7.10316 -0.00817061 0.0145588 0.00085986
1506 2 -0.935043 26.0888 28.4734 8.80307 -0.00870195 -0.000406038 -0.00964619
1507 2 -0.971507 28.4491 25.0118 7.01714 -0.00591022 0.0076341 -0.00428829
1508 2 -0.835769 28.1473 26.8957 8.73004 0.0119176 0.00669472 0.00277664
1509 2 -0.885234 28.0344 28.5123 3.25167 -0.00741592 -0.0100268 0.00228629
1510 2 -0.892326 26.4277 28.4371 29.7131 0.000606552 2.95091e-05 0.00154305
1511 2 -0.77215 28.6478 26.8285 29.7267 -0.0013973 0.000102244 -0.010608
1512 2 -0.746665 24.8486 24.9284 10.3911 -0.00889874 -0.00725968 0.00817036
1513 2 -0.861379 24.9903 26.3307 12.8188 -0.00233267 0.00331769 0.0091011
1514 2 -0.817357 26.896 24.9191 12.0881 -0.00372083 -0.00101481 -0.00796452
1515 2 -0.844606 26.3153 26.761 10.3872 0.000200901 0.00247584 0.00028186
1516 2 -1.01247 25.1692 28.3085 14.1998 -0.00176997 0.0100501 0.00322189
1517 2 -0.816372 26.7808 28.5813 16.1718 0.0160137 -0.00344756 0.000439537
1518 2 -0.91081 28.0661 24.8952 14.2917 -0.0144444 0.00713774 -0.00273349
1519 2 -0.782711 28.358 26.9877 15.7852 0.0107516 -0.00142336 -0.00704856
1520 2 -0.738104 27.6762 28.6684 10.908 -0.0052309 -0.00383205 0.00964545
1521 2 -0.560286 24.8379 25.0458 17.2206 5.51387e-05 -0.0188818 0.000371666
1522 2 -0.665081 25.3358 26.5812 19.6064 0.00367769 0.00116363 -0.00610367
1523 2 -0.817055 27.1648 24.8963 19.6482 -0.00713531 -0.00429072 0.00412756
1524 2 -0.686107 26.6982 26.4624 17.8816 -0.00752157 0.00156293 -0.00998299
1525 2 -0.885585 25.0059 28.1641 21.1446 -0.00685243 7.43615e-06 0.00191015
1526 2 -0.883747 26.5968 28.5123 23.2721 -0.0166597 0.00189754 0.012862
1527 2 -0.894126 29.0192 24.7331 21.2866 -0.00905026 -0.00945543 -0.00757511
1528 2 -0.833422 28.6969 26.9443 23.0216 0.00861034 0.0127652 0.00761896
1529 2 -0.907228 28.3738 28.3479 18.1246 0.000480726 0.00955519 0.00383546
1530 2 -0.859783 25.0411 24.6615 24.515 -0.00110709 0.00751537 -0.00320764
1531 2 -0.887181 24.7976 26.4507 26.2468 -0.0056076 0.00290469 0.0120762
1532 2 -0.846971 26.5674 24.6996 26.6812 -0.00866907 0.00484936 0.00887863
1533 2 -0.888592 27.0114 26.3794 24.716 0.00133604 0.0166694 -0.00378148
1534 2 -0.922796 24.6406 28.4157 28.2907 -0.00202603 -0.000868105 0.0030874
1535 2 -0.834439 28.4492 25.0069 28.2168 0.00710768 -0.00119286 -0.00633071
1536 2 -0.78551 28.0076 28.6647 25.0132 -0.0074157 5.46218e-05 0.00525926
1537 2 -0.637587 19.1577 11.3806 29.158 0.00446054 0.00804098 0.00757684
1538 2 -0.664079 4.22603 7.19978 3.94381 -0.00372387 0.00869646 0.00788245
1539 2 -0.573979 17.1212 17.0726 6.20274 0.00408905 0.00454122 0.00619557
1540 2 -0.784894 7.33771 28.7122 12.492 0.00331271 -0.00615909 -0.00270867
1541 2 -0.567877 27.4489 27.603 27.3708 0.00297049 -0.0205965 0.0161187
1542 2 -0.611818 25.3048 11.4976 8.1812 0.00214519 -0.00231891 0.00758299
1543 2 -0.607114 27.4286 10.1332 9.98616 -0.00451882 0.00741965 0.0068118
1544 2 -0.689864 7.65668 21.8862 8.29438 -0.00432072 -0.0104108 -0.0073405
1545 2 -0.624729 27.4407 23.5316 9.32235 0.0114986 -0.0141674 0.0114398
1546 2 -0.633076 19.928 20.9318 13.4424 -0.00522549 -0.00349826 -0.00437382
1547 2 -0.564903 16.8566 16.8982 27.7014 0.00145467 0.00426744 -0.00598063
1548 2 -0.663812 28.7922 3.42749 4.90988 0.0178116 0.00106655 0.00490507
1549 2 -0.583885 6.07184 20.6712 27.5064 0.0115952 -0.000290801 -0.00721314
1550 2 -0.555502 11.3778 22.6701 25.5965 -0.0112459 0.00586717 0.0063522
1551 2 -0.60889 27.6252 23.9408 24.2222 0.000300068 -0.00171371 0.00262325
1552 2 -0.675513 13.1954 20.3244 6.21434 0.00735119 0.00808217 -0.00103373
1553 2 -0.564684 7.53117 7.76325 14.9909 0.0102245 -0.00325183 0.00729107
1554 2 -0.521625 25.6424 22.0684 25.5746 0.014076 -0.00778718 0.0036351
1555 2 -0.568453 25.9919 18.9093 8.05023 0.00968909 0.00751011 -0.0101868
1556 2 -0.516997 25.601 29.8158 4.09096 -0.0147421 -0.00190604 -0.0125076
1557 2 -0.704966 2.94174 4.87623 10.8104 0.00344383 -0.00991641 -0.00150857
1558 2 -0.52107 20.3778 13.4629 20.3337 -0.000513162 -0.000578424 -0.0113966
1559 2 -0.694607 24.0054 6.7582 17.1996 0.00488052 -0.0121781 0.0043184
1560 2 -0.576741 11.4022 18.8964 22.3064 0.00128497 -0.0161908 0.00777842
1561 2 -0.596994 27.3075 6.22995 6.64642 -0.00332153 -0.00367717 0.00358723
1562 2 -0.516143 29.3921 21.8875 8.0381 0.0105087 -0.0178624 0.0115866
1563 2 -0.625165 27.0644 17.3063 16.8244 0.00296217 0.00706207 0.000990973
1564 2 -0.61883 16.2292 30.1571 7.61833 -0.00624088 -0.00805109 -0.0157213
1565 2 -0.615519 15.3818 26.1413 26.3721 -0.00220699 0.00282182 0.00171243
1566 2 -0.586793 14.6214 18.1593 11.7381 -0.0107968 -0.002847 0.00070307
1567 2 -0.671869 20.382 13.2736 27.7094 0.00553 -0.00583546 0.000147108
1568 2 -0.577544 18.3881 22.1866 11.728 -0.00646129 -0.00195614 0.009327
1569 2 -0.602405 17.2767 23.7043 6.36194 0.0187304 0.00213699 -0.00251074
1570 2 -0.626105 7.56617 11.5142 12.5623 -0.00450032 9.05713e-05 0.0048127
1571 2 -0.580913 22.5841 25.7134 11.502 0.00248853 0.00335334 0.0128647
1572 2 -0.614159 6.13965 3.12278 16.2357 0.000250705 0.00536376 -0.00500466
1573 2 -0.635791 17.4742 12.5666 2.77296 -0.00579707 0.00393678 -0.0014429
1574 2 -0.606504 13.1959 16.8918 9.82277 0.00267211 0.00681798 -0.00221432
1575 2 -0.661102 12.9123 5.98345 12.8852 -0.00472921 0.0036488 -0.00180032
1576 2 -0.690214 29.2572 21.9519 29.8539 -0.00209048 -0.000307585 -0.0078518
1577 2 -0.668141 25.825 22.3074 18.6437 0.00549738 0.0070484 0.00630354
1578 2 -0.581354 11.2977 21.6689 4.90673 0.00382553 0.00267188 -0.01185
1579 2 -0.659851 7.87418 26.0332 11.8266 0.00811201 0.00881607 -0.00534115
1580 2 -0.56507 29.3818 15.3511 15.3968 -0.00449871 0.00339234 0.000358659
1581 2 -0.674067 20.5898 10.1731 23.3947 -0.0054414 0.00395902 0.0113681
1582 2 -0.651809 22.5786 18.9243 5.02009 0.0147045 0.00708743 -0.0025877
1583 2 -0.621214 15.1688 14.883 28.9513 0.0122609 -0.00822352 0.00319778
1584 2 -0.61556 4.14145 4.0393 8.26684 0.00369048 0.0128518 -0.0160623
1585 2 -0.650522 18.7224 29.3843 11.4734 -0.00705697 -0.00395527 -0.00231197
1586 2 -0.59211 24.3523 10.3375 20.108 0.00425459 -0.00516807 0.000166547
1587 2 -0.53969 16.7319 20.5527 16.8716 -0.0132984 0.00848358 0.00309424
1588 2 -0.564393 20.341 9.90199 16.3628 -0.00769633 0.00299219 0.0132046
1589 2 -0.570738 21.9815 21.9752 7.64002 -0.00942429 -0.00405982 -0.00434524
1590 2 -0.550565 8.28558 25.6497 25.7993 -0.00344018 0.00140767 0.00145891
1591 2 -0.669773 14.0114 23.3966 14.3726 -0.00868045 -0.010216 -0.00820975
1592 2 -0.600296 29.031 15.5507 7.3893 0.00425144 -0.00708326 0.00426988
1593 2 -0.644723 30.8408 24.2241 27.7252 -0.00883901 0.00125548 0.00781554
1594 2 -0.641536 24.1726 24.3428 19.8363 0.0110502 -0.0118492 0.00202161
1595 2 -0.566741 8.17262 22.7998 29.7033 0.0022163 -0.0125998 -0.00692174
1596 2 -0.585198 16.4114 30.9796 27.1715 0.00196713 -0.000420359 -0.00356639
1597 2 -0.727176 10.8672 13.1722 26.059 0.00150207 -0.00828697 -3.32612e-05
1598 2 -0.63735 2.7429 30.8876 27.3061 0.00660943 -0.00815126 0.00556788
1599 2 -0.622207 25.1464 7.75722 4.36376 -0.00467283 -0.00116148 0.0119631
1600 2 -0.656898 4.87564 11.4211 14.5352 0.00414697 0.00632767 -0.00823448
1601 2 -0.752003 6.63179 9.6429 31.0798 0.00552099 0.0141116 -0.0103001
1602 2 -0.629045 7.43503 7.77125 28.3246 0.0100327 -0.000170509 0.0035246
1603 2 -0.508387 7.2601 29.3317 29.4321 0.0039596 0.00549033 -0.000810554
1604 2 -0.680774 18.3047 29.6548 3.83475 -0.00464473 -0.00916595 0.00239051
1605 2 -0.514102 26.1556 11.8356 15.2796 -0.00652668 0.0114368 -0.00971796
1606 2 -0.589825 11.306 4.63211 8.13394 -0.022972 -0.000904127 -0.00907282
1607 2 -0.659576 11.1785 7.92553 11.7889 -0.000523656 -0.00509341 -0.0140728
1608 2 -0.575105 20.4066 23.5907 23.4027 0.00808588 0.0044033 -0.00937054
1609 2 -0.6641 4.89542 14.8098 25.2798 -0.00260879 0.0115962 0.0163209
1610 2 -0.648063 22.4586 22.5711 15.2286 0.000962335 -0.00496471 0.0115722
1611 2 -0.612971 19.5032 10.2894 9.9911 -0.00203253 0.00501043 0.0167309
1612 2 -0.650234 19.5623 4.67314 15.3311 0.0252601 -0.0121077 0.00504813
1613 2 -0.594994 27.5204 20.4811 27.4306 -0.00830252 0.00651708 -0.00927357
1614 2 -0.593825 15.4212 22.308 22.3443 -0.0120093 -0.00344069 0.0190738
1615 2 -0.56638 11.2978 29.7806 11.0225 -0.00633003 0.000240465 -0.0104405
1616 2 -0.594333 6.12511 24.0558 10.0633 0.00381022 0.00886819 0.00445479
1617 2 -0.639869 10.9626 11.6671 29.1768 0.0119879 -0.00400891 -0.00532649
1618 2 -0.608338 4.31265 26.184 29.6239 0.00386976 -0.00858815 0.00766513
1619 2 -0.654672 8.28912 22.3764 22.6795 -0.0149705 -0.00802304 0.0102457
1620 2 -0.681843 15.0252 14.8274 22.2307 0.0155632 0.00786159 -0.0164791
1621 2 -0.646631 25.2803 14.5205 25.9441 0.00683652 -0.00732725 0.0204649
1622 2 -0.612697 24.2252 27.2551 23.7095 -0.00354801 -0.00607679 -0.0053641
1623 2 -0.668192 23.3815 10.191 6.16002 -0.00335078 -0.0035802 -0.0095265
1624 2 -0.659715 20.0834 27.3059 12.7248 -0.00450783 0.00544136 0.00437803
1625 2 -0.733798 20.1998 5.8763 26.8074 0.0042467 0.00165002 -0.00742091
1626 2 -0.690952 2.69347 27.346 17.2795 0.000419562 -0.010572 -0.00285531
1627 2 -0.883217 15.5955 30.6116 10.9802 0.004531 0.00938618 -0.000897162
1628 2 -0.663658 2.94046 13.7169 16.466 -0.00868987 -0.0056087 0.0127459
1629 2 -0.655955 3.20794 19.7974 10.193 -0.00424507 7.56782e-05 0.00107922
1630 2 -0.604196 24.6473 3.2473 27.3976 0.00984584 -0.00227193 -0.00193511
1631 2 -0.627439 29.0074 15.5115 29.0976 -0.00788566 -0.000807906 0.00618374
1632 2 -0.556748 13.6602 9.87262 23.9319 -0.00156612 -0.00345259 -0.00133336
1633 3 0.422968 19.7964 12.1727 29.0563 -0.029085 -0.0470058 0.0118692
1634 3 0.350878 18.616 11.3252 28.2967 0.056139 -0.00892434 -0.0231049
1635 3 0.436158 4.58916 7.31725 4.77566 0.0545877 0.0792681 -0.0365547
1636 3 0.397896 3.74304 7.98711 3.70101 -0.0217729 -0.00373463 -0.000427702
1637 3 0.383233 16.1697 16.9108 6.49918 -0.0492184 -0.0340775 -0.00693016
1638 3 0.361537 17.5953 16.3698 6.74554 0.0228766 -0.0522175 0.0390726
1639 3 0.390421 9.04937 28.7004 12.9215 -0.0119899 0.0553616 -0.00431339
1640 3 0.42159 7.7942 27.8475 12.5472 0.0438111 -0.00767319 0.0671727
1641 3 0.448739 26.9129 28.2718 27.6401 -0.032357 -0.0518388 0.00315821
1642 3 0.42953 27.6201 27.4396 26.3719 -0.0259091 -0.0618267 -0.0375455
1643 3 0.424123 25.5339 10.9122 8.80883 0.0267206 -0.013728 -0.00467608
1644 3 0.417603 24.48 11.9121 8.59704 -0.0356483 -0.00585985 -0.0527382
1645 3 0.405913 27.4734 9.44659 10.6957 -0.0309443 -0.0264772 0.0483668
1646 3 0.431911 27.0234 9.64461 9.32384 -0.0184963 -0.00051318 -0.0131896
1647 3 0.451819 8.55941 22.2973 8.28364 -0.00630171 -0.0376963 0.0319756
1648 3 0.429994 7.20871 21.9366 7.50357 0.0242896 -0.0583983 0.00626331
1649 3 0.405326 28.2674 23.8285 9.69817 0.0223776 0.0379197 -0.0114475
1650 3 0.374929 27.0672 24.4036 8.9891 -0.0231473 0.00835592 -0.0711292
1651 3 0.337989 20.7469 21.4798 13.4976 -0.0301577 0.0218246 0.0248623
1652 3 0.40223 20.03 20.7466 12.5232 0.0470216 0.0124599 0.0212797
1653 3 0.372155 16.7557 17.4819 26.8833 0.0224898 0.0213556 -0.0376667
1654 3 0.374676 16.3651 16.051 27.4145 0.0905387 0.00441809 0.00972676
1655 3 0.394802 4.25957 4.578 9.14865 -0.0143373 0.00787446 -0.0220589
1656 3 0.422527 28.4318 4.0773 4.27955 0.00235429 -0.0044757 0.0438744
1657 3 0.369161 6.21801 20.606 28.4884 -0.0305569 -0.0478819 0.0345083
1658 3 0.39233 5.35648 21.3838 27.3035 0.0450508 0.00856791 0.0221375
1659 3 0.401408 10.8529 21.7563 25.8037 0.0562251 0.0644391 0.00153135
1660 3 0.351436 12.2361 22.3487 26.0381 0.0285289 -0.0138029 0.0069934
1661 3 0.377034 27.5723 23.147 23.783 -0.0674298 0.00436398 0.00878571
1662 3 0.428002 28.5747 24.2362 24.3052 0.0172478 0.0197922 0.00909284
1663 3 0.394481 12.6725 20.059 6.96442 0.00574496 0.000392883 0.00185567
1664 3 0.439399 13.3897 21.1932 6.45539 0.0426334 0.0556437 -0.0344484
1665 3 0.404016 7.07554 6.91696 14.7243 -0.0327857 0.0300738 -0.0175036
1666 3 0.390257 7.68862 8.31553 14.2129 0.014972 -0.0227868 0.0713611
1667 3 0.387741 26.2262 22.6808 26.0793 -0.0214088 -0.0173204 0.0253706
1668 3 0.340814 26.1199 21.9948 24.6292 -0.0183327 -0.0134122 -0.00647403
1669 3 0.368661 25.4621 18.1079 8.25449 -0.00939318 -0.0325128 -0.0111531
1670 3 0.396705 25.553 19.1903 7.27445 -0.0325273 0.0637997 -0.029622
1671 3 0.376256 26.0112 29.7037 3.17633 0.0423436 0.01115 -0.0308115
1672 3 0.425243 25.7904 28.9656 4.58905 0.00744417 0.0339947 0.0842691
1673 3 0.495711 30.7013 4.42688 10.2668 -0.0233015 0.00704031 -0.00176692
1674 3 0.470868 4.64472 30.6538 10.5134 -0.0128998 -0.00863613 0.0182424
1675 3 0.429456 20.3783 13.0683 21.2675 -0.0447203 0.0171832 0.0113545
1676 3 0.392907 21.0596 13.1395 19.6312 0.0252201 0.0138697 -0.0342213
1677 3 0.401514 23.7853 6.95881 16.2863 0.0416259 -0.0149286 0.00789083
1678 3 0.4625 24.836 6.42235 17.2362 -0.0164357 -0.00499166 0.0305564
1679 3 0.403064 12.2894 19.29 22.251 -0.0243369 -0.0266499 -0.0280592
1680 3 0.405442 11.1605 19.1089 23.1827 0.0465764 -0.0182162 -0.0504025
1681 3 0.389525 27.757 7.04167 6.33937 0.065656 -0.00463219 -0.0505486
1682 3 0.337843 27.5766 5.50417 5.99252 -0.00654796 0.00512674 -0.0191698
1683 3 0.374733 29.3367 21.3493 7.23154 -0.0312814 0.0123977 -0.0405502
1684 3 0.329005 29.4442 21.0494 8.62314 -0.000353581 -0.0430594 0.0230153
1685 3 0.423251 28.0012 17.0559 16.5867 0.0340241 -0.0177323 0.0176529
1686 3 0.3539 26.7888 16.5742 17.3519 0.0500005 -0.00709239 -0.0205953
1687 3 0.369544 15.6454 29.9633 8.48712 -0.0330284 0.0271663 0.00375353
1688 3 0.401935 15.91 2.69643 7.26767 -0.0412205 0.00693341 -0.0300783
1689 3 0.406323 14.7429 26.101 27.0573 0.0013031 0.00519479 -0.00300888
1690 3 0.389942 15.1428 26.898 25.7064 0.0681123 -0.0289201 0.0338619
1691 3 0.414063 15.3337 18.8487 11.8454 0.0510162 -0.0262579 0.0451606
1692 3 0.407907 14.6976 17.812 10.7712 0.003292 0.0473562 -0.00432075
1693 3 0.461289 21.1365 13.7199 27.4443 0.0125034 -0.00300278 -0.0289754
1694 3 0.403576 19.6149 13.5178 27.1766 0.00206464 -0.0237886 0.0345995
1695 3 0.414246 18.7349 23.0668 11.7776 -0.0538103 0.00879375 0.0115531
1696 3 0.396949 19.1638 21.7567 11.4481 -0.0129556 -0.0208847 0.00627594
1697 3 0.363036 16.7052 24.1373 5.50493 0.0408939 -0.0187011 0.0507999
1698 3 0.425304 17.1543 24.2768 7.14623 0.0138719 0.0264058 0.0128065
1699 3 0.406997 7.40288 12.2997 13.0387 -0.00045467 0.059506 0.00930825
1700 3 0.36606 8.29418 11.1711 13.1063 -0.0122907 0.00134357 -0.0254182
1701 3 0.397414 21.6248 25.8322 11.8959 -0.0205204 0.0259933 -0.0612098
1702 3 0.438675 22.8243 24.8226 11.6001 0.0221074 0.00715837 -0.00676625
1703 3 0.406773 5.6051 3.72618 16.844 0.0100413 0.0142972 0.0204752
1704 3 0.417834 5.74936 30.6291 16.3147 -0.00212087 -0.0287945 -0.0109251
1705 3 0.375961 17.9902 12.1453 30.3819 -0.0242973 0.0472934 -0.0147587
1706 3 0.397199 18.1345 13.2878 2.96209 0.0264553 0.0116597 -0.0437972
1707 3 0.43649 13.5195 16.4597 10.4833 0.0506821 0.0532495 0.0242647
1708 3 0.400055 12.6891 16.1859 9.15449 -0.0679031 0.0127503 0.0465402
1709 3 0.394367 13.1127 5.62986 13.8233 0.00732489 0.028827 0.0854311
1710 3 0.365114 12.4207 6.89978 12.935 0.00658495 -0.00621406 0.00575814
1711 3 0.40036 29.747 22.7441 29.8501 -0.0141346 -0.0109624 0.000847547
1712 3 0.422308 29.9748 21.3268 29.6313 0.0440985 -0.00925064 0.0144575
1713 3 0.444219 25.9511 21.3798 18.4672 0.0271794 0.0162109 -0.0292282
1714 3 0.416677 26.5898 22.7455 18.7851 0.020235 -0.000354893 0.026359
1715 3 0.387082 12.1935 21.1519 5.0841 0.0432566 -0.00325999 0.00362409
1716 3 0.394825 11.3444 21.595 3.92744 0.0210095 -0.0197216 0.0253549
1717 3 0.442354 7.94931 25.1308 11.6973 0.0168847 0.0160572 -0.0232858
1718 3 0.399457 7.15789 26.445 11.2851 0.030159 -0.0251878 -0.0769572
1719 3 0.398668 29.3683 14.5517 14.7069 -0.0129181 -0.0156546 -0.00847299
1720 3 0.383752 29.8845 16.1129 14.9191 -0.0243358 -0.0396097 0.0150013
1721 3 0.438964 20.3362 10.6735 24.1762 -0.0127348 0.00693845 -0.0220217
1722 3 0.453036 19.9614 9.52102 23.2274 -0.0174113 -0.0309175 -0.00933054
1723 3 0.410497 21.9337 19.5447 5.3116 -0.0170158 0.0498304 -0.0408264
1724 3 0.445259 22.1489 18.1829 4.49647 0.0112532 0.036859 -0.0181139
1725 3 0.366927 14.7197 14.092 29.5516 -0.0569776 0.00128474 0.00869791
1726 3 0.332681 14.5288 14.8782 28.1309 -0.0716499 0.0276611 -0.0372379
1727 3 0.417114 4.99306 3.7764 8.05892 -0.0225415 0.0550983 -0.00385316
1728 3 0.36692 29.1009 3.95012 5.65608 0.00666163 0.0461997 0.0105388
1729 3 0.444684 14.7653 5.37114 11.5305 0.0372139 0.035034 -0.0186354
1730 3 0.384073 19.2537 29.2967 10.6789 0.0190599 0.0511622 -0.0776785
1731 3 0.421331 23.7951 9.94284 19.2774 0.0438679 0.0434692 -0.0351619
1732 3 0.418998 23.7083 10.5175 20.7727 0.00356555 -0.0118981 -0.0247601
1733 3 0.380698 16.2028 21.371 17.1858 0.0652952 0.0210106 0.0506208
1734 3 0.389968 16.9361 20.6552 15.8337 -0.0304864 -0.0157253 0.0303569
1735 3 0.364827 21.025 10.5839 16.4013 0.0473649 -0.00531107 -0.026732
1736 3 0.392574 20.7156 9.26309 17.0539 0.0209129 0.0403298 0.0308538
1737 3 0.460435 22.5871 22.5399 7.13794 -0.0715768 -0.0225462 0.0195147
1738 3 0.390309 22.3666 22.1023 8.46938 0.00922894 0.0275315 0.041141
1739 3 0.499554 11.606 24.4663 24.5855 -0.000511622 -0.0181909 0.056642
1740 3 0.404431 8.69372 24.8273 26.1255 0.0164428 -0.0523602 0.0285987
1741 3 0.445341 13.4742 26.4699 14.3507 0.0281022 0.00931821 0.0320419
1742 3 0.465574 13.801 24.142 14.9432 0.0157301 -0.0239692 -0.0764892
1743 3 0.365136 29.457 15.0706 6.72191 -0.0211096 0.039146 -0.039815
1744 3 0.422753 29.8168 16.0519 7.82882 0.0203577 -0.0757846 -0.00558798
1745 3 0.334399 3.00867 23.4533 27.7872 0.064682 0.0141395 0.00110158
1746 3 0.397244 31.0057 24.4079 26.7987 -0.00489164 -0.0278267 -0.0346374
1747 3 0.436968 23.25 24.1408 20.0561 -0.0143182 -0.118598 -0.00127584
1748 3 0.39137 24.5464 23.3891 19.7615 0.014437 0.0134929 0.00391161
1749 3 0.38993 7.88299 21.857 29.9579 0.0155153 -0.00381798 -0.013916
1750 3 0.39978 8.57781 22.5733 28.7782 0.0202155 0.0291799 0.0408777
1751 3 0.422063 17.2496 30.6174 27.5845 -0.023913 -0.021714 0.00139396
1752 3 0.414443 16.3757 3.61115 27.0375 -0.0277155 -0.0559055 -0.0358117
1753 3 0.437343 9.88526 13.0017 26.0146 -0.051122 -0.00253053 -0.0175322
1754 3 0.466319 9.47468 12.3215 28.5029 0.0931903 -0.0428706 0.0419491
1755 3 0.404384 2.7659 3.39163 27.8258 0.0365881 0.0167209 0.05027
1756 3 0.362108 3.88174 27.0876 29.562 -0.0049574 -0.0211659 -0.00127858
1757 3 0.345879 25.3469 6.82683 4.44347 0.049729 -0.044738 -0.0361475
1758 3 0.403322 25.8415 8.35417 4.5231 -0.00323128 -0.0153437 -0.0156103
1759 3 0.408004 5.49723 11.775 15.2212 0.00386596 -0.0676714 -0.00719046
1760 3 0.405693 4.29413 10.7608 15.0266 -0.0386339 -0.023727 0.0122286
1761 3 0.376447 6.87975 9.882 3.59563 -0.00109612 0.0118701 -0.0166635
1762 3 0.436275 8.30622 15.7783 28.9203 0.0426135 -0.00152618 0.015106
1763 3 0.410478 6.5996 7.26867 28.7703 -0.0671687 0.00592828 0.0238962
1764 3 0.354343 7.70203 8.35735 29.0787 0.0390053 0.00156705 0.0298667
1765 3 0.381754 8.26188 29.4133 29.4023 -0.0348356 0.015314 -0.00685699
1766 3 0.397558 7.16697 28.4313 29.8299 -0.0164247 -0.00596966 0.00616172
1767 3 0.338742 18.5014 30.4157 4.58275 -0.0420039 0.0143799 -0.0316656
1768 3 0.426458 17.9751 28.9519 4.34814 -0.0189179 -0.0646745 0.0368605
1769 3 0.381607 25.1556 11.5012 15.0849 -0.0534017 -0.0145041 -0.0225841
1770 3 0.372075 26.1102 11.998 16.2711 -0.0126701 -0.0257312 0.0384443
1771 3 0.403419 11.5365 3.76382 7.84097 -0.0288021 0.0798148 0.037536
1772 3 0.402971 10.4446 4.46193 8.52416 0.00767094 0.012674 -0.037879
1773 3 0.364799 11.6043 7.29947 11.2566 -0.00151143 -0.0128962 -0.0164078
1774 3 0.410813 10.2882 7.79932 11.678 -0.0054033 0.0259424 -0.0114295
1775 3 0.395242 19.684 23.851 24.019 -0.0247977 -0.0133348 0.0251843
1776 3 0.371151 20.8192 22.7765 23.8736 -0.0353959 0.015042 -0.0258704
1777 3 0.406401 5.46229 14.8693 25.9741 -0.00297844 -0.0343735 -0.0122436
1778 3 0.40568 4.33878 14.0224 25.4683 -0.0069591 0.0405888 -0.0122576
1779 3 0.384447 22.3312 21.7501 15.8174 -0.0179211 -0.000242585 0.0180162
1780 3 0.359862 22.0771 22.3074 14.3601 -0.0225066 -0.0319262 0.0272305
1781 3 0.395753 20.2458 9.97382 9.34624 -0.0170568 -0.0155228 0.0155471
1782 3 0.337805 19.5022 9.36149 10.481 0.025386 0.0314748 -0.0100464
1783 3 0.334623 20.2206 3.99083 15.315 0.00745512 0.0116309 0.0152439
1784 3 0.409707 18.8395 4.10495 15.6143 0.00787447 -0.0830383 0.0305905
1785 3 0.398342 27.6872 21.3694 27.7016 0.0104607 0.00761864 -0.036988
1786 3 0.395315 26.7305 20.2717 26.9034 0.0177407 0.0498754 0.0166257
1787 3 0.39549 16.0376 22.1628 23.0301 0.00744544 0.00170686 -0.0249941
1788 3 0.421034 15.2787 23.2796 22.2794 0.0603037 -0.0441051 -0.023722
1789 3 0.412896 10.9044 30.1319 11.9457 0.0160329 -0.0439288 0.00485676
1790 3 0.400546 12.0829 30.4215 11.016 0.0714026 -0.0265064 -0.0351485
1791 3 0.345082 6.3239 23.1864 9.48756 0.0363187 -0.05677 0.0463236
1792 3 0.370788 6.56822 24.8596 9.71176 0.067767 0.00925227 0.0498938
1793 3 0.360208 10.8057 10.7148 28.9438 -0.0351012 -0.0258645 0.0146382
1794 3 0.420556 11.8066 11.6509 28.9904 -0.0194764 0.0242761 0.00860045
1795 3 0.460687 5.03218 29.3357 3.04421 -0.0060318 -0.0233276 -0.0194634
1796 3 0.397596 4.71302 26.1989 28.834 -0.00276745 -0.0217931 -0.00146239
1797 3 0.411578 8.63801 21.7476 21.8442 0.00583998 0.0322413 -0.00488482
1798 3 0.374615 9.1342 26.0434 25.5074 -0.01897 -0.00841139 0.0422639
1799 3 0.419345 15.6566 14.7782 22.8314 0.00146294 -0.0293112 -0.0261224
1800 3 0.433532 14.4499 15.63 22.1369 0.041374 -0.0316747 0.0259056
1801 3 0.424041 25.775 14.9793 26.5751 -0.0725459 -0.0102157 -0.0190344
1802 3 0.446869 24.9353 15.2057 25.3399 0.0545574 0.00830364 -0.0626487
1803 3 0.383978 23.8315 28.1635 23.7457 -0.00162912 -0.00649981 -0.0751555
1804 3 0.419081 23.9165 26.8749 24.5795 0.0486169 0.00369882 -0.00152889
1805 3 0.380208 24.1505 10.193 6.69843 0.0385143 -0.0331647 0.0273287
1806 3 0.42254 23.3372 9.38197 5.64083 0.0533916 0.0243006 0.0401193
1807 3 0.413946 20.9085 27.5736 13.0984 -0.0412499 0.0366487 -0.00917312
1808 3 0.432571 19.6385 28.0768 12.373 0.0203247 -0.0105842 0.0107145
1809 3 0.429923 20.7721 5.25923 26.8817 0.0589291 0.0186625 -0.000387293
1810 3 0.445686 19.6421 6.1551 27.4508 0.00386342 0.0179962 0.0404053
1811 3 0.420753 4.35414 24.4536 19.6973 0.0313602 0.0122881 -0.00522235
1812 3 0.424553 2.89236 27.8534 16.4731 0.0286422 -0.000139592 0.0728429
1813 3 0.455378 17.6123 30.391 8.56971 -0.0442782 -0.0401921 0.00722472
1814 3 0.422553 17.8442 29.5921 11.1462 0.0140646 -0.0257621 0.0259766
1815 3 0.42697 30.6167 13.8184 17.0464 0.00252331 0.0128393 0.00640937
1816 3 0.38717 31.0829 12.8432 16.1414 -0.0610761 0.00822838 0.00627054
1817 3 0.414158 3.11548 20.7965 9.86831 0.0279946 0.00922957 0.0034754
1818 3 0.364628 31.0717 19.2784 9.6332 -0.0531023 0.0688278 0.00206594
1819 3 0.350535 23.5491 3.29715 27.4788 0.0335792 0.0158701 -0.0142923
1820 3 0.367968 24.5297 30.9474 26.8592 -0.0449762 0.0151135 -0.00993636
1821 3 0.448074 29.5622 15.5419 29.883 0.0326502 0.0168499 -0.0182536
1822 3 0.41094 29.3688 14.8151 28.502 0.00628791 -0.00565854 0.0480884
1823 3 0.380423 12.7268 9.43076 23.8523 -0.0216176 -0.0269264 0.0037648
1824 3 0.410192 13.4411 10.7845 24.1401 0.0525078 0.0417544 -0.0515128
ITEM: TIMESTEP
2000
ITEM: NUMBER OF ATOMS
1824
ITEM: BOX BOUNDS pp pp pp
2.6512534423765750e+00 3.1096746557623277e+01
2.6512534423765750e+00 3.1096746557623277e+01
2.6512534423765750e+00 3.1096746557623277e+01
ITEM: ATOMS id type q x y z vx vy vz
1 1 1.59349 2.69889 2.60229 2.762 0.00264549 -0.00536968 -0.0010546
2 1 1.69437 4.53818 4.2257 4.64524 0.00523082 0.000414694 -0.0113795
3 1 1.69391 31.0338 5.95289 6.26506 -0.000784206 -0.00237743 -0.00290025
4 1 1.72977 4.32002 7.99103 7.91075 -0.00574259 -0.00102845 -0.00942696
5 1 1.7172 6.48211 30.8497 6.06628 -0.00318103 -0.00360444 0.00159744
6 1 1.70614 8.02128 4.20532 8.08233 0.00930403 -0.00483293 -0.006534
7 1 1.26793 6.22509 6.09307 2.85761 -0.00676839 -0.00649741 -0.00417139
8 1 1.5853 7.96785 8.02352 4.50146 0.00100902 0.000979302 -0.00572725
9 1 1.54609 2.58351 30.5645 9.12578 -0.0123285 -0.00212086 -0.00030848
10 1 1.47428 4.90987 5.4809 11.789 -0.00158472 0.00236469 -0.00606407
11 1 1.66332 2.74088 6.52452 13.5951 0.00270684 -0.00376019 0.00407591
12 1 1.60546 4.61915 8.16295 15.1967 -0.00278492 -0.00582836 0.00620989
13 1 1.53216 6.02799 3.06293 12.9885 0.0110643 0.00965692 0.00109599
14 1 1.39763 7.90509 4.27615 15.1298 -0.00532385 0.0046909 -0.00503366
15 1 1.61825 6.453 6.41141 9.37185 0.00655037 -0.00280545 -0.000599943
16 1 1.52558 8.21797 8.03023 11.1473 0.0008231 -0.00896354 -0.00795245
17 1 1.72615 2.69848 31.097 16.7752 -0.000570243 0.00963172 0.00220108
18 1 1.62229 4.38235 4.2578 18.6855 0.00666106 -0.00380199 -0.0017421
19 1 1.81865 31.0467 5.874 20.3627 -0.00229257 0.00503009 -0.00481588
20 1 1.50286 4.39968 7.84993 21.9549 -0.00479267 -0.00410965 0.00292521
21 1 1.66242 6.31238 2.83155 20.4781 -0.00457672 -0.00469025 -0.00667885
22 1 1.56544 7.89736 4.58107 22.4204 0.00317039 -0.00584971 -0.000242283
23 1 1.71368 6.03916 6.14516 16.8582 -0.0112247 -0.00432862 0.00480595
24 1 1.71757 7.99431 7.88413 18.535 0.000317328 0.00410778 -0.00568747
25 1 1.73633 2.7826 2.88697 23.9956 -0.00337874 0.0105832 -0.00651904
26 1 1.6229 4.51347 4.59406 25.8095 0.00199995 -0.00220584 -0.0106345
27 1 1.59504 30.6846 6.11147 27.2025 0.00224169 -0.00405022 0.00782006
28 1 1.31294 4.24716 8.0382 29.1075 -0.00569186 -0.0101884 0.0062512
29 1 1.65293 6.61061 2.96237 27.3674 -0.00883606 0.00662734 -0.00571096
30 1 1.65844 8.23513 4.38799 29.5304 -0.00620976 0.00223394 -0.00748805
31 1 1.75847 6.25906 6.28436 24.1337 -0.0014968 -0.00101238 0.00334242
32 1 1.78608 8.16269 7.7419 25.8215 0.00099718 0.0077669 0.0108566
33 1 1.83013 2.73606 9.64174 2.76679 -0.00229181 0.00800104 0.000584692
34 1 1.80625 4.38555 11.5776 4.31085 0.00108436 -0.000663958 0.00289018
35 1 1.73422 2.68424 13.3534 6.20047 -0.00438784 0.0100017 -0.011455
36 1 1.77355 4.36681 15.1288 8.02809 -0.00455545 0.0076858 0.00337386
37 1 1.67038 6.01765 9.85866 6.20063 0.00284654 0.00115631 0.00537971
38 1 1.67574 7.78253 11.8026 8.03211 -0.003526 -0.00774718 0.00329151
39 1 1.62729 6.21975 13.4412 2.66889 0.0116732 -0.00444052 0.00149459
40 1 1.61334 7.88415 15.2143 4.5224 0.0086747 0.00900335 -0.00141886
41 1 1.56605 31.0092 9.72609 9.63661 0.00147169 -0.012861 -0.00102597
42 1 1.68219 4.27672 11.3974 11.4339 0.0025019 -0.00179499 0.00766719
43 1 1.56183 31.0084 13.0942 13.1278 0.00341559 0.00423517 -0.00677714
44 1 1.45655 4.27188 14.861 15.0577 0.00395739 -0.000142368 0.000402479
45 1 1.44054 6.13871 9.70391 13.0275 0.00803982 0.00786538 -0.00105275
46 1 1.79752 8.14918 11.384 15.1718 0.000549114 0.00872031 -0.00604863
47 1 1.69506 5.96336 13.406 9.83371 -0.000534139 0.00399874 -0.0101229
48 1 1.73828 7.82788 15.1129 11.4956 0.00285162 0.00583006 -0.00362796
49 1 1.78566 2.95415 9.88554 16.9164 0.00532733 0.00127758 0.000583226
50 1 1.66373 4.34361 11.626 18.8582 0.00899991 -0.00233725 -0.000155976
51 1 1.79504 30.9356 13.4106 20.6624 -0.00133401 0.00796951 0.0108525
52 1 1.66236 4.47654 15.1623 22.0412 -0.005471 0.00507932 -0.00544075
53 1 1.68363 6.22593 9.74019 20.3566 0.0104493 -0.00401408 0.00210319
54 1 1.82188 7.86503 11.2399 22.3882 -0.000773161 -0.00580746 0.00321265
55 1 1.54492 6.26594 13.1056 16.9905 -0.00165091 -0.00796431 -0.00769032
56 1 1.69971 7.87067 14.9399 18.7206 -0.0102509 0.00287427 0.00472546
57 1 1.74934 2.96722 9.89483 23.837 -0.00589112 0.00286131 -0.00121873
58 1 1.73156 4.56427 11.6402 25.6399 -0.00159005 0.00476847 -0.00492136
59 1 1.5979 2.63921 13.0878 27.4373 -0.00492837 0.0058731 -0.00321496
60 1 1.77529 4.32404 15.0654 29.2604 0.00571068 -0.00254964 -0.00991232
61 1 1.48213 6.31813 9.63799 27.1456 -0.00200008 -0.00507562 -0.0017426
62 1 1.60621 7.34098 10.987 29.7365 -0.00271757 0.00798385 0.00551245
63 1 1.74802 6.39406 13.4215 23.8427 -0.00434394 -0.0113714 0.00454773
64 1 1.85023 7.76924 15.2711 25.7835 -0.013692 -0.00110506 -1.64856e-06
65 1 1.7483 2.81149 16.8826 31.0655 3.21292e-06 -0.016906 -0.000847661
66 1 1.77991 4.45768 18.6831 4.46688 -0.00537707 0.00111896 -0.000924626
67 1 1.65654 2.67709 20.5361 6.10154 -0.00786113 0.00458213 0.00082643
68 1 1.51235 4.42967 22.1618 8.09505 -0.00985556 0.0037876 0.00964059
69 1 1.59788 6.11448 17.0634 6.41171 -0.000916451 0.00515882 -0.00123485
70 1 1.65461 8.16154 18.6235 8.20342 -0.00431953 -0.00126577 -0.00936721
71 1 1.87142 6.09691 20.2484 30.952 -0.00722921 0.00495391 0.00425816
72 1 1.66039 7.74293 22.0473 4.22053 -0.0093441 -0.00719723 -0.00150558
73 1 1.73513 30.9897 16.7695 9.85885 0.0111008 0.00362375 0.00263947
74 1 1.55535 4.30781 18.5713 11.7611 0.00134279 -0.00638874 0.000120841
75 1 1.5821 2.71682 20.7132 13.5319 0.000651997 -0.000832312 0.000866878
76 1 1.56167 4.60582 22.666 15.1166 0.00613944 0.00252445 0.000131907
77 1 1.57991 6.09407 16.6884 13.3695 0.00285636 0.00311827 -0.00121781
78 1 1.68121 7.62363 18.7262 15.0295 -0.0125613 -0.00832273 -0.00331917
79 1 1.67864 6.11835 20.2604 9.89592 0.00120582 0.0050427 0.0113135
80 1 1.61596 7.8495 22.2172 11.6161 -0.00983266 0.0179482 -0.00284005
81 1 1.44578 30.8434 17.0478 16.7937 0.0071038 0.00137643 0.00289117
82 1 1.68616 4.41467 18.8196 18.4252 -0.00419862 0.00359169 0.00164948
83 1 1.65324 2.79835 20.5525 20.276 -0.000637097 -0.00831903 0.00439732
84 1 1.62675 4.43956 22.4735 22.0333 -0.0015621 -0.00314088 -0.00312654
85 1 1.70969 5.99127 16.925 20.168 -0.00262443 -0.00363795 0.00706616
86 1 1.61196 7.80335 18.2398 22.2601 0.00654627 0.000426618 -0.00938372
87 1 1.72411 6.17371 20.6669 16.7854 0.000624471 -0.00337261 0.00474441
88 1 1.5808 8.21622 22.1186 18.7209 0.000226592 -0.013895 0.00614445
89 1 1.6746 30.9881 16.69 23.692 0.0027959 0.00223531 -0.00408267
90 1 1.70711 4.15283 18.5719 25.5033 0.00340969 -0.00179903 0.00301114
91 1 1.51177 2.78962 20.7636 27.2358 -0.00945066 0.00182294 0.000242384
92 1 1.54514 4.63491 22.1947 29.2581 -0.00881844 -0.00733224 -0.00442389
93 1 1.71297 5.87447 17.0467 27.4662 0.00355373 -3.89105e-05 -0.00523753
94 1 1.73554 7.82659 18.6232 29.1571 0.00829309 0.00296388 0.00572499
95 1 1.61118 5.95739 20.1677 23.714 -0.00328531 -0.00787616 2.56125e-05
96 1 1.57826 7.59571 21.9793 25.7148 0.00957651 0.00454477 -0.000195145
97 1 1.42191 31.0201 23.9301 30.8904 0.00299725 -0.00373568 -0.00418379
98 1 1.58034 4.61328 25.3992 4.07093 -0.0019758 -0.00424945 0.00146735
99 1 1.7302 2.69575 27.1302 5.66779 -0.00591067 -2.15655e-05 0.00763441
100 1 1.55871 4.35958 29.0421 7.22321 0.00574676 -0.00152071 -0.00625698
101 1 1.596 6.2394 23.8493 6.2059 0.00238419 -0.00404862 -0.0145702
102 1 1.37992 8.0956 25.7742 7.81233 -0.00664869 -0.00113035 -0.00771313
103 1 1.50168 6.84692 27.2279 3.09365 -0.0111484 -0.00554038 -0.0053183
104 1 1.86442 8.57256 29.2149 4.58506 0.00318316 -0.00815709 0.00674012
105 1 1.48641 2.7413 23.986 10.0498 0.00355311 -0.00214354 0.00832123
106 1 1.75957 4.53732 25.8359 11.7214 0.000124089 -0.00180265 0.00496136
107 1 1.64392 31.0878 27.6323 13.1883 -0.00337758 0.00354357 -0.00259524
108 1 1.64291 4.42922 29.3673 14.9346 0.00801476 0.0088918 0.00518673
109 1 1.76384 6.46653 24.2597 13.3194 0.00474518 -0.00322421 0.00288784
110 1 1.58133 7.96832 25.6173 15.4271 -0.00231377 0.00341172 0.00654011
111 1 1.55482 5.90228 27.4072 9.407 0.00497402 0.00787027 -0.00062127
112 1 1.45423 7.2196 29.4414 11.1743 0.00659022 0.0129348 0.000517563
113 1 1.54078 30.9776 24.1964 16.8125 -0.0032454 0.00306719 0.00633007
114 1 1.64052 3.89398 26.5057 18.0687 -0.00014595 0.000633653 0.000132285
115 1 1.7091 31.0553 27.9483 20.3844 0.00549927 -0.00950802 -0.00577143
116 1 1.81433 4.34261 29.5561 22.1936 0.0014248 -0.00559076 -0.000878502
117 1 1.58595 6.41859 24.0506 20.2049 0.000401685 0.00274706 -0.00684318
118 1 1.55951 7.82229 26.0344 21.8696 -0.00273004 -0.00456236 0.00979
119 1 1.64094 6.23596 27.8316 16.8433 0.000776136 -0.00668245 -0.0088076
120 1 1.6294 8.05122 29.3306 18.9059 -0.0131353 -0.00253807 0.0119569
121 1 1.7019 2.71904 24.17 23.8446 -0.00840777 0.00223608 0.000632949
122 1 1.65337 4.5206 26.0771 25.5103 -0.00702856 -0.00668455 0.00461544
123 1 1.73656 2.84063 27.8389 27.2412 -0.0187697 0.000184092 0.0107475
124 1 1.54402 3.89914 30.4595 28.4212 0.00632614 -0.00587284 0.00234472
125 1 1.48177 6.19795 24.0655 27.3814 0.00195799 -0.00173044 -1.01004e-05
126 1 1.59042 7.97515 25.9094 29.0766 0.00676537 -0.00937668 -0.000640931
127 1 1.73861 6.25995 27.703 23.7095 -0.00373029 0.000525511 0.0018622
128 1 1.66677 8.05338 29.6631 25.3508 -0.00223961 0.0131077 0.0044328
129 1 1.73151 10.1147 2.73848 2.70787 -0.00754146 -0.000448055 -0.00111384
130 1 1.65599 11.6473 4.50845 4.51744 0.010211 -0.00462648 -0.000927548
131 1 1.52666 9.59588 6.20669 6.37155 -0.00600665 -0.00405984 -0.0017305
132 1 1.67729 11.4617 8.28317 7.8167 0.000258761 -0.00225217 0.00945652
133 1 1.67419 13.124 30.9638 6.37523 0.0159383 0.00560192 0.00683732
134 1 1.35 15.0572 4.41352 8.02334 -0.00985093 0.00632839 0.0063496
135 1 1.88031 13.2241 6.27147 31.0642 0.0117747 -0.000496509 0.00192236
136 1 1.67764 15.0822 7.62247 4.58223 -0.00385034 0.0111142 -0.00158241
137 1 1.44175 9.6506 30.684 9.98293 -0.00370268 -0.00989763 -0.0121913
138 1 1.20684 11.7036 4.55171 11.6799 -0.0101961 -0.0016369 -0.00680699
139 1 1.48575 9.52225 6.39164 13.4246 0.00405166 -0.0017533 -0.00175646
140 1 1.39073 11.542 8.06703 15.4055 -0.0088331 0.000932964 -0.00681697
141 1 1.57986 13.366 30.9996 13.4971 0.0032851 0.00225643 0.000752324
142 1 1.53309 15.0221 4.47857 15.3355 -0.0044393 -0.00599639 0.0112885
143 1 1.44096 13.147 6.4201 9.569 0.00152754 0.0140886 -0.0117794
144 1 1.4926 15.0918 7.9355 11.5242 0.00084335 -0.013297 -0.00998472
145 1 1.56291 9.85271 2.62285 17.0994 0.00140606 -0.00559943 -0.0016136
146 1 1.6522 11.6698 4.38896 18.7734 0.00285858 3.75461e-05 0.000376713
147 1 1.63037 9.77507 6.22974 20.4605 -0.00226931 -0.000196853 -0.00384781
148 1 1.65728 11.766 8.00029 22.1219 0.0168128 -0.00184081 0.00451457
149 1 1.54233 13.3747 2.73329 20.5733 -0.00291957 0.000770479 -0.00578959
150 1 1.66392 15.2626 4.47243 22.2743 -0.0112702 -0.00749462 -0.0114121
151 1 1.60224 13.215 6.21344 17.1088 -0.00594013 0.00297194 -0.00347807
152 1 1.50038 14.8589 7.92101 18.8501 0.00392441 0.000110346 0.00173902
153 1 1.53498 10.1381 2.81542 23.7312 0.000372284 -0.00601878 0.00873191
154 1 1.64639 11.5928 4.58778 25.7338 0.000193277 -0.000219683 -0.00647989
155 1 1.82421 9.73727 5.97588 27.5153 -0.000358108 0.00171724 -0.000295449
156 1 1.82134 11.3941 7.92026 29.2791 0.0028739 -0.00741345 -0.000255675
157 1 1.48723 13.3369 2.7613 27.4392 0.00187165 -0.00699951 -0.000826745
158 1 1.65683 15.1044 4.50056 29.4371 0.00903777 0.00208866 0.00404038
159 1 1.64011 13.458 6.32725 24.0571 -0.00876552 -0.0044683 -0.0021145
160 1 1.71916 15.2799 7.98398 25.8897 -0.0124306 -0.00536152 -0.000869589
161 1 1.56472 9.71903 9.68278 2.68352 -0.00477995 -0.000496825 -0.00074097
162 1 1.62637 11.3652 11.3983 4.65154 -0.00607269 0.0061146 0.00157725
163 1 1.78328 9.54578 13.259 6.12186 -0.00282117 -0.00122315 0.00943186
164 1 1.46316 11.2725 14.6086 8.04216 -0.00401733 0.00152433 0.00303924
165 1 1.78657 13.5008 9.84949 6.21426 -0.00644873 0.0106039 0.00317971
166 1 1.80522 15.1796 11.3421 8.16338 0.000691021 0.00676816 0.00966038
167 1 1.46821 13.3026 13.1869 3.01785 -0.00146967 -0.000971767 0.00524922
168 1 1.60716 15.0207 15.1106 4.73232 -0.000821794 -0.00185618 -0.00832448
169 1 1.60393 9.80848 10.1245 9.66485 -0.000838624 -0.00140752 0.00290514
170 1 1.71415 11.7373 11.3744 11.6539 0.00310958 -0.00958319 0.00111188
171 1 1.43944 9.67756 13.2791 13.2715 -0.00048838 -0.00908202 0.000635072
172 1 1.42727 11.3011 14.9302 15.3569 0.00228226 -0.00604239 0.00342769
173 1 1.56936 13.3608 9.66313 13.5693 0.00516257 -0.00834714 0.00821493
174 1 1.79081 15.0273 11.6996 15.0308 0.00932329 0.00305988 -0.0072156
175 1 1.66378 13.5429 13.1386 9.87855 -0.00169268 0.00499839 -0.000593478
176 1 1.36994 15.0888 15.2094 11.7281 -0.00868383 0.00261693 -8.37518e-06
177 1 1.66413 9.81868 9.87709 17.1098 -0.00360244 0.00123746 -0.000206737
178 1 1.74111 11.631 11.582 18.9947 0.00236628 -0.00441316 -0.00696119
179 1 1.69997 9.51091 13.1025 20.4869 0.00637782 0.00449928 0.00541871
180 1 1.84265 11.3733 14.6515 22.3308 0.000950181 -0.00148588 -0.00991113
181 1 1.77546 13.55 10.0641 20.7566 -0.00694957 -0.00728551 -0.0121292
182 1 1.76517 15.5721 11.6575 22.2679 0.0092504 -0.00228785 -0.00882316
183 1 1.68085 13.2421 13.1981 17.0501 -0.000645171 0.0049885 0.00350754
184 1 1.67556 15.1748 14.9771 18.5533 0.00158204 0.0114917 0.00333099
185 1 1.6222 9.78766 9.62052 24.0108 -0.0106483 0.00403022 0.00220115
186 1 1.50509 11.9393 11.2125 25.5075 -0.00199206 0.000921797 -0.00271597
187 1 1.37405 9.45764 14.248 28.0698 -0.00221509 -0.00357794 0.00463683
188 1 1.64878 11.6287 15.5902 29.8192 0.00330846 -0.00202173 0.0025738
189 1 1.66139 13.4514 9.61107 27.6891 -0.00143867 0.000295226 0.0105886
190 1 1.68695 15.0171 11.3938 29.5108 -0.00426763 0.0126969 0.00631759
191 1 1.72788 13.4953 13.2302 23.9267 -0.000559564 -0.00622313 -0.00298628
192 1 1.78707 14.8976 15.059 25.8197 0.00790841 0.00058786 0.00852758
193 1 1.55533 9.44701 17.1686 2.91187 0.00271932 0.00688236 0.00531832
194 1 1.50531 11.5056 18.6581 4.58306 -0.00236332 -0.0061078 0.0103774
195 1 1.44118 9.69376 20.5253 6.1899 0.0142972 0.000484788 -0.00868568
196 1 1.67585 11.4895 22.2461 7.87731 -0.00116126 0.00260899 0.000958322
197 1 1.65136 12.9852 16.5455 6.32729 0.0111969 0.0020784 0.0138634
198 1 1.27372 15.2172 18.4356 7.63427 0.00552381 0.00500657 0.00301961
199 1 1.57031 13.2621 20.3883 30.9685 0.000428049 -0.00570539 0.00177805
200 1 1.3841 15.4009 22.284 4.3073 0.00397507 0.001169 0.011588
201 1 1.6448 9.83242 16.6603 9.82873 -0.00681266 0.00349694 -0.00708672
202 1 1.61009 11.5562 18.5845 11.5994 -0.00624446 0.000871519 0.00502796
203 1 1.48365 9.58045 20.3784 13.4021 -0.00610761 0.0102645 -0.0038372
204 1 1.59301 11.5192 21.972 15.1698 -0.000405055 -0.00240022 0.00100034
205 1 1.46876 13.1001 16.7293 13.5292 -0.0058484 0.00302851 -0.00035244
206 1 1.59557 15.0815 18.4428 15.2463 -0.00210159 -0.00031923 -0.00505546
207 1 1.65096 13.047 20.2719 9.46121 -0.00788641 0.00435536 0.00179545
208 1 1.70998 15.1173 21.7878 11.1062 -0.00104351 0.00380542 0.00143781
209 1 1.48863 9.28703 16.8163 16.7062 -0.0025875 0.00109322 -0.00205234
210 1 1.52251 11.3093 18.226 18.5809 0.00206756 0.0081597 -0.00244547
211 1 1.54449 9.58976 19.9341 20.3049 -0.00404807 0.000112105 0.000603217
212 1 1.66869 11.1272 22.231 21.7756 -0.00499804 -0.000702551 0.00041591
213 1 1.39847 13.0441 16.342 20.5506 -0.00149629 -0.00567239 -0.0069114
214 1 1.49546 14.7804 18.6125 22.6208 -0.000423793 -0.000761606 0.00780898
215 1 1.62938 13.2844 20.1412 17.109 -0.00277122 0.00964625 -0.00570278
216 1 1.55696 15.1008 22.0413 18.7148 -0.00273742 -0.00253789 0.00349397
217 1 1.54279 9.75811 16.6639 24.0555 0.00232516 -0.00365503 -0.00383848
218 1 1.56039 11.479 18.7687 25.553 -0.00379714 0.00148673 -0.00664572
219 1 1.61458 9.64007 20.3494 27.373 -0.00594941 -0.00104625 -0.00578271
220 1 1.47521 11.5932 22.024 29.0776 -0.0047773 -0.00631267 -0.000848574
221 1 1.56467 13.2073 17.0749 27.5165 -0.00283211 0.0039138 -0.0095268
222 1 1.81744 15.1174 18.7433 29.0736 0.00249339 0.00770971 0.00250104
223 1 1.31195 13.3244 20.8625 24.0829 -0.000107878 0.000329448 -0.000119917
224 1 1.45544 15.1674 22.2675 26.0294 0.0122465 0.014858 0.00728543
225 1 1.25812 9.61692 24.0139 31.0801 1.47245e-05 0.00254134 -0.000768165
226 1 1.49967 11.5722 25.7921 4.38131 -0.00529814 0.00201459 0.00678024
227 1 1.51376 10.1819 27.4794 6.43899 0.00314522 -0.000350884 -0.00395937
228 1 1.58008 11.8357 28.9949 8.35812 0.00583104 0.000875544 -0.00133095
229 1 1.65302 13.3527 23.9093 6.22136 0.00655043 0.00826803 -0.000356313
230 1 1.81373 15.0012 25.7488 7.99518 0.0107204 0.00436124 0.0059221
231 1 1.69274 13.211 27.5071 30.8753 0.00508743 -0.00281286 0.00380348
232 1 1.79128 14.6883 29.4153 4.22625 0.00387651 -0.00213121 -0.000428948
233 1 1.34461 9.90736 24.0006 9.88442 -9.14164e-05 -0.00731806 -0.00544248
234 1 1.49525 11.8767 25.358 11.7696 0.00314251 0.00481166 0.00680396
235 1 1.3971 10.2548 27.0665 13.9946 0.00375569 -0.00675554 -0.00738125
236 1 1.6191 11.4895 29.3677 15.3398 0.00825947 -0.00695335 0.00505856
237 1 1.4706 13.4586 23.2399 13.1257 0.000284654 0.00601228 0.00366252
238 1 1.56602 15.1157 26.3874 15.8567 0.00642586 -0.00207348 0.000354325
239 1 1.62739 13.5739 27.3915 10.1546 0.00744206 -0.000545216 0.0111042
240 1 1.66156 15.2815 29.2096 12.105 -0.0121716 -0.0048918 0.00622838
241 1 1.30146 10.0875 23.9209 17.1254 0.00455003 -0.00321183 0.00471082
242 1 1.52297 11.9128 25.9335 18.6988 0.00553915 -0.00759592 0.00377874
243 1 1.52189 9.94002 27.6178 20.5528 0.00590308 -0.00429586 0.0085854
244 1 1.59916 11.7997 29.2647 22.2528 -0.0141062 0.00480383 -0.00508007
245 1 1.72296 13.429 24.0146 20.3825 0.00142072 -0.0084533 0.000600196
246 1 1.72877 15.3449 25.5631 22.139 0.00382821 -3.9081e-05 -0.00280094
247 1 1.62543 13.3344 28.2369 17.3188 -0.00515385 -0.00918919 0.00128855
248 1 1.61899 15.4195 29.6618 19.0761 -0.00456999 -0.00588863 -0.00551373
249 1 1.54264 8.61098 23.3341 23.1219 -0.00090404 -0.00434539 -0.00554474
250 1 1.73989 11.9904 26.0663 25.7957 0.0073819 -0.00529655 -0.00126519
251 1 1.47638 9.84655 27.8718 27.1363 -0.00837874 -0.00204147 -0.00263806
252 1 1.62493 11.5484 29.3648 29.209 -0.00245233 -0.00142462 -0.003512
253 1 1.7561 13.4303 24.165 27.6564 0.00587118 0.00118902 0.00506597
254 1 1.62545 15.1995 25.8319 29.367 -0.00578068 0.000684331 0.00230805
255 1 1.66592 13.8206 27.4625 23.8877 0.00427532 0.0117008 0.000928646
256 1 1.42032 15.3561 29.465 25.5853 0.000660335 -0.00591655 0.00170121
257 1 1.45937 16.8387 2.72154 2.76471 0.00825498 0.00182206 -0.00133205
258 1 1.76819 18.7171 4.49157 4.32223 0.00655642 -0.00315675 -0.0116257
259 1 1.5348 17.2006 6.21398 6.21696 -0.00581269 -0.0028865 -0.00232722
260 1 1.80939 18.7839 7.97539 8.17611 0.00241569 0.00283204 -0.0011211
261 1 1.61425 20.4316 30.8231 5.93105 -0.00922856 0.00296677 -0.00821117
262 1 1.75194 21.9992 4.14736 7.92768 0.00605631 0.00895332 -0.00470667
263 1 1.6897 20.5643 6.0903 2.64329 -0.00127948 -0.00483107 -0.0036731
264 1 1.42576 22.1812 8.05601 4.66049 -0.00580503 0.00229163 -0.00148637
265 1 1.52425 16.0826 3.20551 10.5835 0.00697088 -0.0140924 -0.000895081
266 1 1.63681 18.5729 4.65892 11.7579 0.00770451 0.00451756 -0.004286
267 1 1.5956 16.8095 6.25105 13.5694 0.00322131 0.00183096 0.00206091
268 1 1.60475 18.5246 8.06226 15.2837 -0.0054894 0.00094942 0.0116272
269 1 1.64174 20.514 2.68083 13.2832 -0.00508296 -0.00546977 0.0020176
270 1 1.57935 22.0043 4.63231 14.9949 -0.00449357 -0.00228681 -0.00672296
271 1 1.70889 20.5038 6.07564 9.72432 0.00179948 -0.00741426 -0.0114124
272 1 1.73279 22.2413 7.80597 11.3953 -0.00674369 0.00982341 0.00522393
273 1 1.57506 17.1207 2.70055 16.8899 0.00339531 -0.00136124 0.00117044
274 1 1.72324 18.893 4.47034 18.8936 0.000960877 -0.00680723 0.00960009
275 1 1.84684 16.9552 6.25832 20.4246 -0.00239877 -0.00171561 -0.0085442
276 1 1.94444 18.6456 8.02522 22.1188 -0.00342794 -0.00656928 0.00447394
277 1 1.72522 20.5871 31.0072 20.5863 -0.0058512 -0.000516182 -0.00689735
278 1 1.73457 22.2239 4.3133 22.3516 -0.00330295 0.00382337 -0.00178851
279 1 1.52921 20.2688 6.31688 16.8145 -0.00661263 -0.00179348 -0.0067985
280 1 1.37067 22.1328 7.75016 18.6699 0.00139189 0.00781844 -0.00462519
281 1 1.72719 17.0762 2.64794 23.8027 0.00765688 -0.00874783 0.004753
282 1 1.55606 18.7664 4.56094 25.5277 0.00633702 0.0133841 -0.000714191
283 1 1.61352 16.9023 6.17275 27.5998 0.0092559 -0.0091764 0.0109264
284 1 1.55081 18.6779 7.92178 29.4329 -0.000832948 0.00255056 -0.00200421
285 1 1.65477 20.4182 2.9455 27.4687 -0.0129403 -0.000597088 -0.00182231
286 1 1.76794 22.4893 4.27546 29.3797 -0.00869181 0.0166524 -0.00708499
287 1 1.77706 20.497 6.29263 23.8463 0.00333761 -0.00116758 2.70155e-06
288 1 1.58568 22.2084 7.86713 25.8393 -0.000510562 0.00941568 -0.00216454
289 1 1.55494 16.6602 9.61827 2.88357 0.00647128 0.00786718 0.00550427
290 1 1.77541 18.6092 11.3862 4.51182 0.00930456 -0.0156345 0.00214126
291 1 1.41357 16.9428 13.3641 6.39613 0.00583968 0.00863596 0.00215132
292 1 1.45501 18.8537 15.0976 8.28122 -0.0196826 -0.00758726 -0.00940586
293 1 1.65065 20.3959 9.90385 6.50544 0.00389681 0.00769784 0.00951389
294 1 1.68914 22.3228 11.5383 8.15853 0.00898535 0.00780885 -0.00539573
295 1 1.65932 20.3745 13.1705 2.8668 -0.0020579 -0.00568404 0.00114954
296 1 1.60277 22.1449 15.0033 4.50555 0.000205947 0.00202644 0.00742448
297 1 1.59445 17.0375 9.70646 9.88642 -0.0134224 -0.000438483 -0.0067469
298 1 1.53061 18.6895 11.5519 11.7036 -0.0134164 0.000860415 -0.000325926
299 1 1.81735 16.9504 13.3929 13.4664 -0.00323063 -0.00320592 -0.00796607
300 1 1.72076 18.6609 15.2845 15.2383 0.00858969 0.00457328 -0.00475359
301 1 1.47905 20.4711 9.56421 13.4096 0.00213507 -0.00183467 0.0108419
302 1 1.48902 22.1908 11.4742 15.2311 0.00546789 0.00686937 0.00764993
303 1 1.62749 20.6259 13.3448 10.1018 0.00405615 -0.00315615 -0.00175879
304 1 1.65571 22.3153 15.1239 11.8363 0.00216093 0.0099447 0.00513067
305 1 1.47385 16.4334 9.69719 16.7524 -0.00268111 0.00339405 0.00473095
306 1 1.52808 18.468 11.395 18.4674 -0.00270955 0.00701192 0.000884221
307 1 1.68211 17.1114 13.4483 20.2926 0.000707603 0.0097842 -0.0115869
308 1 1.51963 18.4609 15.3943 22.1679 -0.0051394 0.00806409 0.00126283
309 1 1.58027 20.4614 9.74819 20.4122 0.000727286 -0.0067785 -0.00344768
310 1 1.25466 22.1748 11.2967 22.5973 0.00205164 0.00732425 0.00122907
311 1 1.63504 20.3211 13.2916 16.8071 0.00304536 0.00882669 0.0104925
312 1 1.30851 21.9755 15.0411 18.7595 -0.00519881 -0.00172051 -0.00638469
313 1 1.69554 17.2194 9.84006 24.0274 0.00735812 -0.00440457 -0.0058363
314 1 1.78969 18.7997 11.7236 25.7225 0.00370066 0.00414072 0.000232283
315 1 1.49546 16.7694 13.1751 27.4826 -0.000998947 -0.00913721 -0.000380293
316 1 1.29427 18.7204 15.1492 29.3924 0.00590073 -0.00157577 0.00191099
317 1 1.73314 20.4374 9.82676 27.6024 0.00107553 -0.00239558 -0.000785271
318 1 1.70643 22.1597 11.5485 29.3745 0.000576909 -0.00269117 0.00115298
319 1 1.53801 20.3809 13.5904 23.7542 0.000404791 -0.00647677 0.00573792
320 1 1.46667 22.1572 15.1646 25.6703 0.00298072 -0.00162625 0.00372695
321 1 1.6252 16.4082 16.8161 31.0295 0.000416831 0.00104235 -0.00586989
322 1 1.68365 18.5391 18.4319 4.09177 -0.000817036 -0.00310675 0.00525576
323 1 1.77137 17.1228 20.3045 5.94899 -0.00103317 0.00230708 -0.00737963
324 1 1.69764 18.5764 22.0466 7.92847 0.00112642 -0.00275706 0.00110169
325 1 1.58229 20.1726 16.7083 6.04172 -0.012882 0.00500984 -0.00137814
326 1 1.70282 21.9077 18.547 7.79654 -0.00278927 -0.00490667 0.00208434
327 1 1.75983 20.4187 20.2466 30.8983 0.0101243 -0.00427864 0.00206507
328 1 1.66427 21.9885 22.1525 4.26626 0.00697231 0.00904131 0.0026452
329 1 1.44349 16.9402 17.0788 9.8266 0.00748663 0.00586258 -0.00185351
330 1 1.71335 18.7005 18.6821 11.733 0.00205666 -0.003867 0.000669655
331 1 1.63632 16.7706 20.4576 13.3431 -0.0070732 -0.00380261 0.000493489
332 1 1.66935 18.3933 22.4589 15.0063 -0.00670303 0.00673565 0.00580547
333 1 1.7196 20.5859 17.0071 13.533 -0.00290883 0.00558658 -0.0061288
334 1 1.70479 22.0545 18.9518 15.3255 0.00553233 -0.0022498 -0.000386679
335 1 1.52326 20.2754 20.3716 9.87314 -0.00111809 0.00981724 0.00305028
336 1 1.46982 22.033 22.1004 11.586 -0.00622979 -0.0082399 0.00466408
337 1 1.88127 16.8827 16.8791 17.0463 -0.00434462 -0.00633304 0.00164451
338 1 1.85507 18.4427 18.8896 18.6609 -0.00402037 0.00683454 -0.00649151
339 1 1.5122 16.6959 20.2022 20.8192 -0.00845818 -0.00313879 0.0036786
340 1 1.27891 18.8384 22.1956 22.2583 0.00235361 0.00681663 -0.00848992
341 1 1.58113 20.3205 17.186 20.3778 -0.00626415 0.00566808 2.82419e-05
342 1 1.84644 22.4194 18.7221 22.0184 0.00149636 0.00179358 0.00273753
343 1 1.59486 20.1208 20.7557 16.8283 0.00136321 0.0105708 -0.0023695
344 1 1.41043 22.0671 22.376 18.8335 0.000903829 -0.0110251 -0.000134891
345 1 1.86841 16.6649 16.8661 24.2771 -0.00355626 3.16455e-06 0.00384986
346 1 1.63053 18.9003 18.6223 25.5238 0.00841771 0.00494755 -0.0093003
347 1 1.85046 17.0714 20.2668 27.4288 0.00706292 -0.00883907 -0.00107126
348 1 1.77962 18.7375 22.0648 29.148 0.000281033 0.000150508 -0.00152206
349 1 1.62351 20.5591 16.9928 27.478 -0.00159452 -0.00547691 -0.00312686
350 1 1.66897 22.4611 18.5389 29.32 0.0112093 0.00621963 0.000189363
351 1 1.52741 20.7114 20.433 23.8325 -0.00243215 -0.00362429 0.00424827
352 1 1.68423 22.2122 22.157 25.8315 -0.000517053 -0.000366293 -0.000320048
353 1 1.68204 17.1175 24.0068 30.835 0.00705195 0.00525656 -0.00151358
354 1 1.68552 18.6523 25.6695 4.30121 7.27145e-05 -0.000684986 -0.00612635
355 1 1.57288 16.5969 27.3071 5.70853 -0.00631507 -0.00283343 -0.0039666
356 1 1.32519 18.5404 29.0253 7.35893 0.00318632 0.00134721 0.0018147
357 1 1.5002 20.3519 24.0166 6.22002 -0.00646077 -0.00169749 0.00236556
358 1 1.64064 22.1661 25.9178 7.82263 0.0028421 0.000190737 0.0135278
359 1 1.61216 20.311 27.3971 30.8855 0.00465811 0.00143278 0.000324801
360 1 1.68577 22.1661 29.0188 4.192 0.00376307 0.00969247 0.00229395
361 1 1.69159 16.8109 23.8933 9.73991 0.00496909 -0.00539933 0.00703806
362 1 1.58332 18.4229 25.9216 11.4517 0.00393925 -0.00780879 -0.00566395
363 1 1.63061 16.9445 27.4567 13.7952 0.00993928 0.00283102 0.00307704
364 1 1.66173 18.9324 29.3555 15.2147 -0.00179627 -0.00209086 0.00934083
365 1 1.50353 20.2852 24.2921 13.2914 0.00666022 0.000383599 -0.00315528
366 1 1.51372 22.2661 26.0995 15.1118 0.0101563 -0.00442885 -0.00689307
367 1 1.3152 20.3439 27.6644 9.63217 0.00515359 -0.000324363 -0.00445442
368 1 1.64894 22.457 29.3963 11.5556 0.00548475 0.00497563 -0.00819432
369 1 1.61425 16.7757 24.018 16.9565 -0.00118138 0.00549865 0.00329661
370 1 1.83244 18.626 25.8822 18.547 0.00219247 0.00673409 -0.00105498
371 1 1.83212 17.0699 27.4831 20.467 0.00400841 0.00181445 -0.0106091
372 1 1.72086 18.783 29.1402 22.272 -0.0111038 -0.00738052 0.00262167
373 1 1.5277 20.3317 24.3245 20.6009 0.00642782 -0.0035488 0.00460158
374 1 1.65491 22.1996 26.1051 22.1798 0.00268387 -0.00353516 0.00245807
375 1 1.67905 20.591 27.706 17.0739 0.00301127 -0.011361 0.00632851
376 1 1.65616 22.3304 29.431 18.7467 -0.00305086 0.00415357 -0.00336015
377 1 1.44472 17.0453 23.8464 24.0899 -0.00310001 0.00332108 0.00948829
378 1 1.61264 18.9628 25.5624 25.9501 0.0118748 0.00256411 0.00292484
379 1 1.42955 17.0276 27.4747 27.4496 0.00213721 0.00033443 0.00544086
380 1 1.40773 18.682 29.5448 29.1965 -0.00466751 -0.00199272 -0.00251341
381 1 1.5438 20.6367 23.8564 27.7743 -0.00626436 -0.00207497 -0.00350444
382 1 1.6127 22.4411 25.6865 29.5432 -0.00329806 0.0145584 -0.00293916
383 1 1.83492 20.5322 27.6589 24.2008 -0.00374896 0.00581296 -0.00149595
384 1 1.79888 22.2109 29.5018 25.7935 -0.00902252 0.00263006 0.00899471
385 1 1.60916 24.0901 30.8193 2.68551 -0.00529414 0.00466858 -0.00286421
386 1 1.626 25.6513 4.27801 4.58437 -0.0131888 0.00216619 -0.00816601
387 1 1.53276 23.721 6.08274 6.4586 0.0144772 0.0104704 -0.00504566
388 1 1.62069 25.8318 7.95912 8.00732 0.0128731 -0.00865142 -0.0048131
389 1 1.52541 27.7945 2.60458 6.2255 0.00792945 -0.00991812 0.0091246
390 1 1.71097 29.2161 4.45525 8.20287 -0.0100301 0.00646916 -0.0132552
391 1 1.68119 27.4166 6.15867 31.0201 0.00269669 -0.00253406 -0.0019718
392 1 1.51487 29.3344 7.77416 4.51762 -0.00519264 -0.00408326 0.0078598
393 1 1.78182 24.0438 31.0272 9.50144 0.00501334 -0.00939815 -0.00357847
394 1 1.78281 25.5457 4.54259 11.379 -0.0030586 -0.00105237 0.00146958
395 1 1.70191 23.9714 6.25133 13.2698 0.00344584 -0.00386312 0.00177852
396 1 1.63344 25.7314 8.06869 15.0851 0.000462388 -0.000310598 -0.00247582
397 1 1.53146 27.3919 2.84114 13.0447 0.00493726 -0.00456253 0.00121011
398 1 1.42734 29.3807 4.5415 14.9481 0.00710417 -0.00221944 0.0011672
399 1 1.79582 27.6008 6.3594 10.0212 -0.00110556 -0.00528973 0.000885408
400 1 1.65461 29.4715 8.02266 11.7242 0.00387469 0.00307298 -0.0029084
401 1 1.75904 23.7973 3.0819 17.0889 0.00380296 3.51144e-05 -0.00651105
402 1 1.65765 25.7289 4.65152 18.7604 -0.0202194 -0.000932066 0.00141676
403 1 1.53846 23.9115 6.22428 20.7562 0.00469641 -0.00585165 -0.00964752
404 1 1.63146 25.7741 8.05475 22.2145 -0.013612 -0.00399782 -0.00519825
405 1 1.73475 27.5059 2.78941 20.4323 0.0121611 -0.00211745 0.0033777
406 1 1.65343 29.2813 4.43338 22.2518 0.00237569 0.00721171 -0.000375316
407 1 1.53412 27.6639 6.32866 16.9147 -0.0093359 -0.000583679 -0.00405126
408 1 1.70724 29.6404 7.95346 18.6541 -0.00103862 0.000957503 -0.00596501
409 1 1.55092 24.1973 2.65221 24.0528 0.00183966 -0.00867707 -0.00202172
410 1 1.62441 26.019 4.50307 25.8742 0.0053338 -0.00525884 -0.000646573
411 1 1.67417 24.038 6.1239 27.5319 0.00316109 0.00222503 -0.00436731
412 1 1.7699 25.8089 7.96219 29.189 -0.00359863 -0.00379559 -0.00939275
413 1 1.73716 27.7035 30.9904 27.6751 -0.00691892 0.00487702 -0.0057628
414 1 1.58725 29.3711 4.42794 29.4231 -0.00644928 0.000529911 -0.00148412
415 1 1.62683 27.65 6.3485 23.987 -0.0056035 -0.00515229 0.00355673
416 1 1.63421 29.4103 8.35604 25.4528 0.00207914 0.0106806 0.0112075
417 1 1.45074 24.0558 9.66815 30.9844 0.000260592 0.0172869 0.00474342
418 1 1.48803 25.791 11.5489 4.23523 0.00367711 0.00914766 -0.00246718
419 1 1.53764 24.2023 13.3107 6.25234 0.000391815 -0.000292664 -0.00169968
420 1 1.60126 25.815 15.2392 8.06787 0.000974315 0.00588573 0.00942501
421 1 1.41387 27.5857 9.89517 6.17614 0.00182742 0.00247077 -0.00442282
422 1 1.50384 29.2901 11.6629 7.95101 -0.00322748 -0.00184456 -0.0041158
423 1 1.53788 27.4108 13.2823 30.6297 0.000344913 0.00290815 -0.000356794
424 1 1.45803 29.3837 15.0327 4.22724 -0.0062195 0.00456617 -0.00098568
425 1 1.71514 23.9815 9.61655 9.77388 -0.00732818 0.00280728 0.00229118
426 1 1.69684 25.6865 11.5249 11.5736 -0.00150166 -0.00286839 0.00629327
427 1 1.56273 24.1006 13.2936 13.4705 -0.00381813 0.00790373 -0.00384748
428 1 1.22095 25.6648 15.4412 15.6291 0.00881282 -0.00436472 -0.00484955
429 1 1.69002 27.4495 9.80711 13.3563 0.0080671 0.00384951 0.00353085
430 1 1.69535 29.3666 11.29 15.2797 -0.00230003 0.00953341 -0.0033003
431 1 1.67892 27.3286 13.4563 10.0014 0.00718662 0.00353633 -0.00896214
432 1 1.72626 29.2152 15.1028 11.6648 0.005129 -0.00101064 -0.0116488
433 1 1.62533 23.8808 9.76593 17.1047 0.0079473 0.000500716 0.0133908
434 1 1.44667 26.0355 11.374 18.6895 -0.00454651 -0.00431829 0.0108835
435 1 1.57546 24.0852 13.2194 20.3826 -0.000743828 0.00194188 -0.00852789
436 1 1.86359 25.8351 14.9827 22.1285 0.00178203 -0.00429495 -0.00355556
437 1 1.63519 27.8759 9.57002 20.5503 -0.00613659 0.00445196 -0.000646782
438 1 1.64712 29.3582 11.4704 22.4561 0.00456409 -0.00234888 -0.00183299
439 1 1.59319 27.765 13.1463 17.076 -0.00434208 0.00267037 -0.00578895
440 1 1.70202 29.2542 15.1175 18.77 -0.00470778 -0.00137785 0.00918886
441 1 1.71989 24.1462 9.56256 24.1607 0.00241566 -0.00160619 -0.00916039
442 1 1.92182 25.5305 11.4346 26.0369 0.00668265 0.00440716 -0.00473646
443 1 1.75987 23.8823 13.4097 27.5782 0.000471733 -0.0104348 0.00191781
444 1 1.89153 25.6011 15.1597 29.2779 -0.00690762 -0.00524509 -0.0040953
445 1 1.71135 27.5759 9.82339 27.4872 0.00355131 0.00329972 -0.00794953
446 1 1.61652 29.3857 11.3841 29.3072 0.000199603 -0.0026617 -0.000651152
447 1 1.57239 27.3236 13.0994 24.0608 0.00325835 0.00119045 0.00739246
448 1 1.6821 29.2935 14.9394 25.5661 -0.00710027 7.82111e-05 -0.00181087
449 1 1.61075 23.9349 16.7671 2.85111 -0.00686269 -0.00188455 0.000529417
450 1 1.51528 25.824 18.6746 4.50322 0.000763799 0.0070568 -0.0081213
451 1 1.63338 23.7672 20.3571 6.16294 0.0105898 -0.000612459 0.00462383
452 1 1.40881 25.5298 22.2504 7.74531 0.00640201 0.00473343 -0.00686891
453 1 1.45968 27.7141 16.7664 6.15403 0.0118365 0.00368419 -0.000242094
454 1 1.67069 29.4831 18.696 7.87132 -0.00338811 0.000794319 -0.00222648
455 1 1.71934 27.5252 20.4952 2.57146 -0.00710493 -0.00231586 -0.00184513
456 1 1.60245 29.2725 22.2583 4.40028 -0.0140699 -0.000274991 -0.00566761
457 1 1.55364 23.5691 16.7443 9.58323 -9.90931e-05 -0.00491923 0.0118475
458 1 1.315 25.4968 18.5375 11.4108 -0.0048097 -0.000247648 0.012863
459 1 1.3756 23.9261 20.4249 13.2993 0.00416901 -0.00649144 -0.0065508
460 1 1.65684 25.8095 22.2429 15.0606 0.0029325 0.00298549 -0.00852033
461 1 1.53373 27.3687 16.9739 13.2764 0.00529141 -0.00560125 0.00393011
462 1 1.57887 29.2412 18.8436 14.8896 0.000251116 -0.00773555 0.0015585
463 1 1.43289 27.4948 20.1579 9.59282 0.0068927 0.00123729 -0.015112
464 1 1.48488 29.1379 22.1176 11.5976 -0.00511355 -0.0111492 3.30864e-05
465 1 1.53755 23.6222 17.1394 17.1182 -0.00895731 0.00151729 -0.00609856
466 1 1.64451 25.7236 18.7274 18.7747 -0.00662751 -0.00447885 0.00187846
467 1 1.35573 24.2654 20.6776 20.6462 -0.00349092 0.00742544 0.000306212
468 1 1.29112 26.0262 22.4783 22.4283 -0.00932482 0.00301088 -0.00011766
469 1 1.80574 27.5499 16.8624 20.4809 -0.00269345 -0.00276381 -0.00250573
470 1 1.78199 29.6133 18.6388 21.9177 -0.00523587 0.00445154 0.0041413
471 1 1.59665 27.3703 20.2362 16.7698 0.00778895 0.00580132 -0.00255481
472 1 1.43637 29.24 22.134 18.2456 -0.00249944 -0.0109222 -0.00305258
473 1 1.67488 24.1263 16.8893 23.8195 -0.00446691 0.000923002 -0.00540072
474 1 1.55036 26.0658 18.5435 25.5439 -0.00269755 0.00612479 -0.00418887
475 1 1.65041 24.2033 20.2102 27.3145 -0.00175808 0.000779604 0.00125525
476 1 1.75995 25.7791 22.0574 29.0946 0.0122557 -0.00173396 -0.00543923
477 1 1.37803 27.8152 16.5251 27.6927 0.00147451 0.0126041 0.0124263
478 1 1.20056 29.4123 18.8827 29.2 -0.00065457 -0.000683668 -0.0055736
479 1 1.61094 27.9538 20.2915 23.8271 -0.00480487 -0.00185088 -0.00488697
480 1 1.62707 29.307 22.52 25.5146 -0.0105211 0.00349088 -0.00212497
481 1 1.59768 23.96 23.7064 2.62422 0.00374747 0.00855769 -0.00265472
482 1 1.71951 25.7681 25.3981 4.2981 -0.00436423 0.00235459 -0.0026636
483 1 1.48144 24.07 27.3929 6.06876 0.00163111 0.00839378 -0.00953353
484 1 1.60562 25.9115 29.1657 7.97287 0.00566649 -0.000358277 0.00613742
485 1 1.59511 27.666 24.0658 6.30521 0.000648491 0.00105316 0.00646661
486 1 1.66227 29.7447 25.6611 7.92725 -0.00657881 -0.00703504 0.00586529
487 1 1.68108 27.5094 27.2099 31.0134 0.00545526 -0.00987684 0.000959736
488 1 1.60463 29.2997 28.9403 4.20372 0.0110108 0.00422762 -0.00141358
489 1 1.33538 23.7027 24.2289 9.89372 0.00403944 -0.00182311 -0.00290587
490 1 1.47614 25.768 25.9053 11.7472 -0.00551599 -0.000251644 -0.000380911
491 1 1.68021 24.1222 27.8517 13.4953 0.00803831 -0.00156496 0.00789662
492 1 1.61231 25.6915 29.7816 15.2528 0.000956286 0.00741205 0.000267372
493 1 1.53174 27.5628 24.0876 13.4435 0.00878058 0.000296322 0.000354532
494 1 1.76387 29.3009 26.0154 15.0612 -0.000301597 -0.00161791 -0.00135233
495 1 1.48713 27.7679 27.3435 9.46979 0.00985698 -0.00623076 0.00603552
496 1 1.66745 29.3158 29.4253 11.3507 -0.00961603 -0.00656141 -0.00333038
497 1 1.44725 23.7901 23.86 16.7237 0.00573474 -0.000556336 -0.00351103
498 1 1.58769 25.7468 25.7595 18.5267 -0.00856358 0.00252702 -0.000540079
499 1 1.61028 24.1052 27.6426 20.3744 0.00947139 0.00175735 -0.00382441
500 1 1.86321 25.9123 29.4006 22.096 0.00501751 -0.00441891 -0.00741694
501 1 1.509 27.7888 24.1469 20.1839 0.0100453 -0.00701995 -0.0118565
502 1 1.62808 29.4329 25.9491 21.9128 -0.0066802 0.00395424 0.00129252
503 1 1.66057 27.3487 27.7327 16.7638 -0.00183076 -0.00712282 -0.00985543
504 1 1.80456 29.1955 29.4325 18.4946 -0.00110262 -0.00466266 0.00696528
505 1 1.37005 23.6654 24.2595 24.1934 -0.00128066 -0.00150518 -0.00789481
506 1 1.63059 25.7182 25.9442 25.9287 0.00986517 0.00426193 -0.00710945
507 1 1.66886 23.925 27.6392 27.6086 0.0109545 -0.00552296 -0.00716794
508 1 1.79261 25.966 29.1436 29.3155 0.00154136 -0.00162243 -0.00521526
509 1 1.80355 27.453 23.9899 27.3872 0.00127381 -0.0023886 0.00376746
510 1 1.17738 29.5054 26.095 29.0857 -0.0130481 0.0130551 0.00773537
511 1 1.67788 27.6801 27.591 23.6756 0.00817759 0.0133182 0.001938
512 1 1.61992 29.4168 29.4765 25.5927 0.00688039 0.00882042 0.00567096
513 2 -0.835688 3.64555 3.28034 3.86166 0.00470367 -0.00755498 0.000778288
514 2 -0.845448 3.51104 30.6336 29.9749 -0.00147499 0.000993924 2.43066e-05
515 2 -0.814381 30.3989 3.75988 30.5463 0.0171053 -0.00801794 -0.00651154
516 2 -0.812898 29.9633 30.0535 3.20701 0.00277657 -0.00534579 -0.000580913
517 2 -0.925788 3.51571 5.08581 5.34475 -0.00099994 -0.00232828 -0.00377814
518 2 -0.880659 5.60994 3.51473 5.45181 0.00570929 0.00197974 0.00739962
519 2 -0.74619 5.54474 4.82666 3.4718 0.00663623 0.00883996 -0.00405647
520 2 -0.84067 3.3128 7.14431 6.96508 -0.0193973 0.00249455 0.00950854
521 2 -0.938706 30.1844 5.10667 7.26441 0.00593038 0.00973424 -0.00768853
522 2 -0.928764 30.1167 6.65423 5.23091 -0.00615103 0.000598906 0.00275428
523 2 -0.919079 5.10642 7.20546 8.89452 -0.00214499 0.00622439 0.00201243
524 2 -0.876874 5.03513 8.88969 6.83411 -4.04273e-06 0.00894682 -0.00228529
525 2 -0.835122 3.36061 8.9236 8.67163 -0.00869829 0.00209078 0.0113222
526 2 -0.834337 7.35875 3.16969 7.17815 -0.0128763 -2.65031e-05 -0.00243178
527 2 -0.863714 5.3891 30.0287 6.74788 -6.68242e-05 -0.000629993 -0.00146157
528 2 -0.877942 7.37645 29.756 5.31671 -0.0138259 -0.00544636 0.000244275
529 2 -0.952613 7.12646 5.27079 8.72939 0.00772344 -0.0055997 0.00283128
530 2 -0.860481 8.97556 4.94844 7.10825 0.00758564 -0.011568 0.0058362
531 2 -0.784776 8.98568 3.35661 9.05904 -0.00369797 -0.000346313 0.00198785
532 2 -0.786904 7.29886 7.08437 3.41875 -0.00528615 -0.00608721 0.0109174
533 2 -0.700904 5.22984 7.02464 29.7943 0.00516623 -0.00274806 -0.00984969
534 2 -0.728903 7.4357 5.28044 30.4318 0.0183181 0.00367121 -0.00411747
535 2 -0.814338 7.05881 9.07672 5.27665 -0.00206274 -0.00846881 0.0131817
536 2 -0.785507 8.49916 6.99713 5.70061 0.00448135 0.0184944 -0.00132572
537 2 -0.893257 8.96517 8.79571 3.74797 -0.00671859 0.00764137 -0.00767471
538 2 -0.760457 3.94113 2.57884 9.60271 -0.0161934 -0.0119944 -0.00138913
539 2 -0.76488 3.00499 29.7047 7.8317 0.00301313 0.00234903 -0.0110882
540 2 -0.845532 30.2648 3.40629 8.79114 -0.00836021 -0.0142201 -0.00760001
541 2 -0.883487 30.3 30.0812 10.4772 -0.011587 -0.0102228 0.0157582
542 2 -0.842126 4.03594 6.32699 12.7558 -0.00318252 0.00080513 -0.00554902
543 2 -0.819656 5.04376 4.22867 12.6358 0.00355466 -0.00743938 -0.0038077
544 2 -0.798205 6.08681 5.80469 10.8018 -0.0112723 -0.00569548 -0.00842724
545 2 -0.767492 3.28889 7.19633 14.8693 0.0168032 0.00468357 0.0159442
546 2 -0.756955 30.6578 5.26483 14.3114 0.0040429 0.0101966 0.00842785
547 2 -0.897209 30.0035 6.95338 12.7903 -0.00359747 -0.00199433 -0.00232029
548 2 -0.876363 5.62432 7.26011 15.8808 0.00155983 -0.00745004 0.00585985
549 2 -0.79544 5.43747 8.71451 13.9416 -0.00151368 -0.0110498 0.0157371
550 2 -0.93233 4.06668 9.24679 16.1672 0.0150731 0.0042736 -0.00204094
551 2 -0.767076 7.16545 3.75486 13.7693 0.0115728 0.0102629 -0.0080188
552 2 -0.707964 5.17337 30.478 13.9786 0.00640271 0.00864159 0.0117419
553 2 -0.771132 6.34241 30.7013 11.6884 0.00263443 0.0152628 0.00336078
554 2 -0.792185 7.0545 5.14129 16.3954 -0.00257649 -0.00967432 0.012949
555 2 -0.711151 8.90623 5.42993 14.5104 -0.00923436 0.00494601 -0.00605649
556 2 -0.712773 9.02277 3.35874 15.8569 -0.00344485 0.00386092 -0.00278116
557 2 -0.763011 7.4618 7.5033 9.83823 0.00218101 -0.00134839 0.00431915
558 2 -0.671373 6.98248 8.72324 11.9992 0.00332064 -0.0145686 -0.00139521
559 2 -0.81696 9.09863 7.10551 12.0578 -0.00339683 -0.0110443 0.00960804
560 2 -0.859215 9.14334 9.1492 10.7091 0.000463243 -0.00648316 0.00971651
561 2 -0.886771 3.75747 3.26477 17.6339 0.0175839 0.00291667 -0.0129816
562 2 -0.879323 3.30634 30.0143 15.8692 -0.0110307 0.00671527 0.0183647
563 2 -0.759145 30.0893 3.47493 15.9107 -0.00989326 0.00243344 -0.00887875
564 2 -0.889814 30.1074 30.3623 17.6982 -0.00323694 -0.00112606 -0.00648125
565 2 -0.89393 3.23366 4.70291 19.6683 0.00838281 -0.00685744 -0.00674525
566 2 -0.889034 5.57626 3.4517 19.2559 -0.000484333 -0.00295952 0.00788368
567 2 -0.859938 5.00529 5.3309 17.6518 -0.00792099 0.000779354 -0.000779568
568 2 -0.873747 3.53655 6.66891 21.3083 0.000162265 0.000672401 0.00329023
569 2 -0.833428 29.8808 5.25868 21.1325 -0.000753629 0.0105608 -0.00902758
570 2 -0.835919 30.3224 6.64357 19.3134 4.75733e-05 -0.00815171 -0.00684214
571 2 -0.750535 5.68719 7.19398 22.9524 -0.000860659 0.00676502 0.00546674
572 2 -0.838688 5.35433 8.63526 20.9466 0.00925516 -0.0104082 -0.00899216
573 2 -0.834223 3.57185 8.79148 22.933 0.0114259 -0.00227877 0.00469099
574 2 -0.835669 6.89359 3.71778 21.6263 -0.00871897 0.00793111 -0.0113954
575 2 -0.825714 5.15623 30.6266 21.4089 -0.0041414 -0.00110525 0.00635966
576 2 -0.860882 7.39206 30.4434 19.8052 -0.00306849 0.0111351 -0.0029317
577 2 -0.841575 7.36245 5.3263 23.768 0.00265758 -0.00430175 0.00295019
578 2 -0.810259 8.84501 5.3758 21.4571 0.00102019 -0.0017403 0.0131051
579 2 -0.720875 8.97072 3.51777 22.9626 -0.00260581 0.0072879 0.00443619
580 2 -0.840813 6.91081 6.99859 17.836 0.00472171 0.00217051 -0.0167546
581 2 -0.825337 7.24035 8.93191 19.3482 0.000662166 0.00427316 -0.00497614
582 2 -0.852143 8.81679 6.87136 19.3419 0.0060085 -0.0126973 0.0100755
583 2 -0.895266 8.88896 8.7778 17.6004 -0.013158 -0.00579746 -0.00984695
584 2 -0.73332 4.0967 3.3705 24.8065 -0.00482695 -0.0148638 0.00996399
585 2 -0.818532 3.42532 30.1054 23.3272 -0.0123967 -0.0118879 -0.00394421
586 2 -0.885133 30.6056 3.80999 23.0499 5.45455e-05 0.00128815 0.00699166
587 2 -0.862769 30.1761 30.598 24.8107 -0.00869133 0.00469907 -0.00106045
588 2 -0.839185 3.14493 5.28787 26.2449 0.00582609 -0.00468136 0.00225963
589 2 -0.808984 5.62049 4.06271 26.7657 -0.00383628 -0.0129961 -0.00221043
590 2 -0.875006 5.14136 5.45433 24.7327 -0.0195969 0.000350102 0.00525354
591 2 -0.615602 3.43269 6.89368 28.0532 -3.76416e-06 -0.00978899 -0.00713962
592 2 -0.928166 29.887 5.23989 28.2363 0.00284796 -0.00697028 0.0104712
593 2 -0.833577 30.0964 7.20917 26.3832 0.0115829 0.00628195 0.00294341
594 2 -0.873946 3.18879 8.70677 30.1528 -0.00473084 -0.00524604 0.00968369
595 2 -0.665946 5.02466 8.83387 27.9125 -0.00566161 -0.00868115 -0.0114264
596 2 -0.839673 7.14346 3.53166 28.6481 -0.00796482 0.00395051 -0.0135479
597 2 -0.786077 5.34475 30.5857 27.9784 -0.00282006 0.00219548 0.0134752
598 2 -0.876608 7.50982 30.6325 26.4394 -0.00254278 0.00470194 0.000823597
599 2 -0.873442 8.89351 3.56482 30.5582 -0.00278556 -0.00837059 0.00113218
600 2 -0.95665 9.13022 4.86127 28.3141 -0.00563356 -0.00783961 -0.00177105
601 2 -0.931675 6.9111 7.1494 25.1331 0.00274382 -0.00237305 -0.00599193
602 2 -0.826999 7.58216 8.85792 26.6917 0.0033097 0.00426558 -0.0165045
603 2 -0.948723 8.64633 6.67966 26.7346 0.00931948 -0.0125391 -0.00216181
604 2 -0.808315 9.36766 8.41796 25.0205 0.0173295 -0.00233085 -0.00259794
605 2 -0.968314 3.53361 10.4624 3.72597 0.0120502 -0.0175787 0.00410433
606 2 -0.784881 30.166 8.75146 3.56642 -0.000459053 -0.00846926 0.000261923
607 2 -0.840952 30.3408 10.6606 30.4556 -0.0143997 0.000913875 -0.0085933
608 2 -0.812587 3.6131 12.3029 5.48195 0.00539605 0.00247259 -0.00238512
609 2 -0.83579 5.3043 10.73 5.10175 -0.0022441 -0.0163714 0.00376352
610 2 -0.821483 5.18369 12.7189 3.62302 -0.00158398 0.00143366 -0.00462718
611 2 -0.868969 3.58168 14.202 7.0524 -0.00494059 -0.00559464 -0.0136602
612 2 -0.823355 29.9969 12.8275 7.17908 0.00613249 -0.00178803 -0.00684054
613 2 -0.80474 30.4826 14.0642 5.01443 0.00823649 -0.0047427 0.00134523
614 2 -0.87995 4.89439 14.1232 8.9893 0.00032444 -0.00506806 0.00231792
615 2 -0.846144 5.50522 15.8004 7.15663 0.00896914 0.010531 -0.000488641
616 2 -0.910428 3.42983 15.9041 8.97439 -0.0097146 0.00373342 0.00383283
617 2 -0.745298 6.64266 10.8885 7.23316 0.00607002 0.00323407 -0.0080961
618 2 -0.859213 7.1334 12.6431 9.17931 0.00423219 0.00551012 0.00129187
619 2 -0.876637 8.36541 12.4575 6.82392 -0.00550277 -0.000514252 -0.00255933
620 2 -0.804545 8.60658 10.8168 8.87967 0.00947624 -0.00398137 0.00101169
621 2 -0.826347 6.86829 14.3463 3.86087 0.00619141 0.0175485 -0.0131763
622 2 -0.854597 5.25326 14.1141 30.0896 0.000516024 0.00291651 0.00585231
623 2 -0.832596 7.09273 12.2939 30.4527 -0.00266017 0.00699458 0.000627708
624 2 -0.783584 7.177 16.4317 5.42359 -0.00606361 0.00446866 0.00588388
625 2 -0.866333 9.00201 14.3812 5.29476 0.00785147 0.00398701 -0.00722526
626 2 -0.798823 8.85052 15.9325 3.50704 0.00185126 -0.00533885 -0.00255571
627 2 -0.718927 3.8157 10.6431 10.1708 0.00851611 0.00665044 0.00670737
628 2 -0.842648 30.379 8.95153 10.9944 -0.00556796 0.00414099 0.00106237
629 2 -0.827159 30.3045 10.8324 8.75768 -0.00380337 -0.00406351 0.00327063
630 2 -0.840826 3.13022 11.885 12.355 -0.0092461 -0.00174645 0.00200773
631 2 -0.838181 5.06939 10.3599 12.1305 -0.000840029 -0.0126986 0.00487186
632 2 -0.86175 5.1867 12.5938 10.9202 -0.00632602 0.014835 0.00828082
633 2 -0.848109 3.55242 13.901 14.134 0.0196125 0.00825165 0.00587671
634 2 -0.777788 30.107 12.0702 14.0559 -0.0110333 -0.000265356 0.00411539
635 2 -0.882887 30.2088 14.0677 12.2513 0.00383256 0.0035017 -0.0123867
636 2 -0.686389 5.53484 14.2537 16.0922 -0.00255611 0.013863 -0.00847945
637 2 -0.833615 5.02255 15.7647 14.0588 0.00627656 -0.00121683 -0.0132349
638 2 -0.645243 3.27856 16.1004 15.817 -0.0278259 -0.00962322 0.00647062
639 2 -0.840044 7.50647 10.5808 14.1438 -4.36046e-06 0.00523547 -0.00568106
640 2 -0.84125 7.04701 12.3645 15.8456 0.00119496 0.0101296 -0.0010837
641 2 -0.862753 8.84422 12.3369 14.2357 -0.00851092 -0.00695194 0.00138184
642 2 -1.00166 8.93298 10.6967 16.2367 -0.0037623 -0.00197277 0.0111267
643 2 -0.864188 6.81494 14.6148 10.4445 -0.00422467 -0.00881041 -0.00297505
644 2 -0.886523 7.24849 16.0272 12.5868 0.014342 0.00350506 -0.00276806
645 2 -0.82976 8.72818 14.0272 12.1273 0.00963261 0.00219795 0.0185383
646 2 -0.813684 8.78741 16.0939 10.865 -0.00280642 -0.00349816 0.00996814
647 2 -0.843829 3.33899 10.7597 18.1541 0.000702258 0.00698044 -0.00242726
648 2 -0.80817 30.7051 8.73654 17.8472 0.0052505 0.010584 0.0101184
649 2 -0.964625 30.2287 10.5459 16.2387 0.00711253 -0.0010833 0.00265615
650 2 -0.851135 3.42483 12.4274 19.9631 0.000710375 0.00180335 0.012882
651 2 -0.83452 5.48746 10.6291 19.4078 -0.0107016 0.00496975 0.00266825
652 2 -0.833563 5.12483 12.2759 17.7366 0.00730207 -0.000744472 -0.0102853
653 2 -0.862953 3.31187 14.2334 21.7221 -0.00138884 0.0105679 -0.0108898
654 2 -0.863436 29.9364 12.5477 21.426 -0.0128501 0.00171226 -0.00495085
655 2 -0.936975 30.3823 14.3479 19.6352 -0.00380248 0.00420171 -0.00469771
656 2 -0.837051 5.46459 14.3572 23.0832 0.000281304 0.0112297 0.00198357
657 2 -0.871106 4.94788 15.8292 20.7788 0.00353744 -0.00420828 0.00166672
658 2 -0.81406 3.80318 16.0178 23.1524 0.0118827 0.0101049 -0.000516559
659 2 -0.931053 6.85398 10.7114 21.4631 0.00419295 0.00201337 0.00474593
660 2 -0.933724 7.29463 12.3071 23.3507 0.000981478 -0.0019673 -0.00373484
661 2 -0.85937 8.7167 11.9436 21.2747 0.00248857 0.00427036 -0.0123437
662 2 -0.927743 8.65621 10.3326 23.3537 -0.0123527 0.00454438 0.00979647
663 2 -0.864255 7.02921 13.8805 18.1532 -0.00902356 -0.00469687 -0.00214673
664 2 -0.877916 7.01897 16.0357 19.4244 -0.00217936 -0.00364687 0.00865797
665 2 -0.894269 8.93283 14.2908 19.633 -0.0102922 0.00433635 -0.000257023
666 2 -0.721299 8.27669 15.5279 17.3166 -0.00545421 -2.20733e-05 -0.00634954
667 2 -0.888424 3.83363 10.8952 24.5055 0.00909387 -0.00410075 0.00669469
668 2 -0.839152 30.4963 9.3373 25.0293 0.00854379 0.00229631 0.00342929
669 2 -0.837895 30.686 10.6949 22.7735 0.00983799 -0.0109548 0.0128239
670 2 -0.89659 3.6547 12.1892 26.7013 -0.0125653 0.0105285 -0.0105327
671 2 -0.817458 5.55507 10.4812 26.2341 -0.00408164 0.0159685 0.00318169
672 2 -0.783485 5.3072 12.7576 24.8282 -0.00900085 -0.000848715 1.05514e-05
673 2 -0.859088 3.40674 14.021 28.4356 0.00991556 -0.0224394 0.0112762
674 2 -0.840474 30.0274 12.1933 28.1684 -0.00972515 -0.00383321 0.00760862
675 2 -0.854579 30.2592 14.1651 26.4757 0.00283894 -0.00320016 0.00305995
676 2 -0.94898 3.66561 15.8618 30.3255 -0.0113668 0.00121721 -0.0054158
677 2 -0.9604 4.84436 15.9481 28.1839 -0.00350141 0.000426783 0.0133217
678 2 -0.669274 6.93457 10.949 28.2337 -0.00544647 -0.000476712 0.0125298
679 2 -0.869651 8.71585 10.3851 30.116 0.00201652 -0.0200492 0.00304343
680 2 -0.540885 8.16044 14.708 29.1274 -0.0185574 0.0198879 -0.00417135
681 2 -0.968414 7.14952 14.3581 24.8217 0.00213082 -0.00210737 -0.00645149
682 2 -0.923189 6.67517 16.1311 26.6047 0.00496554 0.0117351 0.0101325
683 2 -0.937585 8.71454 14.7154 26.8356 -0.00540534 0.00133763 -0.00277857
684 2 -0.888491 8.69123 16.2317 25.0702 0.0137552 -0.0130766 -0.00202864
685 2 -0.858354 3.84442 17.7441 3.44525 0.0128263 0.0017084 0.00558936
686 2 -0.84463 30.1996 16.2061 3.46832 0.00270195 -0.0109257 0.00436725
687 2 -0.670759 30.733 18.0066 30.1933 -0.00621295 -0.000695084 -0.00286413
688 2 -0.823397 3.47191 19.7579 4.9108 0.00330308 0.013516 0.00684778
689 2 -0.898095 5.01818 17.9047 5.66583 0.0079153 0.0121632 0.0052095
690 2 -0.935331 5.5278 19.3719 3.5401 -0.0092764 0.00146073 -0.00661928
691 2 -0.778469 3.51131 21.6241 6.97287 -0.000395321 0.00618899 -0.00238758
692 2 -0.902269 30.4688 19.6948 7.23386 -0.00867471 -0.00133161 -0.000644812
693 2 -0.812596 30.2207 21.2409 5.16499 0.0104521 -0.00971868 0.0118909
694 2 -0.863664 5.10925 21.0312 8.95752 -0.00737076 -0.000375298 0.00936145
695 2 -0.793843 5.29453 23.3956 7.29987 0.00887519 0.00749417 -0.00103388
696 2 -0.820841 3.45737 22.9526 9.04325 -0.00361156 0.00133626 0.00309015
697 2 -0.770807 6.92873 17.9986 7.38114 0.00959982 -0.00129186 0.00717141
698 2 -0.800007 7.04086 19.3226 9.15359 -0.0116211 -0.00932852 0.00123288
699 2 -0.787945 8.78936 19.604 7.2444 -0.00614215 -0.00369698 0.00173119
700 2 -0.89258 9.07721 17.5704 8.8079 0.0108829 -0.0011759 -0.00177555
701 2 -0.877208 6.72822 21.3879 3.2819 -0.0066049 -0.0115434 -0.00668766
702 2 -0.913466 5.06296 21.069 30.1569 0.00472215 -0.0155229 0.00182919
703 2 -0.98411 7.23202 19.6163 30.1734 -0.00418572 -0.0109331 -0.0134235
704 2 -0.795214 6.71976 22.88 5.0922 -0.00211471 -0.0132717 0.001683
705 2 -0.849615 8.47686 21.3804 5.36221 -0.0104386 0.00371934 0.00260521
706 2 -0.770242 8.82375 22.9879 3.52299 0.000110366 0.00377253 0.00392381
707 2 -0.82634 3.39719 17.4782 10.9221 0.000427614 0.00325224 0.00299082
708 2 -0.905659 29.9075 15.9763 10.6103 -0.00016876 -0.00783979 0.00949908
709 2 -0.84536 30.2281 17.5405 8.71077 -0.000324356 0.00950817 -0.00147078
710 2 -0.732856 3.44038 19.4225 12.8346 0.00793866 -0.00469163 -0.00252248
711 2 -0.780419 5.37043 17.8563 12.5851 -0.00316709 -0.00325886 0.00108312
712 2 -0.80675 5.40696 19.5202 10.9907 0.00492308 -5.51833e-05 -0.00884672
713 2 -0.828732 3.68231 21.5346 14.3455 0.0123262 0.00668785 -0.010975
714 2 -0.773834 30.4619 19.7482 14.4536 -0.00880947 -0.00323116 0.00298058
715 2 -0.86178 29.9867 21.3426 12.6927 -0.00621282 -0.000557783 -1.41843e-05
716 2 -0.772065 5.19227 21.8876 16.3776 0.000400377 -0.0166369 0.005983
717 2 -0.871708 5.68736 23.3776 14.3647 0.00551178 -0.000553937 0.0145045
718 2 -0.780654 3.5881 23.7378 15.7838 -0.0083014 -0.00357694 -0.0158783
719 2 -0.768098 6.67719 17.5477 14.6029 0.00287661 0.00670675 -0.00388116
720 2 -0.885867 6.88623 19.8409 15.788 0.00867947 -0.010323 0.0080375
721 2 -0.839785 8.70929 19.3872 14.2665 -0.0125211 0.00271473 0.004657
722 2 -0.749761 8.42302 17.9469 16.2908 -0.00347735 0.000437093 0.00829782
723 2 -0.794193 7.17324 21.191 10.7039 0.00547301 -0.00862937 -0.0075685
724 2 -0.964287 6.84695 23.2314 12.2564 0.0174585 0.0057261 -0.00474471
725 2 -0.767746 8.8085 21.6513 12.7985 0.0233943 -0.00157075 0.00600924
726 2 -0.705541 8.68838 22.7143 10.5125 0.0121578 -0.0134395 0.00197684
727 2 -0.767119 3.32796 18.1771 17.49 -0.00300546 -0.0150304 -0.00742612
728 2 -0.806727 29.8502 15.9993 17.577 -0.00844143 0.013122 0.00743453
729 2 -0.750445 29.8573 17.7544 15.7392 0.000517913 0.00303959 -0.0149856
730 2 -0.836406 3.6243 19.4736 19.6329 0.00447883 0.0153088 -0.00084475
731 2 -0.855267 5.25497 17.6859 19.1315 0.00349663 -0.00469914 -0.00569054
732 2 -0.903149 5.38886 19.7365 17.6087 0.000874757 0.00787979 0.0241743
733 2 -0.873418 3.52656 21.6489 21.1098 -0.00853488 0.00842552 -0.00738495
734 2 -0.898321 30.3276 19.6165 21.027 -0.00877216 0.000142737 -0.00868127
735 2 -0.698498 30.3182 21.1784 18.9633 -0.0110645 0.00905112 -0.0111864
736 2 -0.76741 5.28368 21.2324 22.7147 0.0137838 0.00601019 -0.00660179
737 2 -0.84945 5.33598 23.4087 21.0586 -0.00146544 0.00629105 -0.00310538
738 2 -0.89641 3.64563 23.0814 23.2031 -0.0140843 0.00737072 -0.00100993
739 2 -0.894013 6.69734 17.8204 21.2547 0.00499049 -0.00460621 -0.0206661
740 2 -0.760706 7.18488 19.329 23.3069 -0.00318214 -0.000182515 0.00168489
741 2 -0.782188 8.76496 19.2434 21.4851 0.000705983 0.0044143 -0.000897899
742 2 -0.839265 8.77395 17.2741 22.844 0.00188478 0.00990081 -0.00192769
743 2 -0.767659 7.41826 21.5284 17.516 0.00181638 0.00745439 0.000992303
744 2 -0.838291 7.59369 23.2258 19.6782 0.0151773 -0.00308209 0.00469447
745 2 -0.812455 8.51325 20.9635 19.7646 0.00577352 0.00609279 0.00606215
746 2 -0.783324 9.40982 22.922 18.1814 0.00318037 0.00517788 -0.00267059
747 2 -0.829025 3.10615 17.6468 24.7494 -0.0106386 -0.0060493 0.00814939
748 2 -0.839358 29.8324 15.829 24.4733 0.0128137 0.00640506 -0.00843147
749 2 -0.840888 30.6645 17.685 22.533 0.0122556 0.00894338 0.0172898
750 2 -0.895506 3.40189 19.6634 26.4588 -0.0174788 -0.00283471 -0.003954
751 2 -0.942639 5.1674 17.9155 26.3955 -0.0210395 0.000264589 -0.0137595
752 2 -0.843188 5.0633 19.1163 24.4092 -0.00610781 0.00318852 0.00595214
753 2 -0.726267 4.08637 21.504 27.7987 0.00551749 -0.00438501 0.0120347
754 2 -0.676798 30.6451 20.3752 28.6232 -0.000693039 0.0042601 -2.00491e-05
755 2 -0.862859 30.296 21.8534 26.6266 -0.00491147 -0.00461097 0.00877817
756 2 -0.752247 3.29038 22.708 29.9053 -0.00611853 0.00830237 0.00319898
757 2 -0.866616 5.27097 23.3316 28.4528 0.0101202 0.00871524 -0.00913916
758 2 -1.01506 6.91882 17.74 28.2849 0.00958215 -0.00248259 0.00331769
759 2 -0.790882 8.52416 17.6123 30.0566 0.000417249 0.0295672 0.00118113
760 2 -0.872438 8.88888 19.4055 28.3579 -0.00190281 0.0085106 -0.00247162
761 2 -0.75626 6.67095 20.9202 24.9046 0.0122296 -0.00412753 -0.0183188
762 2 -0.861728 7.11978 23.0157 26.7629 -0.00382369 -0.00468751 0.00349412
763 2 -0.873679 8.61249 21.3049 26.6099 -0.00273017 -0.0055288 -0.00823138
764 2 -0.836362 8.40412 22.9863 24.6105 -0.00951711 0.000368935 0.000406812
765 2 -0.767205 4.06264 24.3769 3.17235 0.0141649 -0.0126843 -0.00124069
766 2 -0.75316 30.283 23.05 3.44872 0.00144466 0.00136506 0.00898532
767 2 -0.703571 30.243 25.0852 30.3188 0.00200155 0.00930276 -0.00311216
768 2 -0.801732 3.25939 26.0972 4.64828 0.00151287 0.00470459 0.00555989
769 2 -0.720396 5.37634 24.7554 5.28347 -0.00429703 -0.0146134 0.00745475
770 2 -0.784321 6.00493 25.9924 3.57055 -0.00214731 -0.000416961 0.00876615
771 2 -0.760584 3.96924 28.0638 5.98627 0.0079201 0.00312175 0.00244678
772 2 -0.839484 30.8417 26.3294 6.86364 -0.00754283 -0.00631082 -0.00252201
773 2 -0.940055 30.0522 27.997 5.07614 0.00405156 0.00808529 -0.00860361
774 2 -0.72024 4.77444 28.0453 8.39656 -0.00131388 0.00588628 0.00332231
775 2 -0.77343 7.4293 24.5961 6.95799 0.00454997 -0.00828043 0.0113876
776 2 -0.743417 6.75177 26.573 8.36112 0.0062799 0.000339941 0.00718713
777 2 -0.749951 8.86363 26.619 6.7183 0.00110788 -0.00894458 -0.00395881
778 2 -0.69689 9.02009 25.2754 9.13926 0.000621525 0.00324917 0.0106083
779 2 -0.878041 7.88279 28.075 3.88026 0.00636564 -0.00091777 0.00562176
780 2 -0.627527 5.77253 28.5063 2.69673 -0.00514332 0.00524494 -0.0102768
781 2 -0.83788 7.23498 26.746 30.0253 9.03433e-05 -0.00406315 0.0131273
782 2 -0.8223 9.38473 30.3321 3.89099 0.00541295 -0.000868528 0.0043108
783 2 -0.813191 9.5465 28.7408 5.59498 0.01273 0.00864834 2.80176e-05
784 2 -0.855067 3.68927 24.6896 11.2061 0.0082992 0.0136307 -0.00750272
785 2 -0.871235 30.0339 23.1471 10.7033 0.0174387 -0.00693258 0.000863185
786 2 -0.858584 30.3957 24.9576 9.11559 0.00324504 0.00886067 0.0104964
787 2 -0.867652 3.41251 26.8231 12.1547 -0.00553515 0.00339061 0.00622801
788 2 -0.993982 5.37627 25.2658 12.7779 0.00117508 0.0118607 -0.00357625
789 2 -0.934286 5.37092 26.5007 10.598 0.00950493 0.00453099 0.0121082
790 2 -0.886081 3.67069 28.6275 13.9097 -0.000831674 0.00129986 -0.00116428
791 2 -0.883977 30.3457 26.7944 14.3059 0.00630496 -0.0117878 -0.0044113
792 2 -0.811171 30.0513 28.3527 12.1741 0.00730492 0.00438853 0.0179185
793 2 -0.977918 5.4718 28.7144 15.8674 0.00408408 0.00851401 -0.00833384
794 2 -0.937866 7.49715 24.9048 14.1495 -0.010261 0.0126789 -0.0132999
795 2 -0.818586 7.10599 26.723 16.1104 0.00453624 0.0100235 0.00668981
796 2 -0.791723 8.97899 26.7232 14.787 -0.013073 0.0118674 -0.00198988
797 2 -0.68481 8.70157 24.4936 16.2391 -0.00841306 -0.0146355 -0.00294709
798 2 -0.831335 6.42181 28.6835 10.0337 -0.00670513 0.0110362 0.00420721
799 2 -0.814594 8.58854 29.9784 10.8029 -0.00277689 -0.00837776 -0.00783306
800 2 -0.591465 9.4219 28.3065 13.2454 -0.0163558 0.00666714 0.00801768
801 2 -0.817749 3.43862 25.0632 17.7635 -0.00261579 0.0020922 0.00583399
802 2 -0.747818 29.8854 23.053 17.0431 0.0118826 0.00483576 0.00631719
803 2 -0.775064 29.986 25.3551 16.2976 0.00190417 0.00281027 -0.000238485
804 2 -0.824933 3.59172 26.9737 19.437 0.000790995 0.00075922 -0.00700405
805 2 -0.707559 5.81257 24.2549 18.8047 0.00808884 0.00449209 0.00216649
806 2 -0.879211 5.36743 26.8507 17.666 -0.00378467 0.00482179 0.00222723
807 2 -0.905905 3.6137 28.8783 21.0803 -0.00131524 -0.00194178 -0.00564973
808 2 -0.801826 30.4786 27.0946 21.5306 0.015326 -0.0125877 -0.00480508
809 2 -0.910023 30.0019 28.6202 19.5791 -0.0079068 0.00955475 -0.00411814
810 2 -0.829303 5.12745 28.606 23.0565 -0.00441097 -0.00442192 0.0108032
811 2 -0.792617 6.99818 25.5153 20.6772 0.00356998 1.90633e-06 -0.00410725
812 2 -0.856109 7.20345 27.3173 22.6179 0.000568119 0.00787932 0.0026954
813 2 -0.750709 9.26006 26.4951 21.5409 0.00441646 -0.00964114 0.0149996
814 2 -0.850905 8.03133 24.6582 22.7121 0.0104415 0.00823064 -0.0138525
815 2 -0.89315 7.07743 28.7528 17.879 -0.0138093 -0.00384963 0.0190727
816 2 -0.786873 9.21929 30.1434 18.2288 0.00856182 0.0132724 -0.0012586
817 2 -0.778742 8.63679 28.2021 19.8573 -0.00111471 0.00147875 0.0122613
818 2 -0.81209 3.3822 25.2438 24.595 -0.00567735 -0.00218645 -0.0111515
819 2 -0.902796 30.2075 23.5525 24.8952 -7.95666e-05 -0.00798987 -0.001503
820 2 -0.790981 30.4074 25.0143 22.6918 -0.00999324 0.00431844 0.00882579
821 2 -0.898592 3.79445 27.027 26.4067 0.015665 -0.00926961 0.00616942
822 2 -0.783713 5.47186 24.8856 26.1537 -0.00575384 0.0121897 0.00332974
823 2 -0.910314 5.61212 26.8104 24.7385 0.0203969 0.0147187 -0.00508401
824 2 -0.797834 3.65792 28.9667 27.8098 -0.00830687 -0.0077479 -0.00280808
825 2 -0.785867 30.6201 27.2304 28.5483 -0.0296791 -0.00781444 0.00961794
826 2 -0.86246 30.3409 28.397 26.1776 -0.00246886 -0.00977132 -0.0105484
827 2 -0.87208 7.08227 24.8522 28.4338 0.00143673 -0.0125331 0.00258205
828 2 -0.722191 8.93205 25.0262 29.7962 -0.00325961 0.00405906 0.00779064
829 2 -0.781857 9.06874 26.869 28.0849 -0.00931046 0.00218758 -0.00151703
830 2 -0.799954 6.93965 28.947 24.4399 0.00829044 0.00202961 -0.00844188
831 2 -0.754652 9.14141 30.5476 24.6901 -0.00118041 -0.00060813 -0.012039
832 2 -0.814704 8.9905 28.9329 26.2746 0.00279049 0.00122892 -0.0086673
833 2 -0.88556 10.9944 3.79756 3.34433 0.00736568 0.000585589 0.00528712
834 2 -0.891574 10.6964 30.0754 30.3515 -0.00704043 0.00187398 -0.000540101
835 2 -0.74529 10.4978 5.46299 5.2369 0.00121135 -0.0136567 -0.00298521
836 2 -0.847856 12.3038 3.39243 5.35889 0.0128977 0.0105862 -0.0104065
837 2 -0.882884 12.5401 5.55527 3.75577 -0.00181334 0.00216923 -0.00885004
838 2 -0.829518 10.5708 7.2454 7.20719 0.00566179 0.00968955 -0.00725707
839 2 -0.792686 12.5844 7.40113 8.55292 0.000760634 0.00359856 0.00293374
840 2 -0.846803 12.2374 9.23969 6.93604 -0.0158274 -0.00126205 -0.00155193
841 2 -0.769984 10.3172 9.12803 8.51382 -0.00602685 0.00310566 0.00404221
842 2 -0.774313 13.8639 3.49017 7.3061 -0.00586938 0.00548587 -0.000553995
843 2 -0.768735 12.547 29.6425 7.07879 0.0102675 -0.00578839 0.0177691
844 2 -0.866245 13.893 30.1329 5.33826 -0.0161297 -0.0126224 0.00615097
845 2 -0.65542 13.9799 5.55706 8.45082 -0.000289558 0.00942107 -0.001109
846 2 -0.678892 16.1847 5.06494 6.96551 0.0068995 0.00814853 0.0112811
847 2 -0.783895 15.8762 3.51546 9.11596 -0.00713064 -0.000608909 -0.0135938
848 2 -0.90603 14.2114 7.07553 3.51 -0.00527607 0.00977164 0.010878
849 2 -0.938888 12.2006 6.96871 30.1848 0.00196224 0.00855557 -0.000312412
850 2 -0.915515 14.0311 5.36166 30.1532 0.000423826 0.00940883 0.00431001
851 2 -0.815425 14.21 8.59891 5.51084 -0.00609208 0.00318419 0.0024777
852 2 -0.855543 16.3904 6.98775 5.13374 -0.000248911 0.00337757 0.00530649
853 2 -0.781874 15.6358 8.83001 3.70515 0.0159438 0.00882595 0.00415634
854 2 -0.57359 10.693 3.58183 10.8625 0.0107181 -0.00379202 0.00818158
855 2 -0.800519 10.7963 29.8781 9.1591 0.00306576 -0.00846987 0.00832158
856 2 -0.648065 10.564 5.63319 12.5988 -0.00465888 -0.0024742 -0.000295445
857 2 -0.742053 12.7217 3.28731 12.1971 0.000634849 -0.00516467 -0.00846233
858 2 -0.678784 12.1332 5.20955 10.2567 -0.000898657 0.000978806 -0.00387433
859 2 -0.724636 10.6484 7.2421 14.2524 -0.00900337 -0.00192595 0.0201586
860 2 -0.73607 11.8775 6.93935 16.5204 -0.00132599 0.000865338 -0.00112135
861 2 -0.757061 12.9007 8.57346 14.6487 0.00613423 -0.0126263 -0.0161794
862 2 -0.814205 10.781 9.25151 16.0136 -0.00734492 -0.00377266 0.000299194
863 2 -0.883911 14.129 3.58952 14.2953 0.0098051 0.0139425 0.00235071
864 2 -0.822563 12.2028 30.1662 14.2579 0.00102089 0.00166955 0.0171824
865 2 -0.891663 14.3372 29.9564 13.0598 -0.0151932 -0.00669264 0.000900613
866 2 -0.823509 14.3881 5.7408 16.2358 0.00267446 -0.0160834 0.0019976
867 2 -0.876896 15.8835 5.15499 14.3517 -0.00822925 0.00886589 -0.00696616
868 2 -0.770961 15.8989 3.44501 16.1537 -0.00614037 8.30846e-05 -0.00548001
869 2 -0.778247 14.2778 6.92413 10.5621 0.0179252 -0.00328812 -0.00140479
870 2 -0.724084 14.2777 8.55737 12.7238 -0.00964801 0.00862089 0.00646438
871 2 -0.72354 16.091 6.93342 12.3706 -0.00987573 0.0033236 -0.00248871
872 2 -0.72702 16.0607 8.99471 10.9655 0.0180186 -0.00263431 0.0131766
873 2 -0.875126 10.9458 3.44364 17.7499 -0.00787592 -0.00633918 0.00524132
874 2 -0.777889 10.2599 29.874 16.2567 -0.00370963 -0.0061732 0.00326523
875 2 -0.813769 10.8304 5.33856 19.757 -0.00764049 0.0144865 0.00917427
876 2 -0.790274 12.2521 3.47319 19.8856 -0.000508993 0.00899693 0.0176616
877 2 -0.852891 12.8582 5.12249 18.1093 -0.000827632 0.00377332 -0.00672177
878 2 -0.805313 10.5925 7.23805 21.2971 0.0117938 0.00765992 0.000981404
879 2 -0.900474 12.4495 7.18466 23.2363 0.0071779 0.00834383 0.00388697
880 2 -0.845124 12.6139 8.83628 21.1864 -0.0126073 -0.0183714 -0.00079977
881 2 -0.778662 10.7662 8.98249 22.9698 0.01181 -0.000127491 0.0013786
882 2 -0.753589 14.1414 3.99282 21.2162 -0.00490858 0.000870569 -0.0208125
883 2 -0.807036 12.6491 29.8701 21.0534 0.00240445 -0.00531165 -0.00497096
884 2 -0.811915 14.7313 30.7981 19.7937 0.00645964 0.0199848 0.00149769
885 2 -0.798128 14.4895 5.3381 23.314 0.0055497 0.0041099 0.00327071
886 2 -0.870789 16.1293 5.49088 21.4937 -0.00406487 0.00113776 0.00835607
887 2 -0.943316 15.9537 3.42959 23.1464 0.00183696 0.00676968 -0.00977341
888 2 -0.751673 13.5752 7.35976 17.9593 -0.00270598 -0.00297194 -0.0102149
889 2 -0.770377 14.4331 9.08485 19.857 0.0037719 0.00674086 0.000352963
890 2 -0.84543 15.8952 6.96905 19.5817 0.00123684 0.00220703 0.0024384
891 2 -0.666536 15.7737 8.37188 17.5738 0.0030886 0.0148219 0.00174399
892 2 -0.808399 10.6826 4.10584 24.6458 -0.00847945 0.00472101 0.00723658
893 2 -0.868566 11.2353 30.1841 23.3235 0.00527295 -0.00860682 -0.0119465
894 2 -0.858762 10.9308 5.67924 26.7068 -0.00958832 -0.0102798 -0.0163647
895 2 -0.824084 12.1735 3.61549 26.8258 0.0171968 -0.00957348 -0.00721886
896 2 -0.805182 12.7238 5.38694 25.0086 0.00748139 -0.00371435 0.0184072
897 2 -0.874437 10.3511 7.15626 28.3966 -0.00380406 -0.00511975 -0.0033228
898 2 -0.865807 10.7811 8.98936 30.0893 0.00565004 -0.00460809 0.00763339
899 2 -0.845816 12.5364 8.68847 28.5582 -0.0124076 0.0168051 -0.000680212
900 2 -0.747915 14.4316 3.65626 28.208 0.00951731 -0.00567529 -0.00949827
901 2 -0.777893 12.6876 30.18 28.553 0.0182872 0.0134893 -0.0019609
902 2 -0.690458 14.1022 30.0879 26.5913 -0.00122513 -0.0075422 -0.0049806
903 2 -0.798635 16.0501 3.77993 30.3814 -0.0125409 0.00499858 -0.0206586
904 2 -0.848265 16.1653 5.32732 28.6041 0.00807442 0.00545879 -0.00565127
905 2 -0.853411 14.3472 7.04996 25.1581 0.00814328 0.00455853 -0.0103256
906 2 -0.926746 14.5127 8.8845 26.7728 0.00831964 -0.00538561 0.0123223
907 2 -0.859699 15.9138 6.93694 26.7845 0.00614582 -0.000452859 -0.0120418
908 2 -0.846583 16.3837 8.78636 24.9293 0.0172013 -0.00783037 -0.00437594
909 2 -0.816354 10.7722 10.5042 3.44914 -0.00470713 -0.0161572 -0.00163485
910 2 -0.890517 10.2727 12.2489 5.2889 -0.00365633 -0.000205012 0.00267754
911 2 -0.885701 12.5879 10.6732 5.35893 0.00943313 0.00297262 0.0185371
912 2 -0.757049 12.0821 12.529 3.68814 -0.000468544 0.00437926 -0.000716454
913 2 -0.850576 10.5 13.4624 7.32009 0.00493641 -0.00182156 0.00259011
914 2 -0.766839 12.4348 14.0449 9.02595 0.00602779 -0.00386071 0.00461829
915 2 -0.814358 11.8413 15.6973 6.98957 -0.00438609 0.00237444 0.0106926
916 2 -0.835046 10.4205 15.4041 9.17666 0.000864737 -0.00289584 -0.00742245
917 2 -0.971991 14.4526 10.405 7.229 -0.00138944 0.00108161 -0.00348706
918 2 -0.879724 14.0994 12.217 8.7808 -0.00429092 -0.00294901 -0.0176543
919 2 -0.756935 16.0011 12.3791 7.30537 0.00325328 0.00851059 0.00546273
920 2 -0.90205 16.2938 10.7283 9.01684 -0.00135358 -0.00737011 0.000419987
921 2 -0.775666 14.2963 13.8586 3.99291 0.00762247 0.00285917 -0.0149533
922 2 -0.713888 12.6277 14.7076 30.6931 0.0154953 -0.0142547 -0.00550665
923 2 -0.880799 14.1397 12.2601 30.5755 -0.000670699 -0.00208539 0.0161207
924 2 -0.882992 13.8942 15.6629 5.5431 0.00176811 0.0113301 0.00533199
925 2 -0.871435 15.8771 14.3592 5.75572 -0.00192083 -0.0041814 -0.00217207
926 2 -0.886259 15.3683 16.1695 3.58011 -0.00145747 -0.0102265 0.00407468
927 2 -0.859636 10.9783 10.7565 10.4155 0.0112469 -0.00566346 -0.000418642
928 2 -0.795438 10.6294 12.1577 12.4501 -0.00813357 -0.00599443 0.0056172
929 2 -0.886195 12.5183 10.3915 12.4472 0.000984998 0.00625754 -0.0010613
930 2 -0.824728 12.7596 12.1446 10.8046 -0.00717042 0.00378297 0.00535139
931 2 -0.75056 10.7162 13.973 14.2845 0.00409593 0.0075716 0.000378743
932 2 -0.774343 12.0332 14.0171 16.379 0.000267223 -0.0117935 -0.00565579
933 2 -0.714331 12.5265 15.8073 14.7286 -0.0058262 -0.00635722 0.00216733
934 2 -0.699394 10.0047 16.1474 15.5522 -0.004452 -0.0112114 -0.0122233
935 2 -0.877306 14.104 10.8368 14.136 0.00697418 0.0200105 0.0135686
936 2 -0.810598 14.1554 12.7945 15.8301 -0.011149 0.0115713 -0.00976911
937 2 -0.922849 16.1142 12.3663 14.2154 0.00194273 0.00810849 -0.0116909
938 2 -0.848744 15.519 10.8644 16.1673 -0.00736316 0.00790287 -0.00645794
939 2 -0.793912 14.4046 14.0676 10.6455 0.00418085 -0.010864 0.00261106
940 2 -0.801277 13.7925 15.8771 12.3682 0.00756363 0.00999973 -0.0121386
941 2 -0.807006 15.997 14.1693 12.6606 0.00397124 -0.00654891 -0.00665381
942 2 -0.749929 15.7046 16.3089 10.6719 -0.00787973 0.00460237 0.00565565
943 2 -0.749569 10.8956 10.3319 18.3371 0.00352874 -0.00712727 -0.0110136
944 2 -0.923553 10.5407 12.5412 19.5971 0.00799034 0.0115029 0.00680474
945 2 -0.902649 12.6094 10.9518 19.9225 0.00528503 0.0025759 0.00658996
946 2 -0.850624 12.4995 12.0215 17.8174 -0.0030712 0.00349786 -0.0113702
947 2 -0.854534 10.3244 13.7512 21.6912 -0.00380026 0.00139023 -0.00457563
948 2 -0.934282 12.3004 13.842 23.1149 -0.000440363 -0.00406323 0.0114153
949 2 -0.894821 12.2147 15.2109 21.2498 -0.00893777 -0.000216369 -0.00508109
950 2 -0.853859 10.543 15.4536 23.4333 -0.0166084 -0.00166619 -0.0106835
951 2 -0.94607 14.3753 10.8877 21.6665 -0.00515428 0.00320551 0.0117668
952 2 -0.860612 14.7775 12.6774 23.2739 0.0233845 -0.00570434 0.00533213
953 2 -0.866341 16.509 12.3273 21.2662 -0.00382666 -0.000234453 -0.00793146
954 2 -0.946577 16.213 10.6824 23.1619 0.00935435 -0.000535436 -0.00315804
955 2 -0.874483 14.0942 14.0861 17.8826 -0.0087574 -0.0147549 0.00304085
956 2 -0.727294 14.0319 15.7544 19.2861 -0.00498155 0.00135829 -0.0169017
957 2 -0.875539 15.9352 14.0117 19.5521 -0.00941358 -0.0115126 0.00513363
958 2 -0.994545 16.2737 15.8461 17.9595 -0.0128122 -0.00768287 0.00180594
959 2 -0.761725 10.5992 10.7238 24.8887 0.00106436 0.000354935 -0.0125115
960 2 -0.621013 9.34436 12.6743 28.1871 0.00741113 0.00317043 -0.00553938
961 2 -0.738287 12.2493 10.1154 26.7857 0.0140309 0.00315515 -0.0118692
962 2 -0.875835 12.9819 11.9687 24.7276 0.00357976 0.00866749 -0.00100167
963 2 -0.768593 10.5225 14.6145 29.0994 -0.00397157 -0.00749453 -0.0020446
964 2 -0.754267 10.6386 16.43 30.5785 0.00287039 0.010539 0.00278327
965 2 -0.811489 12.277 16.4126 28.7719 -5.01767e-05 0.00982491 0.012626
966 2 -0.882293 14.236 10.7518 28.3468 -0.00250355 -0.0089735 -0.0198878
967 2 -0.880688 15.8049 10.3388 30.1879 -0.00953013 0.00594399 0.00109141
968 2 -0.826031 15.8209 12.3809 28.6561 -0.00546564 -0.0101687 0.0020127
969 2 -0.900612 14.1038 14.373 24.7454 -0.00269201 -0.0265339 0.00761182
970 2 -0.829778 13.8206 15.9523 26.4569 -0.00465977 -0.00285028 -0.00543159
971 2 -0.868919 15.7448 14.0552 26.7081 -0.000782485 -0.002227 0.00593217
972 2 -1.01913 15.8971 15.9062 25.1068 0.00584972 0.00673215 0.00243131
973 2 -0.776459 10.1852 18.3013 3.79118 -0.00974679 0.00758787 9.20971e-05
974 2 -0.784762 10.8973 19.5738 5.6589 0.0109379 0.0106281 -0.0109291
975 2 -0.817384 12.1945 17.3789 5.33381 -0.00144104 0.00390399 0.00289832
976 2 -0.696342 12.4572 19.2202 3.40491 -0.00688223 0.00305042 -0.0156083
977 2 -0.83369 10.3657 21.5661 7.1056 -0.0063911 0.00637262 -0.000288223
978 2 -0.885949 11.963 21.2456 8.88735 -0.0133384 0.000820873 0.00478606
979 2 -0.918778 12.5345 22.7771 6.84641 -0.00405693 0.00425142 -0.000174284
980 2 -0.766338 10.8361 23.4831 8.75368 0.00174282 0.00192878 -0.0175505
981 2 -0.824152 14.0565 17.4378 7.12413 0.00469835 0.0114128 -0.00660519
982 2 -0.708556 13.8212 19.6467 8.33196 0.00807709 0.00872957 0.0140846
983 2 -0.824294 15.9405 19.5573 6.73674 0.00705993 -0.0178702 -0.00387011
984 2 -0.760645 16.061 18.2076 9.05172 0.00320837 0.00420234 -0.00501621
985 2 -0.668764 14.4553 21.2138 3.17301 -0.00867033 -0.0109001 0.0105211
986 2 -0.783484 12.3815 20.9899 29.9054 -0.00102332 -0.0120121 0.00668188
987 2 -0.734118 13.9412 19.4082 29.9597 -0.00817657 0.000202944 -0.00147611
988 2 -0.729069 14.1629 23.118 5.21382 -0.0168062 0.00217156 0.0127476
989 2 -0.770678 16.484 21.2573 4.93976 0.00764479 0.00201332 0.00630028
990 2 -0.775689 16.0504 23.4351 3.34133 0.00525547 -0.00130874 -0.00366391
991 2 -0.822808 10.759 17.5844 10.7692 0.00678022 0.00552607 -0.00501435
992 2 -0.734806 10.4761 19.3746 12.3576 -0.00911858 0.00755608 0.00969478
993 2 -0.769122 12.163 17.6984 12.8474 0.00856722 0.00374494 0.00618962
994 2 -0.838323 12.5159 19.4892 10.7052 -0.00318336 -0.00147576 0.00436198
995 2 -0.766916 10.4636 21.1518 14.5498 0.00303937 -0.0187092 -0.00470384
996 2 -0.77862 12.2801 21.0237 16.2624 0.00426076 0.0029162 -0.00540508
997 2 -0.824229 12.4057 22.4601 13.9813 0.0024207 -0.00614048 0.00471412
998 2 -0.70373 10.9089 23.2929 15.7962 -0.00779268 0.0078564 -0.00721966
999 2 -0.760755 14.1474 17.8767 14.1234 -0.0028308 -0.0017009 -0.00341228
1000 2 -0.886934 14.4021 19.3005 16.2807 0.0090301 0.00826986 0.00482935
1001 2 -0.783737 16.1527 19.3973 14.4777 0.0135148 0.000972712 -0.00148176
1002 2 -0.928159 15.8643 17.3405 16.0589 0.0155561 0.00412043 0.00126974
1003 2 -0.817395 14.2722 21.0451 10.0323 -0.00744639 0.00688163 -0.0027174
1004 2 -0.805936 13.9835 22.5605 11.8118 -0.00380077 0.00354384 -0.00150911
1005 2 -0.906296 16.0005 20.9361 12.1473 -0.0152278 -0.0214233 -0.012161
1006 2 -0.903091 15.9557 22.8983 10.4722 0.00903047 -0.017263 -0.0024507
1007 2 -0.758656 10.5287 17.1601 17.6724 -0.00741325 -0.00294055 0.0100808
1008 2 -0.814055 10.1611 19.1354 19.0779 0.00492031 -6.47739e-05 -0.000419022
1009 2 -0.713834 12.0533 17.2697 19.7776 -0.00248839 -0.0176549 0.00593771
1010 2 -0.807471 12.2765 19.2291 17.8914 -0.00625283 -0.00247717 -0.00220009
1011 2 -0.836809 10.5284 20.9217 21.0581 -0.00306263 0.00742073 0.00903539
1012 2 -0.742796 11.9664 21.588 22.7826 -0.00178331 -0.0123095 0.0141531
1013 2 -0.829424 12.1819 23.1687 21.0753 0.00446595 -0.00252529 -0.0046167
1014 2 -0.913152 10.0291 22.9948 22.461 -0.00753013 0.00894764 -0.00700299
1015 2 -0.574525 13.747 17.6377 21.7979 -0.00787251 0.00849495 0.00107334
1016 2 -0.754585 14.3328 19.7638 23.4685 0.00638002 0.00271423 -3.6913e-05
1017 2 -0.722245 15.5835 19.099 21.2229 0.0135771 -0.00957185 0.00234224
1018 2 -0.84507 15.6286 17.8688 23.6842 -0.0117615 -0.00827448 0.0101973
1019 2 -0.801544 13.9411 21.2258 17.9471 0.00716994 -0.00750763 0.00326996
1020 2 -0.832859 14.1439 22.8953 19.7032 -0.0070254 -0.00466346 0.0117898
1021 2 -0.677241 15.71 21.1736 20.048 -0.0109067 -0.00749653 0.00899469
1022 2 -0.86925 16.0115 22.9797 17.9013 -0.0025099 -0.00978921 -0.00466783
1023 2 -0.82844 10.6698 17.9666 24.428 0.00407375 0.00111082 0.0078415
1024 2 -0.810515 10.4144 19.3469 26.5215 -0.0113563 0.00687863 -0.0130016
1025 2 -0.765347 12.3342 17.8362 26.4495 0.00526931 -0.00610213 4.66539e-05
1026 2 -0.747065 12.2249 20.0745 24.9425 -0.00510749 0.00175372 -0.00394181
1027 2 -0.857772 10.8094 21.2441 27.9387 0.010422 -0.00321267 0.00546803
1028 2 -0.620083 10.729 22.7225 30.3131 0.000215119 -0.00474162 0.00257992
1029 2 -0.758058 12.4271 23.3156 28.6027 0.0265524 0.00634565 0.0285178
1030 2 -0.841925 14.0733 18.1808 28.0469 -0.00743105 0.0169219 -0.00115164
1031 2 -0.878516 15.738 17.7043 29.9466 0.00462433 -0.00547282 -0.000108242
1032 2 -0.977074 16.1403 19.5178 28.3611 -0.00717267 0.0117409 0.00652632
1033 2 -0.766067 13.8912 21.7457 25.2544 -0.0030189 -0.0100601 -0.00499626
1034 2 -0.863169 14.3328 23.1001 27.1171 0.00772939 -0.00872909 -0.00984307
1035 2 -0.798822 16.0674 21.075 26.5362 0.00769071 -0.000530815 -0.00252983
1036 2 -0.755624 15.9838 23.461 25.086 0.00755252 -0.00753815 0.00608738
1037 2 -0.717105 10.288 25.0342 3.71094 0.00711011 0.00284724 0.000475084
1038 2 -0.727582 11.2832 26.9668 5.44756 0.00308668 0.00136342 -0.00352391
1039 2 -0.841831 12.3077 24.75 5.31135 0.0116685 -0.00300306 0.00229233
1040 2 -0.770636 12.0862 26.6518 3.23006 -0.016913 -0.0120427 -0.00268661
1041 2 -0.770651 10.8936 27.8264 7.75913 -9.45095e-05 -0.00992136 -0.00558578
1042 2 -0.922672 12.8565 28.2736 9.22257 0.00582945 0.00259509 -0.00440992
1043 2 -0.937342 14.2199 24.8952 7.04293 0.00391606 0.00148726 0.0181208
1044 2 -0.904629 14.432 26.4891 9.12677 0.00314876 -0.00804316 0.00124862
1045 2 -0.862374 15.735 26.7144 6.97516 -0.00985139 -0.00234816 0.0124294
1046 2 -0.881805 15.9175 24.8731 8.83853 0.00128499 0.00141362 0.00502636
1047 2 -0.896842 13.8238 28.6866 3.2486 0.0033753 0.0143997 0.0101686
1048 2 -0.808792 12.2347 28.104 29.8406 -0.00844236 0.00103532 0.00387988
1049 2 -0.860686 14.3117 26.5623 30.4246 -0.00332084 0.00760091 -0.00857682
1050 2 -0.870697 15.5385 30.2492 3.42402 -0.00496091 0.0156043 0.0020282
1051 2 -0.856327 15.753 28.259 4.77027 0.00681255 -0.00239735 0.00395443
1052 2 -0.824115 10.615 24.6166 11.0363 0.0142144 -0.00501222 -0.00190485
1053 2 -0.721519 11.0031 26.3747 12.7211 0.00926422 -0.00478545 -0.0008199
1054 2 -0.827381 12.8278 24.6983 12.7864 -0.0148589 0.00878172 -0.0035176
1055 2 -0.805829 12.4536 26.4702 10.8366 -0.00842214 0.00574914 0.00735098
1056 2 -0.790742 11.2575 27.9906 14.6425 -0.000220574 -0.00540146 -0.0144346
1057 2 -0.776497 12.57 29.3435 16.4304 -0.00652949 0.0136941 -0.00190369
1058 2 -0.618607 13.8345 25.4464 15.3563 -1.59148e-05 -0.00117379 -0.00238689
1059 2 -0.817413 14.4341 27.6202 16.3485 -0.0114417 0.00379418 -0.0093411
1060 2 -0.88322 15.9087 26.6601 14.5736 -0.0106362 7.75194e-05 0.00116139
1061 2 -0.814656 15.8586 25.2555 16.6607 0.0182465 0.0043027 0.000412659
1062 2 -0.84839 14.43 28.1697 11.3056 0.00455921 0.0131001 -0.00535943
1063 2 -0.757147 15.2248 4.07357 11.4822 0.0230368 -0.00721146 0.00250746
1064 2 -0.87138 16.3934 28.6776 12.9657 -0.00561551 -0.0113224 -0.00689342
1065 2 -0.66718 10.8312 25.3052 17.5267 -0.0128918 -0.0104177 -0.000811507
1066 2 -0.753319 11.0556 27.0063 19.6308 -0.00169235 0.0103207 -0.00591626
1067 2 -0.93557 12.8666 24.9805 19.3759 0.00124722 -0.00845001 0.00240096
1068 2 -0.81458 12.5287 27.0103 17.7831 0.00075123 0.00037932 0.00031157
1069 2 -0.774069 10.6247 28.7298 21.4462 0.00689567 0.00287489 0.000167881
1070 2 -0.715947 12.5623 27.9959 22.8517 6.39212e-05 -0.00531937 0.010948
1071 2 -0.973398 14.4303 24.6888 21.3188 0.00245187 -0.00113008 -0.000573623
1072 2 -0.97463 14.5235 26.4769 23.0078 0.014338 -0.0143625 -0.00449412
1073 2 -0.894883 16.5479 26.5558 21.5387 0.0245698 -0.00618149 -0.00017963
1074 2 -0.826328 16.1955 24.4851 22.8452 0.00322783 -0.00781589 -0.00254781
1075 2 -0.783058 14.2332 28.9726 18.3489 0.000403226 0.0104772 -0.000437994
1076 2 -0.715943 16.2496 30.0987 17.7935 -0.00350568 -0.00736409 -0.00979196
1077 2 -0.873288 16.0302 28.3759 19.8806 -0.00342783 -0.000342918 0.00120418
1078 2 -0.743631 11.2067 25.5715 24.5533 -0.00854682 -0.00402924 0.00908632
1079 2 -0.85651 11.0867 27.017 26.4816 0.00542725 0.000148052 -0.00364299
1080 2 -0.949307 12.5136 24.9993 26.7531 -0.00537293 -0.00343511 0.0110304
1081 2 -0.936358 13.1192 26.8031 24.9774 0.000488467 -0.00630865 -0.000315698
1082 2 -0.768834 10.4891 28.9253 28.1458 -0.00785964 0.00681698 0.00582867
1083 2 -0.945236 14.1244 25.1565 28.5382 -0.00660339 0.00354786 0.00264039
1084 2 -0.861659 16.4774 25.1025 29.9778 -0.00381835 0.0155718 0.00549961
1085 2 -0.765349 15.9923 27.0119 28.5413 0.00636154 0.0181937 0.0031527
1086 2 -0.864006 14.5357 28.7136 24.5336 0.00743392 -0.00733406 -0.00230627
1087 2 -0.802126 16.5046 30.1954 24.8285 -0.00733861 -0.00309328 -0.00011588
1088 2 -0.674492 16.6703 28.502 26.3482 0.0185122 -0.00302172 -0.00208282
1089 2 -0.807654 17.4729 3.89328 3.76155 -0.00606794 -0.00104584 -0.00211392
1090 2 -0.832235 17.7995 30.4932 30.1092 -0.0014961 0.0123246 0.00128135
1091 2 -0.840661 18.3394 5.45824 5.38273 0.00305952 -0.0114063 -0.00466513
1092 2 -0.796642 19.7013 3.37133 4.9121 0.00355564 0.00523663 0.00431461
1093 2 -0.919711 19.5662 5.25106 3.27714 -0.000922876 0.00176963 -0.00777323
1094 2 -0.876014 17.9047 7.24674 7.19817 -0.0121044 -7.36571e-05 0.00158953
1095 2 -0.943603 19.8658 7.18935 8.89132 -0.00584722 -0.00951433 -0.00514489
1096 2 -0.922083 19.5219 9.2064 7.55764 0.0138965 -0.00541301 -0.0052473
1097 2 -0.844668 17.7251 8.42864 9.17986 0.00441405 -0.000652667 0.00328014
1098 2 -0.834855 21.0299 3.17744 7.13734 -0.0040852 -0.00329421 0.00859502
1099 2 -0.727166 19.5144 29.6073 6.35728 0.00768331 0.00431252 -0.00771526
1100 2 -0.865532 21.4729 30.0927 4.97455 -0.000896694 -0.012673 0.00917963
1101 2 -0.84428 21.3648 4.95609 9.04813 0.00719922 0.000381265 0.00443356
1102 2 -0.90008 22.6024 5.38398 7.17408 -0.0105649 0.00411569 -0.00205925
1103 2 -0.901438 22.8549 3.13686 8.6182 -0.00209694 0.00459502 -0.0129431
1104 2 -0.754895 21.4338 6.96289 3.69316 -0.00347198 -0.00503928 0.00695872
1105 2 -0.895267 19.6006 6.98473 30.2068 0.00592002 0.00892165 0.000381221
1106 2 -0.869444 21.4908 5.22986 30.1311 -0.00132729 0.00306055 -0.000210085
1107 2 -0.818723 21.2627 8.86231 5.70484 -0.00869879 -0.00686469 -0.00413549
1108 2 -0.80596 23.228 7.17692 5.45113 0.00378685 -0.00526558 -0.0074294
1109 2 -0.710471 23.0232 8.98142 3.55622 0.00325521 0.000249548 0.00254554
1110 2 -0.817772 17.5178 3.72626 11.0261 -0.00525743 -0.0062292 -0.00404109
1111 2 -0.547264 18.3301 30.7474 7.96997 -0.00950804 0.00325144 -0.0129802
1112 2 -0.860667 17.9801 5.6489 12.8802 -0.00142994 -0.00554661 -0.00105302
1113 2 -0.771298 19.8137 3.82242 12.2741 -0.00479809 0.00624709 -0.00866265
1114 2 -0.7606 19.1565 5.42479 10.6584 -0.00321361 0.00141973 0.0133368
1115 2 -0.806806 17.3278 7.41451 14.5045 -0.00490778 0.007285 0.000847554
1116 2 -0.872192 19.1187 7.23846 16.5217 -0.00272475 0.0130052 -0.0125554
1117 2 -0.831844 19.6158 8.77526 14.5033 0.000978553 0.000617778 0.00414508
1118 2 -0.755318 17.4831 9.15638 15.8233 -0.00402838 0.00100009 0.0030495
1119 2 -0.820862 21.3265 3.35835 14.3674 0.00487375 -0.00744999 -0.0064137
1120 2 -0.903033 19.617 30.1938 13.9996 0.00724384 0.00650699 -0.00979192
1121 2 -0.786616 21.6277 30.4635 12.3568 -0.00562139 -0.00401808 -0.00838624
1122 2 -0.825257 20.879 5.47474 15.5878 -0.00964873 -0.00509364 -0.00332728
1123 2 -0.848709 22.8125 5.75805 14.0887 0.00782055 -0.0195135 0.00300265
1124 2 -0.806514 22.7914 3.9682 16.2251 0.000481789 0.000979881 -0.00390258
1125 2 -0.899507 21.4127 6.64243 10.7059 -0.00906762 0.0120935 -0.000749129
1126 2 -0.826552 21.2085 8.80059 12.1603 -0.000974782 0.00222721 -0.00657222
1127 2 -0.888388 23.3604 7.28603 12.3012 0.00552894 0.00579644 0.00808672
1128 2 -0.931686 22.988 8.58879 10.4045 0.015077 -0.00646275 0.00377479
1129 2 -0.782947 17.9203 3.72132 17.9671 -0.0200324 0.0143047 -0.00605179
1130 2 -0.843439 18.0241 30.163 16.1858 0.00189709 -0.00464831 -0.00822928
1131 2 -0.934741 17.9322 5.2308 19.7567 0.00754356 0.00627439 0.00154755
1132 2 -0.802697 19.4378 3.19723 19.6911 -0.00608377 -0.0096011 0.0045141
1133 2 -0.897478 19.8171 5.15515 17.892 -0.0108203 0.00903436 -0.00402475
1134 2 -0.999245 17.7437 7.27264 21.1998 0.00288127 -0.00682129 -0.00126193
1135 2 -0.961489 19.65 7.07462 22.8767 -0.0152266 0.0066763 -0.00546474
1136 2 -0.946877 19.4502 8.88192 21.2066 -0.00871695 -0.00147172 -0.00306305
1137 2 -0.960471 18.1013 8.91814 23.1761 0.00721519 0.004357 0.00141802
1138 2 -0.848887 21.1531 3.79526 21.4056 -0.001008 0.010226 0.00345891
1139 2 -0.856873 19.9293 30.1508 21.5733 -0.00846391 0.00399745 -0.0157012
1140 2 -0.860215 21.7893 30.5159 19.7421 -0.000892407 -0.00134608 -0.000715867
1141 2 -0.909157 21.5258 5.15451 23.4107 0.00411798 -0.0142997 -0.00437643
1142 2 -0.827262 23.1371 5.03413 21.329 0.000545841 0.00307374 0.00443773
1143 2 -0.837327 23.2064 3.27537 23.0038 -0.000680922 0.00205005 0.0109848
1144 2 -0.816985 21.4873 7.1073 17.312 -0.00112643 0.00271213 -0.00697237
1145 2 -0.765916 21.4083 8.95931 19.3572 0.00275638 0.01294 0.00375035
1146 2 -0.749566 22.7385 7.0845 19.9445 -0.00457575 0.00999294 -0.00797031
1147 2 -0.837891 23.2716 8.69126 17.9175 -0.0110248 0.0130476 0.000132053
1148 2 -0.812216 18.2991 3.31833 24.5059 0.0119071 -0.000260821 0.00218534
1149 2 -0.852147 17.6512 30.0366 22.7631 0.00182454 0.00618808 -0.00431665
1150 2 -0.823903 17.8387 5.21986 26.5454 -0.00590238 0.00432827 -0.00635821
1151 2 -0.837642 19.8816 4.10451 26.5279 0.00272721 -0.00366519 -0.00370088
1152 2 -0.88564 19.4001 5.67738 24.6798 0.00302277 0.00964902 0.0120559
1153 2 -0.820299 18.0028 7.22918 28.221 -0.0114981 0.0120454 -0.0144246
1154 2 -0.777007 17.7729 8.82697 30.4152 0.0172824 -0.00131652 -0.0117935
1155 2 -0.835183 19.6528 9.03368 28.5821 0.000600176 -0.00418929 0.00494383
1156 2 -0.87802 21.4227 3.63522 28.3497 0.00855356 -0.00144291 0.00900851
1157 2 -0.797604 19.1541 30.5903 28.0529 -0.00243744 0.00856921 -0.00338209
1158 2 -0.857806 21.2825 30.4396 26.598 -0.00115284 0.0107312 0.0105998
1159 2 -0.910312 23.1857 3.39484 30.3538 0.000229679 0.00162581 -0.00664084
1160 2 -0.941186 23.4992 5.16149 28.6269 -0.00106914 0.00417488 -0.00858364
1161 2 -0.885731 21.3546 7.30344 24.6373 0.00910091 -0.0116858 0.0113088
1162 2 -0.801559 21.4064 9.13048 26.6259 -0.000808301 0.00206849 0.0146281
1163 2 -0.855221 22.9866 6.89286 26.7586 -0.00406317 -0.0097899 0.00624297
1164 2 -0.824253 23.2335 8.55388 24.8353 -0.0013851 0.00845512 0.00320993
1165 2 -0.942809 17.5895 10.6138 3.7652 0.00119722 -0.0171472 -0.00745142
1166 2 -0.85538 17.9588 12.5432 5.34928 0.00279235 -0.00472091 0.00533663
1167 2 -0.910343 19.5607 10.7775 5.4983 0.00217388 0.00580132 0.00533746
1168 2 -0.933706 19.528 12.0184 3.43754 0.000710992 0.00631978 0.00447713
1169 2 -0.757617 17.9051 14.1685 7.43701 -0.00137021 0.00145258 0.0132628
1170 2 -0.795702 19.8186 14.3733 9.26515 0.00262173 -0.00134242 -0.00441482
1171 2 -0.817639 19.3493 16.3399 7.35263 -0.00748323 0.00388254 0.0149358
1172 2 -0.778543 17.6197 15.9965 9.01615 -0.00338711 -0.00871015 -0.0208747
1173 2 -0.90152 21.6371 10.5896 7.23027 0.00450722 -0.0111088 0.00176036
1174 2 -0.933877 21.3217 12.4385 9.06468 -0.0141237 -0.0175041 -0.00528665
1175 2 -0.77969 23.1923 12.259 7.08805 0.00232625 -0.0047257 0.00305694
1176 2 -0.969113 23.1702 10.6683 9.04723 -0.0127905 0.00615368 -0.00514741
1177 2 -0.862529 20.9717 14.0497 4.00388 -0.0023396 -0.0105538 -0.00199693
1178 2 -0.786927 19.5939 14.1803 30.3344 -0.00714356 -0.00390778 0.00184695
1179 2 -0.883404 21.2514 12.5214 30.286 0.00747867 -0.00427035 0.014648
1180 2 -0.764618 21.3827 15.7774 5.74744 -0.00165088 -0.0052754 0.00631158
1181 2 -0.754547 23.1517 14.0915 5.25631 0.00308676 -0.00572639 0.00240939
1182 2 -0.898244 22.8705 15.9697 3.62214 -0.00181198 -0.0149854 0.00472712
1183 2 -0.715054 17.595 10.5523 11.0522 -0.0100632 -0.00952514 0.00437263
1184 2 -0.789178 17.7945 12.4945 12.4206 0.00312327 0.00314573 0.00420984
1185 2 -0.706582 19.6019 10.7983 12.9112 0.00339345 0.00481437 0.00706932
1186 2 -0.731009 19.3427 12.7085 10.7647 0.00805153 -0.00704965 0.00537859
1187 2 -0.908696 17.6529 14.4428 14.3198 0.00264676 -0.000258766 0.00168571
1188 2 -0.823658 19.6755 14.3056 15.8771 0.00131046 -0.0236711 -0.0142976
1189 2 -0.797009 19.8076 16.1914 14.554 -0.0220287 0.00105973 0.00597284
1190 2 -0.914159 17.9187 16.2463 16.1133 0.00453048 0.0103441 -0.0119009
1191 2 -0.715428 21.5711 10.5212 14.0481 -0.00105841 0.00428843 -0.00257178
1192 2 -0.82384 21.147 12.4872 15.8104 -0.00231492 -0.00847604 0.00406362
1193 2 -0.767005 23.0684 12.5277 14.2357 0.00783979 0.00228923 0.00541146
1194 2 -0.945967 22.8545 10.6744 16.3852 -0.00488802 2.90709e-05 -0.00513312
1195 2 -0.876829 21.2577 14.1077 11.3008 -0.0101979 -0.00697979 -0.00800286
1196 2 -0.786043 21.6822 16.0856 12.9276 -0.00862291 0.00919333 0.00782303
1197 2 -0.731893 23.5345 14.5967 12.6831 0.0207995 0.000164324 -0.00607774
1198 2 -0.846504 22.8481 16.0479 10.7733 0.00556863 0.00312071 -0.00432743
1199 2 -0.671504 17.2206 10.5626 17.9725 -0.00182317 -0.00533189 6.43061e-05
1200 2 -0.740889 17.5585 12.2777 19.2648 -0.0196325 0.024374 0.00250023
1201 2 -0.771114 19.5943 10.6878 19.4074 -0.00708694 0.00738475 0.00632975
1202 2 -0.844153 19.1434 12.4184 17.4258 -0.0034772 -0.00844826 0.00568054
1203 2 -0.913691 17.7441 14.5916 21.004 0.00793201 -0.00589611 -0.00595608
1204 2 -0.827616 19.5898 14.4069 22.7036 -0.0039569 -0.00194455 0.0126473
1205 2 -0.744976 19.428 16.4815 21.52 0.00702497 0.00505292 0.000437412
1206 2 -0.88287 17.3677 16.2043 23.1379 -0.00755582 9.76422e-05 -0.00491091
1207 2 -0.799769 21.5277 10.4477 21.2282 0.00456459 -0.0131201 -0.00689086
1208 2 -0.751476 21.0368 12.3158 23.204 0.00107831 0.00279054 0.000454523
1209 2 -0.69245 23.0351 12.4042 21.3065 0.000146852 0.0125189 -0.00343085
1210 2 -0.779902 23.4711 10.6819 23.3082 -0.00358966 -0.00280573 -0.000175018
1211 2 -0.763234 21.2644 13.9607 17.9042 -0.00972545 0.0226343 0.00437298
1212 2 -0.73522 20.8331 15.9104 19.4927 0.00623701 0.00178782 0.010407
1213 2 -0.771225 23.3564 13.9958 19.3951 0.00567127 -0.00956204 0.00477521
1214 2 -0.644405 22.336 16.2442 17.769 0.0080585 0.00360337 -0.0129444
1215 2 -0.895427 18.2407 10.8442 24.6444 0.00104703 0.00039143 0.00189731
1216 2 -0.901223 17.6474 12.4408 26.409 -0.0149453 0.00542207 0.00565053
1217 2 -0.855165 19.7627 10.8499 26.4255 -0.00656473 0.00181244 0.00429785
1218 2 -0.805212 19.5809 12.9135 25.0054 0.00140475 -0.0015507 0.016322
1219 2 -0.719065 17.5964 14.2765 28.2921 -0.00110526 0.020692 -0.0029457
1220 2 -0.675878 17.5301 16.1363 30.1102 -0.00302741 -0.00580604 0.00280798
1221 2 -0.694286 19.7013 16.3157 28.7138 -0.00392862 -0.00576767 -0.00194041
1222 2 -0.841168 21.4047 10.6859 28.3206 -0.00377488 -0.00243174 0.0118347
1223 2 -0.811777 23.1428 10.5298 29.8402 -0.008765 -0.00174998 -0.00437043
1224 2 -0.8258 23.0047 12.511 28.5169 -1.72205e-05 -0.00202565 -0.00317712
1225 2 -0.793492 21.4929 14.5081 24.4537 -0.00548097 -0.00415341 -0.0039324
1226 2 -0.86762 20.9802 15.9781 26.475 -0.00799018 -0.00337477 0.00308837
1227 2 -0.900339 22.8314 14.1024 26.6695 -0.0072821 0.00991585 0.00547737
1228 2 -0.719706 23.0957 16.3194 24.9034 -0.000591322 -0.00135151 0.0064778
1229 2 -0.856775 17.4372 17.6933 3.24674 -0.0087134 -0.00199385 -0.0055732
1230 2 -0.871589 18.0209 19.6028 4.96385 -0.000255797 0.00194088 -0.00064721
1231 2 -0.910961 19.4447 17.4886 4.9463 0.00833974 -0.00974019 -0.00191704
1232 2 -0.850379 19.3775 19.3095 3.05829 -0.00880451 0.00656656 -0.0144402
1233 2 -0.891738 17.9656 21.1241 6.82327 0.00548117 -0.00350158 0.0127203
1234 2 -0.742204 19.2063 20.8911 8.78715 0.0098389 -0.00058016 -0.00149194
1235 2 -0.798909 19.369 23.1807 7.2897 -0.00449908 -0.0007615 -0.00179887
1236 2 -0.855281 17.5419 22.8511 8.72984 -0.0081622 0.00477313 -0.0162917
1237 2 -0.749862 21.0777 17.8107 6.67106 -0.00266148 -0.00528772 -0.00336291
1238 2 -0.650126 20.9398 19.5937 8.28431 0.000207993 -0.000360565 0.00130312
1239 2 -0.844894 22.9858 19.3808 7.09741 0.00831729 0.000989184 0.00302756
1240 2 -0.843813 22.5368 17.6299 8.83335 0.00272839 0.0140628 0.014818
1241 2 -0.911719 21.1847 21.0663 3.54173 0.00166356 0.00823577 0.0036837
1242 2 -0.906991 19.6639 21.0683 29.9392 -0.0132601 -0.0107448 -0.00237213
1243 2 -0.810007 21.5644 19.658 29.9553 -0.00299435 0.00370056 0.000313777
1244 2 -0.86748 21.0467 22.9103 5.25077 -0.000736957 0.000677811 -0.00837162
1245 2 -0.768426 23.1538 21.4042 5.20985 -0.00213794 -0.0124209 0.00736282
1246 2 -0.851618 22.9825 22.6444 3.31278 0.0116549 0.00636312 0.010786
1247 2 -0.8029 17.5516 17.8337 11.0636 -0.0124742 0.00311683 0.000899522
1248 2 -0.837227 18.0185 19.7024 12.7856 -0.0239729 -0.00386131 0.00368258
1249 2 -0.862737 19.6207 17.7499 12.4621 -0.00647196 0.000509413 0.0161911
1250 2 -0.867037 19.5805 19.2161 10.6737 0.0030997 -0.0027026 0.00113942
1251 2 -0.856725 17.4486 21.6221 14.0941 -0.00650581 0.000958967 -0.00455874
1252 2 -0.963516 19.1137 21.6045 16.0165 0.00302264 0.00508026 0.00656759
1253 2 -0.796292 19.1667 23.5639 14.1426 0.00977452 -0.00802178 -0.00448048
1254 2 -0.842337 17.3498 23.3974 15.7307 0.00184685 0.00527277 -0.00701508
1255 2 -0.915173 21.1774 18.1214 14.4012 -0.00775137 -0.0116385 0.000835537
1256 2 -0.856537 21.1698 19.7255 16.3151 -0.00765668 -0.00410098 -0.000172394
1257 2 -0.864255 22.8714 20.0028 14.3749 -0.00963359 -0.00929938 0.0016957
1258 2 -0.849282 22.9728 18.2238 16.2675 -0.0110627 0.00327982 -0.000917377
1259 2 -0.829951 21.3638 21.0689 10.6815 -0.00816026 -0.00937984 -0.00867196
1260 2 -0.795058 20.8015 23.1759 12.4033 0.016027 -0.00104646 -0.00354067
1261 2 -0.800832 23.0726 21.5597 12.5409 -0.00927576 -0.00180507 0.0118087
1262 2 -0.73567 22.8853 23.1014 10.5576 0.00517648 0.00855668 0.00524018
1263 2 -1.01366 17.724 17.9946 17.7604 -0.00978993 0.0216972 -0.00906772
1264 2 -0.841954 17.6094 19.7607 19.6509 0.00218848 0.00698615 0.00157478
1265 2 -0.873277 19.3484 18.0673 19.5823 0.00305698 0.0138883 -0.00571722
1266 2 -0.859225 19.2565 19.9222 17.8396 0.0103187 -0.0189899 -0.00909009
1267 2 -0.68465 17.6754 21.156 21.576 -0.00664347 0.00311653 0.0143928
1268 2 -0.741894 20.0521 21.2621 22.583 0.0180739 0.00931238 0.00514643
1269 2 -0.751035 19.3688 23.5403 21.5449 0.0128377 0.00598808 -0.000568261
1270 2 -0.700319 17.7091 22.502 23.6783 -0.00537579 0.00774734 0.000689055
1271 2 -0.893722 21.4287 18.1001 21.1315 -0.00349679 -0.004391 -0.00372639
1272 2 -0.860151 21.7744 19.5101 23.0798 0.00702311 0.00253832 -0.0117412
1273 2 -0.766918 23.5317 19.3942 21.2881 0.0016451 -0.0148948 0.00792522
1274 2 -0.841365 23.391 17.609 22.7076 -0.0038017 0.0126964 0.020476
1275 2 -0.62042 21.011 21.8652 17.7113 0.00682324 0.000383989 0.00678444
1276 2 -0.716848 21.0346 23.1039 19.7616 0.0137354 -0.00736672 0.00393476
1277 2 -0.580595 22.8797 21.0368 19.4044 0.00304399 0.0102705 -0.00369722
1278 2 -0.74098 22.7976 23.3103 17.697 -0.00392543 -0.0105899 -0.000353572
1279 2 -0.926966 17.8177 17.5494 24.9968 -0.00322452 0.00471717 0.0104824
1280 2 -0.857358 17.8975 19.4655 26.3482 -0.0175205 -0.00219371 -0.00961181
1281 2 -0.807482 19.941 18.0945 26.6472 0.000422815 0.00476415 0.00789688
1282 2 -0.854046 19.8883 19.3619 24.6072 0.013552 0.00295438 -0.00455314
1283 2 -0.948271 17.7894 21.3368 28.1569 -0.00208184 0.0029007 -0.00935939
1284 2 -0.845727 17.8774 22.8675 30.1583 -0.0020277 -0.00507789 0.00280391
1285 2 -0.884382 19.4581 23.2507 28.4592 -0.00150509 0.000667885 -0.0102383
1286 2 -0.837126 21.7388 17.6955 28.2364 -0.0133052 0.00336615 -0.00693591
1287 2 -0.859728 22.9557 17.856 30.5192 0.00585903 -0.00145466 -0.00657465
1288 2 -0.757799 23.6311 19.3228 28.3974 -0.00668458 0.00630351 -0.00199493
1289 2 -0.870302 21.6024 21.585 24.5691 0.00608705 -0.00319557 0.00124149
1290 2 -0.783565 21.2132 22.5898 26.8826 -0.00352516 -0.000534541 0.00167227
1291 2 -0.788274 22.9172 21.0396 26.626 -0.00198827 -0.00397939 0.00674824
1292 2 -0.838057 22.9694 23.4078 25.3747 -0.00641777 -0.00570876 0.0025811
1293 2 -0.805932 18.3153 24.5307 3.26896 -0.00273727 -0.00957621 0.00704053
1294 2 -0.874591 17.3867 26.1331 5.04435 -0.00894896 0.00863301 -0.00023699
1295 2 -0.854643 19.3065 24.772 5.39581 -0.00932656 0.00334797 0.0231046
1296 2 -0.918179 19.2404 26.6773 3.39292 -0.00876322 -0.00543527 -0.00678283
1297 2 -0.769828 17.7813 28.0309 6.31456 0.00736561 0.00699886 0.00530542
1298 2 -0.715308 19.3814 28.1925 8.44493 0.00601963 -0.00119426 0.00742754
1299 2 -0.85662 21.1429 25.1157 7.11767 -0.00263683 0.0101156 0.00511591
1300 2 -0.792083 21.3552 26.8419 8.85858 -0.000641336 -0.011631 0.00141342
1301 2 -0.854299 23.3174 26.507 7.02876 0.00021812 0.0135963 -0.00508735
1302 2 -0.766944 23.021 24.74 8.59027 -0.00154473 -0.00513796 0.0211607
1303 2 -0.821171 21.2831 28.3538 3.13779 -0.00711941 0.00132129 0.000842492
1304 2 -0.770291 19.6668 28.7568 30.0637 -0.00795119 -0.012141 -0.0117236
1305 2 -0.849241 21.1921 26.3801 30.1909 -0.0021605 -0.00440989 -0.00310484
1306 2 -0.8131 23.2609 29.6502 3.31318 -2.34698e-05 -0.00350781 0.00665728
1307 2 -0.742355 22.7224 27.7981 5.05383 -0.0148217 -0.00223568 -0.00277998
1308 2 -0.839094 17.5712 24.8678 10.6759 0.0112693 -0.0104529 0.00350279
1309 2 -0.808936 17.4589 26.7116 12.4324 -0.000253069 0.00747872 -0.00387714
1310 2 -0.793634 19.4447 25.2075 12.386 0.0134101 -0.0118794 -0.00982444
1311 2 -0.706695 19.4342 26.2642 10.383 0.00644661 -0.00811068 -0.013137
1312 2 -0.85424 18.0172 28.1867 14.6934 0.00782462 -0.0103228 -0.0152385
1313 2 -0.86114 20.0983 28.7322 15.9256 0.00579553 -0.00250943 0.00360065
1314 2 -0.823492 21.2736 25.2509 14.2082 -0.00124981 0.00391742 -0.00471208
1315 2 -0.854958 21.6773 27.005 16.2721 -0.00538134 0.00354948 0.00975058
1316 2 -0.852548 23.2109 26.6452 13.8875 -0.00367358 -0.00153527 0.00639011
1317 2 -0.734118 23.0625 24.9113 15.5808 0.00765806 -0.0153664 0.0145291
1318 2 -0.681968 21.4345 28.7711 10.5096 0.00432366 0.00471734 -0.0158129
1319 2 -0.813794 23.3394 30.1395 10.4812 0.00133293 0.00825446 0.000661539
1320 2 -0.94515 23.3777 28.6505 12.5249 -0.00951878 -0.0193556 0.00905186
1321 2 -0.820924 18.0042 24.8914 17.5836 0.00158539 -0.014195 0.00210811
1322 2 -0.980532 17.7426 26.8533 19.233 -0.00675454 0.00714737 0.011802
1323 2 -0.82069 19.6074 25.075 19.3488 -0.0016661 -0.00269374 -0.0074272
1324 2 -0.849965 19.6985 26.6324 17.6804 -0.00325296 -0.00430112 -0.00372572
1325 2 -0.883705 18.1853 28.3244 21.1011 0.00595743 -0.000307492 -0.0146009
1326 2 -0.92096 19.4614 28.232 23.2961 0.00625792 -0.0112524 -0.002261
1327 2 -0.919869 21.3857 25.3342 21.2025 0.010937 0.00976309 0.00759159
1328 2 -0.907778 21.3685 26.7452 23.3103 -0.00412692 -0.0098081 0.00438233
1329 2 -0.921751 23.1278 27.1817 21.4231 -0.00346516 -0.00980283 -0.010377
1330 2 -0.908408 23.0665 25.1172 23.0511 -0.00364439 0.00400872 -0.00798397
1331 2 -0.812233 21.11 28.6785 18.2379 -0.000633082 0.00644871 -0.00294598
1332 2 -0.822439 22.9805 30.3795 17.567 0.0098798 0.0106214 0.018194
1333 2 -0.818266 23.2088 28.2714 19.1859 0.0120794 -0.0128033 -0.00108209
1334 2 -0.811691 17.9372 24.8061 25.1489 -0.0162884 -0.00382542 -0.00129896
1335 2 -0.646204 18.2877 26.2489 27.208 0.00233834 -0.00285206 -0.00082447
1336 2 -0.793577 20.0887 24.7102 26.5242 0.00789145 0.00880218 0.0128248
1337 2 -0.79629 19.8375 26.7371 25.3481 0.000496524 0.00883072 -0.00482001
1338 2 -0.697236 17.9897 28.2703 28.357 0.00589168 -0.00537745 -0.00353064
1339 2 -0.786461 21.9146 24.5699 28.5418 0.00486617 -0.0018085 0.00220347
1340 2 -0.867898 23.4485 25.0515 30.5666 -0.0106339 0.007151 0.00457462
1341 2 -0.792818 23.1403 26.8227 28.6845 0.0110098 0.00106508 0.00518349
1342 2 -0.931486 21.314 28.7927 24.7032 0.00297751 -0.0014018 -0.00519842
1343 2 -0.876627 23.3496 30.1528 25.1211 0.0117096 -0.00364062 0.000600578
1344 2 -0.818453 22.768 28.5073 26.8586 -0.00078765 0.00328325 0.00974601
1345 2 -0.848017 24.8789 3.14855 3.98758 -0.0109294 0.00102443 -0.00352935
1346 2 -0.849438 25.0135 29.9838 30.2393 0.0082428 -0.00485128 -0.00702638
1347 2 -0.758277 24.6581 5.03571 5.61923 -0.000422671 0.00159864 0.00204536
1348 2 -0.77042 26.5445 3.45381 5.51026 0.0119636 -0.00440285 -0.0183325
1349 2 -0.833369 26.499 5.09392 3.49908 0.00723446 0.000814915 -0.00477781
1350 2 -0.820406 24.7507 7.09371 7.37763 0.00404718 -0.00864212 -0.00712452
1351 2 -0.866869 26.7285 7.1549 8.95514 -0.00995509 -0.0103003 -0.00415795
1352 2 -0.779335 27.0625 8.68892 7.32004 0.0142222 0.00420919 0.00148865
1353 2 -0.960542 25.0898 8.95258 8.91567 -0.00315666 -0.00942308 0.0123767
1354 2 -0.87199 28.4118 3.64285 7.23495 0.00690096 0.000671345 -0.00433915
1355 2 -0.785143 26.9987 30.0415 6.97554 -0.00330547 -0.00684832 -0.0069229
1356 2 -0.70923 28.8494 30.0849 5.24919 -0.00102813 0.00388604 -0.00579856
1357 2 -0.93906 28.4596 5.45915 9.19863 0.00435291 0.00325998 -0.00572146
1358 2 -0.834557 28.0389 7.14084 3.55744 0.00744144 -0.00420772 -0.0129765
1359 2 -0.87818 26.6148 6.91154 29.9817 -0.00804426 -0.0115469 -0.00175177
1360 2 -0.859123 28.5086 5.42183 30.2834 -0.00230552 -0.00116544 -0.0137364
1361 2 -0.702917 28.7874 8.86207 5.4488 -0.00600224 -0.00387788 -0.0114964
1362 2 -0.897339 24.7292 3.71442 10.3271 -0.00428084 0.00822504 0.0124054
1363 2 -0.898788 25.1033 30.0672 8.93062 0.0065306 -0.00059522 -0.0137119
1364 2 -0.88734 24.8625 5.19907 12.5427 0.00604285 -0.00449068 0.0116911
1365 2 -0.789549 26.2159 3.40639 12.2501 -0.00120802 0.00339407 0.00152542
1366 2 -0.928454 26.6722 5.42836 10.9354 -0.0103894 -0.00108405 0.00684771
1367 2 -0.805367 25.0535 6.9537 14.2485 0.00432093 0.00170693 0.0131663
1368 2 -0.82807 26.8367 7.35727 16.0553 -0.0078436 0.00781583 0.0112463
1369 2 -0.907674 26.2688 9.02366 14.0893 0.00552178 0.00756333 0.00198784
1370 2 -0.833046 24.6853 8.71386 16.0582 0.0142575 -0.00145521 -0.000321862
1371 2 -0.761051 28.1943 3.88641 13.959 0.0148644 0.00225724 0.00418643
1372 2 -0.756196 26.4548 30.2237 14.0267 -0.0115789 -0.0182388 -0.0100792
1373 2 -0.806753 28.4011 30.3712 12.2892 -0.0152666 -0.00384232 0.00825888
1374 2 -0.711643 28.7922 5.62695 16.0463 0.000292416 0.00398407 -0.00600426
1375 2 -0.927948 28.415 7.3347 10.7805 -0.00287804 -0.00899997 -0.00461318
1376 2 -0.756093 28.5691 9.0482 12.6139 -0.00187711 0.00290865 0.0173188
1377 2 -0.86695 24.561 3.70341 18.1851 0.00837413 0.00037931 -0.00293533
1378 2 -0.823083 24.8758 30.8712 16.1466 -0.00391943 0.00681155 0.00324843
1379 2 -0.803102 24.8973 5.61049 19.7275 0.013513 0.00564205 -0.00292786
1380 2 -0.844249 26.5534 3.72633 19.6468 0.0049834 -0.00177165 0.00867294
1381 2 -0.807859 26.9033 5.29188 17.846 -0.00438959 -0.00155375 0.0205156
1382 2 -0.811171 24.4409 7.42711 21.6987 -0.0129489 0.0138421 -0.00980153
1383 2 -0.778106 26.511 6.84697 22.9434 0.00167367 -0.0211018 -0.00313685
1384 2 -0.814048 26.6305 8.73533 21.1498 -0.00189435 0.0249878 0.000597762
1385 2 -0.834463 25.3807 9.05616 23.3503 -0.0215712 0.00868701 0.00380893
1386 2 -0.863292 28.4175 3.31125 21.5838 0.00223953 -0.00754413 0.00970147
1387 2 -0.909812 26.4377 30.4646 21.2162 0.0069545 0.00439603 0.00450095
1388 2 -0.853365 28.3135 30.2358 19.4906 -0.00636814 -0.0073143 0.00289869
1389 2 -0.806792 28.6191 5.60741 23.0136 0.00740238 3.44869e-05 -0.00807655
1390 2 -0.771862 28.4737 7.22986 17.9585 0.00123005 0.0125524 0.00324907
1391 2 -0.846861 28.9591 8.66495 19.8032 -0.00870472 0.00867091 0.00420835
1392 2 -0.827915 25.1608 3.52469 25.0134 -0.00548249 -0.00302077 -0.0100549
1393 2 -0.820672 25.1263 30.0519 23.2668 0.0129997 0.00911172 0.00426146
1394 2 -0.89804 24.8422 5.33899 26.5104 -0.00123004 0.0133101 -0.00483369
1395 2 -0.895444 26.9354 3.56546 26.7489 0.00917912 0.00171128 0.0152605
1396 2 -0.865653 26.9741 5.3511 24.9458 -0.000424931 0.00501447 -0.000375096
1397 2 -0.8267 25.0445 7.36718 28.0054 0.0102027 -0.0197157 -0.0039573
1398 2 -0.86102 24.9065 8.55819 30.314 -0.00817628 0.0075267 -0.00257873
1399 2 -0.823782 26.8834 8.76956 28.5972 0.0066431 0.007635 -0.00222351
1400 2 -0.87859 28.4795 3.30269 28.8097 0.00146938 0.00551971 0.00278008
1401 2 -0.940932 26.844 29.9294 28.3034 -0.000508797 0.00185129 -0.00714945
1402 2 -0.890497 28.6566 30.1093 26.8785 -0.00380671 0.00137021 0.00268922
1403 2 -0.845456 28.5764 7.51785 24.4061 -0.015162 0.00218153 0.00639109
1404 2 -0.796821 28.4161 9.30406 26.218 -0.00343822 0.00245288 0.00397569
1405 2 -0.771095 24.9066 10.3302 3.71556 -0.00527321 0.0118947 0.0135038
1406 2 -0.804105 25.0977 12.6287 5.19677 -0.0059627 0.00811604 -0.00564465
1407 2 -0.788931 26.6803 10.5344 5.15913 -0.00766299 -0.00184049 -0.0070118
1408 2 -0.774915 26.7932 12.1458 3.19096 8.06558e-05 0.00525244 0.00851138
1409 2 -0.811046 25.213 14.3117 6.93243 -0.00739742 -0.0123682 0.00091666
1410 2 -0.839168 26.7206 14.7145 9.31612 0.0010337 0.000184593 -0.00629785
1411 2 -0.833664 26.7453 16.1395 7.35718 0.0120458 0.00182512 0.00762169
1412 2 -0.820594 24.4987 15.8846 8.53483 0.000214143 -0.00669052 0.00830265
1413 2 -0.894699 28.2651 10.9675 7.02363 0.00451452 -0.000677264 -0.000223891
1414 2 -0.759905 28.0692 12.6459 8.7375 0.00244081 -0.00396751 0.00144728
1415 2 -0.737993 28.2425 14.3093 3.10794 0.0134052 -0.00565356 0.00121864
1416 2 -0.911588 26.1944 14.0266 30.1496 -0.00399755 0.0116451 0.0121539
1417 2 -0.868311 28.4507 12.6178 29.7038 0.000268486 -0.0152401 -0.0037304
1418 2 -0.783486 28.4701 15.6448 5.27828 -0.00721075 -0.0023291 -0.00664101
1419 2 -0.821598 24.6756 10.4331 10.9844 0.00126879 0.00952844 0.00864125
1420 2 -0.855736 24.8528 12.5671 12.4391 0.00962978 -0.000439539 0.0109097
1421 2 -0.848355 26.8198 10.8571 12.4025 -0.0080237 -0.00251218 -0.00842781
1422 2 -0.922006 26.4092 12.4354 10.5716 -0.00958891 0.00468498 -0.000798697
1423 2 -0.541672 24.8507 14.4409 14.7558 0.0224988 -0.0028913 -0.000271199
1424 2 -0.675705 26.9641 13.9902 16.1108 -0.00375442 -0.00461793 0.00274526
1425 2 -0.673791 26.5353 15.9504 14.1968 -0.0122622 0.0152584 -0.000132826
1426 2 -0.766006 24.3807 16.1728 16.2257 -0.00600978 0.00894416 0.00643443
1427 2 -0.794542 28.4138 10.2454 14.4592 -0.00663157 -0.0065108 -0.00507973
1428 2 -0.928261 28.6094 12.288 16.0613 0.0115467 0.00151385 0.0044171
1429 2 -0.901122 28.2032 14.1762 10.9905 -0.00063265 -0.00778754 0.000701101
1430 2 -0.802227 28.4781 16.2652 12.5249 -0.0122087 -0.00414584 -0.00311759
1431 2 -0.851595 24.9332 10.4884 17.8784 -0.00173274 -0.0070273 0.00274578
1432 2 -0.796932 25.1843 12.2505 19.7196 0.00277938 0.00255114 -0.00792517
1433 2 -0.778265 27.219 10.3841 19.47 -0.00707738 0.00121836 0.00531332
1434 2 -0.80227 26.7174 12.0446 17.4622 0.0129589 0.00590669 -0.00541155
1435 2 -0.914694 24.8792 14.2977 21.2008 0.0116351 0.00194084 0.00838606
1436 2 -0.929519 26.74 14.0878 23.0424 0.00643888 -0.00671626 0.00351533
1437 2 -0.962365 26.7483 15.8206 21.3007 -0.00068629 0.00198544 0.0047915
1438 2 -0.89942 25.0178 15.7984 23.1435 0.00287271 0.00412592 0.00324431
1439 2 -0.826942 28.4178 10.4072 21.7749 0.00572904 0.000680286 -0.000830696
1440 2 -0.815206 28.5168 12.1018 23.5527 -0.00350928 0.000375176 0.00279461
1441 2 -0.969561 28.3083 14.244 17.9727 -0.00136487 -0.00292516 -0.00515221
1442 2 -0.95111 28.4234 16.129 19.5195 -0.00515935 -0.010138 0.0101388
1443 2 -0.887789 24.6602 10.4365 25.3123 -0.0098147 0.00533102 -0.00799344
1444 2 -0.952876 24.6287 12.2686 26.8493 0.00668495 0.000124582 0.00566906
1445 2 -0.964803 26.468 10.5382 26.9002 0.0138647 -0.00138481 -0.00967657
1446 2 -0.912905 26.3488 12.3937 25.1967 -0.0099942 0.0111612 -0.00164359
1447 2 -1.01424 24.835 14.3587 28.298 -0.00668908 -0.00214477 -0.00894098
1448 2 -0.917872 24.8148 16.1054 30.1716 -0.00227648 -0.010743 0.00991634
1449 2 -0.9138 26.7393 15.9091 28.6455 -0.0163283 0.000381781 -0.0151749
1450 2 -0.841313 28.6012 10.3278 28.5267 -0.00488908 -0.0109011 0.00839223
1451 2 -0.830486 28.1943 13.9178 25.0279 0.010436 -0.00206722 0.00469681
1452 2 -0.774707 28.5041 16.0104 26.3558 -0.00058406 -0.0175103 0.00480685
1453 2 -0.800735 24.9149 17.5135 3.89243 0.0062074 -0.00346925 0.00584283
1454 2 -0.810035 24.9701 19.7552 5.27495 -0.000123644 0.00248371 -0.00782564
1455 2 -0.778894 26.8001 17.9448 5.46371 -3.56842e-05 -0.00668363 0.00137362
1456 2 -0.722261 26.4566 19.6557 3.37172 -0.00348866 0.00561613 -0.000965278
1457 2 -0.841442 24.5195 21.3335 7.1011 0.0121716 0.00426988 -0.010262
1458 2 -0.649835 26.5475 21.281 8.81954 0.00175226 -0.00908112 -0.0101467
1459 2 -0.804672 26.7286 22.9947 6.94142 -0.0165084 -0.0118463 -0.00423469
1460 2 -0.575411 24.8851 23.3684 8.72196 0.000837733 -0.003127 -0.00775729
1461 2 -0.823748 28.5823 17.9116 6.91646 -0.00738263 0.00345629 -0.00739089
1462 2 -0.902009 28.5745 19.4131 8.86736 -0.0110712 8.0711e-05 -0.00663198
1463 2 -0.849254 28.2373 21.3131 3.70558 -0.00120783 -0.0124924 0.00713685
1464 2 -0.864503 26.5534 21.3961 30.3103 -0.000879505 -0.00476509 -0.0156946
1465 2 -0.807927 28.3581 19.4831 30.3625 0.0109183 -0.00747985 0.0187404
1466 2 -0.72479 28.7173 23.4839 5.19205 0.00287039 -0.00173403 -0.00364899
1467 2 -0.623498 24.3123 17.9454 10.3658 -0.00124188 0.0111791 -0.00798885
1468 2 -0.660402 24.3455 19.1224 12.3932 0.00275122 0.0165616 -0.0126512
1469 2 -0.678991 26.2057 17.216 12.306 0.0185728 -0.000537027 0.0111614
1470 2 -0.7169 26.5203 19.5272 10.782 -0.00660992 0.00566496 0.000712478
1471 2 -0.729043 25.2253 21.4237 13.8535 0.00287935 0.00332804 -0.000575967
1472 2 -0.859733 26.405 21.1848 16.0113 0.00226232 -0.00250825 -0.0131443
1473 2 -0.816162 26.8306 23.3035 14.5458 -0.00373633 -0.00023714 0.00768387
1474 2 -0.821891 24.5962 22.772 15.7676 -0.00453544 0.0011614 -0.0098837
1475 2 -0.779673 28.133 18.2367 13.6733 -0.000545809 0.0094485 -0.00658523
1476 2 -0.895949 28.4015 19.3391 15.9881 0.00243819 -0.0100362 -0.000397764
1477 2 -0.720168 28.7703 21.0884 10.4663 0.0094039 -0.0111096 0.00796857
1478 2 -0.758727 28.0395 22.8954 12.3253 -0.00131515 -0.000780173 0.00219119
1479 2 -0.836421 24.6045 17.8283 18.2515 -0.00841626 0.0031285 0.0136063
1480 2 -0.724949 25.2261 19.7595 19.7741 -0.000467217 -0.0161424 0.00636369
1481 2 -0.866324 26.7085 18.0128 19.7441 -0.0127516 0.00198848 -0.000371464
1482 2 -0.873021 26.2742 19.5007 17.5289 -0.00459184 -0.00150253 -0.00590881
1483 2 -0.662798 25.0667 21.2512 21.9191 -0.0110622 0.00223043 -0.00626031
1484 2 -0.700641 27.1213 21.4949 23.0208 0.0105856 -0.0042324 -0.00132117
1485 2 -0.723742 26.7554 23.4681 21.2262 0.00108198 -0.0174738 0.00379863
1486 2 -0.643718 24.7844 23.3137 23.4626 -0.010508 -0.0024654 -0.00559342
1487 2 -0.893478 28.4817 17.7041 21.3446 0.0103327 -0.00378414 -0.00449213
1488 2 -0.885061 28.9929 19.4847 23.0588 0.000889578 0.00354313 -0.00674913
1489 2 -0.755353 28.3093 20.8948 17.8962 0.00633236 -0.0134039 -0.00271945
1490 2 -0.803956 28.3834 23.1203 19.0985 0.00665023 0.00203422 -0.00405221
1491 2 -0.793348 25.0184 17.6761 24.8525 0.00486116 0.00637375 -0.00294883
1492 2 -0.823052 25.007 19.6288 26.1624 -0.00421786 -0.00455324 0.0174461
1493 2 -0.673314 26.8576 17.5923 26.5582 0.0145187 0.00379991 -0.00486423
1494 2 -0.823647 27.1889 19.3127 24.7977 -0.0104026 0.016642 0.00717966
1495 2 -0.922392 25.0392 21.0071 28.3181 0.00387932 -0.00832071 -0.000868026
1496 2 -0.760786 24.6702 22.7599 29.9337 -0.00235514 0.0048794 0.00579475
1497 2 -0.961501 26.4589 23.0388 28.1436 -0.00780615 -0.00250886 0.000251465
1498 2 -0.660131 28.8921 17.5597 28.5596 -0.00211443 -0.00310443 0.00124978
1499 2 -0.827422 28.6073 21.2096 24.8801 0.00786909 -0.00725633 -0.00454368
1500 2 -0.95312 28.2615 23.2364 26.434 -0.00872136 -0.0257373 -0.0106224
1501 2 -0.809811 24.9554 24.1538 3.73884 0.00406322 -0.00449113 0.0115786
1502 2 -0.772702 25.047 26.4893 5.02786 0.00319459 -0.00201088 -0.00240016
1503 2 -0.844799 26.7246 24.8674 5.33464 -0.000867226 0.00384112 -0.00225612
1504 2 -0.846004 26.6136 26.113 3.15522 -0.00269609 0.0062366 -0.000670919
1505 2 -0.778179 24.9394 28.3273 7.10607 -0.00903517 -0.00452564 0.0093299
1506 2 -0.83065 26.8911 28.1125 8.50105 -0.00691321 0.00603003 -0.0183429
1507 2 -0.879192 28.8049 24.7602 7.11082 -0.0101023 -0.000107434 -0.0122288
1508 2 -0.894123 28.8545 26.6067 8.76607 -0.00938203 0.00450718 0.00844991
1509 2 -0.855516 28.006 28.3662 3.54862 -0.000228947 0.00108875 0.00174501
1510 2 -0.941137 26.5386 28.0497 30.1099 -0.0114488 0.00349035 0.0022952
1511 2 -0.73792 28.8432 26.9306 30.4218 0.00365653 0.000169649 0.0126234
1512 2 -0.722512 24.9314 25.3022 10.6127 0.00674884 -0.00834559 -0.00632725
1513 2 -0.814863 25.2145 27.0176 12.6404 0.00104071 -0.00401216 0.00601595
1514 2 -0.75677 26.2623 24.8176 12.6932 0.00376042 -0.0119189 0.000517488
1515 2 -0.663113 27.17 26.4317 10.7576 0.00390507 -0.0177415 -0.00913834
1516 2 -0.773244 24.5679 28.8046 14.6473 -2.76083e-05 -0.00304228 -0.000207957
1517 2 -0.871011 26.3746 28.6088 15.9895 0.00323035 0.00930769 0.0178767
1518 2 -0.871443 28.6427 24.8767 14.1726 -0.00846053 0.00505972 0.0188242
1519 2 -0.816928 28.3616 27.0289 15.6048 -0.0135516 0.000624308 -0.00996032
1520 2 -0.693526 28.2396 28.758 10.4024 -0.00313509 0.00588874 0.00375602
1521 2 -0.730339 24.989 24.7917 17.478 -0.00550289 0.00789336 -0.0176507
1522 2 -0.859155 24.7049 26.38 19.4979 0.00530128 0.000757056 -0.00906032
1523 2 -0.826616 26.5106 24.7309 19.3315 0.00822748 -0.00331759 -0.00925453
1524 2 -0.846202 26.7026 26.6205 17.639 -0.00376135 -0.00772003 0.0174144
1525 2 -0.936981 24.9747 28.6298 21.1668 -0.000443527 0.00574072 -0.00948253
1526 2 -0.996623 26.87 28.4196 22.7849 0.00264498 0.00572445 0.0046751
1527 2 -0.93853 28.8006 25.0501 20.8238 -0.00182692 0.00785326 -0.00654592
1528 2 -0.927415 28.5888 26.5624 23.0626 -0.00517012 -0.0183235 -0.00877204
1529 2 -0.903623 28.2673 28.4746 17.7906 0.0106706 7.7396e-05 0.00437596
1530 2 -0.827435 24.6997 25.0356 25.3094 0.00211602 0.00438897 -0.0119215
1531 2 -0.921262 24.9624 26.8168 26.9228 0.00297819 -0.0100181 0.00148595
1532 2 -0.962 26.7276 25.0633 26.7394 0.0036556 -0.00103802 0.0119323
1533 2 -0.792574 26.5306 26.7148 24.7332 0.00444131 -0.00595002 -0.00709088
1534 2 -0.799709 24.977 28.6787 28.2382 -0.00846446 -0.00110585 -0.000274253
1535 2 -0.667927 28.3296 24.7182 28.5558 0.0081596 -0.00391279 -0.0138501
1536 2 -0.786038 28.4839 28.5824 24.6071 -0.00261088 -0.00872963 0.0013995
1537 2 -0.590659 18.6014 11.4039 28.8542 -0.0185819 -0.00341286 0.00259671
1538 2 -0.694276 4.88769 7.45195 3.76879 0.00552815 0.00417104 -0.00316284
1539 2 -0.665857 16.5357 16.9932 6.57561 0.00621645 -0.00897587 -0.00448507
1540 2 -0.671075 6.92771 28.5862 12.6043 -0.00347758 -0.0100853 0.0139506
1541 2 -0.629039 28.2168 27.1929 27.5681 -0.00108322 0.00122426 0.00124954
1542 2 -0.641518 25.9005 12.1987 7.46271 -0.0019694 -0.000128809 0.0019189
1543 2 -0.586615 27.6815 9.89459 9.75985 0.00958812 -0.0108352 0.000373991
1544 2 -0.563613 7.75807 22.1252 8.07327 -0.00803035 -0.00816885 0.00884042
1545 2 -0.604793 27.8092 23.8848 9.47119 -0.00247125 -0.000487968 0.00475717
1546 2 -0.611343 20.6428 21.0217 13.2928 -0.0047199 0.00374867 0.0080724
1547 2 -0.578499 17.409 16.8831 27.5095 -0.00250095 0.0034644 -0.0080112
1548 2 -0.685924 28.7465 4.1496 4.71665 -0.0136401 0.00826979 0.0010028
1549 2 -0.594763 6.27324 20.3878 27.0012 0.00890493 0.010175 0.0122265
1550 2 -0.634903 10.723 22.9879 25.8431 0.0114771 0.00546826 -0.00403381
1551 2 -0.614397 27.298 23.9629 23.6995 0.00477542 -0.000638721 0.00531071
1552 2 -0.603232 13.5762 19.9055 5.54033 -0.00755833 -0.00196872 -0.00441932
1553 2 -0.648368 8.07941 7.73681 14.6913 -0.00163468 -0.00276763 0.00756987
1554 2 -0.581473 25.7349 22.3272 25.684 -0.0104102 0.00853051 0.00517879
1555 2 -0.608548 26.2142 19.0583 8.24931 -0.0028442 0.0132988 0.00349512
1556 2 -0.593546 25.4895 28.8927 4.94542 -0.00560418 0.0059486 -0.00858946
1557 2 -0.712313 3.84458 4.73601 10.7219 0.000806275 -0.00915855 0.000516324
1558 2 -0.587009 20.509 13.1545 20.4183 -0.00750993 -0.00348124 -0.00682063
1559 2 -0.669275 24.4101 6.15202 17.3899 0.00112772 -0.00417513 0.0161096
1560 2 -0.559087 11.5458 18.9435 22.2798 -0.00780453 0.00573225 -0.00868991
1561 2 -0.546528 27.1106 5.89036 5.98221 0.0020837 -0.010299 -0.00187111
1562 2 -0.64233 29.3055 22.3798 8.06254 0.00901277 -0.00276837 -0.0104917
1563 2 -0.696453 27.0684 16.6018 16.9059 -0.00911479 0.00515403 0.00222915
1564 2 -0.715631 16.7218 28.8454 8.77669 -0.0066461 0.00553873 0.00598726
1565 2 -0.626135 15.7554 26.275 25.9921 0.000809557 -0.00470446 -0.0160203
1566 2 -0.597086 14.5158 18.4659 11.2361 -0.00372545 0.00706811 0.00409236
1567 2 -0.591403 19.9949 13.9944 27.8627 -0.00515185 0.0107653 0.00173339
1568 2 -0.69594 18.9276 21.7373 11.0643 -0.00106663 -4.87845e-05 -0.00160163
1569 2 -0.584766 16.4329 23.6025 5.73397 0.00654634 -0.0049442 -0.00317893
1570 2 -0.602506 7.47314 10.9799 11.7249 -0.000105053 0.00205017 0.00851788
1571 2 -0.641624 22.5197 25.5013 11.2206 0.0146107 0.01048 0.00516483
1572 2 -0.639068 6.5545 2.73377 16.2368 -0.00362483 0.00594201 -0.0036671
1573 2 -0.644753 16.8202 13.4137 3.14722 0.0022382 0.0112551 -0.00506929
1574 2 -0.634325 13.2232 16.6571 9.66338 -0.00451301 0.00909476 -0.0106143
1575 2 -0.688314 12.9759 5.83142 13.1315 0.00103462 -0.0119989 8.61776e-05
1576 2 -0.592811 29.2098 22.3269 29.2806 0.0125078 -0.0162437 -0.00812726
1577 2 -0.66699 25.3363 22.1256 19.2799 0.0131674 0.00550807 -0.00579012
1578 2 -0.588824 11.8276 22.3163 4.01053 0.0138059 -0.000766765 -0.0003832
1579 2 -0.605896 8.43673 26.3683 11.3247 -0.00590472 -0.00646728 -0.00214198
1580 2 -0.63122 28.9616 14.8162 14.9815 0.00187228 0.0051333 0.00198395
1581 2 -0.600641 20.8009 9.87672 23.8604 0.00647538 -0.00270869 0.0071267
1582 2 -0.637809 22.3685 19.04 4.78957 -0.0106014 -0.00237107 0.00395578
1583 2 -0.655906 14.7274 14.9873 29.4334 -0.000750179 0.00666974 -0.0101131
1584 2 -0.613108 4.38003 4.67294 7.88848 0.00703918 0.00846851 0.0172365
1585 2 -0.626468 19.0937 29.4366 10.4889 0.0114075 -0.00755165 -0.0026163
1586 2 -0.606401 24.3891 9.77822 20.6489 0.00583789 0.0187254 0.0106332
1587 2 -0.639928 16.4353 20.637 17.4158 0.000179333 -0.000733957 0.000378304
1588 2 -0.569951 20.1924 9.86386 16.9866 0.00776628 0.00240028 -0.00268347
1589 2 -0.564121 21.9084 22.0923 7.99352 0.00905351 0.0120943 -0.00199609
1590 2 -0.59562 8.52077 25.5999 25.2316 -0.00989744 -0.00409543 0.00489068
1591 2 -0.660149 14.8222 23.2094 13.9238 -0.00443796 0.000451316 0.0109736
1592 2 -0.604326 29.2027 15.5245 7.52313 -0.00100624 0.0129135 -0.00138217
1593 2 -0.609578 30.8578 24.4579 27.4467 -0.00788964 -0.000700566 -0.000577931
1594 2 -0.642868 23.4365 23.8424 20.2078 0.0108823 0.00414048 0.00997772
1595 2 -0.574476 8.32165 22.7079 29.6524 0.00702604 -0.00871607 0.00261668
1596 2 -0.596513 16.3767 30.7721 27.2739 0.000750196 0.00229544 -0.00389699
1597 2 -0.675626 11.2532 12.4346 26.1204 0.00343871 -0.00554897 0.000762103
1598 2 -0.717098 3.01847 3.02426 27.6383 0.000340204 -0.00498159 -0.00269233
1599 2 -0.597313 25.72 7.86443 4.72932 0.00856919 0.00852933 0.0047956
1600 2 -0.662603 6.42095 13.6317 13.3258 0.00767889 0.00210232 -0.0106733
1601 2 -0.743352 6.22788 10.1203 30.3984 -0.000642556 -0.00646146 -0.00159114
1602 2 -0.579085 7.40613 7.90843 29.0818 0.0257067 -0.00124719 0.0168999
1603 2 -0.61084 7.96498 29.1259 29.6522 -0.0122561 -0.00595795 -0.0143504
1604 2 -0.595348 18.1874 29.5587 3.90298 -0.00753515 -0.00264738 0.00551925
1605 2 -0.62562 25.0856 11.5408 14.767 0.00782037 -0.0086518 0.00499378
1606 2 -0.60541 11.2407 3.67565 7.88691 -0.00069235 0.0111457 0.00287582
1607 2 -0.629457 11.8861 7.89847 10.8918 -0.00056429 -0.00681343 -0.00207167
1608 2 -0.638207 19.8932 23.91 23.6273 0.00802725 0.00120647 -0.000407415
1609 2 -0.57929 4.2829 15.0383 25.7279 -0.000694683 0.00493992 0.010693
1610 2 -0.606662 22.2809 22.6651 15.4054 -0.00110122 0.0141631 -0.00170632
1611 2 -0.669597 19.9618 10.3611 10.1081 -0.00189735 0.00287463 0.00478044
1612 2 -0.614157 18.3318 4.13387 15.5953 0.00786728 -0.0132205 0.00164492
1613 2 -0.717589 28.1128 19.7701 27.795 0.00745835 -0.00641273 -0.00462512
1614 2 -0.615675 14.6814 22.113 22.6023 -0.00890034 -0.00504866 0.0109102
1615 2 -0.587534 10.7472 29.3214 11.3949 -0.00836672 0.00813335 0.00841141
1616 2 -0.591885 6.4044 24.1262 9.92342 0.000920307 -0.000280497 -0.00493925
1617 2 -0.612003 11.4287 11.493 29.2524 0.0105347 -0.00432491 -0.00862156
1618 2 -0.595435 4.6531 26.5647 29.4209 -0.000574781 0.00974333 0.00485453
1619 2 -0.686841 7.92542 22.2607 22.1983 -0.0148088 -0.0045601 0.0101933
1620 2 -0.632252 14.9232 15.5759 21.5378 0.00615521 0.00690332 0.000954569
1621 2 -0.594914 25.655 15.1373 25.5495 -0.00379505 0.00648514 0.00836404
1622 2 -0.577278 23.8872 27.6582 24.0687 -0.000125992 -0.00994807 0.0171681
1623 2 -0.608428 24.1696 9.84281 6.01289 0.0176587 -0.00338182 0.00251681
1624 2 -0.683746 20.4806 27.6379 12.975 -0.00637992 0.00470743 -2.92389e-05
1625 2 -0.63125 20.3772 6.49246 27.6708 0.00992191 -0.00308937 -0.00172392
1626 2 -0.695823 3.12769 27.4965 17.1616 0.0125267 0.00574937 0.00514992
1627 2 -0.903846 15.8779 30.1273 10.9762 -0.00254765 -0.00604874 -0.0123088
1628 2 -0.588068 2.76259 13.6654 16.2682 0.000708821 -0.0090184 -0.00662755
1629 2 -0.627436 2.85034 19.9699 10.4968 -0.0124334 -0.00794289 -0.0064133
1630 2 -0.570137 24.2894 31.0935 27.6476 0.0041519 0.00576436 -0.00568476
1631 2 -0.641325 29.1229 15.0551 28.918 -0.00467304 0.00630525 -0.00549516
1632 2 -0.587631 13.526 9.48023 23.7443 -0.00704647 0.000549962 0.00641398
1633 3 0.355997 18.3378 12.2229 29.3359 0.00328181 -0.00808252 0.0183614
1634 3 0.388249 18.5463 10.9101 29.7242 0.0372748 0.0213768 0.0630421
1635 3 0.382088 4.67549 7.05842 4.61862 0.0121526 0.00793504 -0.00573913
1636 3 0.365811 4.20212 7.16328 3.0794 0.0469155 -0.0160201 -0.0224089
1637 3 0.404689 17.4266 16.7859 6.98197 -0.0694153 0.0442416 0.0176043
1638 3 0.380367 16.003 16.1166 6.75807 -0.0292329 -0.000827113 0.0122857
1639 3 0.47212 8.49843 28.2661 13.4775 0.0254944 -0.0129973 0.00363026
1640 3 0.385745 6.35034 27.7888 12.3971 0.0489558 0.000994447 -0.0215475
1641 3 0.415864 28.5185 28.0929 27.5038 0.00471802 0.0133527 0.0218912
1642 3 0.38494 27.1238 27.287 27.5374 -0.0524427 0.0657895 0.0231351
1643 3 0.424085 26.5293 11.6734 7.92771 0.0704696 -0.0287757 -0.00789562
1644 3 0.414448 26.3907 12.5884 6.68584 0.0636176 -0.0577136 0.000533302
1645 3 0.416269 27.1075 9.14409 9.51159 -7.40834e-05 0.047398 0.00845506
1646 3 0.357577 27.9258 10.1037 8.87993 0.051426 -0.00574927 0.0301519
1647 3 0.441478 7.98872 21.9266 7.21724 0.03706 0.0618455 -0.0343477
1648 3 0.383324 7.01189 22.8404 8.08029 0.0243284 0.00787534 0.00544278
1649 3 0.385567 27.7627 24.7077 8.94213 0.0201478 0.0595426 -0.0177889
1650 3 0.421657 28.604 23.9898 10.0857 0.0086677 0.0296392 -0.00384516
1651 3 0.334211 21.0687 21.8654 13.7928 0.0894065 0.021574 0.0652887
1652 3 0.399584 20.9901 20.173 13.7082 0.0282022 -0.0239081 0.0207068
1653 3 0.374962 16.5457 16.3674 27.39 -0.00581496 -0.0352155 -0.0652181
1654 3 0.402917 17.8489 16.6305 26.8204 0.0171943 -0.00370333 -0.0297104
1655 3 0.40977 4.70937 4.94151 8.74061 0.00322854 0.0225361 0.0110471
1656 3 0.416594 29.0331 4.99965 5.00197 -0.0551698 0.00547364 -0.070709
1657 3 0.414642 5.50786 20.0628 27.3609 0.00151282 0.0121248 0.0584087
1658 3 0.365766 6.81809 19.6515 27.2672 -0.0362321 0.0108174 -0.0264757
1659 3 0.402217 11.5292 22.6258 25.4923 -0.0481522 -0.0256376 -0.0479545
1660 3 0.434605 10.4448 22.323 26.351 -0.000880118 -0.0276112 0.0104196
1661 3 0.380157 27.9902 24.4284 23.205 -0.00893724 0.0223365 0.0241983
1662 3 0.379765 26.9318 24.6464 24.3806 0.0882548 0.00556069 0.011104
1663 3 0.443267 14.0542 20.0961 6.35453 0.00741449 0.0385652 0.000608258
1664 3 0.372887 13.4183 18.9689 5.65982 0.0464039 0.00589126 0.0133504
1665 3 0.433685 7.986 7.84909 15.6201 -0.035971 -0.0496848 -0.0129923
1666 3 0.378946 8.47167 8.53898 14.4213 -0.0380792 0.00384551 -0.0148262
1667 3 0.410152 25.8265 21.9755 26.5396 0.0222644 0.034987 -0.0764413
1668 3 0.427113 25.1663 23.1471 25.6214 0.0830457 0.0425704 -0.0556581
1669 3 0.395781 25.8566 19.5424 7.40805 0.0125485 0.0544868 0.0511332
1670 3 0.410544 26.8826 18.4014 7.84365 -0.00686042 0.0632607 -0.0102415
1671 3 0.385181 25.2005 29.8079 5.31488 -0.0334381 0.00369692 0.0523164
1672 3 0.433948 26.2571 29.0839 4.34968 -0.0331461 0.0433256 -0.0235677
1673 3 0.419944 3.34632 4.20871 11.2109 -0.0169608 -0.0238151 -0.0570665
1674 3 0.460936 4.30939 31.101 10.4973 -0.0760826 0.0253198 -0.0201836
1675 3 0.378552 21.1134 13.8882 20.3681 -0.00271298 0.0478256 0.00762782
1676 3 0.426346 20.8352 12.4988 20.9993 0.00843278 0.0378138 0.000177572
1677 3 0.436923 23.5401 6.41366 17.4253 0.06112 0.00273205 -0.0397148
1678 3 0.402694 25.0893 6.83817 17.19 -0.0266604 -0.00446408 -0.0705106
1679 3 0.413539 11.3758 19.7701 22.8462 -0.031159 0.0322595 -0.0261442
1680 3 0.418638 10.7816 18.4714 22.5339 -0.00685236 -0.0210261 -0.0460437
1681 3 0.35739 28.0579 5.63785 6.44767 -0.0151452 0.0382743 0.0150291
1682 3 0.398876 27.2369 6.27285 5.02455 0.0301196 -0.0419824 -0.0652684
1683 3 0.446269 30.0345 22.5761 8.60054 0.0590529 -0.0658373 -0.0747108
1684 3 0.468259 28.5247 22.4395 8.44794 -0.0131952 -0.031083 -0.0325569
1685 3 0.386324 27.4331 17.2233 16.2631 0.00422961 0.0184988 0.0196971
1686 3 0.378015 26.7687 17.0282 17.6779 -0.0274967 0.025234 -0.0578128
1687 3 0.376545 16.5141 27.9452 8.30078 -0.0151932 0.0534736 0.0149025
1688 3 0.400537 16.5753 28.68 9.6732 0.0111091 -0.00803095 -0.0232951
1689 3 0.348119 15.4314 26.7112 25.1181 0.0294841 -0.00620782 0.0434502
1690 3 0.371682 14.9144 26.1508 26.4891 0.0094038 0.0158449 0.0463016
1691 3 0.45194 14.9053 18.4422 10.3819 -0.0226458 0.0230548 -0.0184238
1692 3 0.427259 14.1215 17.6809 11.353 -0.0483579 0.00481285 0.0216997
1693 3 0.419452 20.9435 14.1229 27.533 -0.0423983 -0.0127572 0.0175651
1694 3 0.378859 19.4257 14.075 27.0089 0.0320461 -0.0184244 -0.0278761
1695 3 0.427271 18.0223 21.7207 11.0845 0.0480251 -0.0193048 -0.0728898
1696 3 0.462713 19.2707 21.9566 11.938 0.0116593 -0.0255365 0.0144819
1697 3 0.384133 16.7931 23.9756 6.62612 -0.0268669 -0.00302703 0.0146583
1698 3 0.41223 17.2718 23.9493 5.32316 -0.0444049 -0.0487666 -0.00633464
1699 3 0.394766 8.26084 10.6606 12.2024 -0.0423118 -0.02213 -0.00313678
1700 3 0.421787 7.48159 11.8972 11.9987 0.0323116 0.0174323 -0.0589258
1701 3 0.387893 23.1222 25.6894 12.0403 0.00922582 0.0203432 -0.00996084
1702 3 0.374544 22.1783 26.381 10.7796 -0.0358757 -0.0237654 0.00592697
1703 3 0.410199 6.69514 30.2974 16.6539 0.0167378 -0.0127272 0.0380374
1704 3 0.424823 6.20396 3.22559 16.9923 -0.0414331 -0.0478096 0.00121978
1705 3 0.3358 17.8362 13.3696 3.20236 -0.0737171 0.101437 0.00723225
1706 3 0.39723 16.5742 12.9455 3.90016 -0.0143945 0.0103058 -0.0140185
1707 3 0.389906 12.5319 15.9806 9.34873 0.0656768 0.0402973 0.0160834
1708 3 0.417907 13.9911 16.2527 10.0187 0.0177841 0.00125075 -0.0122098
1709 3 0.404528 13.8955 5.46815 12.9643 -0.00459579 -0.0152176 0.0686061
1710 3 0.39755 12.7564 5.63576 13.9818 0.0180348 0.0474807 -0.00811899
1711 3 0.408662 30.1707 22.2983 29.0152 -0.0232193 -0.00231225 -0.0363467
1712 3 0.358565 29.2822 21.6223 30.0006 0.00246456 -0.00241569 -0.0312135
1713 3 0.459131 25.4929 23.0686 19.1891 0.0094812 0.0356019 -0.0105713
1714 3 0.421461 26.1799 21.6882 19.0664 -0.0111061 -0.0420896 0.0239229
1715 3 0.408965 12.0943 22.8512 4.79272 0.035852 0.0161472 0.042437
1716 3 0.398993 11.0156 22.755 3.9676 -0.0021291 0.0230921 0.0579202
1717 3 0.400037 9.18664 26.1818 11.9664 -0.0339481 0.0285806 0.00405591
1718 3 0.350592 8.28521 25.494 10.9092 -0.0544892 -0.0498589 -0.0282702
1719 3 0.422182 28.3218 14.2862 14.5325 -0.0160192 -0.00345604 -0.015256
1720 3 0.413181 28.5378 14.9776 15.8946 0.0212883 0.000998753 0.0412705
1721 3 0.398756 20.5075 9.07621 23.3358 0.0134834 -0.00687409 -0.00597251
1722 3 0.451736 20.7552 9.55255 24.7616 -0.057959 -0.0487345 0.00648786
1723 3 0.432424 23.1134 18.9388 4.2984 0.0182627 0.027231 0.0235726
1724 3 0.426139 21.496 19.3435 4.42704 0.0205559 -0.0337937 0.0229312
1725 3 0.440827 14.9128 14.1919 29.2263 0.0142034 0.0477725 -0.0358189
1726 3 0.409199 14.657 14.9925 30.402 0.0169767 0.0324099 0.077833
1727 3 0.448082 3.67767 4.11032 8.1788 0.041552 0.0276258 -0.0116523
1728 3 0.445223 28.9342 3.62774 3.97305 0.0136401 -0.0106455 -0.0809209
1729 3 0.414032 15.1447 3.73535 12.2896 0.0284577 0.020441 -0.03519
1730 3 0.382555 18.6132 29.3904 11.3381 -0.017559 -0.0050734 0.064318
1731 3 0.432896 24.4119 9.2405 19.8938 0.0248159 -0.0271174 -0.00922132
1732 3 0.444471 23.5903 10.2751 20.7875 -0.0382905 0.0239157 -0.0140487
1733 3 0.391267 17.4006 21.1005 17.2232 0.0314983 0.0260668 -0.0136733
1734 3 0.423635 16.4251 19.8909 16.9251 0.0266465 -0.0404398 -0.0102556
1735 3 0.353988 20.1764 10.8925 16.9593 -0.00681342 -0.00308911 0.0037829
1736 3 0.416813 21.1158 9.66802 17.2331 0.00835303 -0.0398584 -0.0518323
1737 3 0.380562 22.0797 22.4271 7.14003 -0.0187004 0.0239447 0.0132726
1738 3 0.416714 22.2274 22.905 8.44751 0.00940037 2.45281e-05 0.0467064
1739 3 0.437815 10.8142 24.9091 23.8879 0.0319898 -0.0171987 -0.0345447
1740 3 0.375498 9.27134 25.7014 25.8145 0.0137624 -0.000945699 0.0137744
1741 3 0.427221 13.7643 25.6187 14.3438 0.0273734 0.0332812 -0.020929
1742 3 0.404633 14.8118 23.2154 14.9458 -0.00822769 0.0196091 0.0316121
1743 3 0.418969 28.71 14.7264 7.56899 0.0210132 -0.0873544 0.0301303
1744 3 0.427144 29.2584 15.8309 8.45478 0.0475241 0.0245623 0.013634
1745 3 0.3735 30.0777 23.8963 27.8055 -0.0439403 -0.0189201 -0.0169891
1746 3 0.39993 3.08506 23.7611 27.3193 0.0338313 0.0786427 -0.0544048
1747 3 0.413099 23.3723 24.6307 19.6997 -0.011929 0.0212422 -0.0222529
1748 3 0.364105 23.1954 24.304 21.1169 0.0521622 -0.0540714 0.0312458
1749 3 0.411073 7.49908 22.9738 29.1134 0.00284382 0.0202491 -0.0221859
1750 3 0.367137 9.02602 22.6316 28.9414 -0.0166775 0.011565 0.00644451
1751 3 0.413025 17.0363 3.03489 27.4213 -0.0363621 -0.0471476 0.018143
1752 3 0.3856 16.6595 30.2075 27.9799 -0.0172184 -0.0730538 0.0270547
1753 3 0.398754 10.325 13.0051 26.022 0.0018442 0.00207484 -0.0394834
1754 3 0.425589 10.3111 12.2738 27.975 0.0120876 -0.0184014 0.0108583
1755 3 0.417657 2.48314 3.86889 27.825 -0.00921833 -0.0347676 0.0125425
1756 3 0.390428 4.89289 25.5908 29.4855 0.0239083 0.00954027 0.0157021
1757 3 0.420082 24.9737 8.21405 5.39988 -0.00290136 0.00464847 0.0331299
1758 3 0.468847 25.8797 8.52121 4.10579 0.04249 -0.0551943 0.0232046
1759 3 0.437001 6.74528 13.931 14.0888 -0.005521 -0.00930683 0.0327793
1760 3 0.392221 5.57163 14.0951 13.2596 0.0019319 -0.00995606 0.0304583
1761 3 0.399997 6.4972 9.37042 30.9662 -0.0664357 0.0126969 0.0298418
1762 3 0.422135 7.80899 15.4327 28.6838 0.0299028 -0.0401322 -0.0145951
1763 3 0.392306 6.57347 7.84978 29.6835 0.0315907 0.0269709 0.0137254
1764 3 0.40337 7.80188 7.02596 28.9658 0.00234044 0.0445342 0.0334351
1765 3 0.425805 8.26691 28.4521 29.077 -0.0305303 -0.00803255 0.00918219
1766 3 0.405821 7.85044 29.9211 29.1692 0.0217969 -0.0552061 0.0245127
1767 3 0.396773 17.3902 29.0134 3.90298 0.0181977 0.0322202 0.0445884
1768 3 0.39771 18.7137 29.3154 3.03424 0.0372017 -0.0395473 0.0501697
1769 3 0.389598 24.7527 11.9214 15.5831 0.0247331 0.0175885 0.00250865
1770 3 0.402937 25.1706 10.6458 15.0259 0.046616 -0.0103578 -0.0874644
1771 3 0.459343 11.2414 3.7119 8.82439 0.0386021 0.00902237 0.0187908
1772 3 0.412604 10.7607 4.45771 7.48969 0.0655494 -0.036258 0.00262865
1773 3 0.38416 12.2672 7.42335 11.7511 0.0160742 -0.0968429 0.0255915
1774 3 0.421239 10.9595 8.06226 11.1742 0.0329387 0.0097207 0.00853149
1775 3 0.396451 20.7546 23.5591 23.7487 0.0580761 -0.03235 -0.0341335
1776 3 0.372745 19.4144 23.4515 24.2431 -0.0211886 -0.0144127 0.0242086
1777 3 0.422975 4.0562 14.9189 26.6802 0.00988315 -0.00418141 0.0134102
1778 3 0.456424 4.99398 15.5812 25.6206 0.0106572 0.00582716 -0.00777784
1779 3 0.376154 22.2881 23.3062 14.6444 0.0277829 0.0216027 -0.00698062
1780 3 0.420109 22.838 21.9782 15.0599 0.00462137 0.0134232 -0.0255227
1781 3 0.417152 20.6949 9.85856 10.4325 -0.00860257 -0.040986 -0.0144172
1782 3 0.388895 20.302 10.787 9.22513 -0.00426555 -0.0103643 -0.0141234
1783 3 0.352776 17.8863 4.98922 15.7455 -0.00949608 0.00907234 -0.0560722
1784 3 0.392494 19.1264 4.43854 16.1516 0.0518304 0.0217568 -0.0333387
1785 3 0.416201 27.57 19.1211 27.3613 0.00373478 0.0375079 0.0285225
1786 3 0.402861 28.5875 20.3529 27.1986 0.0354571 -0.00555062 -0.00616317
1787 3 0.443989 14.4981 22.5709 21.7727 -0.0329087 0.00922471 -0.0144616
1788 3 0.386511 14.833 22.7616 23.3456 -0.022684 -0.0133711 0.0393999
1789 3 0.443582 11.2789 29.8276 11.924 -0.0163341 0.0102319 0.0053152
1790 3 0.407025 11.1902 28.5328 10.8248 -0.0396248 -0.00790989 0.00924815
1791 3 0.395085 5.79814 23.8005 10.5897 0.0703316 -0.0194065 0.056083
1792 3 0.344904 6.77233 25.0591 10.2423 0.0128012 -0.0725943 0.0603049
1793 3 0.425531 11.9987 11.2549 29.946 0.00390958 0.0427481 -0.0233383
1794 3 0.422463 10.5315 11.1726 29.6171 0.0499916 0.00773901 0.0214425
1795 3 0.45957 5.63292 29.2115 2.11889 -0.0379147 -0.0418499 -0.0451116
1796 3 0.42141 3.74625 26.6612 29.5796 0.0690487 -0.042291 0.0143416
1797 3 0.474145 8.3806 22.0706 21.3871 0.00110738 -0.0231101 0.0108924
1798 3 0.419423 8.21114 24.676 25.4168 0.00482843 -0.00474356 -0.0486297
1799 3 0.385282 15.6925 15.6837 20.8573 -0.0290387 0.0268816 0.0135667
1800 3 0.407007 14.8808 14.6769 21.8879 0.0214207 -0.00901385 -0.0218657
1801 3 0.446005 26.399 14.8519 25.1612 0.00699333 -0.0533097 -0.0149089
1802 3 0.374839 25.0229 14.4391 25.6829 0.0101358 -0.00250016 0.00115712
1803 3 0.4261 23.5522 27.8614 23.2237 -0.00316868 -0.0286527 -0.0421783
1804 3 0.357431 24.5151 26.8765 23.8393 -0.0218762 -0.0310502 -0.00526195
1805 3 0.36489 24.2069 9.61391 6.96583 0.0423335 -0.0141021 0.0117248
1806 3 0.419436 23.2202 9.8016 5.82032 0.000481963 -0.00416017 0.0201708
1807 3 0.404626 21.0493 26.8633 13.1312 -0.0162041 0.00651298 0.00965489
1808 3 0.427914 20.1891 27.9946 13.6936 0.011789 0.00556884 0.0134169
1809 3 0.422001 20.3304 6.3933 28.6901 -0.00696346 -0.037015 -0.0338662
1810 3 0.474351 19.8686 5.98147 27.2089 -0.0209522 -0.00153914 -0.0309344
1811 3 0.486716 5.94433 24.7333 18.0281 0.0141346 0.0247356 -0.00384775
1812 3 0.40127 3.66249 28.1864 16.6244 -0.00292573 0.0232033 -0.0317693
1813 3 0.410637 17.9296 30.7491 8.84026 0.0680421 -0.0511891 -0.0266978
1814 3 0.343499 18.4344 29.3241 9.75595 -0.0468716 -0.00813139 0.0298566
1815 3 0.372218 30.4874 13.3317 15.5941 0.0324798 -0.0200041 0.00704058
1816 3 0.367841 30.5924 14.3723 16.755 0.0165513 -0.02395 -0.0213374
1817 3 0.350347 2.67472 20.5335 11.2794 -0.0348517 0.0348173 0.00765419
1818 3 0.424551 30.6565 20.3721 9.87005 0.0541459 -0.035692 -0.0365722
1819 3 0.419739 24.6148 30.7268 26.7911 0.0193867 0.00364764 -0.00379637
1820 3 0.389882 24.1578 3.55876 27.4074 0.0544149 0.0226133 0.000972892
1821 3 0.416941 28.6449 15.0206 29.742 0.0038411 0.0353026 -0.0160709
1822 3 0.415244 29.202 14.2116 28.4054 -0.044352 -0.0173761 -0.0188293
1823 3 0.397731 14.3362 9.97205 24.002 0.00140356 -0.0488243 0.0365532
1824 3 0.337911 13.3853 8.90738 24.5925 0.0334312 0.0231261 -0.0559675
ITEM: TIMESTEP
4000
ITEM: NUMBER OF ATOMS
1824
ITEM: BOX BOUNDS pp pp pp
2.6353580214399166e+00 3.1112641978560049e+01
2.6353580214399166e+00 3.1112641978560049e+01
2.6353580214399166e+00 3.1112641978560049e+01
ITEM: ATOMS id type q x y z vx vy vz
1 1 1.47096 31.0651 2.78215 2.68004 0.00553211 0.00687426 0.00337267
2 1 1.3047 4.24851 4.39 4.68468 0.00308928 0.0058006 -0.000460178
3 1 1.23635 2.61609 6.53588 6.24773 -0.00844711 -0.000879824 -0.00345491
4 1 1.53645 4.35907 8.43283 8.05922 -0.00195106 0.00741601 -0.0134924
5 1 1.53984 6.10663 31.047 6.4728 -0.00328584 0.0159059 0.00146247
6 1 1.40747 7.75849 4.63955 7.98252 -0.00689391 0.000114473 -0.0033461
7 1 1.29398 6.04474 6.41393 2.86078 -0.00213757 -0.00764899 -0.0114041
8 1 1.61951 8.05136 8.1038 4.43473 0.00349169 -0.00487361 0.000913495
9 1 1.35145 31.1281 30.4756 9.34927 0.000390116 -0.00166318 -0.00179419
10 1 1.61389 4.54429 4.98847 12.3084 -0.000994016 0.0110359 -0.000888201
11 1 1.5796 30.8655 6.69844 13.6651 -0.00280211 0.00681715 -0.0113994
12 1 1.6291 4.32644 8.37669 15.3023 -0.00961437 0.000553164 -0.000296277
13 1 1.71439 6.43672 2.95756 13.3718 -0.00424195 8.90853e-05 0.00751043
14 1 1.36228 8.0766 4.32455 15.4495 -0.00210625 -0.00165166 -0.00173879
15 1 1.31897 6.0349 6.58594 10.0029 -0.000366707 -0.00390678 -0.00193094
16 1 1.44411 8.19006 8.3736 11.5057 0.00655444 0.000874285 -0.00205886
17 1 1.58587 2.9249 2.71431 16.8521 -0.0026729 -0.000573512 -0.00184306
18 1 1.63272 4.38661 4.55246 18.7657 0.00318612 0.00308653 0.00871951
19 1 1.55156 31.0023 6.20192 20.4556 -0.00339819 0.00456392 -0.00279227
20 1 1.60577 4.1907 8.02372 22.2753 0.000319 -0.00925541 -0.00253137
21 1 1.57872 6.14031 2.66798 20.5608 0.0050181 0.00463934 0.0038397
22 1 1.85758 8.05808 4.52936 22.1626 -0.0120124 0.0103427 -0.00117164
23 1 1.7299 5.9688 6.46527 17.0969 0.00953452 -0.00723629 -0.00383528
24 1 1.8551 7.83104 7.97883 18.818 0.00560724 -0.00561413 0.00455861
25 1 1.76558 2.7429 2.84607 23.9402 0.00121368 0.00522801 0.0107693
26 1 1.61658 4.50259 4.60982 25.6187 -0.00184269 -0.00600552 0.00401113
27 1 1.63177 30.9397 6.30578 27.3482 0.00124449 -0.00388577 0.000920636
28 1 1.62957 3.959 8.13372 29.1823 0.00424523 0.00629415 0.00254026
29 1 1.6069 6.1475 2.84931 27.495 -0.00194085 -0.00171718 -0.00248938
30 1 1.31657 7.84293 4.34445 29.7787 0.00639294 0.00107198 -0.0122721
31 1 1.80691 6.29624 6.30037 23.7669 -0.007109 0.00859624 0.00439846
32 1 1.67472 7.8985 7.83295 25.7783 -0.0109831 -0.00286085 -0.00488597
33 1 1.692 31.0282 9.93863 31.1404 -0.00754132 -5.90073e-05 0.00652651
34 1 1.56221 4.30614 11.7872 4.44987 0.00180457 -0.0105853 0.00931754
35 1 1.7388 30.9059 13.3755 6.20662 -0.00166098 -0.00904528 -0.00691016
36 1 1.60358 4.10412 15.0022 8.026 -0.0058706 -0.00842712 0.00421645
37 1 1.63406 6.22411 10.0314 5.99139 0.00361545 -0.0107692 0.000387755
38 1 1.78488 8.00605 11.7577 7.76016 0.00137109 0.0115187 -0.00572611
39 1 1.70143 6.01246 13.4522 2.62193 -0.00182365 0.00363342 -0.00705947
40 1 1.49163 7.90243 15.116 4.43421 0.00442699 -0.00498409 0.00398792
41 1 1.81211 30.8502 9.93633 9.70546 0.00986764 0.00328452 0.00759703
42 1 1.67596 4.35722 11.5195 11.2584 0.000485998 0.00581185 0.00574386
43 1 1.64124 2.61511 13.137 13.3242 -0.00867356 0.000302091 0.00221266
44 1 1.29824 4.57828 15.0732 15.3781 0.00880059 -0.00397899 0.000790175
45 1 1.46915 6.12029 9.91509 13.3886 0.0036791 0.00221498 0.000247551
46 1 1.71116 8.16863 11.5088 15.0417 -0.00400841 0.00243532 0.00204537
47 1 1.53873 6.16721 13.4359 9.61616 0.0116137 -0.00453451 0.00964669
48 1 1.79826 8.00381 15.1711 11.3688 -0.0103793 -0.00562524 0.00202047
49 1 1.6537 2.67769 10.1338 17.1444 -0.000761149 -0.00393466 0.0149725
50 1 1.6851 4.46326 11.8868 18.841 -0.00687772 -0.00590911 0.00838308
51 1 1.63537 31.0055 13.4857 20.4838 -0.00266756 -0.00191318 -0.0055829
52 1 1.57017 4.50443 15.1351 22.1414 -0.00390405 -0.00232371 -0.000224591
53 1 1.45029 6.08566 9.5814 20.516 0.00383575 0.00389141 -0.00689345
54 1 1.42873 7.79625 11.5988 22.0615 0.00601564 -0.00255643 0.00853716
55 1 1.62738 6.655 13.3347 16.9298 -0.00168492 -0.00731305 -0.00584967
56 1 1.81624 8.24221 15.0371 18.8257 -0.000682988 0.00227336 -0.00289697
57 1 1.58808 2.84416 10.066 24.0561 0.00940466 -0.00649422 0.00926664
58 1 1.923 4.71783 11.5291 25.7786 0.00540144 0.00295385 -0.00908429
59 1 1.72401 2.86052 13.1014 27.5809 0.00239147 -0.0118176 0.00512914
60 1 1.75041 4.39889 15.1087 29.1866 0.00445965 -0.000578719 -0.00157642
61 1 1.61817 6.15462 9.63445 27.5728 -0.000805117 0.00669577 0.000728264
62 1 1.40741 7.24178 10.8192 30.2504 -0.0104844 -0.00050963 0.00767342
63 1 1.62443 6.24454 13.4141 24.0384 0.00847575 -0.00687917 0.0011083
64 1 1.51129 7.79491 15.4897 25.7195 -0.00832148 -0.00567883 -0.0100059
65 1 1.66915 2.61239 16.8851 31.0324 0.00911641 -0.00253351 0.000437223
66 1 1.57307 4.53776 18.5052 4.24678 -0.0100021 0.00634059 0.00318782
67 1 1.67195 2.61152 20.4069 5.90712 -0.00611229 -0.00447899 -0.00212535
68 1 1.58307 4.46656 21.9228 7.82058 0.00393189 0.0127817 -0.00318178
69 1 1.61967 5.95517 16.7174 6.36884 -0.00641061 0.00582665 0.00666892
70 1 1.8262 8.02792 18.3074 7.86243 0.00705758 0.00183742 -0.00207217
71 1 1.67972 6.4559 20.3065 30.9975 0.00901763 0.0123214 0.00476526
72 1 1.80048 7.86334 22.1257 4.40691 -0.00885365 -0.0100326 0.00801352
73 1 1.57337 30.9619 16.8037 9.91379 0.000735079 0.00684126 -0.00772079
74 1 1.62646 4.51984 18.4481 11.592 0.00600389 0.00700253 -0.000203121
75 1 1.72179 31.1364 20.3602 13.2162 0.00825228 -0.0107748 -0.00217633
76 1 1.75589 4.28216 21.8663 15.1955 -7.07076e-05 0.00939224 -0.000198142
77 1 1.73451 6.31465 16.7438 13.3587 0.00796761 0.000566521 0.00498816
78 1 1.72935 8.02199 18.4559 15.0786 0.0128871 -0.000490976 -0.00754316
79 1 1.37135 6.29243 20.1389 9.6744 0.00387702 -0.00408321 -0.0110192
80 1 1.44416 7.92109 22.0376 11.9106 -0.00406671 -0.0079438 0.0121537
81 1 1.40221 31.1048 17.1356 16.705 0.00725777 0.0132154 -0.00549092
82 1 1.68247 4.50057 18.6807 18.6936 0.00308442 -0.00331856 -0.00201672
83 1 1.67061 31.0462 20.1875 20.5118 -0.00084965 -0.000630232 -0.00475879
84 1 1.71222 4.10232 22.2468 22.0595 0.000975414 0.00588912 -0.00694368
85 1 1.79752 6.18987 16.7738 20.1974 -0.00128315 -0.00227555 -0.00537774
86 1 1.51333 7.7696 18.5476 21.8936 0.00111746 0.00591176 -0.00345694
87 1 1.74521 6.28735 20.2773 16.7616 -0.0027407 -0.00309841 -0.0110459
88 1 1.50123 8.12877 21.9287 18.6938 0.00400669 -0.00453679 0.00247468
89 1 1.69955 31.0269 16.8058 23.8611 0.00183571 0.00545671 0.00614041
90 1 1.60428 4.16584 18.6988 25.6171 -0.00386354 0.00217654 -0.00422267
91 1 1.70393 30.8962 20.417 27.3586 0.00518898 -0.00525663 -0.00715032
92 1 1.67605 4.30933 21.7045 29.3097 0.00759891 -0.00667306 -0.00046517
93 1 1.73315 5.96034 17.1649 27.4958 -0.00811781 -0.000640032 0.00397612
94 1 1.77362 8.02221 18.4902 29.1167 0.0095303 -0.000673153 -0.00073027
95 1 1.48706 5.85736 20.3364 23.7386 0.0118558 0.00224383 -0.00580121
96 1 1.27597 8.11165 21.8357 25.8864 0.000285983 -0.00783961 -0.00310182
97 1 1.54273 2.62253 23.6182 31.0971 -0.00703962 -0.000825067 0.00233686
98 1 1.69632 4.32793 25.257 4.43045 0.00923293 0.00450074 -0.0168859
99 1 1.74853 30.7497 27.361 5.66789 2.38319e-05 0.00705016 -0.00354541
100 1 1.57672 4.07329 28.8717 7.37382 0.00958918 0.0029628 0.00331468
101 1 1.70624 6.19006 23.8243 6.28828 0.0059213 0.00536189 0.00122454
102 1 1.68203 7.99209 25.5813 7.80392 0.00238109 -0.00959594 -0.00271841
103 1 1.53921 6.50961 27.2075 3.47862 0.00376207 -0.00142893 -0.000280104
104 1 1.65127 8.16244 29.3703 5.02506 -0.0108519 -0.0180534 0.00331479
105 1 1.3454 31.0822 23.7186 9.6122 -0.00247333 -0.00959397 -0.0100139
106 1 1.45641 4.53438 25.6634 11.3854 -0.00965663 -0.00153393 -0.00894377
107 1 1.51727 2.72057 27.5716 13.3268 0.00865469 -0.00037065 -0.00458267
108 1 1.64259 4.65654 29.4097 14.845 -0.00284569 1.4147e-05 0.00106596
109 1 1.73357 6.09411 23.9492 13.5767 -0.00487723 0.00807143 0.000344974
110 1 1.64892 7.99184 25.4176 15.3891 -0.00876429 0.00576458 0.00711776
111 1 1.50123 5.82553 27.3946 9.19682 -0.0089292 0.0068952 -0.00745156
112 1 1.52701 7.09004 29.4787 11.0918 0.00306974 -0.00376532 -0.00334229
113 1 1.59268 2.69507 23.7925 16.8674 0.00497502 -0.00432418 -0.0098196
114 1 1.44287 3.80353 26.5854 17.8383 -0.00640138 0.00139741 0.00821443
115 1 1.75798 31.1243 27.7123 20.2843 0.0115943 0.0108935 0.00791314
116 1 1.58063 4.25916 29.3502 22.1566 -0.00653567 0.00186668 0.00378453
117 1 1.3742 6.1988 23.7796 20.1645 0.000443354 -0.000676656 0.00397762
118 1 1.31504 7.86284 25.6919 22.0965 -0.00264095 0.00055715 -7.82304e-05
119 1 1.53459 6.30259 27.6284 16.6094 0.00035728 -0.00045685 -0.00270671
120 1 1.45412 8.05825 29.4403 18.7595 -0.0031528 -0.0101087 0.00660661
121 1 1.58358 2.70253 24.3443 23.8195 -0.00373389 0.012315 -0.0052597
122 1 1.31132 4.29043 25.6762 25.9787 0.00931449 2.13251e-05 -0.0130877
123 1 1.6394 31.0134 27.6844 27.4754 0.0106291 0.00966705 0.00596989
124 1 1.42435 3.85135 30.0824 28.8221 0.00211645 -0.00668187 -0.00272554
125 1 1.44333 6.16758 23.8543 27.936 0.00109172 -0.00744932 -0.00223459
126 1 1.4402 7.85723 25.9128 29.5832 -0.0121666 0.00214157 0.00609492
127 1 1.45436 6.1581 27.7036 24.1799 -0.0095725 0.0111947 -0.00477661
128 1 1.65003 7.98839 29.5512 25.6871 -0.00496862 -0.00643784 0.00871297
129 1 1.79382 9.64473 30.8404 2.82062 0.00558857 -0.00438228 -0.000197312
130 1 1.56175 11.5404 4.24764 4.30894 0.00423054 -0.00187984 0.00907396
131 1 1.47437 9.70436 6.20324 6.15725 -0.00460769 0.00509698 0.0105491
132 1 1.82309 11.4595 8.36658 7.52716 -0.00265754 -0.0121121 0.0030142
133 1 1.63226 13.2242 31.039 6.4434 0.00395377 0.00538985 -0.00142761
134 1 1.46984 14.9007 4.75209 7.941 0.00714554 0.000317461 -0.0011949
135 1 1.70979 13.2933 6.33786 2.7481 -0.00358403 -0.000394925 -0.0018965
136 1 1.85574 15.2046 7.79758 4.54334 -0.0045685 -0.0100964 -0.00862379
137 1 1.36869 9.42763 30.963 9.89064 -0.00811441 -0.00150771 -0.000243565
138 1 1.41135 11.5066 4.35848 11.6116 0.00332001 -0.0016105 0.00585338
139 1 1.22416 9.63705 6.25757 13.553 0.0043077 0.00679058 -0.0048523
140 1 1.57746 11.4409 7.89252 15.4504 -0.000349545 -0.00293528 0.00122513
141 1 1.55087 13.1969 31.1221 13.5391 0.000660082 0.00521596 -0.000589135
142 1 1.51779 15.0786 4.45339 15.2447 -0.00455573 0.00100631 0.00334091
143 1 1.42566 12.8749 6.69932 9.55079 -0.000410251 -0.000867943 -0.0130913
144 1 1.52056 14.9204 8.23947 11.5921 0.00341717 0.00491479 0.0118344
145 1 1.65878 10.0852 31.0066 17.114 -0.00444897 0.0111128 0.0049254
146 1 1.95197 11.5154 4.38849 18.9391 -0.0115664 -0.00595024 0.0118965
147 1 1.88474 9.83669 6.35276 20.4069 -0.00343561 8.32322e-05 0.00649204
148 1 1.45968 11.626 7.78054 22.3256 0.00173028 -0.00181963 -0.003715
149 1 1.64531 13.3344 2.71152 20.6218 -0.00346766 0.00372573 0.00266641
150 1 1.58941 14.8609 4.37594 22.5677 0.00651683 -0.00467781 -0.00587413
151 1 1.70751 13.2948 6.04985 17.0558 -0.00115647 0.00294496 0.00059855
152 1 1.83698 14.9002 7.97855 18.6724 -0.00202065 0.00137771 -0.00582509
153 1 1.8177 9.72669 2.83691 23.9348 -4.97519e-05 -0.00260813 -4.4053e-05
154 1 1.62551 11.2314 4.42628 25.9769 0.000273001 0.00776587 0.00538178
155 1 1.58508 9.56264 6.17721 27.7086 -0.00158375 -0.00271892 0.00470464
156 1 1.65607 11.4535 7.79199 29.3887 0.002335 -0.00363742 0.00494164
157 1 1.6148 13.1928 2.72252 27.5569 -0.0027012 0.00236229 -0.00588576
158 1 1.43054 15.0614 4.63948 29.2911 0.00674159 -0.00455882 0.00181364
159 1 1.57649 13.1901 6.07332 24.4349 -0.0031147 -0.00916792 0.00662579
160 1 1.71253 15.3009 8.00348 25.7842 -0.0066766 -0.00292788 0.00730342
161 1 1.53444 9.94557 9.6311 2.69332 0.00331685 0.00243901 -0.00592741
162 1 1.65667 11.6678 11.6286 4.19649 -0.00246444 -0.00624335 0.0103412
163 1 1.42476 9.96062 13.502 6.16266 0.00774104 -0.0010827 -0.00791791
164 1 1.6296 11.8638 14.8822 8.18933 0.000236206 0.00243017 0.00555668
165 1 1.73127 13.4403 9.89343 5.91548 0.000858461 0.0178445 0.0104056
166 1 1.6815 14.977 11.3196 8.19539 -0.00110346 -0.00231209 -0.00584246
167 1 1.54412 13.4389 13.1672 30.7698 -0.00203865 0.00300448 -0.000890726
168 1 1.55484 15.0798 14.7837 4.12126 0.000929536 -0.00221311 0.00579641
169 1 1.76007 9.84733 10.1062 9.50921 -0.00819627 -0.00785873 -0.00689137
170 1 1.78019 11.529 11.587 11.5031 0.000870917 -0.00267079 0.0143729
171 1 1.58074 9.8382 13.4145 13.2387 -0.00701644 0.00879029 0.00175954
172 1 1.69068 11.6067 14.9861 15.1142 -0.00369535 0.00456476 -0.00420616
173 1 1.67104 13.1065 9.71475 13.5297 0.00237071 0.00578006 0.00422607
174 1 1.5009 14.9441 11.5348 15.0076 0.00310455 0.00303746 0.00228369
175 1 1.87691 13.6039 13.2492 10.1405 -0.00439994 -0.00957695 0.00485051
176 1 1.77578 15.5229 15.115 11.5543 -0.00541341 0.00832216 -0.00291961
177 1 1.6682 9.63049 9.74763 17.1144 -0.00379678 0.00839441 0.00208863
178 1 1.62883 11.7562 11.5448 18.5306 0.00353062 0.00349937 0.00103107
179 1 1.67898 9.87962 13.0779 20.3864 0.0114077 0.00319231 -0.00185964
180 1 1.68521 11.3836 14.8258 22.5184 0.00450868 -0.00142332 -4.57283e-05
181 1 1.77974 13.3077 9.75236 20.4823 -0.00235949 -0.00737205 -0.0017897
182 1 1.64814 15.3189 11.3979 22.1494 -0.00666526 0.0081291 0.0051456
183 1 1.63683 13.481 13.3383 16.8656 -0.00898412 0.00792148 -0.00894584
184 1 1.62252 15.4952 14.9255 18.4074 -0.000499606 2.58076e-05 0.00867266
185 1 1.5866 9.37295 9.76072 23.975 0.00128206 -0.00818253 -0.00792691
186 1 1.53855 11.5332 11.3709 25.4184 -0.00193199 -0.00503523 0.00317792
187 1 1.25847 9.03458 13.8121 28.096 -0.0035912 -0.000221886 0.00233973
188 1 1.68651 11.564 15.0974 29.3242 0.00803295 0.00528117 -0.00517424
189 1 1.65112 13.1302 9.38207 27.302 -0.00382244 0.00147123 0.008038
190 1 1.55351 14.9117 11.2026 28.9336 0.00050278 -0.00260062 0.00550945
191 1 1.91027 13.4714 13.1324 23.8711 0.00214578 0.00716338 -2.79488e-05
192 1 1.57347 15.0772 14.9511 25.7133 -0.0101456 0.000905669 0.00347375
193 1 1.78521 9.71069 16.8164 30.9489 -0.00395382 0.0053796 -0.00786467
194 1 1.472 11.6143 18.5626 4.35903 0.00380462 -0.00693587 0.00196542
195 1 1.75983 9.49746 20.1462 6.00181 0.00329524 0.00209797 0.0141222
196 1 1.50706 11.2567 21.9145 7.91208 -0.00505426 -0.0041304 -0.00156345
197 1 1.57362 13.2787 16.4794 5.97156 -0.00312177 -0.00435116 -0.000331191
198 1 1.22484 15.508 18.485 7.53279 0.00735948 -0.00470933 0.00378477
199 1 1.66628 13.4719 20.2713 30.9542 0.0108253 0.00196572 -0.00748538
200 1 1.70994 15.0971 22.1901 4.20335 0.000278975 0.00131351 -0.00361854
201 1 1.75436 9.80969 16.7196 9.64224 -0.00445779 0.00520177 -0.00184625
202 1 1.63412 11.5153 18.6014 11.425 -0.00113317 0.0023184 0.00217354
203 1 1.72851 9.73182 20.0857 13.3267 0.00512399 0.00630453 -0.0105874
204 1 1.84942 11.3696 21.8864 15.1462 -0.00233652 0.00711799 0.0120648
205 1 1.42526 13.31 16.7478 13.249 0.000348914 -0.00684879 -0.00500376
206 1 1.6963 15.023 18.5438 15.0538 0.0157259 0.010594 0.00171432
207 1 1.39554 13.3007 20.1944 9.35573 -0.0125395 0.00513428 0.0102257
208 1 1.57109 15.0532 21.9363 11.1274 0.00182442 0.00560353 -9.28284e-05
209 1 1.65767 9.86837 16.784 16.9225 -0.00144711 0.00729671 -0.000129366
210 1 1.5048 12.0703 18.1806 18.6028 -0.00194998 -0.00770305 0.00672647
211 1 1.4783 10.1905 19.875 20.3613 0.00315887 0.00168938 0.00331847
212 1 1.54091 11.6083 21.9392 22.2748 -0.000338125 0.0029074 -0.00319273
213 1 1.332 13.7976 16.3 20.4025 -0.00232438 0.00325055 -0.00170574
214 1 1.55791 15.4204 18.3438 22.1673 -0.00139193 0.00603773 -0.00589716
215 1 1.60294 13.3384 20.4702 16.7505 -0.0104317 -0.00234732 0.00648627
216 1 1.56511 15.0125 22.1309 18.6665 0.00352329 -0.00201819 -0.00313288
217 1 1.81043 9.6153 17.0882 23.8093 -0.00988294 -0.00800661 -0.00131636
218 1 1.47238 11.622 18.5549 25.5091 0.00983953 0.0064242 -0.00492731
219 1 1.56567 10.0207 20.156 27.6064 -0.00362042 -0.0105841 -0.00457567
220 1 1.64915 11.7866 22.1293 29.268 -0.00773767 -0.0003794 0.0131224
221 1 1.58954 13.268 16.7371 27.4224 0.0106275 -0.0102299 -0.00374318
222 1 1.66319 15.0952 18.5576 29.0004 0.0109129 -0.00632721 0.00737252
223 1 1.34171 13.6949 20.3135 24.0093 -0.00289024 0.00178429 -0.00518205
224 1 1.76134 15.09 22.4212 25.7869 -0.0027029 -0.000211885 -0.00400841
225 1 1.48201 9.59004 23.8918 2.76207 -0.00935407 0.000408027 -0.00333482
226 1 1.73398 11.4252 25.8501 4.28648 -0.000702986 -0.00577051 0.00724108
227 1 1.66251 9.94669 27.413 6.40027 0.00184172 0.00775065 -0.00366779
228 1 1.63232 11.43 29.3418 8.26219 0.00158135 0.00208418 0.00423356
229 1 1.41393 13.0328 23.8072 5.98714 -0.00792799 -0.00199094 -0.00853981
230 1 1.36345 15.0051 25.8791 8.05267 -0.00502895 0.000973212 -0.0123184
231 1 1.84174 13.4986 27.4981 2.75645 0.00929462 0.0028789 0.00139981
232 1 1.62808 15.0289 29.2219 4.75404 -0.0059013 0.00474435 -0.0089721
233 1 1.2867 9.68466 23.9556 9.9266 0.016929 0.00588193 0.012399
234 1 1.46384 11.8472 25.4476 11.6329 -0.00204882 -0.0039769 0.00322519
235 1 1.39821 10.2129 27.0717 13.9284 -0.00255897 0.00024541 -4.03707e-05
236 1 1.71718 11.8859 29.0859 15.4067 -0.00577231 0.00180663 0.00319966
237 1 1.55642 13.2741 23.2347 13.1572 0.00286939 0.002589 0.00205543
238 1 1.64457 15.886 26.3329 15.5866 -0.000140044 0.00184291 0.00814273
239 1 1.54269 13.2855 27.5359 9.93775 0.00449607 -0.000459933 -0.0061333
240 1 1.62981 14.8601 29.1771 11.895 -0.00680441 -0.00146427 0.00101898
241 1 1.83551 9.97968 23.6531 17.006 0.00206878 -0.000574057 0.00540865
242 1 1.61629 11.7393 25.4717 18.6366 0.0087805 -0.0112447 -0.00156892
243 1 1.40351 9.98028 27.5489 20.4569 0.00111372 -0.00141428 0.00250636
244 1 1.59161 11.5004 29.3332 22.3966 -0.00491147 -0.00541815 -0.00339283
245 1 1.58857 13.3585 23.9025 20.6681 0.00375083 0.00383173 0.00281675
246 1 1.61098 15.0744 26.0513 22.0607 0.0011143 -0.00455426 0.00226247
247 1 1.57312 13.7465 27.6047 17.2198 0.00730586 -0.00162469 0.000123105
248 1 1.47816 15.2801 29.6308 18.8491 0.000662355 -0.00303287 -0.00496904
249 1 1.54364 8.98968 23.0892 23.2232 0.00380706 -0.00418285 0.00158893
250 1 1.65608 11.7276 25.9935 25.867 0.000881007 -0.0110693 0.000782143
251 1 1.37887 9.70606 27.7675 27.7457 0.00682801 -0.00167735 0.00916033
252 1 1.54729 11.8279 29.3527 29.5611 -0.00336273 0.000587294 -0.0119234
253 1 1.73744 13.2822 24.2031 27.7316 0.0120489 -0.00336496 0.00499334
254 1 1.90441 15.2576 25.7185 29.6054 0.00439256 0.00926516 -0.00296908
255 1 1.73379 13.2752 27.5641 23.8696 0.0052174 -0.00281524 0.00810499
256 1 1.67464 14.9169 29.2753 25.7263 0.00562201 -0.00138452 0.000607866
257 1 1.56678 16.6774 31.0815 2.96389 0.00246735 0.00648984 -7.71722e-05
258 1 1.77604 18.7902 4.36705 4.48842 0.00168074 -0.0004152 -0.00838358
259 1 1.8797 17.0207 6.14507 6.18856 0.00600627 -0.00158596 -0.00215177
260 1 1.81609 18.5694 7.89176 7.96445 -0.00452246 -0.00213825 -0.0136211
261 1 1.66178 20.6941 30.9905 5.92741 0.000864941 -0.00736186 -0.0123207
262 1 1.66256 22.0659 4.16799 8.02798 0.00598091 0.0089676 0.00752956
263 1 1.77801 20.4624 6.01064 31.1815 0.0044373 -0.00874055 0.00925642
264 1 1.64166 22.2813 7.78954 4.33196 -0.00574598 -0.000608772 -0.012379
265 1 1.24229 15.8333 3.33231 10.7087 -0.00400592 0.00111698 0.00815636
266 1 1.44328 18.5735 4.58505 11.824 0.00963029 0.0012062 0.00397252
267 1 1.37541 16.8141 6.46694 13.3827 -0.00177225 0.00779667 -0.00290796
268 1 1.51748 18.7136 8.03245 15.2407 -0.00433563 0.00084251 -0.00521581
269 1 1.57503 20.7443 2.78054 13.162 0.00456046 -0.000486159 0.00317127
270 1 1.71077 22.5949 4.26815 14.9871 0.00229998 -0.000784349 0.00800887
271 1 1.70404 20.28 5.98579 9.75092 -0.000699354 0.0121655 -0.0177131
272 1 1.67585 22.129 7.67974 11.3446 0.00158149 -0.00417077 0.00902802
273 1 1.47145 16.9495 31.0517 16.7457 -0.00208345 0.00372292 -0.00152106
274 1 1.45325 18.551 4.58076 18.9887 0.000929988 -0.00527164 0.0145305
275 1 1.53659 16.4414 6.31821 20.6755 -0.00299145 0.00209203 -0.000828664
276 1 1.72158 18.5846 7.98053 22.1564 0.000498606 -0.00894504 -0.00658888
277 1 1.65982 20.3504 2.80325 20.6419 -0.0010931 0.00408265 -0.00223048
278 1 1.43645 22.3312 4.43787 22.3832 -0.0103623 -0.000842589 -0.00580617
279 1 1.39618 20.4673 5.85588 16.8644 -0.0154295 3.76932e-05 0.0221819
280 1 1.20903 22.2596 7.97366 18.6615 0.00976513 0.00986778 0.00496591
281 1 1.59264 16.8086 31.0298 24.1469 -0.00333524 0.00271664 0.00365077
282 1 1.66369 18.7903 4.32893 25.5652 -0.00264695 0.0145212 0.00231575
283 1 1.65155 17.0311 6.1242 27.3766 0.00512258 -0.00287788 -0.00254866
284 1 1.53608 18.8234 7.80212 29.3095 0.00287508 0.00127727 0.00292679
285 1 1.63877 20.2388 2.95668 27.9108 -0.000728212 -0.00872812 -0.00552736
286 1 1.56889 22.3355 4.50169 29.4309 0.00281444 0.00895505 0.00246308
287 1 1.71714 20.4935 6.33833 23.9187 -0.00432188 -0.00611795 -0.000395882
288 1 1.4372 22.2733 8.21695 25.4979 0.00660761 0.00156957 0.000447785
289 1 1.44373 16.7991 9.53592 31.0615 -0.00154649 -0.00330347 -0.00680702
290 1 1.47413 18.682 11.2812 4.364 -0.00248044 0.00317724 -0.00814693
291 1 1.52416 16.5531 13.0162 6.22225 -0.00209693 0.000653585 0.00131485
292 1 1.63732 18.6508 14.8055 7.75907 0.00378729 0.00533794 -0.012204
293 1 1.69078 20.4728 9.45537 6.10853 0.00283854 0.00406619 0.00240112
294 1 1.55942 22.2499 11.4106 7.85584 0.00137385 -0.001579 -0.0043805
295 1 1.58402 20.4517 13.361 2.98144 -0.00270234 -0.00672575 -0.0080251
296 1 1.7966 22.2202 15.3439 4.27224 0.00611246 0.00093681 -0.00825395
297 1 1.72847 16.9657 9.68541 9.78654 0.00033409 0.00452079 0.000943991
298 1 1.5723 18.8235 11.5169 11.4545 0.00106725 0.00418104 -0.00619135
299 1 1.5493 17.0717 13.1865 13.2548 0.00148299 -0.00384696 0.00906502
300 1 1.48226 18.9078 15.2844 14.9675 0.00309067 0.00378913 8.16019e-05
301 1 1.57434 20.6788 9.55976 13.2427 0.00479879 -0.00385818 0.00367349
302 1 1.61772 22.3701 11.4814 14.857 0.00688062 -0.00114613 -0.00321823
303 1 1.67899 20.4738 13.1532 9.49479 -0.000442238 -0.00252538 0.00207826
304 1 1.7535 22.3017 15.021 11.1895 -0.00926452 -0.000830371 -0.010071
305 1 1.63148 16.5959 9.6368 16.811 0.0113247 -0.0101309 -0.00670829
306 1 1.52859 18.4807 11.4303 18.3958 0.00805369 -0.00172959 -0.0041458
307 1 1.66181 16.9707 13.1409 20.445 -0.00477526 0.0025198 -0.00830551
308 1 1.71522 18.5893 14.8473 22.5012 -0.00264737 -0.0103165 -0.0026818
309 1 1.52362 20.3028 9.6897 20.3102 -0.00636893 -0.00104875 0.00387996
310 1 1.45485 22.2839 11.5305 21.9468 -0.00189753 0.000435669 0.0124946
311 1 1.45322 20.6157 13.2581 16.7554 0.000905052 0.00381988 0.000469344
312 1 1.75086 22.1702 15.2019 18.5493 -0.00416406 -0.00344955 0.00334676
313 1 1.71523 17.0277 9.74403 24.0177 0.00935877 0.000161434 0.00311115
314 1 1.36334 19.2791 11.6872 25.5371 -0.00176419 -0.000125256 0.00610965
315 1 1.38586 16.8181 12.9704 27.3087 0.00244985 0.00570587 0.0121721
316 1 1.25206 18.8032 14.8606 29.3591 -0.00445482 0.0112796 -0.007976
317 1 1.51003 20.5325 9.73218 27.6274 0.00427051 0.00508847 -0.003906
318 1 1.51835 22.0681 11.5239 29.5357 0.00685395 -0.010105 -0.00238729
319 1 1.59561 21.0399 13.6365 23.8079 -0.00207889 0.00467148 -0.00175383
320 1 1.74859 22.2919 15.3119 25.9237 -0.0116658 0.00159365 -0.0066453
321 1 1.52597 16.8931 16.8855 30.9075 0.00610351 0.00717462 -0.00901059
322 1 1.82609 18.6974 18.7505 4.03065 0.00865632 -0.0056733 0.00316608
323 1 1.78728 17.0782 20.5009 5.77027 0.00596464 -0.00846437 0.00605404
324 1 1.77914 18.5462 22.1761 7.80874 -0.00408373 -0.0016621 0.00382047
325 1 1.68238 20.1438 16.9475 6.00129 -0.00519643 -0.0113135 0.0030969
326 1 1.53624 21.9932 18.8075 7.86657 0.00224547 0.00696955 -0.000719175
327 1 1.83592 20.6085 20.4571 30.8851 0.00347479 0.00865061 -0.00520649
328 1 1.63753 22.0865 22.2662 4.35281 0.00381974 -0.0035336 -0.00389001
329 1 1.92298 17.1407 16.6678 9.61834 -0.00373531 -0.00445636 -0.000582705
330 1 1.53454 18.5793 18.5979 11.4468 -0.00668908 -0.00536371 0.0110208
331 1 1.49919 16.5418 20.4858 13.3385 -0.00819042 -0.000450124 0.00817481
332 1 1.5242 18.4844 22.2615 15.1036 0.000771503 -0.00122502 0.0107798
333 1 1.79554 20.6082 16.8545 12.9714 0.00848501 0.00425663 0.00498905
334 1 1.53251 22.0532 18.5293 15.0383 -0.0134625 -0.00181542 0.00477533
335 1 1.4649 20.3654 20.7625 9.74328 -0.000484401 -0.00160182 0.0045223
336 1 1.71371 22.2991 22.2462 11.7029 -0.0023836 -0.00663783 -0.00697594
337 1 1.49993 16.9887 16.9972 16.8156 -0.00813483 -0.0136255 0.0012573
338 1 1.86284 18.5343 18.5267 19.0238 -0.00206379 0.00854997 -0.00391197
339 1 1.68753 16.8758 20.5141 20.6754 0.00189424 -0.00285262 0.00415844
340 1 1.70986 18.4837 22.4702 22.4353 -0.00301379 -0.00414976 -0.0100461
341 1 1.75046 20.2163 16.5798 20.5205 0.00631981 -0.00720231 0.00952605
342 1 1.72114 22.0586 18.4522 22.0086 -0.00519904 0.00304525 0.0041157
343 1 1.52654 19.9932 20.1511 16.9125 0.00907401 -0.00122393 0.00402441
344 1 1.49906 21.8294 21.8338 18.7039 -0.00322518 0.00924971 0.00365318
345 1 1.78709 17.0567 16.7939 24.1685 0.005292 -0.00964222 0.00162501
346 1 1.61433 18.7522 18.8341 25.5274 -0.00163003 0.00042998 -7.90654e-05
347 1 1.72563 16.8326 20.4244 27.3263 0.00169919 -0.00617012 -0.00382231
348 1 1.55433 18.5907 22.193 29.2152 -0.00149978 0.00403274 -0.00891236
349 1 1.57447 20.4666 17.0875 27.5652 -0.0047922 0.000833202 0.00174662
350 1 1.86596 22.4262 18.7176 29.2335 -0.00328438 0.00423733 -0.00471435
351 1 1.71162 20.4181 20.3948 23.6003 -0.00659274 -0.0024877 -0.000884732
352 1 1.75106 22.1053 22.2614 25.4766 0.00615311 0.00383419 0.00117846
353 1 1.72753 16.9843 23.8547 2.67238 -0.00127347 -0.00330879 -0.00513231
354 1 1.68689 18.6962 25.6928 4.39344 0.00204784 0.00164991 -0.00113499
355 1 1.56959 17.086 27.555 6.22997 -0.00587672 0.0128714 -0.00283294
356 1 1.57297 19.1833 29.0757 7.71344 0.00187337 -0.0042831 -0.00214246
357 1 1.85956 20.3911 23.9019 6.21246 0.00144063 0.00158739 0.00204243
358 1 1.61364 22.3131 25.5639 7.84666 -0.0128976 0.00932453 0.00190212
359 1 1.61178 20.3423 27.3611 30.8116 0.00434316 0.00362048 0.00100432
360 1 1.65105 22.207 29.1877 4.14089 -0.00178721 -0.000213322 0.00560223
361 1 1.57835 16.8076 23.9447 9.70056 0.000682361 -0.00826188 -0.00618672
362 1 1.67534 18.6002 25.7913 11.4335 0.0102253 -0.00393853 0.00489951
363 1 1.6162 17.192 27.849 13.4312 0.00309129 -0.00287996 0.00784251
364 1 1.62374 19.025 29.6252 15.0044 -0.00130793 0.00239067 -0.00264045
365 1 1.67753 20.3031 24.0787 13.2141 -0.00311977 0.00645837 -0.00960591
366 1 1.54828 21.9357 26.1145 14.936 0.0237432 -0.00640748 0.00818908
367 1 1.58284 20.7348 27.3963 9.69513 0.00598608 -0.000773013 0.00778527
368 1 1.58911 22.5131 29.2888 11.3449 0.00214738 0.00702441 -0.00558301
369 1 1.55674 17.0169 24.0212 17.0286 0.00923046 0.0118822 -0.00190201
370 1 1.6297 18.7562 25.8759 18.7485 -0.00184011 0.00840198 0.00445294
371 1 1.64172 17.1302 27.5777 20.5762 0.00387485 -0.00298866 -0.00148612
372 1 1.68655 18.7056 29.4385 22.3826 -0.010173 0.00949525 -0.00201145
373 1 1.49864 20.4563 23.9378 20.5099 0.00264021 0.00507416 0.00705399
374 1 1.57794 22.1526 26.0805 22.208 -0.00703813 -0.00542763 -0.0100787
375 1 1.66336 20.3261 27.8014 17.0444 0.0103562 0.00874326 0.00262734
376 1 1.82515 22.0581 29.7491 18.7482 0.00985926 -0.0117261 -0.00369432
377 1 1.38889 16.7916 24.4307 24.3017 -0.0094958 -0.00252661 -0.00196696
378 1 1.69072 18.6668 26.2129 25.9726 -0.00196145 -0.00371527 -0.0159913
379 1 1.80361 16.6234 27.7192 27.7618 0.00804899 -0.00468017 -0.00150605
380 1 1.70583 18.4322 29.5091 29.4825 0.00155942 0.00421982 -0.00437975
381 1 1.54447 20.3782 23.9592 27.3605 -0.00207113 0.00504663 0.00230234
382 1 1.75691 22.0783 25.4481 29.2592 -0.00245902 0.00564976 0.000261545
383 1 1.75837 20.4579 27.8755 24.2204 -0.00878215 0.00161639 0.00127712
384 1 1.72588 22.0693 29.5468 26.1105 -0.00553097 -0.0201095 -0.00219384
385 1 1.47129 24.2407 31.0302 2.77521 -0.00610024 0.00119153 -0.00101262
386 1 1.43116 25.649 4.46381 4.70512 0.00282692 0.00208983 -0.00199366
387 1 1.45854 23.7292 6.11028 6.38813 0.0048196 0.00242429 -0.0082724
388 1 1.40449 25.8624 7.74109 8.52096 0.00458935 0.0048059 -0.00606208
389 1 1.68519 27.6056 31.0111 6.44737 -0.00769928 -0.00299616 0.00583234
390 1 1.74869 29.3883 4.26178 8.14647 0.00423175 -0.000603545 0.00438108
391 1 1.40031 27.3944 6.21741 2.72671 -0.0017278 0.00329979 0.00137072
392 1 1.46824 29.2575 8.09507 4.29723 0.00700679 0.00782661 0.00624091
393 1 1.66891 24.2263 2.73448 9.70541 -0.0177582 0.00424747 -0.0116014
394 1 1.67393 26.0012 4.25767 11.7413 0.000245671 0.00409938 0.00483337
395 1 1.84614 24.1739 6.14706 13.1762 -0.00362841 -0.00669592 0.000956683
396 1 1.83242 25.9174 7.92044 14.8344 0.00216112 -0.0104242 -0.00927783
397 1 1.62496 27.6028 30.9034 13.4746 0.00289267 -4.7399e-05 0.00501967
398 1 1.52942 29.3707 4.31682 15.1021 0.00201366 -0.00495665 -0.00896509
399 1 1.93561 27.764 6.00942 10.065 0.00620727 -0.00722831 0.00732903
400 1 1.57638 29.2558 8.19966 11.5582 -0.00582692 0.00221 0.00700572
401 1 1.66666 24.0861 2.79105 17.2476 0.00668855 -0.00104151 0.00106574
402 1 1.60816 25.8724 4.9163 18.8128 -0.00809519 -0.00918163 -0.00644146
403 1 1.4105 24.0426 6.31843 20.7398 0.0085172 0.00992947 0.00158025
404 1 1.49455 25.9959 8.1847 22.2531 0.00222805 -0.00503514 0.00524689
405 1 1.66496 27.6704 2.92346 20.4691 0.00399859 -0.00505755 0.000390149
406 1 1.73567 29.3796 4.54904 22.321 0.00883225 0.00197461 0.00737229
407 1 1.56836 27.7333 6.22845 16.6979 0.00443804 0.000529926 0.00531144
408 1 1.43369 29.2805 8.18541 18.6422 -0.00206601 -0.0168455 -0.00307643
409 1 1.6668 23.8573 31.0166 24.0254 0.00172627 0.00921359 0.0049997
410 1 1.77244 25.5846 4.38347 25.616 -0.00329367 0.00101606 -0.00717174
411 1 1.4612 24.0035 6.24541 27.3669 -0.0120887 0.00288615 0.0162554
412 1 1.542 25.6848 8.03898 29.1783 0.00273346 -0.00226787 0.005112
413 1 1.60064 27.3172 2.6343 27.4094 -0.00595031 0.00112811 -0.0123166
414 1 1.40723 29.325 4.60186 29.2734 -0.0106492 -0.00727447 0.000417529
415 1 1.6245 27.7057 6.27268 23.9818 0.0154813 0.00117193 0.0154437
416 1 1.79038 29.2135 8.24972 25.6072 -0.00445176 7.89433e-05 0.00159416
417 1 1.6329 24.0361 9.77638 31.1812 -0.00408151 0.00455447 0.0169057
418 1 1.80899 25.8335 11.6266 4.30947 -0.00885247 -0.00175361 -0.00401233
419 1 1.71154 23.841 13.352 5.95793 -0.000787206 -0.00335667 0.000509108
420 1 1.59609 25.7313 15.1465 7.64862 -0.00556239 0.00187804 -0.00126932
421 1 1.25539 27.4461 9.54532 6.29114 0.00128033 -0.0142232 0.00131733
422 1 1.64557 29.1474 11.8356 8.1426 0.011753 -0.00228328 0.00389297
423 1 1.7811 27.5911 13.4743 2.63945 -0.00395908 -0.00771022 -0.000804586
424 1 1.6409 29.3956 15.1764 4.35885 0.00365742 0.00631869 -0.00253178
425 1 1.62876 23.933 9.73596 9.8927 -0.00250814 -0.00180233 0.00619627
426 1 1.65131 25.6428 11.6148 11.4378 -0.00744283 0.00282514 0.01008
427 1 1.73302 23.9929 13.413 13.1354 0.00271744 0.0028115 0.00876919
428 1 1.81082 25.7995 15.1226 15.1269 -0.000229765 0.00597353 0.000324705
429 1 1.58539 27.4421 10.0096 13.2032 -0.00204125 0.00442222 -0.00429171
430 1 1.8951 29.3106 11.5478 15.1319 -0.00502931 -0.00141297 -0.00078744
431 1 1.74539 27.3977 13.6175 9.87267 0.00273513 0.00786448 0.00466631
432 1 1.66507 29.3364 15.0448 11.7389 0.00216614 -0.00188992 -0.00091159
433 1 1.33805 24.46 9.85256 16.683 -0.00110505 0.00696518 -0.00349576
434 1 1.43302 26.0061 11.6576 18.8554 0.00395131 -0.00954242 0.010812
435 1 1.56982 23.9338 13.3399 20.1876 0.00746462 -0.00474591 -0.00179288
436 1 1.76503 25.5568 15.1047 22.094 -0.00129744 0.00296935 -0.00752281
437 1 1.68662 27.6647 9.90052 20.5791 0.00669152 -0.00207416 0.000983863
438 1 1.49042 29.3153 11.61 22.2814 -0.00332265 0.00291381 0.0019114
439 1 1.81191 27.7655 13.3941 16.8651 -0.00624051 -0.000902868 0.00399452
440 1 1.57491 29.4193 15.2462 18.6475 -0.00703511 -0.000937891 -0.00483928
441 1 1.69756 24.3684 10.1349 23.8434 0.00379947 -0.0119113 -0.00859077
442 1 1.66224 25.8506 11.8875 25.8752 -0.00248532 0.00581933 0.0153832
443 1 1.70278 23.8377 13.3337 27.6851 0.00822371 0.00543701 -0.00546019
444 1 1.71207 25.6183 15.1069 29.5238 -0.00164442 0.000565781 0.0024983
445 1 1.68533 27.4509 9.82637 27.4417 0.00946393 -0.00592893 0.00464197
446 1 1.61218 29.2526 11.709 29.2708 0.00676654 0.00831842 0.0107325
447 1 1.60782 27.5417 13.5057 24.002 0.00298035 -0.00533191 -0.00540745
448 1 1.41726 29.4369 15.135 25.9171 -0.00527362 0.0135587 -0.0213417
449 1 1.7116 24.0462 17.1265 2.69375 -0.00517694 0.000617949 0.00736299
450 1 1.78285 25.8079 18.9015 4.4898 -0.0138099 0.000706068 0.00867471
451 1 1.57747 23.8169 20.496 6.10185 -0.00410929 -0.000796963 -0.00315981
452 1 1.49802 25.8797 21.9759 7.96039 0.00187346 -0.0152621 -0.000420256
453 1 1.50438 27.6061 17.1362 6.10129 0.00541217 -0.0163785 -0.00942703
454 1 1.53609 29.4062 18.8338 8.11035 -0.00708641 0.0154674 0.00390768
455 1 1.70002 27.4827 20.5845 31.0422 0.00159231 -0.00229031 0.00029659
456 1 1.70441 29.0567 22.2222 4.5713 0.00795598 -0.000874372 0.00391569
457 1 1.49642 24.0649 16.9682 9.54233 0.00547019 0.00579885 0.0148662
458 1 1.61774 25.602 18.518 11.6952 0.00456607 0.00426513 -0.000186275
459 1 1.55112 23.8935 20.5112 13.5679 -0.00470261 0.0104789 -0.00801178
460 1 1.66596 25.5854 22.4649 15.1582 0.000649525 -0.0036017 -0.00179296
461 1 1.79501 27.4585 16.8592 13.3102 0.00815161 0.0104775 -0.00132108
462 1 1.86928 29.166 18.7647 14.9292 -0.00282964 -0.0135392 -0.0140613
463 1 1.61506 27.4219 20.3794 10.0159 -0.00687758 0.000564772 -0.00162093
464 1 1.48178 29.3406 22.0569 11.6001 0.00822788 0.00186153 0.0118747
465 1 1.55518 23.9672 16.8586 16.933 0.00105125 -0.00263804 -0.00627664
466 1 1.4644 25.8071 18.7391 18.5267 0.00373087 0.000636811 -0.00964197
467 1 1.47407 23.8596 20.1899 20.3404 -0.0070879 -0.0104539 0.000153854
468 1 1.39361 25.6832 22.5594 21.7665 0.00229112 -0.00504056 0.00466585
469 1 1.7368 27.4193 16.8993 20.4961 -0.00838262 -0.00414349 0.00737986
470 1 1.77458 29.1386 18.6431 22.2001 -0.00444778 0.00457353 -0.0016208
471 1 1.57289 27.5183 20.682 16.5878 -0.00295324 -0.0023816 -0.0014953
472 1 1.61143 29.4261 22.1511 18.6873 0.00656339 0.0020347 0.000117501
473 1 1.5754 23.9849 16.9743 23.9016 0.00517678 -0.00810299 -0.00679718
474 1 1.28175 25.9265 18.563 25.7025 -0.00820363 0.00566997 0.00337646
475 1 1.50276 23.9195 20.6033 27.3398 -0.00543426 -0.00472526 -0.0012637
476 1 1.69791 25.807 22.3492 29.2197 -0.00461492 0.00626879 -0.00435303
477 1 1.42035 27.6774 16.7904 27.8513 0.00115952 0.0119433 -0.0038951
478 1 1.698 29.3726 18.7858 29.4239 0.00400283 0.0014774 -0.0103018
479 1 1.53696 27.6208 20.7663 23.734 -0.00379085 -0.00260638 -0.0017438
480 1 1.56118 29.3481 22.4831 25.7178 0.00259099 -0.00184105 0.000711555
481 1 1.92823 23.9545 23.8411 30.9694 0.00476566 0.0074138 -2.6689e-05
482 1 1.58432 25.761 25.5954 4.3135 -0.00778951 0.000475374 0.0104364
483 1 1.63314 23.9328 27.4647 6.00367 4.06975e-05 0.00207486 0.000279229
484 1 1.8284 25.5502 29.3095 7.69743 0.000604948 -0.00188871 0.00666405
485 1 1.61442 27.4871 24.0207 6.37765 -0.00472355 0.000563177 0.000996459
486 1 1.57076 29.2221 25.9797 7.8605 0.000518659 0.000246234 0.00192792
487 1 1.50815 27.6245 27.25 2.56279 -0.000127374 -0.00789021 -0.0174018
488 1 1.61079 29.0618 29.3547 4.17755 -0.00467518 -0.000445472 -8.14743e-05
489 1 1.60226 24.0548 23.9423 9.79337 -0.0042478 0.00435503 0.00339075
490 1 1.54223 25.8219 25.7617 11.4834 -0.000925237 -0.00411338 -0.00111703
491 1 1.62953 24.2397 27.6262 13.3435 -0.00875297 -0.00446117 0.000340903
492 1 1.53135 25.6678 29.2974 15.5401 -0.00233866 0.00457622 -0.00845913
493 1 1.52289 27.5454 23.9102 13.2452 0.00667652 -0.0045126 0.00145211
494 1 1.38218 29.389 25.6653 15.2053 3.75475e-05 2.55746e-05 -0.0124332
495 1 1.63826 27.3042 27.6509 9.52807 0.000854808 0.00307218 0.00049248
496 1 1.52486 29.1832 29.2797 11.4276 0.00172994 -0.00381412 0.00104821
497 1 1.39305 23.6196 24.0156 16.8619 0.00133599 0.000494514 0.00787153
498 1 1.14007 25.5557 25.7227 18.8194 -0.00259039 -0.00166526 -0.0020048
499 1 1.59458 23.8106 28.1262 20.5642 0.00312163 -0.00197064 -0.00800192
500 1 1.63023 25.8561 29.8075 22.228 0.00325965 0.00763569 0.00494713
501 1 1.66539 27.7871 24.2383 20.3475 -0.00328648 0.00214107 -0.00121079
502 1 1.73531 29.5023 25.9732 21.9674 0.0020221 -0.00302987 -0.00382365
503 1 1.46862 27.747 27.3841 17.112 -0.0048844 -0.000330631 -0.00964299
504 1 1.51864 29.3734 29.6265 18.7103 -0.0114847 0.00153839 0.01002
505 1 1.381 24.2705 24.13 24.0329 0.00175594 0.00436319 0.00568625
506 1 1.62095 25.703 26.1284 25.9599 0.00192633 0.000303497 -0.00407574
507 1 1.80146 23.7286 27.5204 27.7028 -0.0056966 -0.00329786 0.00237852
508 1 1.35725 25.9102 29.0545 29.2419 -0.000564936 -0.00994517 0.00463371
509 1 1.65771 27.5377 24.1788 27.5634 0.00405878 0.00725237 -0.0025181
510 1 1.50887 29.6092 25.5513 29.2751 0.00493096 -0.0136921 -0.00547512
511 1 1.46153 27.5845 27.716 23.8191 0.000290295 0.00372357 -0.0221343
512 1 1.60529 29.3627 29.6002 25.5841 -0.00293884 0.00689399 -0.0150797
513 2 -0.786865 3.41767 3.8189 3.44706 -0.0111195 0.0132427 -0.00780247
514 2 -0.76823 3.5115 30.2511 30.3549 -0.00535917 -0.000289798 -0.00906923
515 2 -0.814477 30.1557 3.50747 30.0687 0.00192338 0.00434554 0.0126456
516 2 -0.790122 30.1783 30.3927 3.75175 -0.0113492 -0.00437485 -0.00381058
517 2 -0.734842 3.68907 5.44299 5.89329 0.0137624 0.00339204 0.00439165
518 2 -0.692644 5.37961 3.36567 5.24974 0.0108637 0.011579 -0.00471443
519 2 -0.638031 5.21704 5.42586 3.87288 -0.0150338 -0.00943071 0.00872371
520 2 -0.717415 3.50792 7.24611 7.38366 -0.00737826 0.012651 -0.000774643
521 2 -0.769413 30.0207 5.22898 7.0966 -0.0116213 -0.00192327 -0.0033476
522 2 -0.73876 30.4591 7.10855 4.89818 0.0120526 -0.00723834 0.0049815
523 2 -0.721181 5.10381 7.86614 9.24068 0.00155355 -0.011734 -0.0097784
524 2 -0.795911 5.21615 9.01991 6.85422 0.0048388 0.00651235 0.00680435
525 2 -0.825653 3.10115 9.32821 8.44848 0.00511233 0.00902045 0.011512
526 2 -0.812539 6.57162 3.86909 7.28754 -0.00504418 -0.00758535 -0.0126617
527 2 -0.871338 5.05649 30.0442 7.19544 -0.000919665 -0.00839606 -0.00906699
528 2 -0.849674 7.25462 30.2626 5.95596 -0.000829934 -0.00566527 -0.0117016
529 2 -0.663085 7.03485 5.64838 8.96473 -0.0121868 0.00180618 -0.00807176
530 2 -0.75236 9.02915 5.37036 7.30232 0.00393143 -0.00900878 -0.010267
531 2 -0.617715 8.33288 3.30679 8.91712 -0.00453713 0.0111961 -0.00290906
532 2 -0.813087 7.26885 7.17443 3.56745 -0.0139175 0.00430896 0.00299357
533 2 -0.675022 4.97764 7.15953 29.7978 -0.0065566 -0.0150919 -0.00484737
534 2 -0.656684 6.97405 5.28181 30.86 -0.00057576 -0.00683469 0.0132449
535 2 -0.883509 7.23732 9.08593 5.37137 0.00555057 -0.00769041 0.0104947
536 2 -0.713688 8.56664 7.04422 5.4983 0.00104019 0.00192248 0.0122043
537 2 -0.795605 9.3149 8.49408 3.6345 -0.0144164 -0.000600093 -0.00524712
538 2 -0.694793 4.14493 30.6686 9.96035 0.00233684 -0.00250067 -0.00407511
539 2 -0.790023 2.85787 29.3022 8.2803 0.000564166 0.00435853 0.000828638
540 2 -0.853512 30.4259 3.34564 8.66929 -0.0104643 -0.00429707 -0.00676735
541 2 -0.751321 30.1896 30.2333 10.5818 0.00803468 -0.00273262 -0.00120526
542 2 -0.784978 3.75125 5.94197 13.2749 0.00723427 -0.00792346 -0.00531624
543 2 -0.876971 5.67018 4.21808 12.9526 0.00749568 -0.00599413 0.0139956
544 2 -0.686394 5.37498 5.92496 11.4048 0.00345463 0.000592714 0.00472155
545 2 -0.740733 2.99299 7.82018 14.5787 0.00656089 0.0097966 0.00810751
546 2 -0.786165 29.919 5.57754 14.3029 0.0113238 -0.00455774 0.00883823
547 2 -0.756362 30.3692 7.60917 12.5439 -0.00177704 0.00849096 0.00554278
548 2 -0.788181 4.86962 7.23463 16.2705 0.0117264 0.00350422 -0.00574525
549 2 -0.871576 5.3986 8.99668 14.3941 0.007557 0.00012737 0.00231975
550 2 -0.801817 3.77549 9.19344 16.4448 -0.0026188 0.00570403 -0.00440379
551 2 -0.82149 7.64493 3.44 14.195 0.000428569 0.00167011 0.00454629
552 2 -0.9122 5.39283 30.4306 13.979 0.0143039 0.0121668 0.00602787
553 2 -0.8088 6.90822 30.8087 12.0889 0.0117518 0.00276809 -0.00190146
554 2 -0.718826 6.78179 5.49648 16.0049 -0.00208257 -0.00869682 -0.0133837
555 2 -0.606002 9.25285 5.35969 14.9077 0.0140305 -0.00428875 -0.00325667
556 2 -0.774868 9.08672 3.50683 16.3281 0.0038441 -0.00557132 0.00959611
557 2 -0.657646 7.34598 7.48084 10.6228 0.00293588 0.00683952 0.0122208
558 2 -0.67759 6.97786 8.68255 12.6427 -0.00994641 0.00038665 -0.00121278
559 2 -0.740505 9.19361 7.65272 12.4433 0.0023441 0.0115909 0.00603012
560 2 -0.864402 8.87071 9.2896 10.4128 -0.000335091 -0.00340007 -0.00378704
561 2 -0.89181 3.8636 3.47202 17.8556 -0.00129069 -0.0113909 0.00400025
562 2 -0.810116 3.86865 30.2523 16.0612 -0.0108223 -0.00916582 -0.00382785
563 2 -0.779342 30.6221 3.84274 15.9547 0.00728751 0.00646408 0.00624792
564 2 -0.782411 30.212 30.5463 17.5999 0.00677231 -0.000288034 0.00153203
565 2 -0.817872 3.47776 5.6773 19.4251 -0.0036022 0.00148761 -0.0109329
566 2 -0.789471 5.31072 3.89141 19.9171 -0.00379554 0.000733301 0.00229193
567 2 -0.850263 5.08982 5.50387 17.7587 -0.00532245 0.00657347 0.00357028
568 2 -0.772282 3.56553 6.7356 21.5857 0.00453407 -0.00976037 0.00550764
569 2 -0.878504 30.2055 5.13631 21.233 -0.00515009 -0.00341207 -0.00166638
570 2 -0.723228 29.7288 7.04057 19.7583 0.00678564 -0.0111539 0.00122232
571 2 -0.858636 5.28637 7.27957 23.2129 0.00530045 0.00716922 -0.00811253
572 2 -0.786575 4.90321 8.74457 21.2 -0.00195892 -0.00192386 -0.00358249
573 2 -0.795884 3.57597 9.33487 22.8626 0.0105212 0.0175219 0.00739569
574 2 -0.810595 7.35145 3.36219 21.3024 0.0165975 0.00429438 -0.00215075
575 2 -0.847297 5.09355 30.4616 21.4691 0.000549419 0.00375212 0.00596695
576 2 -0.816407 7.00779 30.3042 19.5207 0.00745268 0.0162476 -0.0120714
577 2 -0.914929 7.0583 5.48354 22.6705 0.00131787 0.00724728 0.00606703
578 2 -0.916182 8.85829 5.33934 21.2579 0.0110441 -0.000684471 -0.00555431
579 2 -0.90841 8.8427 3.90484 23.3663 -0.00256436 -0.00529003 0.00637479
580 2 -1.02301 6.89144 7.10701 18.0482 0.0117003 0.0130376 0.00423423
581 2 -0.888954 7.28927 8.74096 19.9646 -0.00170995 -0.00708617 -0.0080227
582 2 -0.931208 8.92718 7.21385 19.6235 0.00796832 -0.00324287 0.00405804
583 2 -0.858073 8.55519 8.93446 17.7267 -0.00417648 -0.00398712 0.0188024
584 2 -0.884472 3.82292 3.62495 24.6957 0.00539501 0.00358477 -0.0138391
585 2 -0.860664 3.25768 30.2416 23.0218 -0.00704692 0.00318803 0.00976816
586 2 -0.875419 30.1663 3.92731 23.451 -0.00620043 0.0084406 -0.00692231
587 2 -0.820547 30.454 30.5666 25.0451 -0.0175131 -0.00356833 -0.00236771
588 2 -0.823166 3.46173 5.63259 26.4019 0.00855486 -0.00215166 -9.68513e-05
589 2 -0.789306 5.59608 4.03633 26.7126 0.00275979 -0.00637356 -0.0134364
590 2 -0.795968 5.55679 5.2542 24.69 -0.0085648 0.016874 -0.00422965
591 2 -0.801458 2.7991 7.35069 28.4593 -0.00088521 0.0097162 0.0100586
592 2 -0.823442 30.3642 5.26723 28.356 0.0112823 -0.00649952 -0.00299951
593 2 -0.818625 30.1241 7.23421 26.3244 -0.00662062 -0.0104732 -0.00566457
594 2 -0.929129 3.44027 9.06936 30.2758 -0.0026467 0.0105654 -0.0140733
595 2 -0.832384 4.90045 8.93383 28.1792 -0.0123759 0.00780022 0.00766991
596 2 -0.733968 7.22029 3.3933 28.545 -0.00381674 0.000590951 0.00557363
597 2 -0.8699 5.29215 30.4666 28.3621 -0.00819509 0.00207917 -0.000381044
598 2 -0.829351 6.92774 30.3413 26.4757 0.00211139 -0.00964216 -0.00215328
599 2 -0.768191 9.02945 3.56408 30.5162 -0.00634205 0.00451906 0.00652612
600 2 -0.649354 8.45245 5.59719 28.7641 -0.00719331 -0.0141155 -0.00446637
601 2 -0.90363 7.25019 6.84587 24.7876 0.00387473 0.00895261 -0.0125763
602 2 -0.844293 6.7769 8.70601 26.5385 0.0116311 -0.0184655 -0.00118997
603 2 -0.831342 8.82183 7.28436 26.8967 0.00492736 0.0126187 -0.000309043
604 2 -0.882375 8.86016 8.78113 24.9216 -0.0150072 0.00419209 -0.00596928
605 2 -0.811919 3.53873 11.0789 3.17725 0.00168584 -0.00658485 -0.0102929
606 2 -0.79936 29.9182 9.34154 3.45929 -0.000240799 0.00712815 -0.00926348
607 2 -0.742474 29.9877 10.7131 30.2476 -0.0125077 0.000914494 -0.0107559
608 2 -0.775759 3.03193 12.2661 5.23274 -0.00471347 0.0063263 0.000403597
609 2 -0.934274 5.3686 11.0202 5.26449 -0.00347194 -0.00164138 -0.0110387
610 2 -0.789366 5.03613 13.0109 3.74732 -0.0119571 0.00735385 0.00098388
611 2 -0.890687 3.51005 13.9472 7.02961 -0.0113688 0.0039775 0.000950609
612 2 -0.889319 30.0655 12.4536 7.1101 0.013959 -0.00670859 0.00701027
613 2 -0.884332 30.3524 14.6089 5.42661 -0.0028665 -0.00508346 -0.000543902
614 2 -0.752752 5.43072 14.6081 8.79628 -0.0115874 -0.000364716 -0.0164228
615 2 -0.826277 4.85963 16.0413 7.22414 -0.00655327 0.00367741 -0.000796989
616 2 -0.848726 2.96787 15.6528 9.02882 0.00115456 -0.00094955 -4.10301e-05
617 2 -0.828943 7.21538 10.7243 7.02872 -0.00377987 -0.000837529 0.0170578
618 2 -0.802921 6.98236 12.616 8.5308 -0.00275859 -0.000594578 0.0102731
619 2 -0.770277 8.68287 12.5851 6.66475 0.00236762 -0.00142308 0.00465721
620 2 -0.91439 8.92887 11.0831 8.80821 0.00373654 2.92222e-05 0.00504231
621 2 -0.776058 7.14516 14.0087 3.52512 -0.00314254 -0.00122796 0.0126749
622 2 -0.89887 5.21424 14.5627 30.4022 0.0142846 -0.0185643 -0.00227443
623 2 -0.851526 6.71788 12.3266 30.3747 -0.00702797 5.00639e-05 0.000696368
624 2 -0.705544 6.81751 15.6332 5.4796 -0.00345279 -0.00569276 0.000883222
625 2 -0.668975 8.94835 14.5142 5.46917 -0.00279324 0.00198711 -0.00279512
626 2 -0.840638 8.84063 16.0144 3.3816 -0.00680495 -0.00518466 -0.0134313
627 2 -0.915771 3.34565 10.5184 10.7232 0.00304135 -0.00113674 0.0061024
628 2 -0.905374 29.9415 9.03376 10.4042 0.0024122 0.000488791 -0.012729
629 2 -0.900253 29.7719 10.9329 9.22105 0.00277872 0.00455794 0.00238547
630 2 -0.812732 3.50398 12.5679 12.113 -0.0116223 -0.00667729 -0.00248425
631 2 -0.796019 5.1823 10.6906 12.2826 -0.0173448 -0.000732875 -0.00548059
632 2 -0.85358 5.03617 12.4598 10.2231 -0.0154336 0.00750252 -0.00443249
633 2 -0.733509 3.44136 14.0217 14.2984 -0.0002252 -0.012339 -0.00542953
634 2 -1.01269 30.1688 12.3547 14.1733 0.00906732 0.00262466 -0.00982158
635 2 -0.869606 30.4667 14.3317 12.4928 0.00461216 0.0024426 -0.000750474
636 2 -0.803637 5.71986 14.3165 16.2218 -0.00160404 0.00141919 0.00489537
637 2 -0.80418 5.3727 16.0956 14.3371 0.000848843 0.0249593 -0.00412411
638 2 -0.654294 3.95839 16.2901 16.3205 -0.00059584 -0.00824469 0.0101446
639 2 -0.850541 7.35302 10.4841 14.24 0.00332037 0.00064173 -0.00567064
640 2 -0.866012 7.22635 12.4457 15.8155 -0.0110325 -0.0115241 0.00185312
641 2 -0.886536 8.68078 12.4711 14.0041 -0.00203148 -0.0105734 0.00079666
642 2 -0.858501 8.72525 10.7416 16.2645 -0.0127132 -0.008076 0.00512928
643 2 -0.887702 7.30508 14.1304 10.5107 0.00209559 -0.00162904 -0.0146564
644 2 -0.918476 7.03475 15.7603 12.3889 -0.00161555 -0.00797652 0.0144601
645 2 -0.837739 8.87631 14.3729 12.4697 -0.00066142 0.000594468 0.0067638
646 2 -0.973499 8.78283 16.1115 10.52 0.00585634 0.0121217 0.024429
647 2 -0.912314 3.55317 11.2999 17.8369 0.000814384 0.00474228 0.00322389
648 2 -0.754083 30.3932 9.07895 18.0082 -0.00772938 0.00183662 0.0030318
649 2 -0.880692 30.1285 10.591 16.1114 0.0184812 0.00484386 -0.00114862
650 2 -0.851899 3.67584 12.6113 19.9496 -0.000348074 0.00599305 0.00666282
651 2 -0.727944 5.27073 10.779 19.4928 0.000806623 0.0058572 0.000635038
652 2 -0.846575 5.49573 12.7745 17.9517 0.000341533 -0.00439994 -0.0220749
653 2 -0.796252 3.17072 14.4239 21.4785 5.04757e-05 0.00483224 -0.00214349
654 2 -0.719662 29.9382 12.3744 20.9771 0.00639387 -0.0102944 0.00176268
655 2 -0.848687 30.6231 14.3099 19.238 0.00439811 -0.00763135 -0.000859698
656 2 -0.796035 5.29329 14.0285 22.8994 0.00311586 -0.000203793 -0.0077376
657 2 -0.88954 5.5102 16.022 21.3988 -0.00995486 0.0159848 -0.0102805
658 2 -0.840348 3.57873 16.1785 23.0293 -0.00754541 -0.00674361 0.00174492
659 2 -0.690938 6.51719 10.7572 21.5274 0.00393607 -0.0123099 -0.00294186
660 2 -0.718462 7.30352 12.8385 22.991 0.0127065 -0.00938656 0.00745535
661 2 -0.757894 8.72846 12.064 20.844 -0.012039 -0.00622721 -0.0139216
662 2 -0.759141 8.83323 10.5993 22.7638 -0.00586849 -0.0100804 0.0103669
663 2 -0.864215 7.79743 13.9811 17.7633 0.00425606 0.0088217 -0.00292886
664 2 -0.894545 6.95606 15.7222 19.3231 -0.00744386 0.00135451 -0.00399407
665 2 -0.901692 9.12486 14.2766 19.7867 -0.0198782 -0.00775705 -0.0026236
666 2 -0.867358 9.11995 16.0404 18.1491 -0.0095553 -0.00416559 0.00214481
667 2 -0.857845 4.05802 10.4505 24.9414 0.00772161 0.00645121 0.0127736
668 2 -0.809169 30.2611 9.0317 24.822 -0.00174263 -0.0130384 0.0010743
669 2 -0.746097 30.4394 11.2043 23.5228 0.000104139 0.00223925 0.0117988
670 2 -0.896822 3.5894 12.1476 26.5354 -0.0178082 -0.00709057 0.00774792
671 2 -0.857631 5.70812 10.9029 26.7355 0.00069922 -0.00836547 0.00526185
672 2 -0.918218 5.59105 12.2217 24.8126 -0.0048089 -0.00664265 -0.00580111
673 2 -0.947944 3.75369 13.9041 28.6042 -0.00649882 -0.00658069 -0.0114442
674 2 -0.862153 30.3757 12.1527 28.3225 -0.00411555 -0.000192722 0.00979643
675 2 -0.758873 30.495 13.952 26.6607 -0.00377879 -0.00382384 -0.00470056
676 2 -0.822322 3.35063 16.1537 29.5987 -0.00946259 -0.00400209 -0.00119681
677 2 -0.912697 5.2274 15.8506 28.1306 0.00583037 0.00716818 0.00385654
678 2 -0.818208 6.99963 10.2701 28.8145 0.000583514 0.005657 -0.018465
679 2 -0.807753 8.79291 10.6676 30.7613 0.0204205 -0.0105345 0.0043203
680 2 -0.689832 8.22209 14.1784 29.3891 0.00622746 -0.0265024 -0.008554
681 2 -0.821588 7.21934 14.3476 24.8381 -0.0180402 0.000397855 0.00396035
682 2 -0.837823 6.83702 16.5949 26.3018 0.0110116 0.00337743 -0.0185285
683 2 -0.691686 8.53473 14.9032 27.0695 -0.0104328 0.0039344 0.00434783
684 2 -0.836657 8.87114 16.146 24.6674 0.01445 -0.00301836 -0.00740358
685 2 -0.861984 3.60718 17.407 3.59911 -0.0146999 -0.00569055 -0.0073467
686 2 -0.89093 30.1663 15.9686 3.25881 0.00596149 0.00161395 -0.00193785
687 2 -0.948779 30.1898 17.7522 30.2378 -0.00290191 0.00695548 -0.00643823
688 2 -0.755008 3.49627 19.298 5.22722 -0.00713931 -0.00568167 0.00213875
689 2 -0.773499 5.55451 17.7242 5.18197 -0.0153227 -0.0166126 -0.00483225
690 2 -0.794047 5.35225 19.5457 3.45607 -0.00198808 0.0180048 0.000267572
691 2 -0.861893 3.62356 21.2379 6.67034 -0.00114694 -0.00458753 -0.00366969
692 2 -0.753023 30.3899 19.4498 6.9758 -0.00397227 0.0025236 -0.00596407
693 2 -0.881425 29.9101 21.0566 5.14123 0.0111687 -0.00795607 -0.010558
694 2 -0.811497 5.2583 20.8105 8.61672 0.00194221 0.00420515 0.00625881
695 2 -0.870255 5.4297 23.0706 7.51185 0.0046785 -0.0237306 0.00696969
696 2 -0.755559 3.50532 22.6242 8.91659 -0.0010872 0.000153822 -0.0220004
697 2 -0.893878 7.00281 17.4384 7.30031 -0.00718702 -0.00212353 0.00605055
698 2 -0.767836 7.46427 19.3529 8.96573 0.00327538 -0.0106425 -0.0125019
699 2 -0.929088 8.51848 19.3232 6.88763 0.00175743 -0.00173522 -0.00665895
700 2 -0.896341 9.07249 17.3308 8.38588 0.0134384 -0.00417907 0.0113275
701 2 -0.918273 6.94771 21.48 3.26717 -0.0197049 -0.0169558 0.00174743
702 2 -0.850627 5.23572 20.7732 30.1385 -0.00379994 0.00850311 -0.00834866
703 2 -0.869291 7.57354 19.5408 30.3063 0.00505772 -0.00114355 0.00463974
704 2 -0.890873 6.99689 22.7924 5.45099 0.0051883 -0.00193617 0.0100262
705 2 -0.937698 8.60609 21.0495 5.21395 -0.00851949 0.00645026 -0.00170549
706 2 -0.904208 8.60612 23.2619 3.76049 0.00492941 -0.00662677 0.000844768
707 2 -0.831719 3.31069 17.694 11.0056 0.00493968 0.00347246 0.00122872
708 2 -0.806107 30.0278 16.2022 10.9605 0.00623106 0.0138761 0.00767247
709 2 -0.803675 30.2308 17.6146 8.7796 -0.00599354 0.0121786 0.00225397
710 2 -0.815013 3.72249 19.4793 12.54 -0.00051515 0.00131786 0.0086126
711 2 -0.861453 5.56997 17.7931 12.5638 -0.00694743 -0.00280429 -0.00783081
712 2 -0.814296 5.50751 19.0976 10.6298 -0.0033365 -0.00841799 -0.00259295
713 2 -0.91915 3.2704 21.1381 14.3969 0.00647643 -0.0197028 -0.00769479
714 2 -0.873749 30.0963 19.4532 13.9831 0.00526425 -0.00515811 -0.00470915
715 2 -0.8613 30.7268 21.3118 12.0685 -0.00760426 -0.0153059 0.0105777
716 2 -0.925698 5.21304 21.0754 16.1087 0.00977462 -0.00672176 0.00428081
717 2 -0.783799 5.1839 23.1641 14.489 -0.00719106 0.00713825 0.00703259
718 2 -0.871551 3.53289 22.9239 15.9907 -0.00190361 0.0115685 0.0018376
719 2 -0.85677 7.56125 17.337 14.1191 -0.00703541 0.00269205 -0.00131411
720 2 -0.891204 7.1527 19.585 15.5837 -0.00296741 0.0113631 -0.00494229
721 2 -0.827061 9.23034 19.0218 14.4351 -0.0196356 -0.00463878 -0.00227743
722 2 -0.803837 8.88526 17.7773 16.2716 -0.00293978 -0.00801769 0.0131316
723 2 -0.621606 6.78725 21.4169 11.0023 0.00478275 0.00133207 0.00357024
724 2 -0.812098 7.0814 22.993 12.9878 0.000754688 -0.0267303 -0.000105743
725 2 -0.81109 8.50679 20.8958 12.8109 0.00265799 0.000477302 0.000781525
726 2 -0.671184 9.13374 22.9015 11.1353 0.0102556 -0.00941472 0.00204486
727 2 -0.711218 3.52154 18.2553 17.6142 0.00989279 -0.000711861 -0.00606437
728 2 -0.794439 30.1672 16.4196 17.8841 -0.0034569 0.000631302 -0.00621589
729 2 -0.855671 30.2445 18.1671 15.7836 -0.00386833 -0.010218 -0.000861454
730 2 -0.860242 3.7377 19.6059 19.7421 3.56077e-05 0.0140825 -0.00762588
731 2 -0.895893 5.23952 17.4987 19.2508 0.00798524 0.00204658 0.0101143
732 2 -0.835125 5.69363 19.3279 17.7813 -0.00851153 0.00887006 0.00843378
733 2 -0.94224 3.19935 21.262 21.3791 -0.00472538 0.0101032 -0.00866839
734 2 -0.862207 30.1388 19.0769 21.1598 0.000162924 -0.0125505 0.0125472
735 2 -0.757035 30.245 20.988 19.2337 -0.00427054 0.00940936 0.00739673
736 2 -0.746011 5.14659 21.5304 23.0021 -0.00382198 0.00123183 0.00312829
737 2 -0.694812 5.10749 23.1013 21.2094 -0.00248579 0.00965538 -0.0186813
738 2 -0.757086 3.53713 23.2256 23.1107 0.00218646 -0.00373951 0.000252578
739 2 -0.906035 7.06412 17.8608 20.7026 0.0122649 -0.00276861 -0.00570926
740 2 -0.729681 6.8243 19.7686 22.5599 0.00414618 0.00373956 -0.0100454
741 2 -0.759074 9.17347 19.2125 21.2499 0.00359717 0.00797676 -0.0124043
742 2 -0.873273 8.56544 17.7684 22.9539 -0.0122985 -0.0103312 0.00561634
743 2 -0.798397 7.04863 21.3905 17.5455 -0.0105473 0.00585839 -0.00429048
744 2 -0.713691 7.51232 22.8132 19.9052 0.00997286 -0.00203513 0.000940981
745 2 -0.659759 8.8513 20.8418 19.4067 0.000203297 -0.0141803 0.0110756
746 2 -0.870183 9.23333 22.8138 17.9942 0.00919342 0.00359888 -0.0128472
747 2 -0.86484 3.29819 17.3768 24.9938 -0.00158924 0.0104625 -0.00865094
748 2 -0.767942 30.2688 15.6273 24.6025 -0.0112819 -0.00807838 0.000234968
749 2 -0.877598 30.1235 17.7158 22.9131 0.00571414 -0.0126811 -0.00373371
750 2 -0.859391 3.16318 19.6535 26.2515 -0.0132048 0.0105579 0.0120658
751 2 -0.911788 5.16324 18.0866 26.632 0.0112152 -0.00046298 0.00271633
752 2 -0.812737 5.04539 19.1601 24.3702 -0.00244472 -0.00235456 0.0155049
753 2 -0.902002 3.69504 20.8062 28.294 -0.00927559 0.0131206 -0.00754098
754 2 -0.914309 30.0865 19.5129 28.2018 0.00314051 0.00264784 0.00787904
755 2 -0.896733 30.2807 21.5866 26.4795 -0.000401377 -0.00707619 0.00410585
756 2 -0.892977 3.42904 22.6598 30.1596 -0.00294957 0.00745104 0.00633957
757 2 -0.837062 5.18919 22.6935 28.4997 -0.00172965 0.00815406 -0.00613719
758 2 -1.033 6.75477 17.9351 28.4608 -0.00348203 0.0112897 -0.00550297
759 2 -0.972506 8.97228 17.5399 29.8644 7.74907e-05 0.00489749 -0.017547
760 2 -0.900603 8.78999 19.3976 28.2521 0.00733295 0.0138428 0.00717724
761 2 -0.620101 6.78442 20.9135 24.9038 0.0042949 -0.00922902 -0.00366215
762 2 -0.675096 7.33355 23.2591 27.0571 -0.00358025 -0.00554226 0.00111987
763 2 -0.795142 9.28041 21.1244 26.5863 -0.00894679 0.00325941 0.0133772
764 2 -0.8218 8.70339 22.5748 24.6067 9.25187e-05 0.00523798 -0.00515916
765 2 -0.801765 3.83966 24.3047 3.32546 -0.00340849 0.00410917 0.00461115
766 2 -0.799789 30.1704 23.0352 3.87051 0.0082316 -0.013361 0.000395144
767 2 -0.927095 30.5921 24.7966 30.2377 0.0118589 -0.00461412 -0.0125264
768 2 -0.815395 3.02663 26.169 5.00612 -0.0182368 -0.00214729 -0.00133854
769 2 -0.897605 5.00663 24.4742 5.48392 -0.00725862 -0.000280558 0.0107594
770 2 -0.894661 5.3555 26.1839 3.73432 0.00380648 -0.00116687 -0.00398468
771 2 -0.808383 3.42624 28.3389 6.01245 0.000914029 0.00973708 -0.00122759
772 2 -0.860147 29.9551 26.9705 6.9231 0.00509305 -0.00124189 0.00787379
773 2 -0.86029 29.7461 28.1522 4.93138 0.00655244 0.000386732 -0.00206125
774 2 -0.819074 4.98421 27.7754 7.91589 -0.00183334 -0.00351576 0.00410623
775 2 -0.943301 7.17716 24.8587 6.68575 0.00667557 -0.00258929 0.00372484
776 2 -0.801736 7.27561 26.4812 8.73508 -0.00425742 0.00207918 -0.00560634
777 2 -0.817148 9.28287 26.3522 7.28441 -0.00899082 0.00342632 0.00325822
778 2 -0.748719 8.6218 24.6736 8.83304 0.00857967 0.0118499 7.86479e-05
779 2 -0.760847 7.49793 27.9999 4.47885 0.00453387 -0.0148827 -0.01499
780 2 -0.624121 5.9169 28.5956 2.9156 0.00289905 -0.00831518 -0.00130205
781 2 -0.877828 7.20729 26.8488 30.7281 0.00647509 0.00461559 -0.0233382
782 2 -0.950654 8.86491 30.0564 3.762 -0.00853952 0.00142448 0.00222646
783 2 -0.828952 9.02763 28.639 6.03713 -0.000358537 0.000842963 0.0064888
784 2 -0.698644 3.64699 24.6301 10.5781 0.0061011 0.000170176 -0.00238502
785 2 -0.726898 30.0401 23.2247 10.6434 0.0108911 0.0103913 0.0104656
786 2 -0.67959 30.3516 25.1455 8.54763 -1.32653e-05 -0.00931914 -0.0104925
787 2 -0.68963 3.53995 26.5715 12.4151 -0.00979313 0.00189981 0.00334486
788 2 -0.796085 5.51432 24.9481 12.3912 -0.00501523 0.00407566 0.00214454
789 2 -0.847077 5.16284 26.3929 10.1391 -0.000107105 -0.000800061 -0.0104701
790 2 -0.855785 3.59658 28.6028 14.0859 0.00538358 -0.00836657 -0.00165614
791 2 -0.721235 30.5527 26.3876 14.076 -0.00480419 -0.00160441 0.0252309
792 2 -0.764669 29.9814 28.3574 12.504 0.0175081 0.00505371 -0.0012532
793 2 -0.851861 5.58052 28.2776 15.4263 -0.0105925 0.00445014 -0.0011664
794 2 -0.844996 6.79161 24.8429 14.509 0.00187354 0.00270193 -0.000610012
795 2 -0.810189 7.14699 26.3617 16.214 0.000445169 0.000200518 0.0137888
796 2 -0.813712 8.93551 26.2474 14.3936 0.00280609 0.01029 -1.59286e-05
797 2 -0.862404 8.95574 24.5582 16.2526 -0.00114651 0.000124161 -0.00418751
798 2 -0.78255 6.17348 28.6899 9.98035 0.00305655 0.0101058 0.0116748
799 2 -0.740934 8.44221 29.7834 10.6045 -0.00471891 0.00229308 0.00707718
800 2 -0.695001 9.3707 28.3042 13.428 0.0020793 -0.0135434 0.00313134
801 2 -0.77336 3.42037 25.1156 17.4855 -0.00418128 0.00360558 0.00102054
802 2 -0.810124 30.6066 22.8719 18.0318 0.00210138 9.07112e-05 -0.00454655
803 2 -0.769868 30.005 24.6023 16.1963 -0.0121212 0.00926202 0.00216814
804 2 -0.797079 3.3117 26.6669 19.3807 -0.00523019 0.00872619 -0.00131049
805 2 -0.637639 5.06379 24.051 19.1354 -0.00692935 -0.00466543 -0.00802279
806 2 -0.71108 5.3587 26.9582 17.6547 -0.0036364 0.0132247 0.000385249
807 2 -0.84076 3.76146 28.283 21.0764 -0.000352092 -0.004843 -0.00404646
808 2 -0.897626 29.9842 27.131 21.1616 0.00688914 -0.0093994 -0.0024074
809 2 -0.883065 30.4083 28.8828 19.6349 0.00823454 -0.00587921 0.00125111
810 2 -0.682229 4.9594 28.315 23.2187 -0.00101037 0.00778721 -0.012843
811 2 -0.622094 6.73347 24.9992 21.035 0.00384802 0.00218064 0.00473793
812 2 -0.635993 6.9082 26.6154 23.0963 -0.00142192 -0.019705 0.0130615
813 2 -0.688701 9.11351 26.5636 21.5274 -0.00562912 0.00457882 0.00272111
814 2 -0.79148 8.31745 24.4851 23.088 -0.00692578 0.00173784 -0.00548225
815 2 -0.722786 7.01055 28.6693 17.6945 -0.00272012 0.00186606 -0.00562678
816 2 -0.862907 9.15374 30.0029 17.7967 -0.00415459 -0.00314061 -0.00293358
817 2 -0.716527 8.93944 28.5956 19.8497 -0.00925688 -0.00879125 -0.00729778
818 2 -0.701693 3.83472 25.077 24.6427 -0.0010538 -0.00576293 -0.000117443
819 2 -0.785831 30.4001 23.299 24.9156 0.0137677 0.00113292 -0.00430128
820 2 -0.863061 30.6425 25.2398 22.7676 0.00753999 0.00179852 -0.0040784
821 2 -0.754065 3.22817 26.9502 26.3369 0.00804098 0.00679371 0.0159012
822 2 -0.650566 5.4091 24.5968 26.7817 -0.005529 0.00760893 0.00359274
823 2 -0.607925 5.44104 26.6171 25.2031 0.0101787 0.00870956 -0.00191579
824 2 -0.822854 3.30405 28.639 28.3498 0.00755376 -0.0106137 0.0159157
825 2 -0.881054 30.0648 26.7369 28.2421 0.00583613 0.00656607 -0.0121999
826 2 -0.767387 30.1168 28.4581 26.4741 0.00517826 -0.00678053 -0.0123015
827 2 -0.837733 6.82866 24.9289 28.882 -0.0074805 -0.0132397 -0.000984269
828 2 -0.714387 9.01708 25.0218 30.2909 0.0132117 -0.00287751 -0.00567653
829 2 -0.749481 8.67353 26.7215 28.4328 -0.00260893 -0.00903644 0.0189606
830 2 -0.882562 7.14373 28.6021 24.7959 -0.00952523 0.00141364 -0.000133668
831 2 -0.850462 8.68079 30.6798 24.8477 -0.0127514 -0.00628727 -0.00822606
832 2 -0.782462 8.92723 28.6746 26.6174 0.00852812 -0.00439873 -0.00185797
833 2 -0.827705 10.6146 3.19039 3.64518 0.00584841 -0.00987542 -0.016909
834 2 -0.808478 10.7326 30.2546 30.3069 -0.00389237 0.00383839 0.0041398
835 2 -0.731467 10.7439 5.42929 4.96341 0.00212278 -0.000702248 -0.0125292
836 2 -0.768835 12.4349 3.2902 5.29234 0.00104786 -0.00198646 0.00920286
837 2 -0.779641 12.6046 5.02517 3.42304 -0.00592298 -0.000603026 0.00290504
838 2 -0.803843 10.509 7.46654 6.64219 -0.0107439 -0.0157794 0.00527821
839 2 -0.900396 12.2632 7.62303 8.50989 0.00538884 -0.0159108 -0.00162877
840 2 -0.83903 12.1504 9.36993 6.63448 0.00772068 0.000982696 0.0120504
841 2 -0.857568 10.6255 9.26647 8.42991 0.00699313 0.00356644 0.00687397
842 2 -0.837798 13.8325 3.67943 7.44004 0.00116827 0.00254646 -0.00276011
843 2 -0.86241 12.1838 30.2536 7.22042 0.00768203 -0.00204575 0.000930034
844 2 -0.894615 14.2336 30.1791 5.66245 0.0118298 -0.00325593 0.00290374
845 2 -0.698103 13.838 5.77346 8.42914 -0.00964923 0.00533317 0.0027709
846 2 -0.8555 15.9997 5.21907 6.93473 0.0160262 -0.00422656 0.000167113
847 2 -0.644551 15.7081 4.28726 9.35197 0.00181053 0.0187372 -0.000130525
848 2 -0.96024 14.2195 7.1853 3.61662 -0.00531817 0.00131079 -0.00110675
849 2 -0.858214 12.1853 7.06894 30.5063 0.0108555 -0.00172794 0.00345354
850 2 -0.737406 14.1978 5.81372 30.0437 0.01379 -0.00619257 -0.00277118
851 2 -0.902422 14.3233 8.69872 5.55958 -0.002945 -0.00948297 -0.000654573
852 2 -1.00161 16.1756 6.86263 5.15502 0.00751887 0.00862244 0.00353974
853 2 -0.824277 16.027 8.88269 3.77234 0.00559682 -0.00229414 -0.000319876
854 2 -0.704339 10.429 3.81365 10.6439 0.00772522 -0.00110449 0.0129272
855 2 -0.831368 10.3831 30.2063 8.96489 0.00917314 -0.00864801 -0.00389465
856 2 -0.662326 10.509 5.29572 12.4257 -0.023356 -0.00593031 -0.0166767
857 2 -0.848986 12.2805 3.55486 12.6585 0.0114215 -0.00131564 0.00750623
858 2 -0.724963 12.2453 5.4083 10.5009 -0.00676917 -0.00857076 -0.013346
859 2 -0.719778 10.871 6.86406 14.3693 -0.00949372 -0.00446956 -0.00302202
860 2 -0.852956 12.5052 7.01315 16.1808 -0.000512426 0.00693823 -0.00988311
861 2 -0.862848 12.2325 8.97309 14.554 0.00477182 0.000962769 -0.00511532
862 2 -0.826603 10.3761 8.63491 16.3281 -0.000512104 -0.00561763 0.00165698
863 2 -0.788088 14.5228 3.25571 14.3793 0.00607677 0.000766822 -0.00878071
864 2 -0.826379 12.181 30.2871 14.3312 0.0103527 -0.00206695 -0.00402662
865 2 -0.813706 13.7572 30.0151 12.665 0.00560784 -0.0115591 0.00624487
866 2 -0.867818 14.3569 5.50778 16.0595 -0.00800369 -0.00138363 0.0125295
867 2 -0.711055 15.7898 5.62496 14.3352 -0.00383643 0.0032 -0.00812598
868 2 -0.813846 15.9346 3.52279 16.1954 0.0182934 0.00677612 0.0163865
869 2 -0.659634 14.0423 7.54948 10.3301 0.0131149 0.00931782 -0.0050199
870 2 -0.839032 14.267 8.80137 12.7992 0.00239634 -0.0108212 0.001798
871 2 -0.676047 16.1288 7.10446 11.9992 0.00222148 0.00546052 -0.012591
872 2 -0.779664 15.8339 9.04772 10.6193 -0.0111713 0.00741643 0.00895293
873 2 -0.952511 10.6635 3.41567 18.2339 -0.0105119 0.0149834 0.00472726
874 2 -0.858026 11.063 29.9861 16.3611 0.00017576 -0.00057215 0.00838538
875 2 -0.966919 10.7175 5.61408 19.4424 0.00310928 0.00955107 -0.00419033
876 2 -0.995624 12.326 3.64389 19.9295 0.00472774 0.00426009 7.49707e-05
877 2 -0.903972 12.4783 4.95153 17.8891 -0.00813341 -0.00266889 -0.00985476
878 2 -0.895072 10.8417 6.86737 21.422 -0.00343423 0.00325679 -0.00089502
879 2 -0.780704 12.3978 6.82441 23.3396 0.00845472 -0.00248152 -0.0159597
880 2 -0.820819 12.4062 9.05781 21.4764 0.00952743 0.00899891 -0.00816739
881 2 -0.570134 10.1653 8.6386 23.1372 -0.00114331 -0.00512612 0.00874939
882 2 -0.748474 14.3736 3.16965 21.7209 -0.000580662 -0.00380748 -0.00272822
883 2 -0.743989 12.6959 30.077 21.6092 0.000566781 0.00271187 0.00808033
884 2 -0.803242 14.4832 30.5997 19.7784 -0.00257152 0.000241153 0.00513367
885 2 -0.825584 13.7598 4.95142 23.5219 -0.000546732 -0.0110836 0.00409767
886 2 -0.780751 15.3427 5.33572 21.4212 0.0106332 0.00121528 -0.0114922
887 2 -0.712816 16.0781 3.81051 23.3441 0.000367666 0.00251378 0.0125755
888 2 -0.905047 13.876 7.04376 18.1138 0.00943972 -0.00360405 -0.00362349
889 2 -0.905071 14.0903 9.09866 19.3291 0.00552501 0.00859849 -0.00508392
890 2 -0.867174 15.8025 7.44863 19.7778 0.00185384 0.00459311 0.00373632
891 2 -0.876753 15.6876 8.5788 17.4965 0.00410763 0.00649399 0.00970453
892 2 -0.891852 10.7559 3.48207 24.7858 5.47595e-05 0.000748274 0.0114953
893 2 -0.870833 10.3487 30.273 22.9068 0.00233011 0.00275221 -0.0079592
894 2 -0.833908 10.0365 4.97609 26.7778 -0.0158455 -0.00588795 -0.00238828
895 2 -0.825588 12.2193 3.60522 26.9134 0.0144532 -0.00747392 -0.0105062
896 2 -0.829194 12.1608 5.65679 25.5271 0.0210169 -0.00815131 0.00416719
897 2 -0.901247 10.3756 6.93403 28.756 -0.0117057 -0.00242012 0.00927791
898 2 -0.711891 11.1358 9.12502 30.2848 0.00715132 0.00204698 0.0127881
899 2 -0.799397 12.4865 8.66032 28.6009 0.0217464 0.00353165 -0.01091
900 2 -0.692765 13.7289 3.83219 28.616 -0.004895 0.0122498 -0.00723164
901 2 -0.813325 12.5337 30.1535 28.357 0.0141232 -0.00987844 0.0115738
902 2 -0.712711 13.9713 30.5021 26.2564 -0.00281751 0.00350926 0.00570037
903 2 -0.6457 15.8548 3.69496 30.3157 0.00463655 0.00435329 0.00836339
904 2 -0.859918 16.1403 5.13847 28.3059 0.00802529 0.0202853 0.0137404
905 2 -0.841572 14.5065 6.86432 25.041 0.00715074 0.00789195 0.00605615
906 2 -0.941412 14.3338 8.86598 26.5713 0.00485002 0.00852796 0.0101916
907 2 -0.880042 16.2054 7.24649 26.8462 0.00420732 -0.011385 0.000950824
908 2 -0.910747 16.0212 9.05469 24.919 0.00062333 0.0092282 -0.0120986
909 2 -0.797437 10.7843 10.4834 3.71212 0.0079781 0.0106756 0.00514226
910 2 -0.741453 10.9276 12.8299 4.89889 0.0013069 0.00183269 0.00190673
911 2 -0.853801 12.7103 10.9934 5.13585 0.00138333 0.00741314 -0.00855042
912 2 -0.847565 12.4398 12.1716 2.92856 -0.00194792 -0.00625525 -0.00193288
913 2 -0.730997 10.727 14.0502 7.44499 0.00141328 0.00419501 -0.00476807
914 2 -0.907402 12.804 13.9499 8.98306 -0.0119952 -0.00662679 0.000117763
915 2 -0.798787 12.2615 15.8653 7.07321 0.00419993 -0.00311431 -0.00347063
916 2 -0.804405 10.895 15.6778 9.10149 -0.00517328 -0.0122863 0.0149734
917 2 -0.822749 14.036 10.6726 7.11708 -0.00425731 0.0120073 -0.00426847
918 2 -0.834734 14.4246 12.2186 9.31876 -0.000631056 -0.00407221 -0.000119532
919 2 -0.797554 15.6662 12.3968 7.34922 -0.00579696 -0.00151536 0.00406588
920 2 -0.814948 16.0022 10.1895 8.73425 0.00279269 -0.012136 -0.00888779
921 2 -0.809087 14.662 13.4891 3.3279 0.00715158 0.00318357 0.00317588
922 2 -0.883213 12.6625 14.3247 30.1204 0.00552952 -0.0119859 0.000411025
923 2 -0.850219 14.3346 12.3211 29.7043 -0.0210393 -0.00540589 -0.00302738
924 2 -0.795045 13.8253 15.4061 4.992 0.000204063 -0.00267186 -0.0104459
925 2 -0.814701 15.7593 14.107 5.27188 -0.0113676 -0.00551151 0.0063812
926 2 -0.773114 15.9334 15.8964 3.54426 0.0111995 0.00518264 0.00569423
927 2 -0.916297 10.9151 10.8231 10.3315 -0.00730052 -0.00678056 0.00119941
928 2 -0.899773 10.3618 12.4276 12.1863 0.0228307 0.014971 -0.00912777
929 2 -0.833578 12.2047 10.5089 12.4894 0.00453831 -0.0024912 0.00566835
930 2 -0.96031 12.5636 12.3964 10.8755 -0.00147419 -0.00652397 -0.00186911
931 2 -0.825768 11.0463 13.7816 14.1365 -0.00331313 -0.00283757 -0.0131899
932 2 -0.850183 12.6671 14.5199 16.0649 0.0074545 0.0113312 -0.00431357
933 2 -0.751371 11.9942 15.934 14.0594 0.00789038 0.00176983 0.00284905
934 2 -0.818925 10.5287 15.6997 15.9687 -0.00942388 -0.000852388 0.00354662
935 2 -0.843502 13.8325 10.8344 14.1171 -0.00701581 -0.00964256 -0.0142107
936 2 -0.852072 14.4875 12.4145 16.1537 -0.0020629 0.00457264 0.00922655
937 2 -0.699251 15.7135 12.5781 13.9726 0.0026226 -0.0165117 0.0033541
938 2 -0.772889 15.9993 10.363 15.5458 0.00541689 0.0173959 0.0107292
939 2 -0.904667 14.5864 14.0284 10.886 0.00468801 0.00886494 0.0118351
940 2 -0.777343 14.3759 15.7044 12.5659 -0.00355422 0.0109936 0.0046188
941 2 -0.842197 16.3747 14.2098 12.3281 -2.04075e-05 -0.00288593 0.000324198
942 2 -0.968128 16.4306 15.6787 10.4727 -0.00373615 -0.00744329 -0.0120713
943 2 -0.836676 10.8286 10.4719 17.9824 0.00667097 0.00162053 0.000697613
944 2 -0.886957 10.9239 12.4537 19.5243 -0.0129376 0.00319118 -0.00236911
945 2 -0.839929 12.5821 10.8735 19.759 -0.00947888 0.00373035 -0.0177406
946 2 -0.863572 12.2661 12.4763 17.3938 -0.000716525 0.00905169 0.00616599
947 2 -0.855109 10.7779 13.8748 21.4961 0.00142307 0.00461736 0.00889273
948 2 -0.92594 12.4711 14.1722 23.3036 -0.0125176 0.0107262 0.0100944
949 2 -0.60177 12.3572 15.8476 21.7267 0.00506502 0.00788538 0.0136637
950 2 -0.820569 10.4395 15.9965 22.8741 -0.00299236 -0.00115177 -0.00158716
951 2 -0.826381 14.3562 10.351 21.3904 0.00564107 -0.00605505 -0.00403089
952 2 -0.918774 14.1803 12.3337 22.8318 -0.0065064 0.00370845 0.00739651
953 2 -0.851357 15.9896 11.9453 20.9563 -0.0165315 -0.00695558 0.00456377
954 2 -0.92414 16.238 10.4722 23.0216 -0.00530798 0.00760693 0.00316036
955 2 -0.856947 14.5288 13.8389 17.8356 0.00286705 -0.00349922 0.00098803
956 2 -0.759547 14.5996 15.9558 19.0191 -0.00584758 0.0110669 -0.00146567
957 2 -0.804098 16.1668 14.2965 19.7926 -0.00492299 0.00432255 0.010252
958 2 -0.774781 16.4165 15.602 17.4128 -0.00220932 0.00676708 0.0102224
959 2 -0.825206 10.5093 10.7728 24.5334 0.00390992 0.0105482 -0.00905923
960 2 -0.649225 8.61544 12.3464 27.3022 -0.00403337 0.0010952 -0.00580362
961 2 -0.819671 12.0701 10.1015 26.4394 -0.0168435 -0.00235953 0.00637841
962 2 -0.909327 12.6745 12.0784 24.5516 0.00276368 -0.00219007 -0.00565126
963 2 -0.776695 10.6075 14.4463 28.4153 0.0071265 0.000759815 -0.00872269
964 2 -0.861371 10.5985 15.6799 30.4328 0.00150437 0.00905558 0.0199914
965 2 -0.824426 12.222 16.2533 28.5365 -0.014933 2.16894e-05 -0.0011603
966 2 -0.79426 13.762 10.5698 28.0023 0.00520258 -1.73999e-06 0.0113579
967 2 -0.746211 15.7199 10.438 30.1365 -0.0100935 -0.00599466 0.0208049
968 2 -0.827167 16.0928 11.8299 28.0446 0.00900944 -0.00672145 -0.00153352
969 2 -0.896059 14.4991 13.9769 24.5254 -0.00395183 -0.00826074 0.00536352
970 2 -0.90069 14.1727 15.6849 26.775 -0.00205059 -0.0112933 0.00236256
971 2 -0.832721 15.9738 14.1189 26.5855 -0.0116929 -0.00683451 0.00456425
972 2 -0.868732 15.9514 16.1433 24.9299 0.00348311 0.000160026 -0.00894281
973 2 -0.742605 10.5066 17.7618 3.41884 0.0151013 0.0156446 -0.0131312
974 2 -0.862176 10.4273 19.372 5.09597 0.010258 -0.0070032 -0.00755128
975 2 -0.704363 12.1877 17.2548 5.15481 -0.00692528 -0.00106128 -0.0131802
976 2 -0.891043 12.6465 19.4087 3.30547 -0.0182786 0.00522661 -0.00376947
977 2 -0.880022 10.2294 21.2289 6.91923 0.00311255 -0.00552942 -0.0016548
978 2 -0.817424 12.1663 20.7378 8.50106 0.0234607 0.0013784 -0.0130287
979 2 -0.696355 12.3401 22.5941 6.99781 0.0082671 -0.0010404 -0.00812192
980 2 -0.709371 10.6801 22.9979 8.83185 0.0115643 0.00370016 0.00490852
981 2 -0.72744 14.1521 17.3053 6.79891 0.00591309 -0.0045298 0.0003619
982 2 -0.668647 14.1081 19.0381 8.35142 -0.000751171 -0.00901891 -0.00368015
983 2 -0.824428 16.328 19.3859 6.4031 -0.00128354 0.00213593 -3.14152e-05
984 2 -0.819064 16.3466 17.551 8.67958 0.00790593 0.00837784 0.014921
985 2 -0.865017 14.5162 21.1637 3.22612 0.00250532 -0.0173831 0.0083575
986 2 -0.890086 12.863 21.338 29.9029 -0.00733344 -0.00929779 0.00432318
987 2 -0.739138 14.616 19.409 30.2564 0.0137963 0.00853461 -0.00113853
988 2 -0.811153 14.0949 22.9101 5.25251 0.0212488 0.00464438 -0.00177358
989 2 -0.881075 16.1107 21.6041 5.18138 -0.00458781 0.0108713 -0.0146983
990 2 -0.898218 15.9214 23.3076 3.62231 0.000796711 -0.00886844 0.0051403
991 2 -0.849382 10.6958 17.4945 10.6542 -0.00388007 -0.00188956 -0.00576459
992 2 -0.862354 10.4754 19.5963 12.1186 0.0144259 -0.00443051 0.00396521
993 2 -0.763028 12.3737 17.8758 12.4343 -0.00242298 0.00449643 -0.00719982
994 2 -0.822856 12.6069 19.3382 10.5277 -0.00496055 0.00926114 -0.00859157
995 2 -0.891958 10.6999 20.9887 14.0911 -0.0127983 0.00487348 0.00556555
996 2 -0.862617 11.9803 21.1622 16.3382 0.00301407 -0.00825445 0.000753402
997 2 -0.860903 12.4149 22.6488 14.3484 -0.00474375 0.0107599 -0.0173843
998 2 -0.954736 10.4204 22.8405 15.8051 0.0169513 -0.00605265 0.00824411
999 2 -0.81961 13.9977 17.6911 14.2597 0.00735722 0.0038825 0.00025374
1000 2 -0.738065 13.9037 19.728 15.5234 -0.0061802 -0.00333612 -0.0135578
1001 2 -0.93189 15.7027 19.629 14.3277 -0.00362496 0.00102156 -0.01078
1002 2 -0.911079 15.939 17.685 15.8391 0.00614304 -0.00795767 0.00760202
1003 2 -0.746806 14.5256 21.1428 9.78444 -0.00192933 0.00304133 2.06995e-05
1004 2 -0.752943 13.6989 22.1821 11.9758 0.0040684 -0.00905047 0.00699617
1005 2 -0.912322 15.8654 21.2088 12.165 -0.014926 -0.0126459 -0.0102043
1006 2 -0.84877 15.6727 23.1643 10.4903 0.00233792 0.00501536 -0.00382403
1007 2 -0.762813 11.1781 17.3455 17.5072 0.00773765 0.00530621 -0.00642813
1008 2 -0.776562 11.0769 19.2574 19.263 0.00238739 -0.000275968 -0.00666794
1009 2 -0.792472 12.757 17.3673 19.7416 -0.0127358 -0.00324707 0.00440023
1010 2 -0.72658 12.9654 19.2303 17.7983 -0.0035471 -0.00803907 -0.0125889
1011 2 -0.768875 10.8097 21.183 21.0468 -0.015388 -0.0110119 0.00401801
1012 2 -0.781524 12.4467 21.0682 23.2111 0.00652142 -0.0067039 -0.000250127
1013 2 -0.852135 12.6233 23.0365 21.734 0.00122738 0.00591952 -0.00987672
1014 2 -0.884812 10.4872 22.8142 22.8352 0.0188806 0.00092298 0.0107191
1015 2 -0.725475 14.7843 17.0269 21.3898 -0.0152786 0.00253529 -0.00569852
1016 2 -0.719907 14.3473 18.925 23.3061 0.00454995 0.00365559 0.00484253
1017 2 -0.913767 16.1327 19.513 21.5735 -0.0122933 -0.0109787 0.0172016
1018 2 -0.887071 16.3125 17.4932 23.0773 0.0141006 -0.0102653 -0.00244944
1019 2 -0.850525 14.2329 21.4494 17.4102 -0.00711839 0.00809662 0.00575264
1020 2 -0.754902 14.2715 22.9791 19.6535 0.002899 0.00646272 0.00852398
1021 2 -0.839287 15.8525 21.1367 19.5837 0.00156866 0.0109106 0.00379336
1022 2 -0.781008 15.877 23.1032 17.7222 -0.00334553 -0.00263169 -0.00711205
1023 2 -0.900783 10.5192 18.0447 24.4961 0.00857728 0.00288094 -0.0107684
1024 2 -0.777988 10.8592 19.1098 26.8087 -0.0014866 0.00797661 0.00324059
1025 2 -0.681958 12.5764 17.2838 26.0507 0.00101708 -0.000793898 0.00381064
1026 2 -0.677815 12.7754 19.5868 25.1524 -0.00817626 0.0119051 0.00273023
1027 2 -0.823803 10.811 21.0739 28.705 0.00932362 0.00254164 0.0116883
1028 2 -0.744841 11.1211 22.8855 30.4558 -0.0155199 0.00537421 -0.000158324
1029 2 -0.879876 12.2529 23.2382 28.1823 0.000606611 0.00241623 -0.0124838
1030 2 -0.86585 14.0167 17.8992 28.1045 -0.00116069 -0.00268535 0.00992003
1031 2 -0.81299 16.0838 17.7362 29.8293 -0.0127033 0.0111103 -0.00244037
1032 2 -0.872294 15.7119 19.6396 28.0447 0.0166912 0.00579431 0.00232656
1033 2 -0.817563 14.2378 21.6486 24.8478 -0.000769904 -0.0105891 0.000654385
1034 2 -0.805233 14.297 23.2024 26.8608 0.00552536 -0.00274235 0.011961
1035 2 -0.829725 16.1345 21.3951 26.3212 0.00455727 -0.00441591 0.00324774
1036 2 -0.867345 15.7396 23.3586 24.8373 -0.0191487 0.00954008 -0.0103365
1037 2 -0.824413 10.3663 24.9256 3.60408 -0.00742214 0.00307952 -0.0130375
1038 2 -0.894532 10.8591 26.8775 5.23464 -0.00551064 0.00316176 -0.0038611
1039 2 -0.840999 12.4022 24.9366 5.11072 -0.000500898 0.00536524 -0.00503864
1040 2 -0.925794 12.3416 26.705 3.36797 -0.00390473 -0.00399305 0.00278417
1041 2 -0.777819 10.7544 28.0926 7.52854 -0.00132297 0.00686294 0.00460899
1042 2 -0.854166 12.4699 28.7187 9.23252 -0.016402 -2.33759e-06 0.00291284
1043 2 -0.618349 13.7704 24.4387 7.26516 0.0116097 0.00227951 0.00340931
1044 2 -0.776326 14.4618 26.9084 9.0127 -0.00506655 -0.00361502 -0.00366296
1045 2 -0.754106 15.9593 26.873 7.20604 0.0027353 0.0023319 0.00384508
1046 2 -0.72787 16.0494 25.0657 8.85399 0.000121144 -0.0136511 -0.000243801
1047 2 -0.870309 14.3699 28.1159 3.80244 0.00243721 0.00886049 -0.00980144
1048 2 -0.889653 12.9455 28.5761 30.2491 -0.00737954 -0.00342622 0.00127914
1049 2 -0.97229 14.551 26.5997 30.5892 0.00272977 0.0106031 0.00162394
1050 2 -0.794337 15.6042 30.1403 3.58917 -0.016039 0.0063163 -0.00599612
1051 2 -0.856877 16.3104 28.7195 5.50332 -0.0109852 0.00129238 -0.00540454
1052 2 -0.693616 10.8456 25.0481 10.5394 0.00312415 0.00588318 -0.00569976
1053 2 -0.76529 10.9301 26.2875 12.5777 -0.0160436 0.000365821 0.007467
1054 2 -0.847903 12.4488 24.3921 12.648 -0.0101504 -0.00520871 0.0129806
1055 2 -0.737466 12.9524 26.1619 10.5787 -0.0129008 0.00420507 -0.000217146
1056 2 -0.925721 11.2131 27.9267 14.7757 -0.00196769 0.00264271 -0.00322034
1057 2 -0.875337 13.0676 28.5204 16.1168 0.00965726 -0.000213334 -0.00917547
1058 2 -0.790192 14.7193 26.1053 14.6957 -0.0240954 0.00879884 0.00693859
1059 2 -0.824501 15.0783 27.0627 16.7309 -0.00868491 0.0122815 0.00180996
1060 2 -0.825308 17.0033 27.0134 14.7661 0.00242522 0.000511224 0.0028047
1061 2 -0.850909 16.4283 24.9475 15.9653 -0.00394898 -0.000725328 -0.00975397
1062 2 -0.861143 13.963 28.413 11.0218 0.00268686 -0.00699669 -0.00485732
1063 2 -0.620029 14.7641 4.2937 11.4712 -0.0138978 0.00707861 -0.00870711
1064 2 -0.885048 15.8698 28.419 12.8278 -0.00758562 -0.0047113 0.00086043
1065 2 -0.934304 10.9185 24.6902 17.682 0.00579557 -0.0142212 0.0056842
1066 2 -0.729864 10.6354 26.3924 19.4876 0.00167568 0.00722084 0.00416558
1067 2 -0.835123 12.7245 24.5772 19.4963 0.00162 0.00228258 0.0191839
1068 2 -0.749079 12.8222 26.4541 18.0294 0.00124959 -0.00713455 0.00524858
1069 2 -0.773207 10.9883 28.5087 21.1918 0.00457769 0.00370497 0.00372935
1070 2 -0.858456 11.9965 28.3429 23.5108 0.00265633 -0.00176035 0.00605594
1071 2 -0.804386 14.5267 24.7577 21.3392 -0.00103798 -0.000646191 -0.00142138
1072 2 -0.922418 14.0117 26.9317 22.6819 0.00340272 0.000436771 0.00363117
1073 2 -0.819706 16.0204 26.618 20.9914 -0.00766357 0.0131658 -0.00399088
1074 2 -0.703136 16.0844 25.7519 23.3207 -7.16354e-05 -0.00292845 -0.00365969
1075 2 -0.701312 14.1004 28.5529 18.3869 0.00454265 0.00886152 0.00376216
1076 2 -0.778939 16.0642 30.0496 17.6035 0.00101424 -0.00223821 0.000200687
1077 2 -0.688698 16.4513 28.5168 19.4869 0.00415988 0.00718975 -0.00584662
1078 2 -0.755561 10.8442 24.853 25.2635 0.00495263 0.0118003 0.00297054
1079 2 -0.707708 10.9429 26.934 26.748 0.00524828 0.00165997 -0.00999242
1080 2 -0.864358 12.6705 25.2868 26.8699 0.00539895 0.00868776 -0.0188831
1081 2 -0.90588 12.7253 26.6448 24.9797 -0.00965316 -0.00396475 0.0159314
1082 2 -0.661022 10.9748 28.2824 28.5583 0.0104614 -0.00294825 -0.00320748
1083 2 -0.921968 14.3648 24.9794 28.4872 -0.0068197 -0.0116983 -0.00197298
1084 2 -0.97642 16.1958 24.7799 30.2624 0.0192252 0.0120501 0.00491376
1085 2 -0.953869 16.0844 26.6045 28.6938 -0.00189287 -0.0121078 0.00140786
1086 2 -0.902883 14.2905 28.5055 24.6676 0.0104728 0.00112717 0.00289086
1087 2 -0.847209 15.6544 30.3185 24.8684 0.00776777 -0.0137202 0.00956702
1088 2 -0.967604 15.8297 28.5581 26.8454 -0.00829664 -0.00279688 -0.00504096
1089 2 -0.790754 17.5703 3.63083 3.71634 0.00725614 0.0093791 -0.00338896
1090 2 -0.801269 17.5506 30.5515 30.2645 -0.00223376 -0.00914785 0.0104757
1091 2 -0.955294 18.0822 5.346 5.40976 -0.008257 0.00326269 -0.00290607
1092 2 -0.936474 19.469 3.27289 5.32193 0.00522718 -0.0163467 0.00188176
1093 2 -0.92728 19.8063 4.82712 3.45624 0.00358655 -0.000669656 -0.00829337
1094 2 -0.981237 17.6369 6.90139 7.3183 -0.011251 0.00823825 0.0129196
1095 2 -0.864393 19.5322 6.9877 8.71807 -0.0116927 -0.00577001 0.00865198
1096 2 -0.930692 19.4998 8.57904 6.95709 0.0094371 -0.00293874 -0.0124492
1097 2 -0.959021 17.9104 8.76581 9.07875 -0.00370064 -0.00712296 -0.00266337
1098 2 -0.867597 21.4221 2.99163 7.21941 0.00582829 -0.000773711 -0.00343778
1099 2 -0.755431 20.0148 29.6432 6.48158 -0.000124039 0.00714472 0.00314826
1100 2 -0.871651 21.548 30.3635 4.90399 0.00905271 -0.00986781 0.000468208
1101 2 -0.886959 21.0617 4.94716 8.99958 -0.00955615 0.0155462 -4.42487e-05
1102 2 -0.803608 22.6654 5.09764 6.94735 -0.00650832 -0.00867203 0.0077066
1103 2 -0.816222 23.2578 3.69401 8.90156 -0.00232864 0.00595904 -0.00303753
1104 2 -0.843053 21.1378 6.99867 3.57951 0.00805882 -0.00928147 -0.00212773
1105 2 -0.831664 19.3846 6.81598 30.4037 0.0085948 0.00361755 -0.0113289
1106 2 -0.868185 21.6114 5.5836 30.2252 -0.00221138 0.00199979 0.0080924
1107 2 -0.866622 21.3146 8.77152 5.02608 0.0039794 0.0265189 -0.00442427
1108 2 -0.853439 23.2462 6.88784 5.09843 0.00613804 -4.58989e-05 -0.00117688
1109 2 -0.773305 23.163 8.4992 3.16815 0.000119724 -0.0129098 0.00619801
1110 2 -0.675072 17.4885 3.40334 10.9202 0.00292612 -0.00380541 0.00946943
1111 2 -0.765988 18.465 30.4258 8.06931 -0.00476306 -0.0141024 -0.0072987
1112 2 -0.799576 17.8213 5.20581 12.9826 -0.00626077 0.00221682 0.00458245
1113 2 -0.856584 19.6855 3.63782 12.4183 -0.0036277 0.00180786 0.00533145
1114 2 -0.826762 19.4187 5.57216 11.0057 0.0106891 0.0030906 -0.00377623
1115 2 -0.749046 17.6445 7.48697 14.1704 -0.0175618 0.000102251 -0.00159022
1116 2 -0.719814 19.5405 6.95993 16.0676 -0.0110923 0.00249464 -0.00915429
1117 2 -0.787178 19.8892 8.69708 14.3437 0.00120147 -0.00244422 0.00545458
1118 2 -0.812182 17.7929 8.91914 16.1361 0.0112093 -0.00562859 0.00536065
1119 2 -0.871415 21.833 3.48183 14.0211 -0.0105171 0.00791768 0.00108126
1120 2 -0.826271 20.1517 30.4881 14.3796 0.0107769 -0.00579743 0.00644729
1121 2 -0.83727 21.5592 30.1664 12.2028 -0.00917916 0.0162652 -0.0143793
1122 2 -0.75733 21.6266 4.96392 15.9797 0.0069146 -0.00223457 0.0141504
1123 2 -0.863714 23.4446 5.41547 14.2927 -0.0129187 0.00118161 -0.00810945
1124 2 -0.802337 23.6409 3.43866 15.8433 0.000750204 -0.00786862 0.000490679
1125 2 -0.887046 21.36 6.88951 10.3839 0.000517622 -0.0118441 0.0246722
1126 2 -0.825384 21.1465 8.57134 12.2796 0.00317315 -0.0106202 -0.0128108
1127 2 -0.872787 23.0822 6.69782 12.2466 -0.0101124 0.00229686 -0.00455509
1128 2 -0.857426 22.7432 8.84804 10.534 -0.0014037 0.0165426 0.0147105
1129 2 -0.689835 17.9528 3.48153 17.8631 -0.00137198 0.0114281 0.00687987
1130 2 -0.834871 17.9354 30.6444 15.5872 0.00175782 0.00718844 -0.00859028
1131 2 -0.703476 17.3399 5.4009 19.6142 -0.0122082 -0.00226102 -0.00710346
1132 2 -0.754555 19.2486 3.70332 20.1234 -0.00445483 -0.00412091 0.000490521
1133 2 -0.729692 19.5622 5.4923 18.1684 0.00228175 0.0102448 -0.00320768
1134 2 -0.795555 17.5116 6.99879 21.5669 -0.00144512 -0.00523555 0.000780077
1135 2 -0.83029 19.7571 7.11231 22.7618 0.00127704 -0.00342949 0.0126544
1136 2 -0.824263 19.1799 8.99059 21.1992 0.00087563 -0.0119605 -0.0103151
1137 2 -0.912958 17.7524 8.63171 23.2587 -0.0114919 0.000334929 0.00246065
1138 2 -0.742344 21.0651 3.99343 21.5452 0.0127139 0.00160263 0.00163532
1139 2 -0.854125 19.4702 30.186 21.2322 -0.0053572 0.000974245 -0.00369549
1140 2 -0.955248 21.3081 30.7543 19.5623 -0.00462217 -0.00998253 -4.38598e-05
1141 2 -0.796699 21.6366 5.38216 23.4266 0.00788823 0.00869161 -0.0114317
1142 2 -0.660523 23.7094 5.04315 21.8997 0.000589285 0.0170599 0.00425258
1143 2 -0.808056 22.8519 2.99584 23.0198 -0.00710713 0.00435529 -0.00363741
1144 2 -0.604698 21.6612 6.77718 17.5155 -0.00788946 0.00490245 0.000804306
1145 2 -0.788928 21.2108 8.58693 19.7335 -0.0110402 -0.0179017 0.00176138
1146 2 -0.737151 23.0396 6.82025 19.6612 0.00604343 -0.00106577 0.00788373
1147 2 -0.536904 23.437 8.49178 17.5208 0.00474934 -0.00114535 0.0059244
1148 2 -0.902903 17.8621 3.34607 24.8641 -0.00259247 -0.00150512 -0.00785784
1149 2 -0.746579 17.8162 30.5874 22.9813 -0.00373924 -0.0084451 -0.00491761
1150 2 -0.868515 17.9292 5.30231 26.4059 0.00581969 0.000115981 -0.0171146
1151 2 -0.915996 19.7362 3.69623 26.6181 0.00706365 -0.00652383 0.00912752
1152 2 -0.862408 19.4731 5.53432 24.6828 0.0107848 0.0126913 -0.00279102
1153 2 -0.753454 18.0702 6.86854 28.297 0.000410167 0.0033011 -0.00209209
1154 2 -0.712961 17.5035 8.52481 30.1194 -0.00360046 0.00314867 0.0128201
1155 2 -0.849004 19.4165 8.91416 28.3696 0.00679552 0.00714653 -0.00487986
1156 2 -0.911002 21.1293 3.82898 28.7838 -0.00612862 -0.00420664 0.00406961
1157 2 -0.885246 19.4628 30.3358 28.7575 0.0118541 -0.00482627 0.00199048
1158 2 -0.790956 21.1086 30.4315 26.9914 -0.0103548 0.009232 -0.00127553
1159 2 -0.747767 23.2888 3.42245 30.3698 0.00254413 -0.00722883 -0.00476614
1160 2 -0.815878 23.3645 5.03789 28.3712 0.0108933 0.0143749 0.00908006
1161 2 -0.862955 21.3345 7.39602 24.6366 0.0034681 0.0219413 -0.00193853
1162 2 -0.641963 21.7868 9.38768 26.6689 0.00344219 -0.00319391 -0.00792139
1163 2 -0.717745 23.126 7.20875 26.3685 0.00280943 0.00379923 -0.00211379
1164 2 -0.658678 23.2793 9.37707 24.6723 0.00106902 -0.00184278 0.0128935
1165 2 -0.760292 18.0541 10.3963 3.3247 0.00933347 0.00343574 -0.000233613
1166 2 -0.744877 17.4641 12.0897 5.4327 -0.000298023 0.0122382 0.00203144
1167 2 -0.749372 19.4682 10.1203 5.22712 -0.00175965 -0.000671012 0.00997174
1168 2 -0.791708 19.7685 12.3553 3.93 0.00819327 0.0026215 0.00491363
1169 2 -0.762788 17.4302 13.915 7.27579 -0.0146851 0.000853861 0.0190907
1170 2 -0.817003 19.6639 13.7607 8.24628 0.00654022 0.00344362 -0.00425473
1171 2 -0.856075 19.3025 15.7674 6.70243 -0.00682654 0.00859824 0.00357057
1172 2 -0.908235 18.1066 15.8294 8.77754 -0.0066307 0.000289029 -0.0140454
1173 2 -0.865602 21.3214 10.5186 6.97562 -0.00977644 -0.00411568 0.00228885
1174 2 -0.872939 21.2435 12.0738 8.86334 0.00651851 0.00193287 -0.00793167
1175 2 -0.900158 23.3204 12.4172 7.04716 0.00402107 -0.00777665 0.00587283
1176 2 -0.867742 23.0947 10.4524 8.76232 0.00572103 -0.0100662 -0.018629
1177 2 -0.886521 21.6125 14.4273 3.30102 -0.00112643 0.00106818 0.00396065
1178 2 -0.74557 19.4232 13.9057 30.4073 -0.0104439 0.0088019 0.0101229
1179 2 -0.718613 21.2072 12.1961 30.6929 0.00878827 -0.00550817 -0.00115266
1180 2 -0.897045 21.0856 16.1544 5.06193 0.00928914 -6.62269e-05 0.00986988
1181 2 -0.897486 22.9498 14.3199 5.16737 4.03405e-05 0.00661526 0.00297949
1182 2 -0.900573 23.1909 16.4494 3.80163 0.00829597 0.00277235 -0.00203256
1183 2 -0.751455 17.5642 10.9671 10.6218 -0.00314428 0.0048392 -0.0054621
1184 2 -0.802269 18.0953 12.3194 12.5134 0.00456534 -0.00130767 -0.0041146
1185 2 -0.719241 19.4777 10.2623 12.3623 -0.00906566 -0.0125814 -0.00685992
1186 2 -0.825937 19.4693 12.6252 10.5681 0.0026511 -0.00178892 -0.00728046
1187 2 -0.723124 18.174 14.1143 14.0699 0.00966999 0.00319071 0.00193403
1188 2 -0.660429 19.9259 14.5315 15.9353 -0.00518093 0.00887375 -0.00863947
1189 2 -0.80738 20.0027 15.9976 14.0613 -0.00880878 -0.0141397 -0.00501603
1190 2 -0.74793 18.1096 16.0821 16.0432 0.00931438 0.0032862 0.00582846
1191 2 -0.883881 21.799 10.4419 13.9639 0.00168444 -0.00829073 0.00234656
1192 2 -0.788731 21.2323 12.4336 15.5906 -0.00189048 -0.00527662 -0.00892555
1193 2 -0.885394 23.1257 12.4571 13.834 -0.00308612 0.00518409 0.00781043
1194 2 -0.732373 23.4777 10.7603 15.6604 -0.00619036 -0.0117319 -0.000465235
1195 2 -0.852237 21.4778 14.2328 10.1447 0.00553064 0.00386557 0.00871447
1196 2 -0.895397 21.4056 16.0687 12.0164 -0.00286126 0.00571166 -0.00814099
1197 2 -0.89572 23.1418 14.3669 12.2549 -0.000141661 -0.0112071 -0.00682607
1198 2 -0.729222 23.0194 16.035 10.2599 0.00805995 0.00428367 0.00410677
1199 2 -0.807181 17.3888 10.5198 17.873 0.0038424 -0.00481716 -0.00652164
1200 2 -0.810801 17.6041 12.3583 19.2893 -0.000679841 0.00250506 0.0147792
1201 2 -0.799114 19.2517 10.3023 19.2736 -0.000317508 0.000658012 -0.00597439
1202 2 -0.860019 19.6038 12.3652 17.7336 0.00133601 -0.00134543 -0.00955582
1203 2 -0.855273 17.691 13.8475 21.5478 0.0225779 0.00937046 0.00831018
1204 2 -0.863211 19.7467 14.0902 23.1006 0.00106564 0.00504845 0.00253972
1205 2 -0.781887 19.4457 15.4605 21.3159 -0.00068379 0.000824386 0.00636346
1206 2 -0.917614 18.0366 15.7074 23.5922 -0.0106213 0.00509574 0.00466212
1207 2 -0.883714 21.0971 10.4735 21.3373 0.0109082 0.00436182 -0.00850811
1208 2 -0.777983 21.9931 12.7741 22.8112 -0.00742822 0.0048238 -0.0167019
1209 2 -0.815669 23.1727 12.1714 20.8562 -0.00445415 0.00616337 -0.0124316
1210 2 -0.844629 23.3426 10.6471 22.8447 -0.00120847 -0.00196947 0.0155447
1211 2 -0.87342 21.6295 14.1595 17.5075 0.00384711 0.0136459 -0.00199567
1212 2 -0.827177 21.0563 15.6482 19.6322 0.00275379 0.00173141 -0.000562724
1213 2 -0.851939 22.9258 14.3992 19.5244 0.00922871 -0.00356372 -0.00385172
1214 2 -0.878552 22.987 16.3126 18.0323 -0.0124364 0.00370891 0.0118182
1215 2 -0.728786 18.0044 10.8515 24.8468 -0.0073834 0.00888438 -0.00720599
1216 2 -0.695445 18.0515 12.7112 26.2679 0.0217747 -0.0111411 0.0106878
1217 2 -0.803051 20.056 10.8681 26.689 -0.00787044 -0.0168189 0.0064271
1218 2 -0.769326 20.393 12.4449 24.7929 -0.00435644 0.0108208 0.00130847
1219 2 -0.647753 17.4169 14.038 28.4804 -0.00785849 -0.00362627 -0.000191149
1220 2 -0.685725 17.8648 15.7 30.4709 -0.00297794 0.00583894 -0.00600996
1221 2 -0.708619 19.6654 16.2347 28.5281 -0.00136862 -0.00527157 -0.00416976
1222 2 -0.797637 21.2253 10.4132 28.8209 0.00765834 0.00289686 0.00987415
1223 2 -0.746925 22.9827 10.6367 30.6303 0.00373905 -0.00682539 -0.00834679
1224 2 -0.831433 22.915 12.3675 28.4648 0.00221815 0.00419663 -0.00469437
1225 2 -0.907951 21.846 14.5204 24.7158 0.0119796 0.00456517 0.00670367
1226 2 -0.899101 21.1191 15.9985 26.5916 0.00273349 0.00533656 0.0106463
1227 2 -0.948575 23.0721 14.3173 26.8784 0.00411602 -0.00194852 0.00666877
1228 2 -0.830747 23.1303 16.2981 25.0642 0.0165385 0.00241854 0.011314
1229 2 -0.867499 17.7151 17.8768 3.2439 -0.0104521 0.0135086 -0.00605635
1230 2 -0.913799 18.0029 19.9355 4.71578 -0.0163519 0.0110336 0.00970438
1231 2 -0.95287 19.2946 17.8414 5.15271 -0.00405479 -0.0169256 0.00903849
1232 2 -0.910811 19.7594 19.3863 3.12972 -0.0105628 0.0109849 -0.00284686
1233 2 -0.882431 17.9022 21.1058 6.95152 0.0247497 -0.0126904 -0.0205394
1234 2 -0.879168 19.508 21.5269 8.75233 0.00690631 -0.0144222 -0.00327455
1235 2 -0.926772 19.5068 22.8318 6.68639 -0.0104662 -0.00325415 0.00488437
1236 2 -0.91788 17.6536 22.9983 8.78346 0.000348529 0.00381363 -0.00366835
1237 2 -0.831178 20.9868 17.8584 6.95295 0.00491104 -0.00129301 0.00237106
1238 2 -0.765297 21.033 19.6777 8.84681 0.000140622 -0.00516673 0.0044525
1239 2 -0.878394 23.0387 19.7571 7.29574 -0.0102374 0.00626585 0.00666031
1240 2 -0.71376 22.916 17.9218 8.755 0.00178085 -0.0162227 0.00824354
1241 2 -0.87357 21.1108 21.6044 3.23582 0.007768 0.00196485 -0.010147
1242 2 -0.775361 19.6185 21.1757 29.9104 0.00252832 -0.00251826 -0.00596448
1243 2 -0.934927 21.4315 19.6572 29.9092 -0.00346504 0.00455804 0.00556613
1244 2 -0.825035 21.2558 23.4403 5.05064 0.00458294 0.00934747 -0.0206771
1245 2 -0.90725 22.9381 21.4162 5.35853 -0.00061851 -0.0204235 0.00228779
1246 2 -0.854613 23.142 22.9214 3.36401 -0.00402731 0.0018426 -0.0110031
1247 2 -0.937542 17.8381 17.5333 10.5853 0.00618144 -0.00721846 -0.00123635
1248 2 -0.710724 17.5974 19.2965 12.5812 -0.00132999 -0.00549784 0.012415
1249 2 -0.81395 19.3664 17.7107 12.6048 -0.00251757 -0.00185319 -0.000450826
1250 2 -0.784332 19.2387 19.8033 10.9499 0.00211195 -0.000131256 -0.000619483
1251 2 -0.786279 17.5845 21.3783 14.0414 -0.0114923 -0.0199652 -0.000555642
1252 2 -0.802237 19.0033 21.0277 15.8986 0.00611721 -0.0152514 0.0043036
1253 2 -0.754574 19.5471 22.9544 14.1018 0.00372094 0.0031143 0.00200702
1254 2 -0.858112 18.0302 23.3625 16.1035 -0.00723537 -0.00777978 0.0115418
1255 2 -0.909521 21.4203 17.7893 13.8932 -0.0035091 0.00300896 -0.00752197
1256 2 -0.768991 20.8459 19.2425 16.1217 -0.000692044 -0.00158058 -0.00582333
1257 2 -0.753161 22.9747 19.7561 14.617 0.00296892 -0.00118207 -0.00400277
1258 2 -0.736133 23.2228 17.9227 15.8481 -0.00765535 0.00412475 0.00643068
1259 2 -0.867365 21.3495 21.4235 10.8579 0.00234163 -0.00514019 -0.00476434
1260 2 -0.917966 21.4531 23.3465 12.495 -0.00407494 -0.0017834 -0.00433772
1261 2 -0.904898 22.9309 21.33 12.7442 0.000966728 0.0169799 0.0117574
1262 2 -0.995 23.0779 23.068 10.6431 -0.00981918 -0.00125412 0.00266554
1263 2 -0.831775 17.5143 17.8236 18.1462 0.00806864 0.00740688 -0.00473116
1264 2 -0.891344 17.9295 19.5333 19.9957 -0.00605905 -0.0054169 0.00336069
1265 2 -0.987797 19.1925 17.4759 19.8284 -0.00841576 -0.0085352 -0.0023024
1266 2 -0.909174 19.5018 19.2546 18.0849 -0.0076372 0.000973772 -0.00329616
1267 2 -0.898857 17.7147 21.5488 21.441 -0.00653138 -0.00290897 0.00886407
1268 2 -0.86977 19.3847 21.445 23.2111 0.00811601 -0.0062368 0.00839989
1269 2 -0.812334 19.3545 23.3648 21.544 0.0093971 -0.0022237 -0.000116698
1270 2 -0.802738 17.6863 23.3768 23.3735 0.000447626 -0.00449141 0.00503693
1271 2 -0.919616 21.1889 17.2631 21.5063 -0.00194356 -0.00522902 -0.00691097
1272 2 -0.855118 21.5219 19.7647 22.5619 -0.00835595 -0.00887411 0.00793699
1273 2 -0.765773 23.1827 18.9455 21.0803 -0.000451334 0.00768205 -0.00266065
1274 2 -0.770396 22.9251 18.0197 23.1228 -0.0107152 0.00103798 0.00171426
1275 2 -0.810634 20.8321 21.4384 17.5431 0.0133598 -0.0105712 0.00479325
1276 2 -0.805838 21.116 22.7157 19.8745 0.00010241 -0.00157879 0.00161007
1277 2 -0.84352 22.7643 20.7862 19.3584 -0.00404903 0.00280102 -0.00103141
1278 2 -0.681586 22.6493 23.0228 18.1293 -0.000492129 0.00115921 0.00561606
1279 2 -0.965867 18.0814 17.5615 25.0266 -0.0191164 0.00236101 -0.00897131
1280 2 -0.82951 17.8518 19.9489 26.3386 0.00861697 -0.00615425 -0.00204946
1281 2 -0.763213 19.6402 18.2414 26.7632 -0.00307649 -0.000375995 0.0108634
1282 2 -0.926421 19.7207 19.5504 24.5664 0.00394879 -0.00306497 -0.000529696
1283 2 -0.775441 17.6184 21.4536 28.1629 0.00596276 -0.00277347 -0.00181249
1284 2 -0.779324 17.5309 22.5829 30.2819 0.00426348 0.000317531 -0.00707583
1285 2 -0.769463 19.4565 23.3332 28.4714 0.00416984 -0.00115154 -0.00755982
1286 2 -0.854151 21.5195 17.7145 28.5187 0.00548597 -0.00341429 0.00761579
1287 2 -0.970344 23.0718 17.871 30.2935 -0.00392954 0.0085229 -0.00541956
1288 2 -0.884823 23.3834 19.5118 28.3371 0.0100909 -0.00866381 -0.00348479
1289 2 -0.79325 21.4433 21.2529 24.4719 0.00407521 0.00641802 0.00904693
1290 2 -0.833863 21.0721 23.0627 26.1953 -0.00715357 -0.00455312 -0.0174814
1291 2 -0.826451 22.852 21.6474 26.7039 -0.0139664 0.00455498 -0.000216841
1292 2 -0.840956 23.0889 23.0664 24.7131 0.00498036 0.00646064 0.000292251
1293 2 -0.855183 18.0193 24.4807 3.66044 0.0111566 0.00819989 -0.0109856
1294 2 -0.842534 17.6221 26.6702 5.06116 0.00531528 -0.00317303 0.00881453
1295 2 -0.84663 19.5914 24.9908 5.37862 0.00337017 0.00197094 -0.00301743
1296 2 -0.780894 19.4266 26.5103 3.28187 0.0096696 -0.00890663 0.000707791
1297 2 -0.870072 18.3248 28.0892 6.88565 0.0126835 -0.00159649 0.0001992
1298 2 -0.820306 20.2085 28.2715 8.47221 0.00395663 -0.00111669 -0.0056357
1299 2 -0.879219 21.1871 24.7096 7.21108 -0.00194814 -3.79496e-05 0.000225021
1300 2 -0.859317 21.5894 26.4021 8.9074 -0.00599307 0.00607455 0.00367063
1301 2 -0.729817 22.9206 26.4117 6.64919 -0.00468019 -0.00341701 -0.0118445
1302 2 -0.768051 23.5902 24.828 8.6411 -0.00163744 0.0034976 -0.0078219
1303 2 -0.834993 21.1636 28.2272 3.43264 -0.0136043 -0.00102619 0.00963095
1304 2 -0.803009 19.2235 28.4702 30.3257 0.000549608 -0.00112927 0.000667793
1305 2 -0.890012 20.9263 26.3366 29.8836 0.0114008 -0.00469721 -0.0113486
1306 2 -0.846137 23.2905 29.9254 3.3044 0.0127923 0.000933134 0.0102964
1307 2 -0.815161 22.961 28.424 5.3196 -0.0107584 0.00235455 -0.0155035
1308 2 -0.901641 17.6582 24.8276 10.6967 0.00722206 -0.0113195 -0.00779836
1309 2 -0.782183 17.9894 26.9799 12.2201 -0.00904671 -0.00441229 -0.00412348
1310 2 -0.934598 19.3401 24.9197 12.5058 -0.000585635 0.00374105 -0.00227606
1311 2 -0.847046 19.7111 26.4292 10.527 -0.0134273 0.0122696 -0.00113896
1312 2 -0.868702 18.2183 28.8294 13.9292 -0.00494407 -0.00412826 0.0174988
1313 2 -0.824008 19.7096 28.944 16.2241 0.0016711 -0.0147368 -0.00706399
1314 2 -0.844076 21.0566 25.1087 14.198 0.00456207 -0.00754909 0.0126963
1315 2 -0.780146 21.0537 26.7925 15.9739 0.00413098 -0.00353444 0.0086812
1316 2 -0.794112 23.1805 27.0611 14.2992 -0.00176125 0.00239842 -0.0117576
1317 2 -0.700206 22.8047 25.1246 16.0031 -0.00654151 -0.00896076 -0.00733365
1318 2 -0.925836 21.6128 28.2321 10.6879 -0.00327941 -0.00369683 0.00860677
1319 2 -0.822138 23.2552 30.4734 10.6054 0.00342319 -0.00545514 0.00521262
1320 2 -0.79131 23.6242 28.418 12.1734 -0.00684822 0.00181216 -0.00734117
1321 2 -0.806299 17.5853 25.1568 18.1265 -0.0174828 0.00950483 -0.00722029
1322 2 -0.790203 18.2002 26.6022 20.042 0.00231409 0.00108444 -0.00755412
1323 2 -0.728561 19.9435 24.8867 19.28 -0.00602039 0.0131811 0.00220587
1324 2 -0.864419 19.4081 27.059 18.0599 0.00861748 0.00259136 -0.0170924
1325 2 -0.869348 17.6895 28.4411 21.7654 -0.00854608 0.00503383 -0.000882697
1326 2 -0.914328 19.6108 28.9281 23.4699 0.00636985 -0.000302052 0.00592859
1327 2 -0.753176 21.1925 25.162 21.3132 -0.00490984 0.00608049 -0.00928952
1328 2 -0.873754 21.1851 26.8685 23.191 0.0045334 0.00597294 0.00920252
1329 2 -0.860343 23.0229 27.0209 21.3341 -0.00249512 0.00746986 -0.00106659
1330 2 -0.671132 23.0783 25.2268 23.1402 -0.00932328 0.0135443 -0.0060358
1331 2 -0.828937 21.2113 28.785 17.8544 0.00359562 0.00757572 0.00140967
1332 2 -0.932721 22.8866 30.6988 17.883 0.0130329 -0.00396904 -0.00488246
1333 2 -0.899464 22.978 28.7586 19.5085 0.00254481 0.00195122 0.012947
1334 2 -0.867855 17.9585 25.1432 25.266 0.00221352 -0.00863788 0.00419542
1335 2 -0.887886 17.5605 26.9835 26.6642 -0.0107363 0.000781051 -0.00436353
1336 2 -0.77228 19.6244 25.3821 26.9624 0.0212281 -0.011053 -0.00246789
1337 2 -0.959962 19.5256 27.2915 25.2448 -0.00769512 0.00218669 -0.00408204
1338 2 -0.894911 17.5171 28.6212 28.5488 0.0141833 0.013798 -0.00693023
1339 2 -0.816057 21.5787 24.3545 28.2613 0.00712039 0.00772372 -0.0188081
1340 2 -0.887479 22.866 24.7974 30.365 -0.00641072 -0.0128131 -0.00102258
1341 2 -0.924584 23.07 26.375 28.545 0.000525297 0.0045171 -0.0087302
1342 2 -0.900187 21.4165 28.7253 24.9454 -0.00805719 -0.00310676 0.00127347
1343 2 -0.822159 23.0499 30.349 25.2406 0.0014201 0.00375716 0.0152165
1344 2 -0.916116 22.9593 28.5866 26.9635 -0.00356014 0.0102197 0.00203172
1345 2 -0.739043 24.6881 3.77975 3.66059 0.00391834 0.0106124 -0.00833361
1346 2 -0.689908 25.5646 30.3763 30.5825 -0.00218664 0.0225826 0.00422663
1347 2 -0.756385 24.7092 5.08934 5.77121 -0.00918817 -0.000486364 0.00473047
1348 2 -0.692913 26.8184 3.70059 5.72435 -0.000931287 0.0174976 -0.00152097
1349 2 -0.779688 26.5041 5.47858 3.79024 0.00285885 -0.0013878 0.00359758
1350 2 -0.647516 24.526 6.84538 7.75474 -0.00182098 -0.00523979 -0.00787015
1351 2 -0.924158 26.7363 6.91573 9.47249 -0.0112168 0.0188513 -0.0177028
1352 2 -0.728953 26.6024 8.92137 7.4645 0.00175384 -0.0155506 -0.000734364
1353 2 -0.839245 25.0303 8.84995 9.34307 0.00738626 -0.0124029 -0.00621029
1354 2 -0.942559 28.4167 3.52307 7.30353 -0.0102185 -0.00593011 0.0037081
1355 2 -0.921746 26.4534 30.3232 7.06093 0.00268396 -0.00450583 0.00631998
1356 2 -0.844003 28.2 30.0471 5.20475 0.00222656 0.00443826 -0.00234649
1357 2 -0.90979 28.7966 5.2868 9.19829 -0.0017506 0.000102904 0.00108892
1358 2 -0.75405 28.1297 7.353 3.60378 -0.00499996 -0.00348473 0.0010067
1359 2 -0.77107 26.5943 7.13253 30.0832 -0.00504886 0.00708093 -0.0159909
1360 2 -0.716708 28.7371 5.6434 30.4088 -0.00424672 -0.00550966 -0.00176212
1361 2 -0.682269 28.7431 8.75334 5.64742 -0.00210483 -0.00656461 0.00707791
1362 2 -0.778929 25.4516 3.3665 10.6109 -0.00367922 0.0111524 0.00951337
1363 2 -0.883047 24.7878 30.1397 8.71866 0.0133524 -0.00984819 -0.0132209
1364 2 -0.896725 24.799 5.09738 12.323 -0.00571315 -0.0126917 2.5842e-05
1365 2 -0.7758 26.4593 3.29463 12.9682 -0.00857437 -0.00748781 0.00599111
1366 2 -0.939454 27.1073 4.99683 10.9769 -0.00151775 -0.000679133 -0.00874544
1367 2 -0.98847 25.1886 6.868 14.068 -0.0081729 0.0116982 -0.000231074
1368 2 -0.822234 26.8131 7.15695 15.8274 0.00535693 -0.00122539 0.00208832
1369 2 -0.916676 26.5026 9.04315 14.0701 0.00664326 0.00196868 0.0111705
1370 2 -0.784134 24.9289 8.70494 15.7778 0.00601921 0.00431982 -0.00569365
1371 2 -0.838932 28.6573 3.28947 14.1265 -3.68998e-05 -0.00511387 0.018257
1372 2 -0.692144 26.8166 30.0347 14.5517 -0.00773427 0.00084725 -0.00215405
1373 2 -0.784065 28.1019 30.1788 12.14 -0.0151114 0.00256884 -0.000595359
1374 2 -0.741175 28.0622 4.93989 15.7746 0.00100451 0.00683632 -0.00789704
1375 2 -0.911343 28.5624 6.96797 10.8608 -0.000189776 0.00487738 -0.00456571
1376 2 -0.828393 28.4612 8.92839 12.7237 -0.00518331 -0.00378353 -0.0102221
1377 2 -0.784239 24.972 3.70319 18.0506 0.00417122 0.000883829 -0.00514412
1378 2 -0.756239 25.2336 30.1278 16.7088 -0.00473445 0.0153939 0.00879376
1379 2 -0.80963 25.2143 5.693 19.9503 -0.0109712 -0.00818711 0.0105962
1380 2 -0.738924 26.9084 4.05657 19.7401 0.000590529 -0.00108596 -0.00113517
1381 2 -0.762809 26.9714 5.56541 17.9467 0.000887643 0.00509868 -0.020762
1382 2 -0.728107 24.713 7.30189 21.7093 0.00485748 -0.00756549 -0.000401842
1383 2 -0.711263 26.606 6.90007 22.9161 0.00521672 -0.00741748 0.00206745
1384 2 -0.912137 26.5931 8.96121 21.015 -0.00789919 -0.0108664 0.000370676
1385 2 -0.861256 25.2561 9.01822 23.3728 0.01249 -0.0107735 -0.00502822
1386 2 -0.837696 28.5889 3.32217 21.6963 -0.00293265 0.00486114 0.00322762
1387 2 -0.820619 26.6224 30.5255 21.1108 -0.0025107 -0.00284993 -0.00794971
1388 2 -0.801613 28.4143 30.6116 19.3031 -0.00164924 -0.00310449 -0.0082319
1389 2 -0.869857 28.6822 5.80246 22.975 0.0017666 0.00552658 0.0146528
1390 2 -0.739262 28.4974 7.35339 17.3718 -0.00727107 0.00132573 -0.0151567
1391 2 -0.759679 28.6642 9.43168 19.3402 0.00379179 -0.0138098 0.00933899
1392 2 -0.859539 24.4492 3.6421 24.9778 -0.00997116 8.39293e-05 -0.0173771
1393 2 -0.904798 25.1846 30.6125 23.4025 -0.000390766 -0.00116914 0.00734545
1394 2 -0.878173 24.9249 5.47785 26.4087 0.000968637 0.0107445 -0.00492902
1395 2 -0.923807 26.4373 3.54992 26.5016 -0.000733971 0.00442561 -0.00450958
1396 2 -0.730078 26.7938 5.0123 24.6641 -0.00160124 0.0244387 -0.00557383
1397 2 -0.768788 24.563 7.30414 28.4819 0.0145959 0.0140056 0.000812335
1398 2 -0.804969 24.926 9.26092 30.0538 0.00863443 -0.00675035 -0.00666481
1399 2 -0.832218 26.6265 8.70093 28.0599 0.00300347 -0.00527203 -0.0144342
1400 2 -0.709298 28.3588 3.64252 28.2776 -0.00972036 -0.00481027 -0.00514773
1401 2 -0.811527 26.8293 30.1115 28.3974 0.0109792 -0.000577412 -0.0075886
1402 2 -0.805023 28.2897 30.3627 26.4048 0.00960176 -0.0107291 -0.0100513
1403 2 -0.967983 28.3421 7.30328 24.8465 -0.0105664 -0.00152726 0.009872
1404 2 -0.833853 28.5006 9.39138 26.4198 0.00336921 0.00417991 -0.0190081
1405 2 -0.973011 24.9091 10.6695 3.65987 -0.00947436 0.00195854 0.00231522
1406 2 -0.852721 24.7333 12.4389 4.99172 -0.000926637 0.00293092 0.00627151
1407 2 -0.736086 26.81 10.8377 5.14769 -0.00185565 -0.00945527 0.000612605
1408 2 -0.884003 26.7486 12.6701 3.70355 -0.00962991 0.00410563 0.00396711
1409 2 -0.859665 24.9627 14.1481 6.71566 -0.00325256 -0.0011668 -0.0193754
1410 2 -0.831263 26.5103 14.6233 8.85074 -0.0014203 -0.00987592 0.00966076
1411 2 -0.788042 26.3784 16.3639 6.84651 -0.0180908 0.0138499 -0.00309364
1412 2 -0.708219 24.586 15.7191 8.51334 -0.00851099 -0.000170117 0.00772288
1413 2 -0.653867 28.4226 10.8752 7.19971 0.0105637 -0.0120458 0.00545729
1414 2 -0.971476 28.2902 13 8.87845 0.00494186 0.00055517 0.0167284
1415 2 -0.898055 28.6626 14.1016 3.40754 -0.0150165 0.0013874 0.00590841
1416 2 -0.880156 26.535 14.4469 30.6325 0.00492545 -0.00371299 -0.00181529
1417 2 -0.966549 28.2974 12.6681 29.9773 0.00655012 0.0157402 0.0110933
1418 2 -0.75343 28.3128 16.1966 4.99052 0.0119821 -0.0216795 0.00202859
1419 2 -0.881507 24.4495 10.7328 10.931 0.00898173 0.00588128 0.00391064
1420 2 -0.843074 24.9586 12.8021 12.1449 0.00397905 0.0135383 0.00175111
1421 2 -0.923947 26.7403 11.1228 12.4413 0.00284148 0.0161644 -0.0136067
1422 2 -0.788548 26.2766 12.6271 10.3125 0.00358932 0.00320293 0.00874664
1423 2 -0.859685 25.101 14.3062 14.1064 0.00608038 0.0075934 0.00944872
1424 2 -0.909639 26.6022 14.2193 16.1969 -0.00722913 0.00654211 0.00174069
1425 2 -0.949445 26.5373 16.1358 14.4148 0.00422984 0.00539165 0.0130406
1426 2 -0.823535 24.6578 15.8142 15.9517 0.00534977 0.00589843 0.00107683
1427 2 -0.85251 28.399 10.7203 14.286 -0.00762971 0.00484333 -0.006379
1428 2 -1.05727 28.4602 12.4927 15.9305 -0.00959504 0.00385997 0.000826741
1429 2 -0.956034 28.2271 14.1975 10.914 -0.00275681 -0.0017806 0.00368071
1430 2 -0.886092 28.5697 16.0237 12.6241 0.0044381 -0.00189322 -0.0138578
1431 2 -0.704329 25.2093 10.4588 18.0529 0.00158694 -0.00908847 -0.00402062
1432 2 -0.76371 25.0842 12.8238 19.2123 0.00457468 -0.0121598 0.00866381
1433 2 -0.771276 26.8093 11.074 20.1968 -0.00756701 0.00277733 0.00474721
1434 2 -0.780679 27.0128 12.6063 17.9678 0.0039951 -0.00313646 -0.000486838
1435 2 -0.818127 24.9163 13.9762 21.3174 -0.012088 -0.000535886 -0.00136674
1436 2 -0.862198 26.5138 14.3021 23.1831 -0.00305785 0.010317 0.0187944
1437 2 -0.905013 26.3985 16.0884 21.2669 0.00156355 -0.00307776 -0.0145925
1438 2 -0.866953 24.592 15.9784 22.8494 0.0038339 -0.0142738 0.00280881
1439 2 -0.896392 28.5784 10.4232 21.6255 0.00841528 0.00355659 -0.000703508
1440 2 -0.734521 28.5925 12.8638 22.8475 -0.0125845 -0.00878741 -0.0177337
1441 2 -0.899748 28.6202 14.3325 17.6797 0.00690265 -0.00105879 0.00289084
1442 2 -0.828351 28.4618 15.9089 19.6881 -0.00717992 -0.00779797 0.00602468
1443 2 -0.824418 24.8257 11.0291 24.988 0.00258409 0.000501822 -0.0113332
1444 2 -0.934555 25.0827 12.7629 26.8962 0.0112254 0.00554063 -0.000788647
1445 2 -0.805892 26.5953 10.6433 26.3599 -0.0166666 -0.00122271 0.00921227
1446 2 -0.93097 26.8624 12.5711 24.9229 -0.0118742 0.00775071 -0.000882522
1447 2 -0.808562 24.5172 14.2187 28.8726 0.00636722 -0.00574992 0.00209661
1448 2 -0.834348 24.8517 15.9509 30.4813 -0.0141015 -0.000518029 0.0102947
1449 2 -0.810656 26.518 15.8247 28.5262 -0.00412029 0.00341464 -0.0022744
1450 2 -0.77901 28.3245 10.4915 28.4626 -0.00965429 0.0029917 -0.00476938
1451 2 -0.734068 28.3869 14.2842 25.0545 0.0136952 -0.0168338 -0.00352821
1452 2 -0.737018 28.4307 16.138 26.5548 -0.00254419 0.0158091 0.00862771
1453 2 -0.830486 25.191 17.8985 3.52769 -0.00770736 -0.00262493 -0.000735308
1454 2 -0.905391 24.5043 19.4366 5.08283 -0.0281001 -0.0148412 0.0178712
1455 2 -0.896126 26.871 18.1607 5.2607 -0.00575324 -0.0131814 0.00495668
1456 2 -0.88177 26.4772 19.8658 3.49958 0.00729066 0.00531014 0.00735772
1457 2 -0.82269 24.8753 21.4747 6.80448 0.00457488 0.00590951 0.0070159
1458 2 -0.911163 26.6266 20.8451 8.78743 0.00110093 0.00527973 0.00471473
1459 2 -0.851454 26.7618 23.0004 7.30799 -0.0194335 -0.00273545 0.00685814
1460 2 -0.76619 24.9908 23.1469 8.78439 0.0101386 -0.00906143 -0.00737371
1461 2 -0.79294 28.2497 18.1186 7.34849 0.00129771 -0.00192935 0.00392766
1462 2 -0.80669 28.5524 19.4537 9.27918 0.00607535 0.00705183 0.00782536
1463 2 -0.849356 28.0782 21.4004 3.7204 0.0153066 0.0067357 -0.00458466
1464 2 -0.864757 26.8221 21.7286 30.2818 0.00362523 -0.0121204 0.00416471
1465 2 -0.892457 28.5506 19.9242 30.0246 0.0033418 0.00415388 0.00223249
1466 2 -0.884434 28.4291 23.4262 5.29785 -0.00484009 -0.00351561 0.00781605
1467 2 -0.806548 24.6827 17.5787 10.8272 0.00207335 -0.0123111 0.00979225
1468 2 -0.724485 24.6 19.138 12.7786 -0.0137295 -0.00308763 0.00616053
1469 2 -0.877585 26.7251 17.7222 12.2906 -0.00159887 -0.0129656 0.00892906
1470 2 -0.830256 26.464 19.6938 11.0107 0.00972825 0.00323284 0.0101375
1471 2 -0.828214 24.8734 21.6246 14.0429 0.00484357 -0.00164186 -0.00637046
1472 2 -0.898398 26.6885 21.775 15.867 -0.00931384 0.00617808 -0.00310166
1473 2 -0.760703 26.3711 23.3406 14.0137 -0.0114109 0.00874884 0.0127652
1474 2 -0.86331 24.8909 23.2919 16.2444 0.0048772 0.0072758 0.00916469
1475 2 -0.891805 28.1651 17.9327 14.1038 0.00417279 -0.00195507 0.00253794
1476 2 -0.891862 28.2093 19.7284 15.578 -0.0048559 0.00303428 -0.00967171
1477 2 -0.878725 28.2329 21.478 10.75 -0.0118832 -0.00258602 0.00393841
1478 2 -0.737499 28.4489 22.7575 12.6898 -0.0112131 0.0101481 -0.00390264
1479 2 -0.785748 24.8757 17.5659 17.941 0.0078178 -0.00630956 0.000779356
1480 2 -0.739974 25.1014 19.5727 19.6266 -0.00358034 0.0110609 0.000795255
1481 2 -0.766584 26.9925 17.9548 19.4322 0.00179291 -0.0118644 0.00936452
1482 2 -0.808051 26.5386 19.8328 17.6109 0.00981667 0.00648753 9.11718e-05
1483 2 -0.64657 24.713 21.2313 21.3472 -0.000510525 0.0090723 0.0072029
1484 2 -0.669388 26.6191 21.3706 22.7141 -0.00993165 -0.000261533 -0.00760187
1485 2 -0.762914 26.9947 23.1493 21.0109 -0.0192323 0.00621603 -0.00018848
1486 2 -0.786555 25.1032 23.4794 22.8586 -0.00139187 0.00897976 0.0102844
1487 2 -0.880212 28.0197 17.9156 21.3886 0.000393821 0.018393 -0.00555825
1488 2 -0.816931 28.6577 19.9268 22.8828 -0.00265822 -0.00414568 -0.0030625
1489 2 -0.768075 28.6017 21.5137 17.4336 -0.00908877 0.00514558 0.00479495
1490 2 -0.810444 28.6876 23.1799 19.5842 -0.00316842 -0.0115638 -0.00440188
1491 2 -0.712432 25.1895 17.7603 24.5335 -0.0120057 0.00898965 -0.00962914
1492 2 -0.686372 24.6673 19.7208 26.1953 0.0132211 0.000672031 0.00745201
1493 2 -0.556234 26.3628 17.556 26.8935 -0.00168376 -0.0128901 0.00036177
1494 2 -0.65805 26.937 19.6243 24.6381 -0.00630966 0.0135269 0.000353105
1495 2 -0.807776 24.9661 21.4242 28.1721 0.0030435 -0.0231805 0.00615393
1496 2 -1.01143 24.8153 23.1346 29.973 0.006521 -0.00701948 -0.00309682
1497 2 -0.853697 26.5891 23.046 28.0932 -0.00616583 -0.00564378 -0.00239962
1498 2 -0.820498 28.2686 18.0189 28.6485 -0.0124527 0.0172193 0.00883524
1499 2 -0.804754 28.5783 21.6299 24.4895 0.016576 0.0116919 0.0124925
1500 2 -0.914837 28.3938 23.2305 26.718 0.00454784 -0.013077 -0.00816027
1501 2 -0.863289 24.7686 24.7281 3.37408 -0.00634495 0.00381897 -0.0106645
1502 2 -0.73668 24.5587 26.3156 5.12068 0.00297047 0.0128867 0.000116095
1503 2 -0.760856 26.3964 24.8871 5.49499 -0.00477635 0.00510181 -0.0053089
1504 2 -0.888427 26.8034 26.6004 3.70714 0.00385686 -0.00892683 -0.0140077
1505 2 -0.951819 25.0146 28.1482 6.86761 0.00528043 -0.00481261 -0.00298754
1506 2 -0.857212 26.6798 28.614 8.58337 0.0133488 -0.0097629 0.00186721
1507 2 -0.868362 28.0531 25.1167 7.28511 0.0149583 -0.000156379 0.00668241
1508 2 -0.817231 28.3347 26.6427 9.0338 0.00669049 -0.00271183 -0.00558417
1509 2 -0.798022 28.4569 28.4592 2.97016 -0.000467923 0.00681419 -0.0195976
1510 2 -0.765632 26.4245 28.0047 30.2931 0.00268192 -0.0081122 -0.00343813
1511 2 -0.748187 28.7694 26.4632 30.0613 0.0148835 -0.000806882 0.00348871
1512 2 -0.864744 24.7202 24.9626 10.6241 0.00520119 -0.000942632 -0.00856353
1513 2 -0.860131 25.1133 26.6054 12.6027 0.0166938 0.000151257 -0.000326674
1514 2 -0.821815 26.9048 24.6743 11.9851 0.00817545 0.00451086 -0.00216712
1515 2 -0.832063 26.2596 26.7398 10.366 -0.0151826 0.00378112 -0.00383507
1516 2 -0.761251 24.8562 28.7947 14.3191 0.00366559 -0.00960091 0.0100234
1517 2 -0.667509 26.7155 28.1903 16.1298 -0.00620854 0.0101184 0.00291756
1518 2 -0.692462 28.5453 24.5686 14.4164 0.00530639 0.00108322 0.00539449
1519 2 -0.822297 28.6807 26.7759 16.0262 -0.000916064 0.00283442 0.0118619
1520 2 -0.769349 28.3927 28.5115 10.3842 0.00859258 -0.0117877 0.0113547
1521 2 -0.711013 24.3376 24.7808 17.9897 -0.00488795 0.0138491 0.000945951
1522 2 -0.56754 24.7343 27.2175 19.5188 0.00325571 0.000774544 -0.00998009
1523 2 -0.839393 26.7405 25.1079 19.7326 0.00546346 0.0040488 0.00388351
1524 2 -0.628039 26.6774 26.2546 17.5666 -0.00786061 0.00384822 -0.0136943
1525 2 -0.859171 24.737 29.1546 21.3438 0.000552319 -0.00872072 -0.00223827
1526 2 -0.77363 26.8627 28.7412 22.7548 0.00494091 -0.000152404 0.00330797
1527 2 -0.880562 28.9898 24.8035 21.2382 0.00264547 0.0137026 0.00481111
1528 2 -0.772435 28.3662 26.7632 22.8167 -0.010952 -0.00253298 0.00570097
1529 2 -0.743302 28.2637 28.4421 18.0875 0.00122416 0.00587091 -0.0162478
1530 2 -0.838333 24.901 25.1108 25.0706 0.00465614 -0.00427725 0.00799674
1531 2 -0.931303 24.7674 26.9793 26.7196 0.00645629 0.00651986 0.00725048
1532 2 -0.907636 26.7693 25.3712 26.8526 0.00250206 -0.00292802 0.0121327
1533 2 -0.834747 26.5805 27.0123 24.9515 0.00665211 -0.00309775 -0.00450202
1534 2 -0.823465 24.635 28.3105 28.649 -0.00284193 0.0112335 -0.00436906
1535 2 -0.896038 28.3835 24.7861 28.6943 0.0117254 0.00439222 0.0129775
1536 2 -0.780792 28.5611 28.7133 24.542 0.014981 0.00722354 -0.0020356
1537 2 -0.660156 18.5498 11.497 29.123 -0.00721694 0.00222726 -0.00202932
1538 2 -0.629492 4.90996 7.8127 4.15954 0.00269916 -0.002873 0.000647465
1539 2 -0.607309 16.5828 16.8646 6.40075 -0.00317533 -0.00839607 0.00476421
1540 2 -0.740937 7.11363 28.4121 12.1034 0.00502894 0.00196218 -0.00696633
1541 2 -0.638683 27.4225 28.0213 27.6773 7.21508e-05 -0.00125221 -0.000534225
1542 2 -0.612866 25.7884 11.7312 7.52513 -0.00828844 -0.00110645 -0.0131353
1543 2 -0.630201 27.1495 10.319 10.2163 0.0109813 -0.00508172 -0.0160857
1544 2 -0.631707 7.95197 21.5669 8.84738 0.0233006 -0.0063152 0.00226928
1545 2 -0.579508 27.4731 24.0695 9.59032 -0.0063608 -0.00258429 -0.0035198
1546 2 -0.555138 20.1287 20.6544 13.4344 0.0138995 0.000281738 0.00860164
1547 2 -0.628779 17.038 16.7877 27.3272 -0.00570164 0.00321558 -0.00156321
1548 2 -0.672872 29.3807 4.45044 4.74543 -0.000210174 0.00202276 0.00143711
1549 2 -0.655289 6.91319 20.7601 27.4136 0.0149569 -0.0114557 0.00553784
1550 2 -0.540482 11.6429 22.5111 25.5554 -0.00154693 0.00299799 -0.00292005
1551 2 -0.643948 27.6491 24.4706 24.2671 -0.0116096 -0.0030856 -0.00013698
1552 2 -0.67384 12.8521 19.5283 5.97256 -0.0092067 -0.0101226 0.00145472
1553 2 -0.60995 8.16904 7.50184 14.7068 0.00568601 -0.00463077 -0.00285903
1554 2 -0.653484 25.5747 22.6114 25.2295 0.00741608 -0.011939 0.0081888
1555 2 -0.658247 25.4463 18.4254 8.3996 -0.00416073 0.00937977 -0.00709666
1556 2 -0.557443 25.5436 29.0855 4.53461 0.00578888 -0.000551554 0.0112156
1557 2 -0.717351 3.58184 4.13622 11.4542 -0.00471405 0.00337759 -0.0029727
1558 2 -0.568031 20.4802 12.7043 19.9288 0.000741989 0.00239392 -0.0031289
1559 2 -0.655075 24.5343 5.85818 17.1951 -0.0010182 -0.00165279 0.0106417
1560 2 -0.612605 11.3934 18.3935 21.6952 -0.00667632 0.0100649 0.00983152
1561 2 -0.657899 27.032 6.3343 7.05604 0.00520403 -0.00127739 0.00319359
1562 2 -0.637226 29.6108 22.6879 8.27577 -0.000264285 -0.00512965 -0.00766897
1563 2 -0.618383 27.7469 16.8679 17.0349 0.00390661 -0.00368262 -0.00374349
1564 2 -0.592546 17.0366 28.2865 9.23062 -0.00661803 0.00922504 0.00197804
1565 2 -0.591016 15.4904 25.6747 25.6791 -0.00258548 0.00438021 -0.00637259
1566 2 -0.631156 15.2807 18.601 11.3439 0.000474612 0.0119901 -0.000826716
1567 2 -0.642576 20.0893 13.5785 27.9542 0.00228995 -0.00964753 -0.0104568
1568 2 -0.692692 18.5598 22.5285 11.2281 -0.0107335 0.00514496 0.00360537
1569 2 -0.626811 16.2511 24.6973 6.41765 -0.00167306 0.000847857 0.00659966
1570 2 -0.612406 7.66067 11.2273 11.4385 0.0068087 0.00293242 -0.00807415
1571 2 -0.644068 22.3479 25.5653 11.9883 0.00471135 0.00104949 0.00245211
1572 2 -0.637236 6.87346 2.95687 16.7876 0.00650184 -0.0122456 0.0132643
1573 2 -0.596652 17.1563 12.8859 2.64703 0.00450073 0.00517161 -0.00626104
1574 2 -0.604508 13.914 16.9038 10.0927 -0.00215796 -0.00801275 -0.00285643
1575 2 -0.66258 13.7024 6.65016 12.9543 0.00546105 -0.0126106 0.00412688
1576 2 -0.614741 29.6517 22.2484 29.1064 -0.0118686 -0.0157329 0.00483889
1577 2 -0.569391 26.0045 22.6231 18.6539 -0.000932323 -0.00581956 -0.00706236
1578 2 -0.620618 11.816 21.7577 4.22882 0.0129448 0.0143749 0.00157296
1579 2 -0.645289 8.56237 25.4288 11.2498 0.00336243 0.0128061 -0.0022762
1580 2 -0.723444 30.1717 15.5379 15.3677 -0.00181894 0.0109149 0.0095356
1581 2 -0.563186 20.2283 10.0244 24.1175 0.0044785 -0.00995516 -0.00655253
1582 2 -0.65195 22.0097 18.8318 4.48844 -0.00434136 -0.0170417 0.00529077
1583 2 -0.626343 15.2334 15.3662 29.4223 -0.00843324 0.00820175 0.00732039
1584 2 -0.581877 4.55951 5.22656 8.93222 -0.00142614 0.00498412 0.0154076
1585 2 -0.583456 18.5624 29.4922 10.9745 -0.00694701 -0.00357232 -0.00368405
1586 2 -0.587958 23.4138 9.31383 19.93 -0.0187747 -0.0116507 -0.00216608
1587 2 -0.643923 16.8815 19.9238 16.8892 0.00680456 -0.0046743 0.0122386
1588 2 -0.626141 20.9736 10.1245 16.7809 0.00220544 0.0226433 -0.0109276
1589 2 -0.576965 22.1014 22.5635 7.98127 0.00729382 0.00396446 -0.0157679
1590 2 -0.637712 8.22428 25.5042 25.5835 -0.00213471 0.00126556 -0.00456775
1591 2 -0.757164 14.622 23.5399 13.8816 -0.0105557 0.00107476 0.00719033
1592 2 -0.671319 28.5524 15.5617 7.67293 0.00160934 -0.0100325 0.00465582
1593 2 -0.649864 3.24883 24.1778 27.3509 0.0113984 -0.0210219 0.0121386
1594 2 -0.645552 24.2386 23.9691 20.7 -0.000565143 0.0244668 -0.00182092
1595 2 -0.661381 8.54436 22.6831 29.6333 0.011577 0.000662645 -0.00684278
1596 2 -0.601761 16.4521 31.0158 27.2815 0.0106861 -0.0106832 -0.00441692
1597 2 -0.7145 10.7696 12.5715 25.9875 0.00994003 0.00372418 0.0163283
1598 2 -0.630124 2.94732 30.808 27.6951 -0.0209534 -0.0123397 2.91553e-07
1599 2 -0.664538 26.1932 8.47247 4.7621 -0.000758375 -0.00503538 0.00257281
1600 2 -0.677507 6.16926 12.9124 13.2608 -0.00908763 0.00183033 0.00371239
1601 2 -0.751633 6.28175 9.79848 30.9 -0.0050232 -0.00233581 -0.00167917
1602 2 -0.680542 8.55611 8.38262 29.8171 -0.00430713 0.000637604 0.00345339
1603 2 -0.693977 8.43321 29.3696 28.8566 -0.00184509 -0.00779858 -0.0208795
1604 2 -0.610767 18.3239 29.9095 4.16485 -0.00126551 -0.0119937 0.0114575
1605 2 -0.580897 25.5716 11.5092 15.5663 0.00643767 -0.0149406 -0.00204068
1606 2 -0.53304 11.1289 4.12573 8.1452 -0.00513625 0.00643131 0.00591237
1607 2 -0.618762 11.3851 7.77828 10.8641 0.00471335 0.00657244 -0.00347781
1608 2 -0.583264 20.3599 24.755 24.1953 0.00152175 -0.010023 -1.43328e-05
1609 2 -0.622588 4.48042 14.6114 25.3801 0.00566104 0.00681167 0.00468779
1610 2 -0.649044 22.565 22.413 15.6918 -0.0119434 -0.000341244 0.00831541
1611 2 -0.607797 20.2443 9.99147 9.81736 0.00383262 -0.00628269 -0.00765108
1612 2 -0.607882 19.1792 4.59528 15.4501 0.00664425 -0.00232897 0.000221323
1613 2 -0.619444 27.3599 19.7286 27.0559 0.0121105 0.0108297 -0.0121109
1614 2 -0.604842 14.8404 21.7567 22.5685 -0.00217082 0.00173586 -0.00334317
1615 2 -0.591821 10.8342 29.9049 11.3863 -0.0022887 -0.0046511 0.00267644
1616 2 -0.606293 6.7693 24.0338 10.2806 0.00246675 0.00552073 0.00524778
1617 2 -0.676195 10.4223 11.9425 28.9792 -0.0130016 0.000887542 -0.00260744
1618 2 -0.619894 4.52258 26.5676 29.8842 -0.00229153 -0.0126639 0.00130087
1619 2 -0.605191 8.03515 22.0513 22.5359 -0.0148831 0.00963042 -0.00926952
1620 2 -0.620347 13.217 14.1648 20.2451 -0.0120977 0.0120549 -0.00103407
1621 2 -0.574072 25.6481 15.0493 25.7284 0.00876863 0.00144182 0.00298726
1622 2 -0.576098 24.2023 28.0451 24.0655 -0.00589053 0.000147778 -0.00789978
1623 2 -0.70938 24.1968 9.4126 6.20277 -0.00695446 -0.000270536 -0.00279693
1624 2 -0.639822 21.0228 27.6493 13.5477 0.000792507 0.00152815 -0.00355575
1625 2 -0.616296 20.7679 6.19391 27.0314 0.0064109 0.00215361 0.00474996
1626 2 -0.713765 3.15005 27.4959 16.7592 -0.00216416 -0.00316789 0.0114094
1627 2 -0.757101 15.2169 30.3612 10.8815 0.000335577 0.0117792 0.00964254
1628 2 -0.652473 3.4095 13.7087 16.6463 0.00887881 -0.00107644 -0.00636052
1629 2 -0.675078 30.9642 20.0876 9.36933 -0.00544225 0.0126948 -0.00204247
1630 2 -0.606191 23.6171 30.8237 27.9248 0.00983153 0.00714045 0.00110336
1631 2 -0.689158 29.0827 15.2972 28.8113 0.0111312 -0.00536508 -0.00718734
1632 2 -0.635236 12.8653 9.14054 23.7387 0.00422283 0.000574843 -0.0102564
1633 3 0.435807 18.2328 10.71 28.9536 -0.0302123 0.00755267 0.0272542
1634 3 0.352223 19.5196 11.5907 28.6432 -0.00831517 0.0221396 0.0827065
1635 3 0.347661 5.29069 8.5804 4.6911 -0.0514252 0.00055196 -0.0105867
1636 3 0.397539 4.97435 7.08731 4.8579 -0.0149218 -0.0468885 0.0221573
1637 3 0.416059 17.4714 16.5131 6.30442 0.0125485 0.0306454 -0.0142413
1638 3 0.390445 16.0494 16.0654 6.21097 -0.0234575 0.025272 -0.0559299
1639 3 0.35589 9.49339 29.1603 14.1251 -0.00984852 0.0569959 0.0436673
1640 3 0.488844 7.88254 28.318 12.7427 0.0335096 -0.0169186 -0.0095574
1641 3 0.451771 27.2731 27.6716 26.94 0.0170462 0.0126173 0.0375035
1642 3 0.430265 28.3549 27.7845 28.1771 0.0100597 -0.0194037 -0.0714199
1643 3 0.373508 26.4931 12.4727 7.36078 -0.0617761 0.0240358 0.0446648
1644 3 0.441375 25.0845 12.2131 7.83744 0.000468363 -0.0107453 -0.0639172
1645 3 0.429312 27.5734 10.1751 9.36864 -0.0374599 0.0517574 0.0160071
1646 3 0.314814 27.531 9.56582 10.8129 0.00116932 -0.0187227 -0.0208808
1647 3 0.416353 8.48578 21.5897 8.04939 0.0266335 -0.0608399 -0.0267235
1648 3 0.405068 7.42403 22.3182 8.69398 0.0151693 -0.00837557 -0.0438756
1649 3 0.408031 26.5717 24.4277 9.18236 0.0402512 0.0506458 0.0250807
1650 3 0.432519 27.636 24.8399 10.0475 -0.041126 0.0465159 -0.00408467
1651 3 0.404246 20.6691 19.8733 13.4695 -0.0111567 0.0542802 0.01343
1652 3 0.456887 19.501 20.6022 12.6361 -0.00353316 0.0498262 0.00483405
1653 3 0.406544 17.8999 16.5909 26.8952 -0.0567597 -0.0428327 -0.0067731
1654 3 0.414403 16.2902 16.8727 26.8095 0.0300133 0.00128042 -0.00728185
1655 3 0.390655 3.63575 5.25885 8.36307 -0.0493154 0.0181893 -0.0419573
1656 3 0.441828 29.9145 4.79753 5.41227 -0.0274835 -0.00725117 -0.0338316
1657 3 0.41692 6.9148 19.8217 27.2258 -0.00461523 -0.0247917 0.0508616
1658 3 0.401703 6.02815 20.7646 27.8505 0.0234741 -0.00961667 0.0572051
1659 3 0.412684 10.7988 22.2808 25.0639 -0.0483125 -0.0407592 0.0176829
1660 3 0.434844 11.9424 23.2574 25.092 0.00605293 0.0107263 0.0189427
1661 3 0.388762 27.1622 24.9556 24.9531 -0.00752317 -0.0233316 0.0485094
1662 3 0.426499 27.3271 23.656 23.9681 -0.00642935 0.0459983 -0.0375113
1663 3 0.402563 13.7649 19.5939 6.41296 0.032694 0.0264287 0.030003
1664 3 0.389725 12.3562 20.2569 6.34594 -0.0338559 -0.0149442 0.0583227
1665 3 0.456626 7.56255 8.1206 14.2389 0.0423963 0.00583466 0.0231287
1666 3 0.385182 7.52056 6.81269 15.0981 -0.0136161 0.00978086 -0.0209363
1667 3 0.361505 25.5813 21.5739 25.0609 -0.0184219 -0.0463462 0.0177345
1668 3 0.400575 24.7585 22.8 25.6483 0.0713906 0.0304457 0.00721286
1669 3 0.413756 26.3101 18.0962 7.79607 -0.0389038 -0.0415648 -0.0620717
1670 3 0.418621 25.318 19.3403 8.31109 -0.0019198 0.0198872 -0.0370769
1671 3 0.406145 25.7116 29.0089 3.50896 0.0882028 -0.0287085 0.00555332
1672 3 0.367869 25.9208 28.138 4.86205 -0.0180844 -0.0378554 -0.00339924
1673 3 0.450526 3.45599 3.10113 11.435 0.0122539 -0.011563 0.00545347
1674 3 0.39052 4.75104 30.8047 9.20881 0.027445 0.040542 0.0358723
1675 3 0.328964 20.5736 11.7357 19.6181 0.0435886 0.0293595 0.00621109
1676 3 0.435421 20.465 13.3459 19.2428 -0.0568883 -0.0372374 0.00650954
1677 3 0.42002 24.13 6.49001 17.8215 0.0732725 -0.00936786 0.025387
1678 3 0.466043 23.996 5.90883 16.4501 -0.0357351 0.0274778 0.0140397
1679 3 0.361157 12.3399 18.6892 21.9795 -0.0269414 -0.0419121 0.0231472
1680 3 0.461365 11.6563 17.5227 21.3625 -0.0300707 -0.0343829 -0.0152693
1681 3 0.432399 27.7656 5.76902 6.79454 0.0179551 0.0270357 0.0308346
1682 3 0.402235 26.5412 6.45433 6.25178 -0.0334418 0.0662378 0.039122
1683 3 0.390372 29.2682 21.9781 8.95536 0.0079679 -0.0153837 0.0159846
1684 3 0.409855 29.0827 23.4797 8.32505 0.0441183 -0.00705857 -0.0036708
1685 3 0.397632 28.6165 16.94 16.7828 -0.0702521 0.00680892 -0.00402818
1686 3 0.406687 27.7755 17.4047 17.7933 -0.0239752 -0.0526582 -0.0643287
1687 3 0.40965 16.3493 27.926 9.87414 -0.0241215 -0.0387107 0.00737764
1688 3 0.390808 16.6109 28.5111 8.41159 0.0332421 -0.0350252 -0.00985809
1689 3 0.395352 16.0485 26.465 25.4379 -0.0013928 0.0144489 0.0219107
1690 3 0.408177 15.1733 25.8237 26.6708 -0.00572142 -0.021642 -0.0338936
1691 3 0.367955 14.3875 19.0365 11.6668 0.0196994 0.0149602 0.00481795
1692 3 0.370722 15.9417 18.913 12.0784 0.0259113 -0.0479245 -0.00506871
1693 3 0.349828 19.6352 12.665 27.7644 0.0113622 0.0356477 0.0337477
1694 3 0.408143 20.1405 14.0834 27.1547 -0.000770591 0.0289182 0.0200248
1695 3 0.443937 17.7986 22.6424 11.1352 -0.0287912 0.00396165 0.00853515
1696 3 0.413217 19.0546 23.1639 10.9289 0.0137613 0.0148427 0.02954
1697 3 0.424879 16.4928 24.9928 5.5584 -0.01332 0.00850964 -0.0171567
1698 3 0.409844 15.4539 24.055 6.51963 -0.0347432 0.00845412 0.0149874
1699 3 0.411587 8.50768 11.5819 11.1459 0.0786387 0.0209869 -0.0332353
1700 3 0.407181 7.49109 11.7695 12.2174 -0.0233159 0.0205032 0.111392
1701 3 0.422258 22.7945 24.7294 11.9591 -0.0076204 -0.0388665 -0.0246404
1702 3 0.38345 21.988 25.7697 11.0575 0.075856 -0.0122091 0.0480597
1703 3 0.400548 7.52285 30.7604 17.0131 0.0119809 0.0665751 0.00193001
1704 3 0.398893 6.09228 2.91289 17.4617 -0.028053 0.0345468 0.0274131
1705 3 0.439664 17.6043 12.2723 30.4958 -0.0154338 -0.0312499 -0.00441707
1706 3 0.428005 16.2269 12.7223 30.9352 0.055165 -0.00931117 -0.0268856
1707 3 0.376441 13.6298 16.595 9.12474 -0.046551 0.0927775 -0.0344591
1708 3 0.446479 14.293 17.825 10.1175 0.0719114 0.0503947 -0.01894
1709 3 0.435621 13.3484 6.6128 13.7608 0.0300347 0.00708974 -0.0282118
1710 3 0.349258 12.9338 6.33895 12.3952 -0.0223255 0.01599 0.0453303
1711 3 0.321796 30.5277 22.4147 28.7717 0.049124 -0.023428 -0.00936697
1712 3 0.352261 29.5015 23.0962 29.406 0.0456646 0.0349657 0.0148531
1713 3 0.403405 26.0978 21.9418 17.9409 -0.0131424 -2.04604e-06 -0.0305845
1714 3 0.384271 25.978 23.5388 18.1547 -0.0324719 -0.0107107 0.0229642
1715 3 0.394258 11.428 21.7769 3.18004 -0.0300764 0.00264858 -0.0266916
1716 3 0.404281 12.089 21.0634 4.72661 0.0372227 -0.034009 -0.00556508
1717 3 0.411749 8.62697 26.4258 11.0667 -0.0835161 0.0251864 -0.0189939
1718 3 0.42002 9.09428 25.2234 12.026 0.0169163 -0.02503 0.0303184
1719 3 0.432309 30.1498 15.2343 14.514 0.0366847 0.000418462 -0.029548
1720 3 0.420872 30.4808 14.718 15.7277 0.0127079 -0.00123064 0.0683048
1721 3 0.379959 21.144 10.4638 23.7553 -0.018247 0.000328668 0.00301123
1722 3 0.362611 19.5986 10.0271 23.2888 -0.0195683 -0.0880925 0.0144808
1723 3 0.407243 21.3796 18.2227 4.7639 -0.0427276 0.0421812 -0.0334945
1724 3 0.45294 22.7896 18.3977 4.52 0.126398 0.0544229 -0.0683498
1725 3 0.403608 15.9922 14.7763 29.6708 -0.110794 0.0409512 -0.0104637
1726 3 0.426878 15.1308 15.1377 28.5103 -0.0405854 -0.0468897 0.0100041
1727 3 0.382294 4.94482 4.57109 8.23936 -0.00127882 -0.0187211 0.028582
1728 3 0.43833 29.5875 4.17473 3.98841 -0.0151938 0.00532554 -0.0618553
1729 3 0.404095 15.0717 5.09824 12.012 0.021069 0.0212635 0.0160516
1730 3 0.353318 19.5113 29.3625 11.3174 0.0102033 -0.0326773 -0.0258122
1731 3 0.372429 22.6899 9.52468 20.6266 0.0320771 0.0343067 0.050402
1732 3 0.370555 24.0184 8.74463 20.6142 0.0158991 -0.0608182 -0.0326057
1733 3 0.389716 16.664 20.7822 17.18 0.0269777 -0.0109042 -0.001299
1734 3 0.416571 17.2385 19.934 16.0281 0.0262879 0.00853155 -0.0181429
1735 3 0.372473 20.7322 9.67002 15.8607 0.0333798 -0.0684644 0.0170106
1736 3 0.369526 20.1921 10.1427 17.3419 -0.0284782 -0.0651947 0.0320541
1737 3 0.388066 22.8975 22.2787 7.33778 -0.00853456 0.027325 -0.0245387
1738 3 0.373168 22.4081 22.3028 8.89571 -0.00317358 -0.012906 0.00789093
1739 3 0.408762 9.80086 25.1236 25.5561 0.0295186 -0.0700454 -0.0141579
1740 3 0.437805 7.84637 25.5658 24.6633 0.00989222 0.0148073 0.00108091
1741 3 0.409378 13.9771 25.4722 14.8437 -0.0180457 -0.0100885 0.0132419
1742 3 0.462824 15.2519 24.1812 14.1485 0.0496305 0.0235768 -0.0106509
1743 3 0.416639 28.705 14.7285 8.08846 0.0137448 -0.0354889 -0.0392384
1744 3 0.422601 28.9602 16.1999 8.2623 0.00803816 0.0178372 0.0208993
1745 3 0.27828 2.55312 24.4567 27.9575 -0.0407485 -0.0390924 -0.0579182
1746 3 0.37739 2.72001 23.4701 26.801 0.0229422 0.0454292 0.0846584
1747 3 0.368003 23.444 23.4504 20.982 -0.0238885 0.00381402 0.0623123
1748 3 0.421039 24.0812 24.0497 19.7571 -0.0208502 0.00739782 0.0395187
1749 3 0.377771 7.5821 22.7977 29.8305 0.0165788 0.00638351 0.00202319
1750 3 0.420557 8.62544 22.3174 28.7206 -0.00469173 0.0214161 0.0655658
1751 3 0.408195 17.1341 30.747 26.8226 0.0689045 0.0179641 0.0218297
1752 3 0.387344 16.5939 3.55825 27.5496 0.0222334 0.00175883 -0.00180811
1753 3 0.455825 9.814 12.4861 26.0727 -0.0885186 0.015135 -0.0318548
1754 3 0.407556 8.98123 11.5428 27.7633 0.039261 -0.0176933 -0.0310005
1755 3 0.410642 30.8238 2.92366 28.2073 -0.0375768 -0.0162605 -0.0271375
1756 3 0.379886 3.76145 25.9973 29.5759 0.0567583 -0.0425992 0.00444377
1757 3 0.395644 26.046 8.5516 3.80115 0.0140768 -0.0234507 0.0318488
1758 3 0.416023 25.386 8.85213 5.15341 -0.0103727 0.0245129 -0.0487254
1759 3 0.45876 6.88476 13.3249 13.4559 0.00322873 0.00903378 0.0197875
1760 3 0.379964 5.47621 13.6212 13.0699 0.0105466 -0.0173833 0.0229783
1761 3 0.426046 5.25516 9.93293 30.7571 0.051855 0.012766 0.0133326
1762 3 0.453069 8.35316 14.8265 30.0318 0.0200172 0.030621 -0.0266468
1763 3 0.441408 8.3481 7.45054 30.0442 0.00775956 -0.0433365 0.0407963
1764 3 0.407177 7.78098 8.76228 29.9372 0.0318238 -0.0175587 -0.00386651
1765 3 0.445824 8.00874 29.9304 28.3281 0.00414888 -0.0171327 -0.0398106
1766 3 0.409938 7.89036 28.6607 29.0911 0.0589972 0.0277643 0.0318251
1767 3 0.430335 19.172 29.365 4.13899 0.00922707 0.0378342 0.0199587
1768 3 0.423094 18.1283 29.8679 5.1011 -0.00261329 0.00920257 -0.00178668
1769 3 0.396188 26.1015 11.4648 14.6782 -0.00371731 -0.0494633 0.000959799
1770 3 0.365307 25.7254 12.4768 16.1199 -0.0206511 0.0492243 -0.0321621
1771 3 0.399461 11.4297 3.92137 9.09537 -0.00559381 0.0355968 -0.00479476
1772 3 0.389912 11.9856 4.50153 7.78083 0.0118257 0.00200193 0.0103169
1773 3 0.366564 10.3777 7.99318 10.8183 0.0603245 0.0657171 0.00447857
1774 3 0.37036 11.2103 7.59894 11.824 0.0591999 -0.0249649 -0.000639406
1775 3 0.411262 19.5799 25.1368 23.9154 -0.00265242 0.0147028 0.0228886
1776 3 0.382009 20.9941 25.3622 24.6536 0.0230439 -0.0665223 0.0155617
1777 3 0.410255 3.85874 15.2071 24.8575 0.0368573 -0.038318 0.0165803
1778 3 0.383026 4.87032 15.3329 25.9479 -0.0147093 -0.0199122 -0.00300079
1779 3 0.35931 22.2066 23.0175 14.8644 -0.0344926 0.00744288 0.0152777
1780 3 0.436767 21.7284 22.2069 16.0362 0.0143362 0.01772 -0.0232286
1781 3 0.388896 19.9253 9.25621 9.24805 0.0679975 -0.0396181 0.0411034
1782 3 0.4516 21.1707 9.87942 9.70188 -0.00251968 0.00336332 0.0556636
1783 3 0.43499 19.0834 4.37155 14.4959 -0.0436774 -0.0439298 0.00715426
1784 3 0.394993 18.4581 4.02952 15.976 -0.0429983 -0.00275406 -0.0107455
1785 3 0.415165 27.9638 19.9667 27.8504 -0.0494297 -0.0324143 -0.00762284
1786 3 0.38067 26.9563 20.5646 27.0287 -0.00825336 0.00266245 0.0522253
1787 3 0.363399 15.6584 21.8274 23.3183 -0.0078115 -0.0587256 -0.00787047
1788 3 0.434483 14.5053 22.6136 22.6698 -4.08442e-05 -0.0144732 -0.0104252
1789 3 0.421929 11.3529 29.678 12.1827 -0.0150106 0.0221001 -0.00254768
1790 3 0.372227 11.5854 30.0418 10.656 -0.0566627 0.0062156 -0.0232323
1791 3 0.388809 5.82154 24.1825 10.0798 0.0404754 -0.0124754 0.0141037
1792 3 0.460751 6.91249 24.9064 10.4937 0.029189 0.0234371 -0.0560734
1793 3 0.439172 11.2639 11.9706 29.3965 0.0482599 0.0125024 -0.00318179
1794 3 0.368619 9.65819 12.1811 29.5811 0.0139071 -0.0265517 -0.0274142
1795 3 0.435221 5.18909 28.3208 30.7716 0.0268883 -0.0179185 0.00529746
1796 3 0.413709 5.21529 25.9294 30.1543 0.00561016 0.0202678 0.04772
1797 3 0.416183 8.403 21.111 22.2756 -0.0162263 0.0155157 0.0387232
1798 3 0.431691 7.86712 24.6152 25.8905 -0.0641042 0.0621582 0.00495761
1799 3 0.367406 14.1219 13.4547 20.3798 0.0362443 -0.0430891 -0.0102036
1800 3 0.437708 12.4529 13.526 20.2074 -0.0256033 0.0238197 0.0363799
1801 3 0.385937 24.8234 14.5617 25.8277 -0.00230417 -0.0326765 0.00600273
1802 3 0.405871 26.077 14.6232 25.0678 -0.0273032 -0.0580194 0.00842481
1803 3 0.328428 24.6883 28.0918 23.1139 -0.040283 -0.000681952 0.00167837
1804 3 0.410237 24.5695 28.6048 24.69 -0.00101224 -0.0193408 -0.0244741
1805 3 0.422709 24.6523 9.57332 7.01179 0.0151831 -0.00545552 0.0412484
1806 3 0.387261 23.7802 10.266 5.95523 0.0143903 -0.0199214 0.0370636
1807 3 0.427562 21.2853 26.9879 13.0708 -0.00192129 -0.0812966 -0.0297723
1808 3 0.382885 21.0428 28.487 12.9354 -0.0111995 0.0214346 0.0649433
1809 3 0.414224 20.5932 5.53825 26.3863 -0.000241436 -0.0497531 -0.0463809
1810 3 0.388988 21.3509 5.81257 27.6562 -0.0244064 -0.00673867 -0.0162114
1811 3 0.435063 4.43023 23.4939 18.5625 -0.0252038 -0.0518132 -0.021747
1812 3 0.390329 31.1026 26.9726 16.1347 0.0110268 0.00982511 -0.0285791
1813 3 0.409918 18.3426 31.1767 7.43323 -0.000117772 0.0507702 0.0136707
1814 3 0.445116 18.5524 30.321 10.5811 -0.0867102 0.00630351 -0.00183881
1815 3 0.395635 3.387 14.0938 17.6182 0.0191521 0.0482344 0.0325998
1816 3 0.41735 4.2241 13.1338 16.8378 -0.0276277 0.00160788 -0.00269926
1817 3 0.425423 30.7205 20.2622 10.1945 -0.0259328 0.0361511 -0.0579492
1818 3 0.409705 3.47595 20.0892 9.32177 -0.0137264 -0.00205226 -0.0138309
1819 3 0.414904 24.0656 3.16387 27.7288 0.00402448 -0.029145 -0.0381831
1820 3 0.375464 23.7571 30.5455 28.8323 0.0392706 0.00611606 0.0163519
1821 3 0.386588 28.5678 14.6487 29.2448 -0.0293937 -0.0400003 0.00818081
1822 3 0.415377 29.6731 15.6186 29.5557 -0.0342534 -0.0556273 -0.00944068
1823 3 0.385282 13.1317 9.47831 24.6149 0.0178486 0.0485954 -0.0405213
1824 3 0.425945 13.6066 9.35883 23.1994 0.0229227 -0.00766273 -0.00359196
ITEM: TIMESTEP
6000
ITEM: NUMBER OF ATOMS
1824
ITEM: BOX BOUNDS pp pp pp
2.6534585993668287e+00 3.1094541400633151e+01
2.6534585993668287e+00 3.1094541400633151e+01
2.6534585993668287e+00 3.1094541400633151e+01
ITEM: ATOMS id type q x y z vx vy vz
1 1 1.76606 2.95728 2.88866 30.8628 0.00627466 -0.00570409 0.00389231
2 1 1.79456 4.54802 4.30402 4.7317 -0.000424061 -0.0049523 0.00553135
3 1 1.5018 2.67944 6.13636 6.20553 -0.000433336 0.0069074 -0.00365273
4 1 1.70778 4.41361 8.1347 7.7903 -0.00268979 -0.00160631 0.00656029
5 1 1.74355 6.21769 30.9995 6.46328 -0.00757594 -0.000514884 0.00027587
6 1 1.63446 7.89418 4.67397 7.92559 0.00319078 0.00562252 2.05481e-05
7 1 1.54284 6.10827 6.08848 2.6648 0.00137257 -0.000725381 -0.00504636
8 1 1.51449 8.09869 8.01852 4.39358 0.00211532 -0.00612974 0.00396089
9 1 1.44112 30.3686 30.4512 9.38172 -0.00695093 0.00101915 0.00306079
10 1 1.50102 4.24978 5.67819 12.0127 0.00971433 0.00832887 -0.00464678
11 1 1.51696 30.7077 6.9252 13.9002 -0.0053224 0.0109764 -0.0110213
12 1 1.5138 4.53153 8.14444 15.3033 -0.00242542 -0.0052915 0.00457947
13 1 1.63679 5.69727 3.24269 13.2955 -0.00834329 -0.00753794 -0.00220515
14 1 1.45368 7.80017 4.10183 15.412 0.00194434 0.0053648 0.0104636
15 1 1.69337 6.24933 6.59443 9.69584 0.00133536 -0.00237634 -0.0136722
16 1 1.35558 8.20658 8.12659 11.4025 -0.00566255 -0.00972824 -0.00993843
17 1 1.35012 31.0841 31.0496 16.8681 -0.00577404 0.00481283 -0.00387343
18 1 1.57821 4.13084 4.49388 18.6415 0.00677002 -0.00275038 -0.00357269
19 1 1.7378 30.8492 6.24799 20.4548 0.00173148 0.00515698 -0.00233754
20 1 1.54447 4.35922 8.05981 21.9939 -0.0102053 0.00153265 0.00120624
21 1 1.74668 6.21395 2.78405 20.3128 -0.00096641 0.00200979 0.00172587
22 1 1.8015 7.89864 4.54051 22.1468 0.00138295 -0.000679409 0.0114113
23 1 1.49914 6.04992 6.08722 16.8916 0.0124095 -0.00911434 -0.00493917
24 1 1.73965 7.96651 8.069 18.3708 0.00950278 0.00202715 0.00599846
25 1 1.5402 30.8369 2.91462 24.0005 0.00079275 -0.00071323 -0.0020877
26 1 1.59976 4.29223 4.76465 25.6423 0.00251071 -0.0100434 -0.00637447
27 1 1.59416 31.0855 6.76187 27.1524 -0.0135523 0.000138738 -0.00603941
28 1 1.62443 4.54108 7.9022 29.1828 0.00108297 0.000403282 -0.000293148
29 1 1.6919 6.32593 3.01745 27.0534 0.00659637 0.00165805 -0.00525668
30 1 1.45477 7.85283 4.27649 29.3734 -0.0206837 -0.00542308 0.00420986
31 1 1.69584 6.08413 6.40143 23.8398 -0.00255066 0.00186957 0.00127103
32 1 1.68369 7.82235 7.90759 25.7433 -0.0103476 -0.00450936 -0.00181451
33 1 1.69667 31.0557 9.70818 30.8172 0.0109539 0.00309023 -0.00123267
34 1 1.61917 4.35891 11.4633 4.26059 -0.00438723 0.0129039 -0.00100732
35 1 1.48762 30.9051 13.1281 6.26475 -0.0169842 0.00202011 0.00895594
36 1 1.7068 4.46301 14.7958 7.81037 0.0112832 0.00782427 0.00067697
37 1 1.76757 6.15342 9.79716 5.92558 0.00345459 -0.0048728 -0.00255589
38 1 1.5814 7.79 11.6848 7.77964 -0.00328558 -0.000489049 0.00231128
39 1 1.62005 6.08947 13.285 2.65831 0.000697566 -0.00967331 1.08227e-05
40 1 1.68617 8.0912 14.9787 4.21322 0.0081041 0.00136877 0.0022327
41 1 1.63235 31.0362 9.48565 9.81893 0.00759546 0.00535171 0.00664751
42 1 1.67099 4.47357 11.2621 11.5458 -0.00294923 -0.0107048 0.00225174
43 1 1.4464 3.04734 13.3444 13.2873 0.0112424 0.00219335 -0.000226643
44 1 1.55165 4.89659 15.4286 15.203 -0.011334 0.00638647 0.00380947
45 1 1.64079 6.36076 9.66517 13.4085 0.0059443 0.0101454 0.00512314
46 1 1.74099 7.9715 11.5189 15.1763 -0.00648368 0.00129727 0.00924131
47 1 1.51072 6.15013 13.1531 9.74864 0.00864587 0.0054289 -0.00381075
48 1 1.59909 7.87666 15.113 11.6405 -0.00629198 0.00620991 0.00155681
49 1 1.76621 2.71488 9.88158 16.8098 0.00166331 0.010291 0.00150414
50 1 1.93815 4.27403 11.659 18.5312 -0.0060407 -0.00264081 -0.00231287
51 1 1.71598 2.78688 13.2891 20.6488 0.012207 -0.000866513 0.00757655
52 1 1.77854 4.77897 14.9641 22.0567 -0.00134326 0.0135858 0.00592497
53 1 1.5902 6.12289 9.91335 20.067 0.00408005 -0.00661057 -0.00584617
54 1 1.65064 8.09869 11.3934 22.0074 -0.00419104 0.00109145 -0.00392702
55 1 1.61997 6.31159 13.3358 16.9684 0.006192 -0.00416623 0.00504329
56 1 1.61201 8.22927 15.0547 18.4275 -0.00179286 0.00242412 0.000116122
57 1 1.74931 2.75346 9.90034 23.7216 -0.0123183 -0.00642702 0.00326635
58 1 1.55744 4.60991 11.651 25.6299 -0.00694943 -0.00226569 -0.0167392
59 1 1.50413 2.72061 13.279 27.3482 -0.00417717 0.00592837 0.00498817
60 1 1.64783 4.34685 15.1566 29.2598 -0.00106539 -0.00274602 0.00773524
61 1 1.59415 6.37942 9.81742 27.4406 0.00303993 0.00439325 0.000805303
62 1 1.75184 7.46038 10.9344 29.9247 0.00499874 -0.00434992 -0.000568332
63 1 1.77116 6.43387 13.1104 23.8582 -0.00934931 -0.00800582 -0.000982255
64 1 1.70661 7.76863 15.4855 25.4348 -0.00318801 0.00874786 -0.0106906
65 1 1.8677 30.9413 16.8398 30.9677 -0.00405479 0.00316163 0.00479453
66 1 1.72266 4.44573 18.5047 4.28248 -0.00251452 -0.00336557 0.00542874
67 1 1.61711 2.78476 20.295 6.0668 0.00628278 -0.00816312 -0.00503262
68 1 1.58819 4.4054 22.0794 7.99533 0.00742851 0.00402525 -0.000374578
69 1 1.80709 6.1671 16.5869 5.88574 0.00480256 0.00626166 -0.00436118
70 1 1.85518 7.64552 18.3421 7.88045 -0.00344409 -0.00586253 0.00562072
71 1 1.5927 6.20363 20.5276 2.81814 -0.00681791 -0.00621841 -0.00392774
72 1 1.61897 7.89197 22.2248 4.56574 0.00502757 -0.00556005 0.000724217
73 1 1.6374 3.01164 16.7403 9.66126 -0.00115977 -0.003346 -0.00439135
74 1 1.66819 4.42186 18.6372 11.5406 0.00374987 0.00423016 -0.000329033
75 1 1.73574 30.9161 20.2873 13.3524 0.0034059 -0.00993162 0.00748615
76 1 1.87071 4.52492 21.9267 14.8991 -0.00892464 0.00156809 -0.00110243
77 1 1.73334 6.37405 17.117 13.2851 -0.00984421 -0.00173413 -0.00983889
78 1 1.73073 8.19419 18.7987 15.1399 -0.00287956 -0.0026649 -0.00667562
79 1 1.67203 6.22977 20.3342 9.64342 -0.0076346 -0.00641494 -0.00406321
80 1 1.68531 7.90738 22.3464 11.3343 -0.00556971 -0.000301562 -9.47455e-05
81 1 1.55434 2.73553 16.7596 17.0211 0.00129742 0.00354798 -0.00694749
82 1 1.80699 4.4176 18.6155 18.6895 0.00425703 -0.00601496 -0.00782823
83 1 1.69183 2.68265 20.2056 20.5232 0.00698516 -0.00184783 0.00501157
84 1 1.86119 4.56507 22.0277 22.1753 -0.00179882 0.000359458 -0.000969068
85 1 1.63229 6.37484 16.753 20.1996 -0.00126005 0.00299701 -0.000985817
86 1 1.5223 8.14189 18.446 22.1451 -0.00302006 -0.00420336 -0.00589971
87 1 1.76857 6.18596 20.26 16.8028 0.00787294 0.0116142 0.00185135
88 1 1.81722 8.11034 22.1521 18.3658 -0.00181471 -0.00487848 0.00867748
89 1 1.60474 2.83776 16.665 23.5631 0.00182546 -0.0114324 -0.00384532
90 1 1.55014 4.04375 18.415 25.6688 0.0127908 0.00634675 0.00744881
91 1 1.56306 30.8793 20.3962 27.6387 0.00719682 0.00770318 0.00734959
92 1 1.61676 4.37824 22.0901 29.3292 0.00215575 -0.00282138 0.0011142
93 1 1.63424 6.05622 16.8854 27.4409 -0.0119284 0.00682587 -0.000761135
94 1 1.56913 7.8327 18.6402 29.1287 0.00344699 -0.00700439 0.00390942
95 1 1.53358 6.03652 19.8613 23.6885 0.00677421 0.00263768 -0.00234583
96 1 1.37948 7.59396 21.9192 25.5375 -0.00234854 0.00183445 0.00661152
97 1 1.71576 2.76445 23.9743 2.69048 -0.00948716 -0.00369898 -0.00283157
98 1 1.63827 4.53198 25.6086 4.5319 -0.0033659 0.00900402 0.00677648
99 1 1.62828 31.023 27.4952 5.90984 0.00382306 -0.0099823 0.00744655
100 1 1.55207 4.11361 29.2546 7.70166 -0.00246267 -0.00134336 0.0165113
101 1 1.52499 6.41523 24.033 6.45667 0.00528788 -0.000884157 -0.0143702
102 1 1.76472 7.93668 26.2219 8.17387 -0.003429 -0.000910854 0.00877203
103 1 1.59079 6.41638 27.487 3.02912 0.00879226 0.00391122 -0.00173964
104 1 1.61113 8.14955 29.4546 4.72696 0.00190403 -0.00210963 0.00291281
105 1 1.46867 30.931 23.9774 9.59334 -0.00451557 0.0036616 0.0027764
106 1 1.37116 4.3248 25.6154 11.3184 -0.00530438 -0.00213981 0.00515667
107 1 1.52661 31.0833 27.2433 13.3581 -0.0121044 0.00326363 0.00805665
108 1 1.26069 4.56201 29.1771 14.8097 0.00194673 0.00113079 -0.000690544
109 1 1.54726 6.29521 23.9257 13.2963 0.00573706 -0.00721691 -0.0134838
110 1 1.71205 8.1894 25.7191 14.9467 0.00601342 0.00334615 -0.00275658
111 1 1.58235 5.86493 27.98 9.65849 -0.00389776 -0.0106548 0.000715124
112 1 1.625 7.28587 30.0266 11.3833 -0.00481331 -0.000576961 0.00158558
113 1 1.47145 2.93158 23.6092 16.8658 0.00178338 -0.00391506 0.000784595
114 1 1.46487 4.20845 26.2573 17.9463 -0.00319542 -0.0064882 -0.00419757
115 1 1.63186 2.72933 27.4883 20.2923 -0.00483033 -0.00506396 -0.00850235
116 1 1.67487 4.26396 29.5175 22.0027 0.000331395 0.00052469 -0.00132597
117 1 1.81102 6.3327 23.5514 20.2937 0.00169417 -0.000578886 0.0105055
118 1 1.67126 7.49272 25.7919 21.9331 0.000726445 0.00226595 -0.00349666
119 1 1.54055 6.65407 27.6724 16.6227 -0.011073 0.00631273 0.00747518
120 1 1.70324 8.1386 29.4583 18.7442 -0.00473361 9.15732e-05 0.00956471
121 1 1.58371 3.00523 24.0572 23.7707 0.00845631 0.00396958 0.00408597
122 1 1.54791 4.2822 26.1369 25.5059 0.00228519 0.000479484 -0.000180767
123 1 1.54654 30.8806 27.4348 27.471 -0.00381251 0.00616879 0.000789161
124 1 1.47143 3.76465 30.0424 28.2249 0.00227823 0.0148379 -0.00208132
125 1 1.33359 5.86016 24.2115 27.6787 0.00577292 0.00381952 0.00066733
126 1 1.52545 8.03562 25.7667 29.5647 0.00405191 0.0160555 -0.00101583
127 1 1.48394 6.2341 27.8492 23.7956 0.00551679 0.00140712 -0.0114155
128 1 1.6748 8.00874 29.3966 25.6562 0.000246137 0.00987668 0.00688192
129 1 1.78566 9.87246 2.75195 2.81387 -0.0050033 -0.001257 -0.00234363
130 1 1.83663 11.565 4.58521 4.40127 0.00593181 0.0103491 8.22909e-05
131 1 1.6552 9.81672 6.31039 6.21977 -0.000574405 0.00209027 0.00494052
132 1 1.62787 11.6793 8.04734 7.99083 -0.0020867 -0.00445328 0.00976246
133 1 1.58087 13.2766 2.68574 6.16812 -0.00440331 -0.000121421 -0.00178955
134 1 1.73576 15.0898 4.51204 7.86971 -3.6593e-05 -0.00635902 -0.00134546
135 1 1.65016 13.4029 6.26093 2.68066 -0.00245929 -0.00743745 0.0111381
136 1 1.75046 15.2371 8.21372 4.20328 -0.0110859 0.00441568 -0.00111931
137 1 1.49009 9.64744 2.88452 9.91732 0.013053 0.00150928 0.00122486
138 1 1.64543 11.6157 4.65453 11.576 0.0172623 0.00307074 0.0100953
139 1 1.21816 9.82548 6.03707 13.7663 0.00305558 0.00201077 -0.00256239
140 1 1.44696 11.9097 8.01471 15.1964 -0.00850229 -0.00829441 0.00694458
141 1 1.62696 13.2794 31.045 13.295 -0.00669208 0.00833606 -0.00252205
142 1 1.32564 15.1782 4.4646 15.0228 -0.0128716 0.00133348 0.00465768
143 1 1.72686 13.3804 6.24763 9.63536 -0.00622777 -0.00312114 0.00693062
144 1 1.69261 15.2625 7.78366 11.5574 0.00289697 -0.00088844 -0.0105272
145 1 1.85627 10.0861 30.8162 16.9402 0.0102038 0.00361614 0.00256129
146 1 1.593 11.6703 4.29947 18.5984 0.00860623 -0.00506224 -0.00293923
147 1 1.57929 9.6209 6.08739 20.1492 -0.00723725 -0.00738551 0.00777745
148 1 1.46747 11.4174 7.93778 21.6463 0.00589002 0.0029761 0.000753556
149 1 1.70332 13.2456 31.0864 20.7336 0.00231996 -0.00478559 0.000606883
150 1 1.66072 15.1002 4.32098 22.2394 0.00249438 -0.00393224 0.00837407
151 1 1.61842 13.6898 6.37208 17.2384 -0.000236822 -0.00275249 -0.00466127
152 1 1.85237 15.2728 8.24366 19.0157 -0.00719981 0.00535198 0.00807163
153 1 1.74719 9.58322 2.8939 23.9533 -0.00837784 0.00412755 -0.0105382
154 1 1.6207 11.5567 4.59876 25.4706 -0.00495847 0.00300623 0.00854052
155 1 1.42112 9.82162 6.15784 27.5884 -0.00429033 0.00461285 0.0135713
156 1 1.56788 11.6605 7.87588 29.1401 0.0068322 0.000429992 -0.0112838
157 1 1.5108 13.3129 2.70572 27.492 0.0118351 0.00468217 0.000956755
158 1 1.45328 15.1353 4.40227 29.3497 0.00713943 -0.00231157 -0.00763775
159 1 1.62134 13.3097 6.32261 23.6534 0.0041673 -0.000680835 0.00155805
160 1 1.55177 15.1596 8.12521 25.2859 -0.00288117 0.00372327 0.00260487
161 1 1.5319 9.92148 9.65545 31.0674 0.00751626 0.00465779 0.00582273
162 1 1.66953 11.6167 11.5018 4.4963 -0.00349064 -0.001333 -0.00603538
163 1 1.54369 9.72525 13.2765 6.05544 0.00101202 -0.00272354 -0.01339
164 1 1.5109 11.489 15.0157 7.97573 -0.00286113 -0.00461862 -0.0104201
165 1 1.55648 13.5458 9.82045 6.10213 0.00781681 0.0078887 -0.00172812
166 1 1.76817 14.9898 11.5436 8.15041 0.013251 -0.00424208 -0.000172615
167 1 1.67538 13.3301 13.3309 2.71103 -0.00203847 -0.00257242 0.00289624
168 1 1.28728 15.2475 15.0708 4.54088 0.00246369 0.00666766 -0.00193
169 1 1.5772 9.80305 10.0861 9.482 -0.00739835 0.00489178 -0.0156864
170 1 1.54954 11.6392 11.4422 11.5515 0.00244229 -0.0050295 -0.00307581
171 1 1.65713 9.81911 13.1611 13.3276 -0.000849871 -0.00670006 -0.00479418
172 1 1.54479 11.6903 14.8414 15.0187 -0.00293348 0.0013096 0.00271196
173 1 1.57986 13.5151 9.75394 13.212 -0.00894042 -0.00406895 0.00654737
174 1 1.70123 15.1459 11.5994 15.0052 -0.00597809 -0.00273672 -0.00324923
175 1 1.88199 13.2239 13.3428 9.72156 -0.0105456 -0.00122573 0.00201223
176 1 1.57374 14.8952 15.0283 11.5313 -0.00467223 0.000807419 -0.00242281
177 1 1.53453 9.92876 9.69779 16.7354 0.000368397 0.00411127 0.00143631
178 1 1.50377 11.3345 11.5013 18.6787 -0.00286151 -0.00841109 -0.0023986
179 1 1.82753 9.79532 13.4061 20.535 0.00398687 -0.0069211 -0.00377301
180 1 1.66368 11.5269 15.195 22.2733 -0.0133823 -0.0113432 0.00351056
181 1 1.64221 13.499 10.102 20.5541 -0.00990524 -0.00244546 -0.00109826
182 1 1.60183 15.4309 11.8847 22.0466 -0.0012685 0.00469412 -0.00758573
183 1 1.51637 13.5067 13.1068 16.9687 0.00044393 0.0133153 -0.00115946
184 1 1.74556 15.3785 15.0889 18.3359 0.00370284 0.00953242 0.00995759
185 1 1.65186 9.65707 9.3493 23.6937 -0.00164427 0.00336684 -0.00686031
186 1 1.32899 11.7541 11.5597 25.1668 0.000390941 0.000636163 -0.00144457
187 1 1.35297 9.02523 14.3305 27.9798 -0.00442788 0.00313125 -0.0055909
188 1 1.58764 11.6379 15.1393 29.2407 -0.00678572 0.00468662 -0.00111418
189 1 1.34892 13.4985 9.91108 27.2053 0.00134509 0.00259758 -0.00439501
190 1 1.57868 15.1804 11.7386 29.2905 0.000893396 0.0037484 -8.04773e-05
191 1 1.65639 13.7008 13.7252 23.8144 -0.00337173 -0.00392004 -0.00899808
192 1 1.67029 15.3591 15.2503 25.9505 -0.0220235 -0.000644892 -0.000861834
193 1 1.6216 9.83993 16.9658 30.8146 7.03293e-05 -0.00996207 -0.0122344
194 1 1.48614 11.5007 18.8079 4.33763 0.00535455 0.00522363 0.000276442
195 1 1.69259 9.46462 20.235 6.29226 0.000479039 0.00493446 -0.010975
196 1 1.49718 11.1309 22.0687 8.2245 0.00741918 -0.00325731 0.00481156
197 1 1.8127 13.2136 16.9143 6.05059 -0.00281092 -0.00403598 0.00325454
198 1 1.3431 15.058 18.5348 7.87256 0.00172426 -0.00557092 -0.0127037
199 1 1.65765 13.5843 20.4424 31.0459 -0.00832893 5.47641e-05 0.000794162
200 1 1.37441 15.1718 22.3117 4.58758 0.0059376 0.0107817 0.00176535
201 1 1.57014 9.6472 16.9635 9.86868 -0.000805839 -0.00568591 0.000218139
202 1 1.63905 11.1947 18.8352 11.5812 -0.00148693 -0.0111839 -0.0013452
203 1 1.61288 9.60568 20.7714 13.3551 -0.000123528 0.00114931 0.000678874
204 1 1.63396 11.4806 22.3498 15.022 0.00318366 -0.00413311 0.00564711
205 1 1.3911 13.2178 16.8969 13.2651 -0.00468236 0.0109074 -0.0048635
206 1 1.58083 14.8951 18.792 15.1798 0.00927268 0.00305733 0.00252253
207 1 1.57651 13.0982 20.2437 9.54836 0.00271922 -0.00191274 0.00155941
208 1 1.60845 14.9895 22.1554 10.959 0.00456311 -0.00521979 -0.00152753
209 1 1.67872 10.048 16.8054 16.6268 -0.00357059 0.00176688 0.00383716
210 1 1.60691 11.5472 18.5401 18.4913 -0.000377795 0.00417992 0.00263302
211 1 1.67576 9.65871 20.4059 20.2544 -0.00603293 0.00202996 -0.000753445
212 1 1.7193 11.396 22.1471 22.2497 -0.00260973 -0.0133419 -0.00264895
213 1 1.36136 13.3902 16.7484 20.1653 0.00489047 0.00357686 0.00518936
214 1 1.38632 15.1079 18.5092 22.1594 0.00785375 0.00514994 0.00727828
215 1 1.87382 13.2072 20.622 16.8245 -0.00281223 0.00316663 0.0033976
216 1 1.84614 14.9516 22.3157 18.8676 0.0088865 -0.00995645 -0.00385418
217 1 1.70293 10.034 17.0092 24.2445 0.00695145 0.00296285 0.00220385
218 1 1.63761 11.5358 18.9661 26.129 0.00363568 0.00357034 0.000805597
219 1 1.51103 9.57317 20.7231 27.6447 0.00204801 0.00397664 0.00273824
220 1 1.69976 11.527 22.4063 29.6689 0.00648504 -0.00506546 0.00274713
221 1 1.61941 13.3125 17.0367 27.6022 0.00415765 -0.00295249 0.00189292
222 1 1.71113 15.0962 18.7294 29.2306 0.00157518 0.00814664 -0.00279204
223 1 1.56171 13.2157 20.4383 24.0954 -0.00748542 0.00757703 0.00263395
224 1 1.46717 14.896 22.1871 26.0105 -0.00951009 0.00218292 0.00638517
225 1 1.68172 9.73379 23.9708 3.03909 0.00583136 0.0117822 0.00742356
226 1 1.69631 11.524 25.88 4.49783 0.00792035 0.000940572 -0.0070057
227 1 1.71801 9.89169 27.708 6.46441 0.00181068 0.00503775 0.00455276
228 1 1.49458 11.4292 29.7099 8.08868 -0.00874387 -0.000187053 -0.00382394
229 1 1.42939 12.9352 23.8354 6.198 0.0147854 0.00241566 -0.0001082
230 1 1.63357 14.7929 25.8033 7.96621 -0.00138183 0.000808707 -0.0159206
231 1 1.75622 13.3123 27.6838 30.9948 -0.00808068 -0.00257009 0.0146858
232 1 1.70837 15.1074 29.4516 4.36925 2.44264e-05 -0.00498867 0.00531751
233 1 1.54913 9.69153 24.234 9.61521 -0.00885703 0.000245156 0.00147971
234 1 1.56141 11.7135 25.6687 11.3235 0.00662619 -0.000140702 0.00257808
235 1 1.50756 10.4562 27.3186 13.599 -0.00964137 0.00154904 -0.00168725
236 1 1.44439 12.0356 29.1843 15.4013 0.0131264 0.00804183 -0.00253366
237 1 1.36647 13.1995 23.533 12.8599 -0.00142973 -0.00639128 0.00270051
238 1 1.27602 15.2627 26.1008 15.481 -0.000332445 -0.00225248 0.00514501
239 1 1.54708 13.1566 27.812 9.69175 0.0034761 0.000240394 0.00156387
240 1 1.34464 15.0441 29.1399 11.6971 -0.0035715 -0.000878442 0.00740756
241 1 1.80612 9.82498 24.0918 16.847 -0.00608941 -0.00943882 -0.0118834
242 1 1.74282 11.4246 25.7599 18.7743 0.00282181 -0.00314816 -0.000546525
243 1 1.66064 9.61678 27.5674 20.4784 0.00512413 0.000122898 0.00639746
244 1 1.75617 11.3948 29.2991 22.2714 -0.007663 -0.00208205 -0.00637283
245 1 1.73871 13.2321 24.0557 20.5625 -0.00997762 0.00495934 0.00712686
246 1 1.77182 15.2461 25.7526 22.1051 -0.00416822 0.00311292 0.00215999
247 1 1.49436 13.6134 27.4066 17.5192 -0.0040258 0.00443778 -0.00620785
248 1 1.70006 15.3143 29.422 19.1733 -0.00436835 -0.012009 -0.0070008
249 1 1.62264 8.82012 23.3307 23.1715 -0.000245693 -0.00299573 -0.00502679
250 1 1.56667 11.9243 26.2663 26.1738 0.000835111 0.00271501 0.00153332
251 1 1.35574 9.63208 27.7037 27.7869 0.00617953 0.002663 0.00595988
252 1 1.63072 11.6557 29.5845 29.35 0.00393502 0.0141608 0.00500998
253 1 1.74032 13.2431 24.1617 27.9114 0.00990465 0.00127131 -0.00585967
254 1 1.69925 15.2118 25.9601 29.4185 0.00889669 -0.00353942 0.00404779
255 1 1.39672 13.4679 27.6049 23.8908 -0.00379964 -0.00091806 -0.000868209
256 1 1.61118 15.4164 29.5357 25.8846 0.0126071 -0.00207222 -0.000997421
257 1 1.72943 16.8934 2.67934 31.034 0.000687458 -0.00588116 -0.0083815
258 1 1.61549 18.4918 4.73447 4.19097 -0.00328304 0.00365676 -0.00498249
259 1 1.64452 16.6563 6.43793 6.09717 0.005813 -0.00346713 -0.00043593
260 1 1.59662 18.6205 7.92758 7.95875 0.00195268 -0.00498498 0.0077742
261 1 1.4513 20.2747 31.0394 5.92151 0.0104611 -0.000706158 0.00109592
262 1 1.57634 22.1383 4.23641 8.02978 -0.00803451 -0.00594916 -0.00398253
263 1 1.72241 20.426 6.33551 30.996 -0.00334448 -0.00530098 0.00136557
264 1 1.81191 22.4389 7.88911 4.22447 0.00593822 0.00940186 0.0121853
265 1 1.55434 16.1597 3.47035 10.5349 0.00511674 0.00336825 0.0104426
266 1 1.51414 18.9345 4.5112 11.6908 0.00202372 0.000122418 0.00962415
267 1 1.66376 17.1479 6.23553 13.3456 -0.00332374 -0.00247319 -0.00141443
268 1 1.66882 18.604 7.92216 15.4831 0.00586104 -0.01278 -0.00277943
269 1 1.5914 20.5088 31.0376 13.4669 0.00346928 0.00292977 0.0123571
270 1 1.88443 22.253 4.3676 15.3027 0.00467013 0.00226373 0.00787801
271 1 1.71595 20.4463 6.16387 9.65112 -0.0026357 0.00555045 0.00615114
272 1 1.64503 22.1453 7.84143 11.7547 0.00293524 9.33145e-05 -0.0209593
273 1 1.57117 16.8329 30.7594 16.8953 0.00300613 -0.00461851 0.014039
274 1 1.61186 18.4603 4.13974 18.7794 0.00451324 -7.28345e-05 -0.00449743
275 1 1.63555 16.7704 6.0143 20.4918 -0.0145724 -0.0156345 0.006976
276 1 1.6652 18.5201 7.75533 22.2468 -0.00636494 0.0102366 0.00435071
277 1 1.62543 20.3615 31.0686 20.6476 0.00625618 0.00800797 -0.00210843
278 1 1.71843 22.1344 4.25232 22.394 -0.000711697 -0.000507006 -0.00814168
279 1 1.67874 20.3271 5.94086 16.9661 4.69788e-05 -0.00434061 0.00103164
280 1 1.33887 22.0091 7.87629 18.6996 -0.00141617 -0.00912455 -0.00138366
281 1 1.71666 17.1365 3.03381 24.2358 -0.00542398 -0.00219682 -0.0015578
282 1 1.5884 18.8521 4.70649 26.0346 0.00263286 0.00302214 0.00550476
283 1 1.46015 16.7216 6.38974 27.4244 0.00183591 0.000214867 -0.00378186
284 1 1.53114 18.7076 8.08047 29.1688 -0.000615919 0.00549 0.00368246
285 1 1.69482 20.5085 31.0199 27.4932 0.00701262 -0.00892007 -0.00667701
286 1 1.7741 22.1271 4.40104 29.3129 0.00849663 0.00645897 0.000124566
287 1 1.62419 20.5691 6.33266 23.9351 0.00964715 0.000365451 0.000280997
288 1 1.65896 22.2642 8.10323 25.7974 0.00307996 -0.00986576 0.00336201
289 1 1.75118 16.9239 9.92816 30.9014 -0.0101378 0.0148481 0.000589005
290 1 1.71246 18.5633 11.5098 4.42874 -0.000531241 0.00448119 -0.00150473
291 1 1.60172 17.0176 13.255 6.56567 0.00678792 0.010512 -0.00204494
292 1 1.75044 18.6061 14.9743 8.42995 -0.008207 0.00617127 0.00619612
293 1 1.50873 20.4216 9.57162 5.95309 -0.000366015 -0.00304469 0.00682729
294 1 1.38282 22.2486 11.3431 7.84534 -0.00154483 0.00826987 0.00144864
295 1 1.61765 20.3278 13.391 2.8433 0.00536832 0.00580618 -0.00342695
296 1 1.7249 22.0172 14.9366 4.76267 0.00530985 0.00177159 0.00151789
297 1 1.70767 16.9431 9.81368 9.71114 -0.011228 -0.00837373 -0.00970471
298 1 1.5659 18.6012 11.5844 11.628 -0.0041333 -0.00420614 -0.0107328
299 1 1.51427 16.7525 13.6475 13.5321 -0.00322472 0.000947959 -0.0020441
300 1 1.79998 18.8513 15.3737 14.9461 -0.00923862 -0.0110471 -0.0092504
301 1 1.53054 20.4824 9.70056 13.4694 0.00694705 -0.00701324 0.011468
302 1 1.61867 22.207 11.7262 14.9378 0.0075384 0.00155533 -0.0147635
303 1 1.64552 20.5844 13.2199 9.90941 0.00504502 0.00104057 0.000992034
304 1 1.47484 22.3707 15.2259 11.5392 0.00535125 -0.00323766 -0.00074156
305 1 1.75231 16.6284 9.92189 16.9428 0.00717512 -0.00273145 0.0146557
306 1 1.5403 18.6191 11.571 18.3103 0.0100324 -0.00846871 0.00833496
307 1 1.83082 17.0443 13.3699 20.0931 -0.0123886 0.000426709 -0.00901836
308 1 1.55178 18.5687 15.0108 22.1856 0.00715051 0.00602715 0.00136292
309 1 1.59795 20.0839 9.75643 20.3906 0.00457415 -0.002695 -0.00439593
310 1 1.82904 21.9023 11.5275 22.0528 -0.00328351 -0.0032296 0.00108198
311 1 1.67985 20.5277 13.4981 16.673 -0.000474238 0.00265228 0.00579124
312 1 1.53721 22.0924 15.0631 18.8805 -0.00601994 -0.0101264 0.00453478
313 1 1.70867 17.0043 9.88491 23.7317 -0.00748886 -0.00598161 -0.00625502
314 1 1.50304 18.3996 11.5933 25.9048 0.00693583 -0.00386194 -0.000776088
315 1 1.81472 16.9153 13.4902 27.673 0.00788782 0.00941495 0.0090227
316 1 1.52063 18.7498 15.3003 29.3579 0.0022176 -0.00557708 -0.00282706
317 1 1.64967 20.5249 9.91942 27.6127 0.00591561 -0.0111711 0.00586279
318 1 1.72411 22.1863 11.5458 29.4969 -0.00707066 0.0127901 0.00382532
319 1 1.6953 20.4634 13.2825 24.0537 -0.00468361 0.00126914 0.0100731
320 1 1.52081 22.2716 15.0163 25.898 0.00208115 0.00190443 -0.00231673
321 1 1.4073 16.8677 17.0942 2.76439 0.0066582 0.00162858 -0.00352425
322 1 1.52897 18.8164 18.8584 4.48167 0.00774709 -0.00476958 -0.00681594
323 1 1.362 17.0979 20.5679 6.61123 0.00193269 -0.0030667 -0.000977121
324 1 1.61616 18.8237 22.5021 8.04557 0.00726117 -0.00236689 0.00122997
325 1 1.60486 20.2642 16.7872 6.36877 0.00558754 -0.00609952 -0.00182121
326 1 1.63677 21.9739 18.4163 8.25144 -0.0010552 0.00152303 -0.00640107
327 1 1.72499 20.6306 20.4594 31.0433 -0.00636707 0.00569896 -0.00214463
328 1 1.57827 22.3408 22.3321 4.32287 -0.00735129 0.00833344 -0.00249747
329 1 1.56734 16.7781 16.7867 9.96206 0.0012137 -0.00548236 -0.00837424
330 1 1.47708 18.4199 18.771 11.5876 0.00379148 0.00288021 0.00299541
331 1 1.31205 16.6799 20.7921 13.2865 -0.00132949 0.00761299 -0.00774971
332 1 1.79469 18.5373 22.29 15.4481 0.00307261 -0.00221333 0.00309394
333 1 1.71268 20.493 17.107 13.1986 8.42933e-05 0.0136184 -0.00387409
334 1 1.81257 22.2793 18.7245 15.3817 0.000699497 0.00257047 0.00184215
335 1 1.72542 20.2925 20.5188 9.65718 -0.00148432 -0.00120947 0.00901405
336 1 1.27243 22.3988 21.9019 11.8539 -0.00890762 -0.000270056 0.00152516
337 1 1.63705 16.9324 16.9936 16.6675 -0.00815474 2.7712e-06 -0.0018383
338 1 1.6515 18.5316 18.4652 18.7741 -0.00180143 -0.00631953 0.000602191
339 1 1.66069 16.7608 20.4448 20.3566 0.00603933 -0.00699257 -0.00491767
340 1 1.57139 18.4137 22.2588 22.15 -0.00154488 -0.00781886 0.00872402
341 1 1.69693 20.3637 16.9691 20.708 0.00500371 -0.00675774 -0.00618971
342 1 1.70411 21.9983 18.5003 22.6684 0.00636865 0.00528254 0.00300621
343 1 1.68505 20.2418 20.2436 16.9293 -0.00462732 -5.70428e-05 -0.00945108
344 1 1.37373 22.1186 21.7063 18.9868 0.0040058 -0.010203 0.00251187
345 1 1.6244 16.9621 16.9489 24.039 0.0069326 -0.00165112 0.00484529
346 1 1.66594 18.6907 18.6485 25.8838 -0.00484712 -0.0121391 -0.0051058
347 1 1.72707 16.8357 20.507 27.665 -0.00183389 -0.00237675 -0.00578066
348 1 1.75061 18.5893 22.1372 29.4899 0.000777345 -0.00153425 0.0020919
349 1 1.68324 20.675 16.9978 27.5113 -0.00264385 0.00631711 -0.00818114
350 1 1.77169 22.5185 18.6298 29.3532 -0.0135138 -0.00343115 0.00857999
351 1 1.77477 20.2015 20.5674 24.0566 0.00111805 -0.00728002 -0.00652803
352 1 1.69446 21.895 22.342 25.8425 0.0057862 -0.00962488 0.00167103
353 1 1.49697 16.9702 24.1423 2.72339 -0.000182064 0.00274185 -0.00207753
354 1 1.50611 18.7846 26.0685 4.47925 -0.00626115 0.00294076 -0.000557698
355 1 1.70716 16.6479 27.5482 6.30418 -0.00830842 -0.00689274 -0.00046536
356 1 1.66083 18.683 29.2288 7.90645 -0.00915453 -0.00621697 0.00526794
357 1 1.49707 20.5131 24.149 6.26431 -0.0036434 0.00476125 0.00152287
358 1 1.72821 22.2116 25.9299 8.04947 -0.000801236 -0.00846761 0.00687812
359 1 1.59415 20.6913 27.6394 2.86681 0.00755781 -0.00543358 0.00140211
360 1 1.57466 22.4968 29.5672 4.35768 0.0140804 0.00279865 -0.00769061
361 1 1.65045 16.7164 24.2382 9.58521 0.0044887 0.00192581 0.00215742
362 1 1.58706 18.7526 25.5387 11.5236 0.0015594 -0.000323522 0.00118391
363 1 1.59398 17.1124 27.3094 13.5653 -0.00428402 0.00426544 -0.00963318
364 1 1.72658 18.7393 29.2171 15.1489 -0.00855711 -0.0013237 -0.00157224
365 1 1.38263 20.3739 23.698 13.373 0.00199847 0.00385882 -0.000173515
366 1 1.40872 22.2135 25.7326 14.9526 0.00800249 -0.00872313 -0.0053954
367 1 1.63693 20.3987 27.6016 9.68892 -3.14343e-05 -0.00240022 0.00284723
368 1 1.61803 22.1116 29.3627 11.5449 -0.000939787 -0.00218662 -0.0121848
369 1 1.52066 16.672 23.9687 17.1193 -0.00105272 0.00451403 -0.00514351
370 1 1.67014 18.8205 25.9539 18.4192 -0.00191999 0.00620089 0.00266636
371 1 1.65257 17.1935 27.4416 20.6301 0.00490362 0.00281858 -0.00312517
372 1 1.60798 18.6916 29.4127 22.5258 -0.00579869 8.68777e-05 0.00467546
373 1 1.55429 20.2266 23.8827 20.2503 -0.010392 0.00208687 -0.00258265
374 1 1.35564 22.2619 25.7175 22.2438 0.00102488 -0.00933916 -0.00223884
375 1 1.79436 20.7326 27.5629 16.8353 0.00194868 1.96507e-05 -0.00834038
376 1 1.40071 22.2621 29.2248 18.7623 0.00335418 -0.000777161 -0.00842929
377 1 1.76415 16.7763 23.9671 24.0927 -0.00291364 0.00558752 0.0039748
378 1 1.46439 18.6401 25.5835 26.0246 0.00202655 0.0208664 -0.00397141
379 1 1.56212 17.0065 27.716 27.6693 -0.0077931 0.002276 0.00743212
380 1 1.72447 18.8174 29.3453 29.5052 -0.000316604 0.0139495 0.00105059
381 1 1.83076 20.3766 23.9975 27.8019 0.00196384 0.00695776 -0.00133131
382 1 1.77918 22.1888 25.8008 29.5016 -0.00143997 -0.00126787 -0.00894753
383 1 1.56784 20.4345 27.4323 24.2046 -0.00125653 0.00888339 -0.00628304
384 1 1.73318 22.1642 29.2594 25.7524 0.000938218 -0.00240605 0.00758844
385 1 1.55876 24.2669 2.81904 30.8787 0.00541089 -0.000540362 0.00542998
386 1 1.6818 25.8013 4.61607 4.66591 -0.000531857 0.000430003 0.0057106
387 1 1.94096 23.715 6.06477 6.21129 -0.00331877 -0.00299666 0.0070259
388 1 1.52006 25.5676 7.52473 8.21065 -5.95765e-05 -0.00346524 0.00491058
389 1 1.44027 27.5717 30.9012 6.09137 -0.000727925 -0.00704148 0.00348657
390 1 1.48082 29.257 4.38876 7.83045 -0.00226403 0.00431804 0.00131217
391 1 1.74358 27.3729 6.02607 31.0092 0.013764 0.00107359 -0.00235141
392 1 1.64197 29.5384 7.61491 4.01586 -0.00371892 0.0122662 -0.00264926
393 1 1.73046 23.9167 30.8359 9.55426 -0.00171165 -0.00760795 0.00184106
394 1 1.74507 25.5124 3.86287 11.6288 0.00657329 -0.0168414 0.0059889
395 1 1.645 24.0015 5.89753 13.2012 0.00731759 -0.00664519 0.00208989
396 1 1.61363 26.076 7.58543 14.7449 0.0043518 -0.00262821 -0.0023395
397 1 1.65944 27.482 2.76286 13.5343 -0.00342521 -0.00324365 -0.00574803
398 1 1.68826 29.2896 4.45711 15.1884 -0.011608 -0.00171975 -0.000477255
399 1 1.50587 27.3288 5.80664 9.8857 0.00684106 0.000500928 0.00468182
400 1 1.62333 29.1426 7.78524 11.502 -0.001111 -0.000674248 0.00589962
401 1 1.40271 24.2064 2.82132 17.0261 0.00267677 0.00165491 -0.0047157
402 1 1.58705 25.9935 4.57949 18.8759 0.00157055 -0.00546257 0.00370046
403 1 1.49316 23.8159 6.00941 20.6219 0.000487353 0.00141617 -0.0157883
404 1 1.59888 25.6232 8.10959 22.1348 0.0109112 0.0186964 -0.0100433
405 1 1.84712 27.5277 31.0412 20.4901 0.00685139 0.00593641 -0.00925507
406 1 1.93083 29.0528 4.53766 22.2388 0.00691041 -0.0153465 -0.000543222
407 1 1.64212 27.7277 6.28245 17.0452 0.00661482 0.00984569 -0.00518086
408 1 1.81833 29.3861 8.2523 18.7171 0.00828807 -0.00261489 -0.00974019
409 1 1.63998 24.0991 31.0517 24.082 -0.0093578 -0.00350446 0.0136861
410 1 1.67764 25.8171 4.70094 25.843 -0.00315915 -0.00234327 0.0118726
411 1 1.79571 23.8296 6.16316 27.6171 -0.00262705 -0.00377415 -0.0030717
412 1 1.74599 25.9078 7.8339 29.0479 0.013012 -0.00802268 -0.00728371
413 1 1.4256 27.777 2.85201 27.507 -0.00414748 -0.00261554 -0.00675308
414 1 1.43353 29.5643 4.8174 29.2349 0.00540087 0.000791549 0.00191953
415 1 1.64321 27.4044 6.43801 23.9058 -0.00449274 -0.00280447 -0.00378275
416 1 1.8246 29.0862 8.36605 25.5675 0.00889739 -0.00173281 0.00226095
417 1 1.62353 24.3136 9.7304 30.8832 0.0101089 0.00357704 0.00369374
418 1 1.68133 26.0305 11.4248 4.32002 0.00370864 0.013631 -0.00292625
419 1 1.59975 24.0708 13.116 6.08104 0.0017085 0.00325552 -0.00499335
420 1 1.61825 25.7572 14.9638 7.92252 0.00166797 0.00162397 -0.0020875
421 1 1.38711 27.4432 9.19981 5.91832 0.00259638 0.0019923 -0.00269248
422 1 1.25456 29.0731 11.0446 7.97388 -0.00223894 0.00397141 -0.00880023
423 1 1.69258 27.839 13.1958 2.65922 -0.00147317 0.00636435 -0.01169
424 1 1.7568 29.4388 15.1216 4.43167 -0.0113354 -0.00479593 0.000226547
425 1 1.47993 24.0188 9.61477 9.92696 -0.00543367 -0.00493514 0.00329608
426 1 1.60337 25.8365 11.5182 11.723 -0.0023735 0.000263484 -0.00286094
427 1 1.76272 24.061 13.5074 13.3784 -0.00140008 -0.00348735 0.00140852
428 1 1.45123 25.6195 15.2998 15.1616 -0.0113955 -0.00358333 0.00715124
429 1 1.57157 27.7592 9.68504 13.3444 -0.00424205 -0.00806481 -0.00271811
430 1 1.48064 29.5904 11.6515 14.9362 -0.00249523 0.018068 0.00880445
431 1 1.4885 27.5767 13.4276 9.94278 -0.0119672 0.00916306 -0.00522492
432 1 1.51162 29.7111 15.2078 11.615 0.00185383 0.00488156 -0.0162503
433 1 1.3295 24.2451 9.77218 16.5301 0.000339025 -0.00225517 0.00031395
434 1 1.60207 25.8665 11.351 18.5005 0.00538768 -0.00703521 -0.0102675
435 1 1.6074 23.984 13.1786 20.3464 0.00111066 -0.00161662 0.00818084
436 1 1.6393 25.7642 15.1172 22.074 -0.000635653 0.00134285 0.0074027
437 1 1.73588 27.601 9.94605 20.497 0.00334079 -0.0111095 0.00392595
438 1 1.8765 29.3248 11.6418 22.2664 -0.00450607 -0.00204421 -0.00516072
439 1 1.51314 27.6828 13.4415 17.0184 -0.000657674 -0.00410651 -0.00629978
440 1 1.58269 29.4408 15.0954 18.8595 0.0126478 -0.00193478 0.00079161
441 1 1.58625 23.6714 9.81051 23.7468 0.0008402 -0.00976396 0.0016132
442 1 1.68358 25.3634 11.7381 25.5434 -0.0063048 -0.00492512 0.00181903
443 1 1.74602 23.887 13.3466 27.7446 0.00399195 0.00657875 0.0149975
444 1 1.66758 25.6727 14.9279 29.4721 -0.000761476 0.00246799 -0.0107032
445 1 1.72446 27.3042 9.88608 27.4419 -0.00612896 0.00932363 -0.00876415
446 1 1.84745 29.4142 11.5028 29.0784 0.0107139 0.00383072 0.00630573
447 1 1.57526 27.3709 13.2795 23.8576 0.00449417 -0.00127096 -0.00327409
448 1 1.44238 29.3256 14.9996 25.3497 -0.00968672 0.00310551 0.00190109
449 1 1.61955 23.6901 16.5231 2.78549 -0.00436923 -0.00572321 -0.000493708
450 1 1.46585 25.5313 18.3688 4.49172 0.00149663 -0.0053348 -0.00202493
451 1 1.28447 23.792 20.17 6.43493 0.00123228 -0.00621252 -0.00369984
452 1 1.35481 25.7422 22.1102 8.03773 -0.00232035 0.00322786 0.0038111
453 1 1.68722 27.5599 16.7724 6.23567 0.00832637 -0.00258757 -0.00294797
454 1 1.59799 29.3254 18.4992 7.96432 0.00173201 -0.00790386 0.00583405
455 1 1.6732 27.5426 20.2195 2.78014 -0.00479325 0.00510782 0.0053154
456 1 1.72488 29.4386 22.1434 4.46078 -0.0105863 0.0111079 0.00436385
457 1 1.52338 24.3178 16.9629 9.71916 0.000801034 -0.00876563 -0.00840794
458 1 1.6296 25.8609 18.661 11.6705 0.00440215 9.6063e-05 -0.000958274
459 1 1.6906 24.3198 20.207 13.6332 0.00398631 0.00380665 0.00151122
460 1 1.71491 26.1159 22.1844 15.0312 -0.00396769 0.00886764 -0.00354449
461 1 1.50213 27.7421 16.9613 13.4759 -0.00859047 -0.00061496 -0.000897517
462 1 1.63125 29.4066 18.6457 15.386 0.0022651 -0.000750111 -0.00458474
463 1 1.62829 27.4612 20.3915 9.72545 0.0119803 0.0024778 0.00246765
464 1 1.68088 29.3442 22.0749 11.5042 0.00635873 0.00793091 -0.00925696
465 1 1.69357 24.0062 16.9144 17.2453 -0.0107401 -0.00146242 -0.00104329
466 1 1.70211 25.8543 18.822 18.7664 0.00107206 -0.00157964 0.00528601
467 1 1.55505 23.9154 19.9603 20.9424 0.00688375 -0.00636651 -0.00490284
468 1 1.62143 25.7484 22.0212 22.124 0.00619164 0.00617069 -0.00230894
469 1 1.69599 27.5098 16.8863 20.3071 0.00961474 0.00865008 0.0044628
470 1 1.71478 29.2166 18.5878 22.2934 -0.00286982 -0.00819801 -0.00204742
471 1 1.77751 27.628 20.443 17.0339 0.00235312 0.00613985 0.00188384
472 1 1.71397 29.3566 22.0808 18.8482 -0.00365279 0.00594826 0.00655308
473 1 1.4811 24.0666 16.7313 24.1014 0.0022812 0.00802491 0.00917898
474 1 1.50593 25.7344 18.7222 25.6183 -0.000431277 0.00238068 0.00732382
475 1 1.56111 23.7638 20.4814 27.2619 -0.0121827 0.00709898 -0.00203412
476 1 1.24818 25.856 21.9219 29.1722 0.00538666 -0.00640659 -0.000913868
477 1 1.27309 27.5764 16.8124 27.2627 0.00193994 -0.000870331 -0.0046107
478 1 1.82533 29.1301 18.5499 29.3328 -0.00689314 0.00595904 -0.00530576
479 1 1.68721 27.6546 20.5327 24.0695 -0.00400108 0.00350111 -0.00272586
480 1 1.52725 29.4684 22.498 25.6421 0.00384597 -7.629e-05 0.00245123
481 1 1.67232 24.0668 24.0937 31.079 0.0114606 0.00628443 -0.00983214
482 1 1.80476 25.8238 25.6953 4.48123 0.000103265 0.00662089 -0.00381103
483 1 1.70542 24.004 27.5402 6.09975 -0.00015981 -0.00416128 -0.0101255
484 1 1.75941 25.8917 29.1765 7.98417 0.00446893 -0.00411261 0.010431
485 1 1.75271 27.6594 23.9371 6.20657 -0.000343481 0.00272398 0.00269902
486 1 1.66106 29.1722 25.936 7.89463 -0.00398106 -0.00207437 0.0128025
487 1 1.68913 27.5202 27.487 2.66246 0.0154653 -0.000799397 -0.00745252
488 1 1.63683 29.6195 29.3284 3.86896 -0.000500462 -0.00523895 0.000741643
489 1 1.43352 23.7289 24.159 9.96279 0.00608315 -0.00747979 0.00527633
490 1 1.55997 25.7488 25.7576 11.5204 -0.00198804 0.00631158 0.00323391
491 1 1.67868 23.9886 27.6393 13.1951 -0.0100023 -0.00264751 -0.000353391
492 1 1.6565 25.6402 29.2559 15.1497 -0.0108709 0.0052719 0.000943705
493 1 1.71652 27.6241 23.9687 13.1162 -0.00599112 -0.000743521 0.00502674
494 1 1.64601 29.3759 25.4852 15.1127 -0.000197329 -0.0137827 0.00202529
495 1 1.72581 27.6239 27.5527 9.9085 0.00526887 -0.00270094 -0.00746742
496 1 1.79476 29.1727 29.2064 11.9586 0.00341175 -0.0126483 -0.00269594
497 1 1.21644 23.9553 23.7284 16.9169 0.00207753 0.0140813 -0.0101154
498 1 1.67421 25.8211 25.6449 18.6054 0.000366185 -0.00490196 0.000627145
499 1 1.68445 24.175 27.3731 20.4603 -0.00098184 -0.00571277 -0.00160172
500 1 1.89069 25.7457 29.3152 22.2141 -0.0046546 0.00345085 -0.00670957
501 1 1.79253 27.5132 23.8894 20.4345 -0.00697628 -0.000947979 0.00378638
502 1 1.53048 29.3982 25.6773 22.0939 -0.00526547 -0.00931481 0.00656319
503 1 1.39726 27.6196 27.3627 16.8382 -0.00484906 -0.00302931 0.0029391
504 1 1.47249 29.3347 29.3172 18.7254 -0.0015396 -0.00459368 -0.00436884
505 1 1.36975 24.2236 23.7012 24.2184 -0.0112562 0.00782076 0.00360302
506 1 1.66824 25.8168 25.8811 25.7286 0.00239692 0.00467086 0.00582389
507 1 1.71179 23.81 27.4342 27.5162 0.00615609 0.00411198 -0.00709341
508 1 1.48232 26.1227 29.346 29.1131 0.00539611 -0.00551906 0.00239386
509 1 1.78007 27.6015 24.0619 27.5907 -0.00784815 0.00488423 -0.00464957
510 1 1.71354 29.3532 25.6663 29.43 0.00126649 0.00455779 -0.00857448
511 1 1.68235 27.4949 27.4465 23.7362 -0.00460123 -0.0027884 0.00585382
512 1 1.66069 29.2862 29.1992 25.5847 -0.0021586 -0.00798457 0.00410133
513 2 -0.864438 3.80688 3.43781 3.54989 -0.00103448 -0.00881893 0.00412353
514 2 -0.807171 3.73955 30.5176 29.8464 0.00196266 0.000964772 0.00347246
515 2 -0.861073 30.6612 4.04966 30.1965 -0.0161214 0.0057516 0.00429715
516 2 -0.899791 30.3743 30.3365 2.96535 0.00118014 -0.0276004 -0.00911383
517 2 -0.886619 3.79649 5.01871 5.80398 0.00178749 -0.00989236 -0.00519437
518 2 -0.90538 5.31517 3.25534 5.41642 -0.00718136 -0.00604628 -0.0082989
519 2 -0.878101 5.44316 5.15236 3.847 0.0142546 0.00581546 0.00267671
520 2 -0.824222 3.45105 7.13004 7.2572 0.00876309 0.00335015 -0.00573258
521 2 -0.779496 30.4207 5.37907 7.33818 0.00192434 0.00133042 0.00754659
522 2 -0.863776 30.2045 6.55368 5.02008 0.00978476 0.00614769 0.000642179
523 2 -0.904445 5.27959 7.27013 8.79638 -0.00374539 0.0104076 -0.00741065
524 2 -0.955856 5.24169 8.7975 6.64483 0.00417834 -0.00888474 0.00183943
525 2 -0.857085 3.32093 8.87426 8.62052 -0.0130135 0.00172825 0.00570296
526 2 -0.899992 6.80096 3.7485 7.30192 -0.00428175 -0.00651841 0.0054621
527 2 -0.83197 5.25664 30.2815 7.4495 0.00196669 -0.00559509 -0.00215832
528 2 -0.888456 7.09699 29.9795 5.78915 0.00852111 -0.0044085 0.00252969
529 2 -0.898389 7.09605 5.6387 8.88335 -0.0149452 -0.00370243 0.00930338
530 2 -0.800283 8.6081 5.45891 6.78804 -0.00894728 -0.00152457 -0.00897203
531 2 -0.812715 8.9449 3.97071 8.82237 0.00959986 -0.0113929 0.00962346
532 2 -0.738025 7.32874 6.97041 3.34714 -0.00440432 0.0115703 -0.00185145
533 2 -0.864428 5.44964 7.00645 30.0277 -0.00154013 -0.00263542 0.00764534
534 2 -0.830128 6.73576 5.17984 30.0279 -0.00999732 3.50542e-05 0.0207385
535 2 -0.77894 7.21808 9.26272 4.87381 -0.00989982 -0.00905402 0.00599658
536 2 -0.744683 8.74365 7.24956 5.611 -0.0144639 0.00678797 -0.00370291
537 2 -0.767503 9.33109 8.59044 3.69029 -0.000680199 -0.00254266 -0.00715305
538 2 -0.584589 3.23477 31.08 10.0076 -0.0146283 0.015202 0.000288872
539 2 -0.755951 2.68314 29.8883 8.19283 -0.0201662 0.00292235 0.00749993
540 2 -0.741573 29.9338 3.34176 8.71807 -0.0103899 -0.00917265 -0.00607647
541 2 -0.864667 29.9466 29.9762 10.9255 -0.0107315 0.00968931 0.0139921
542 2 -0.791255 3.48347 6.34942 13.0884 0.00635608 0.000155431 -0.000823696
543 2 -0.779869 4.90268 4.45646 12.8219 -0.00448425 -0.00429441 -0.000381346
544 2 -0.804465 5.26228 6.35677 11.0091 0.0140025 0.001983 -0.0163315
545 2 -0.771145 3.02998 8.10084 14.4967 -0.00595363 0.000664408 0.00502875
546 2 -0.754091 30.3028 5.49587 14.5194 -0.00263317 -0.0152323 -0.0198788
547 2 -0.800437 29.5517 7.07152 12.7836 -0.00650351 -0.00554803 0.0220787
548 2 -0.86101 5.13038 6.90074 16.0187 -0.00363208 -0.00547897 -0.00920933
549 2 -0.862278 5.8032 8.7413 14.4952 0.0199902 -0.0044908 -0.00813835
550 2 -0.842036 3.93551 9.21363 16.2756 -0.00288936 0.00820782 -0.00658615
551 2 -0.844323 6.82471 3.65194 14.2431 -0.00606903 -0.0059863 0.00423892
552 2 -0.769052 4.704 30.6283 13.8747 -0.0245873 -0.0030206 -0.000494015
553 2 -0.825202 6.43126 2.7327 12.028 0.0129717 -0.00212124 -0.00339709
554 2 -0.844857 7.25629 5.31598 16.1006 0.00450584 0.00438049 -0.00324029
555 2 -0.632379 9.08772 4.78532 14.4151 -0.00989597 -0.00389124 -0.00613569
556 2 -0.786763 8.94574 2.96384 16.1853 -0.00327924 0.00101933 -0.00186321
557 2 -0.794183 7.22549 7.615 10.3223 0.00363597 0.00553293 0.00288631
558 2 -0.840849 7.40369 8.91798 12.5135 -0.00879916 -0.00452536 0.00243749
559 2 -0.558122 9.1295 6.71765 12.1905 -0.00586809 -0.00162314 0.00751962
560 2 -0.740758 8.78389 9.27341 10.3709 0.00965519 0.00978828 0.00893796
561 2 -0.827403 3.65777 3.68714 17.3024 0.009755 -0.000535792 0.00130942
562 2 -0.649013 3.47036 29.5964 15.8501 -0.00428981 -0.00544566 0.00811898
563 2 -0.783044 29.9738 3.26005 15.8068 -0.00255232 0.00947223 0.00593451
564 2 -0.762967 30.3691 30.346 18.0227 0.00354996 0.0120971 -0.00428849
565 2 -0.876334 3.2145 5.35538 19.4608 -0.00201513 -0.0159179 0.00097241
566 2 -0.803731 5.00455 3.31446 19.2831 0.00210824 -0.00955443 0.00757997
567 2 -0.78544 5.10127 5.52731 18.0604 -0.011317 -0.0075208 0.00534132
568 2 -0.789261 3.45972 6.90542 21.4428 -0.00191911 0.000595822 -0.00603473
569 2 -0.879476 30.0872 5.48156 21.5605 -0.0144826 -0.00419715 -0.000229542
570 2 -0.924491 30.1056 7.19867 19.4931 -0.00752577 -0.00677156 0.00570191
571 2 -0.715129 5.25938 7.68471 23.1754 -0.0113906 0.0141143 0.00097067
572 2 -0.717134 5.62091 8.71397 21.0191 0.0177176 0.0109813 0.00729555
573 2 -0.862731 3.39603 8.91616 22.8662 0.010732 -0.00416562 -0.0052001
574 2 -0.955713 7.09534 3.64012 21.1748 -0.00535864 0.00518011 0.00374475
575 2 -0.82227 5.39099 30.2525 21.0482 -0.0142182 0.0010111 0.00600804
576 2 -0.854086 7.00064 30.2842 19.4028 0.00478974 0.00115753 -0.0117172
577 2 -0.890164 7.062 5.58671 23.0706 -0.0018295 -0.013534 0.00906957
578 2 -0.891934 8.62919 5.46862 21.1743 0.0067988 0.00438373 -0.00186404
579 2 -0.941398 8.46069 3.64569 23.2009 -0.0100629 0.00912196 -0.00319404
580 2 -0.843356 7.19001 6.98811 17.7175 0.00136357 0.00424884 0.00392262
581 2 -0.82316 6.97239 9.1119 19.0621 0.00251886 0.0114589 -0.00333803
582 2 -0.791773 8.86771 7.17025 19.3549 -0.00278982 0.00117606 0.00347922
583 2 -0.84866 9.11041 8.51538 17.6189 0.00780762 0.00345028 -0.00968605
584 2 -0.78454 3.41022 3.69626 24.8987 -0.00781377 -0.00174506 0.00954508
585 2 -0.747564 3.65614 30.6185 22.8732 -0.0164002 0.00551487 0.00149905
586 2 -0.931314 29.8777 3.83598 23.2495 0.0121019 -0.015041 -0.00492964
587 2 -0.883049 30.0353 30.1705 24.7547 0.00565503 0.00846342 0.0078245
588 2 -0.821868 3.12046 5.42525 26.3088 -0.00520343 0.0113288 -0.00707715
589 2 -0.916413 5.49577 4.07659 26.1781 0.0027052 -0.0034215 -0.000466945
590 2 -0.740666 4.80736 5.71331 24.3187 -0.00225998 -0.0108444 0.00132194
591 2 -0.895813 3.77719 7.20317 28.0103 -0.000384884 0.00447555 0.00224699
592 2 -0.684961 30.2857 6.11158 28.4519 0.00536171 0.0122818 -0.00372822
593 2 -0.907591 29.9408 7.44135 26.3696 -0.0090376 -0.00573448 0.0127291
594 2 -0.870761 3.65464 9.0309 29.8439 0.00217119 0.00120785 0.00573238
595 2 -0.83365 5.58543 8.75743 28.395 -0.00755597 0.0161395 0.00450444
596 2 -0.845422 7.21273 3.47481 28.1855 0.00690434 0.00187989 0.0050038
597 2 -0.788022 5.29469 30.4533 27.5766 0.0128359 -0.0018684 0.0125013
598 2 -0.909234 7.26947 30.4947 26.2643 0.00815312 0.00989812 -0.00325049
599 2 -0.823204 8.74684 3.20981 30.2568 -0.00822745 0.00169091 0.00935453
600 2 -0.731946 8.87111 5.06484 28.3684 -0.0067677 0.0103371 0.00375685
601 2 -0.884167 6.62944 7.09829 25.0271 0.00509794 0.00144179 0.0023395
602 2 -0.879048 7.44211 9.13578 26.5235 0.00232501 -0.00674603 -0.00731643
603 2 -0.758617 8.80339 6.95894 26.3834 -0.00917183 0.00507834 0.00332225
604 2 -0.803981 8.83846 8.51472 24.7022 2.83457e-07 -0.0224876 -0.00198612
605 2 -0.830656 3.52827 10.7009 3.05625 0.00907232 0.00292246 -0.00489857
606 2 -0.963936 30.5614 8.53259 3.39617 0.000150818 -0.0125176 -0.000864523
607 2 -0.953211 30.1701 10.5627 29.9293 -0.00286697 0.00245613 -0.00280173
608 2 -0.604215 2.95281 12.091 4.98358 -0.0187575 0.0029143 0.000781916
609 2 -0.921648 5.20899 10.7038 5.20087 0.000712846 0.00535323 -6.89277e-05
610 2 -0.807864 5.15262 12.6416 3.79371 -0.00311502 -0.00237702 -0.00558163
611 2 -0.783622 3.7139 13.5709 7.20439 -0.00809532 -0.00925275 0.00429133
612 2 -0.649261 30.0499 11.9316 6.90047 -0.00437262 0.0037244 -0.0166462
613 2 -0.870353 30.3059 14.266 5.44671 -0.0027107 0.0112782 0.0112959
614 2 -0.797298 5.20339 14.2581 8.97989 -0.00431442 0.0114213 -0.00583705
615 2 -0.837072 5.39746 15.4986 6.60651 0.00780824 -0.00460101 0.0159305
616 2 -0.924865 3.79479 15.8826 8.52516 -0.00251898 -0.0136739 0.000655229
617 2 -0.816045 7.10794 10.6712 6.76976 -0.000902841 -0.00697491 -0.0151384
618 2 -0.849294 6.73071 12.4128 8.58938 -0.00693983 -0.00179892 0.00267709
619 2 -0.70139 8.33992 12.7393 6.70651 0.00378422 0.00226185 -0.000945181
620 2 -0.800622 9.11591 11.2013 8.5395 0.00364334 -0.0107118 0.00113783
621 2 -0.880549 7.26415 13.8871 3.50633 -0.00758038 -0.00694261 -0.00444264
622 2 -0.81959 5.10377 14.1161 30.2162 -0.0119434 -0.00264546 0.00244962
623 2 -0.900244 6.87082 12.2876 30.2215 -0.00799738 0.0052395 0.0132489
624 2 -0.866329 7.31362 15.6637 5.28284 0.000891246 0.0200631 0.00616386
625 2 -0.771591 9.25906 14.2598 4.89805 -0.0182772 -0.00783599 -0.00420314
626 2 -0.785258 8.95096 16.1271 3.42169 0.00530405 0.00280347 -0.00588393
627 2 -0.828789 3.44748 10.46 10.8653 -0.0106745 0.00379337 0.00511979
628 2 -0.840605 30.1752 8.50163 10.6259 0.0064302 -0.00675575 -0.00130224
629 2 -0.70711 29.8832 10.2171 9.01803 0.00477198 -0.00712196 -0.00808459
630 2 -0.805815 3.71058 12.5127 12.117 0.000127525 -0.00361642 -0.0122714
631 2 -0.874743 5.1514 10.3864 12.6951 0.0104728 0.0132912 -0.000533592
632 2 -0.821013 5.35524 11.8811 10.461 -0.00146587 0.00132785 -0.00382939
633 2 -0.785748 3.7435 14.4805 14.1792 -0.00164929 0.00186624 0.000396321
634 2 -0.835136 30.7306 12.2441 14.0487 0.00703802 -0.000242056 0.0195325
635 2 -0.811822 30.2944 14.2361 12.6842 -0.000208502 -0.00247381 -0.00220817
636 2 -0.846043 5.73876 14.4298 15.8889 0.00870812 -0.0137845 -0.0119949
637 2 -0.843255 5.46189 16.63 14.4834 0.0215982 0.00820657 -0.0136292
638 2 -0.734662 3.97307 15.9784 16.3773 0.00655289 -0.0107304 0.00339497
639 2 -0.897138 7.29443 10.6773 14.0295 -0.00933923 0.0140306 -0.00774354
640 2 -0.832404 7.21686 12.2787 16.2645 0.00800727 0.00663199 0.0035726
641 2 -0.837723 8.94225 12.5588 14.3896 0.00528058 -0.0127093 0.00126143
642 2 -0.820171 8.72729 10.581 16.0049 -0.00713715 -0.0107349 -0.00208758
643 2 -0.810131 6.9964 13.9887 10.9415 -0.000914786 0.0103146 -0.00727166
644 2 -0.89212 7.00803 15.8269 12.7797 0.00289589 0.00941592 0.00231036
645 2 -0.779192 8.87978 14.2885 12.4654 0.00288267 0.0150554 -0.00161985
646 2 -0.8298 8.74608 16.1262 10.916 0.018065 -0.007012 0.00804063
647 2 -0.952872 3.34737 11.158 17.4953 -0.00337301 -0.00605548 -0.0120407
648 2 -0.892071 30.5322 9.03944 17.9049 0.00377878 0.00595029 0.00496661
649 2 -0.844216 30.2803 10.5498 15.6923 -0.0180792 -0.00661781 0.0049975
650 2 -0.915797 3.65715 12.3733 19.7218 -0.00923345 0.0145479 -0.00660746
651 2 -0.868512 4.88152 10.4659 19.3273 -0.000167199 0.0301221 0.00157915
652 2 -0.905057 5.32365 12.5358 18.0603 -0.000741715 0.00258779 -0.00218108
653 2 -0.887989 3.65648 14.0379 21.6524 0.00115882 0.00607815 -0.00392685
654 2 -0.912481 29.9776 12.719 21.3131 -0.00242759 -0.0102284 -0.010242
655 2 -0.774871 30.563 14.5132 19.8119 -0.0117342 -0.00296076 0.00639169
656 2 -0.877534 5.66866 13.8811 22.7677 -0.00280565 -0.00710459 0.00432116
657 2 -0.85529 5.51324 15.7351 20.8746 -0.00247773 0.00835233 -0.00575641
658 2 -0.869691 4.03422 16.0908 22.7494 -0.00797172 -0.00802159 0.0123848
659 2 -0.784154 7.21624 10.8608 20.787 -0.00364869 0.00095457 -0.00545139
660 2 -0.861077 7.16535 11.9703 23.2092 0.00517229 -0.00546893 -0.0133978
661 2 -0.900068 9.08384 12.3953 21.3984 -0.00156244 0.00260134 0.00494789
662 2 -0.825687 8.74964 10.161 22.6994 0.0158253 -0.00319249 -0.000100389
663 2 -0.824056 7.48804 14.0418 17.6258 0.0142943 -0.000984652 -0.00164969
664 2 -0.770685 7.24253 16.0583 19.019 0.00860658 0.00617231 -0.00443102
665 2 -0.884739 8.82423 14.0809 19.6156 0.00567235 0.0163854 0.00264493
666 2 -0.775848 8.83748 16.2284 17.4942 -0.0110187 0.00289737 0.00199011
667 2 -0.795142 3.92912 10.7278 24.46 -0.00575554 0.00263526 -0.0148394
668 2 -0.839894 30.0731 9.1831 24.7856 0.00717036 -0.00641301 -0.00154006
669 2 -0.986237 30.4255 10.8508 22.869 0.00198288 0.000695167 0.0010213
670 2 -0.891789 3.51047 12.5415 26.2083 -0.00228068 0.000263168 -0.00458792
671 2 -0.804842 5.43826 10.8646 26.7676 0.00261407 0.000699129 -0.00488337
672 2 -0.89265 5.8337 12.4818 25.0368 0.00160481 0.00339084 -0.0103954
673 2 -0.84326 3.4646 14.4283 28.1632 -0.00398999 -0.00456628 0.00172433
674 2 -0.9403 30.2696 12.4723 28.3087 -0.00525225 -7.60133e-05 0.0058837
675 2 -0.727226 29.9785 13.8472 26.2478 0.00248384 -0.000425571 0.00195826
676 2 -0.910001 3.47964 15.8868 30.2866 -0.00463149 0.00865242 -0.00408707
677 2 -0.901845 5.46539 15.9114 28.4096 0.00729183 -0.00616662 -0.0100326
678 2 -0.893398 7.19375 10.6086 28.5009 0.00562934 0.00138732 0.00304796
679 2 -0.855062 8.92303 10.7091 30.2883 -0.00889561 -0.00988439 -0.00441882
680 2 -0.687401 8.19823 14.8415 29.2139 -0.00341408 -0.0011909 -0.000359426
681 2 -0.815009 7.06055 14.4544 24.4629 -0.00776596 0.0131202 -0.000548778
682 2 -0.884961 6.71001 16.3317 26.1492 0.00629829 0.00630661 0.00579828
683 2 -0.85413 8.49062 14.6868 26.5277 -0.0109009 0.00468225 -0.00155286
684 2 -0.898248 8.90165 16.1138 24.5663 -0.00156589 -0.00921641 -0.00430386
685 2 -0.89445 3.48256 17.8342 3.23183 -0.00865466 -0.00072318 -0.00127331
686 2 -0.959288 30.0819 16.1208 3.54468 -0.00859074 -0.0060402 -0.00177555
687 2 -0.954653 30.0019 17.4075 29.9412 0.0112223 0.00765605 0.00308915
688 2 -0.853672 3.47194 19.3048 5.09615 0.00164885 -0.00179314 0.00602653
689 2 -0.956236 5.39119 17.4873 4.97636 0.00841609 -0.0123628 0.0173986
690 2 -0.774987 5.36123 19.7578 3.84852 0.0101636 0.0112402 -0.000734158
691 2 -0.80729 3.92255 21.1105 6.83477 0.00887684 -0.0114771 0.00712776
692 2 -0.778261 30.2305 19.6478 7.17911 0.00878816 0.0077 -0.000546688
693 2 -0.853337 30.237 20.9985 5.12946 0.00461517 0.000135166 -0.00397076
694 2 -0.942563 5.23385 21.1792 8.78635 -0.00910861 -0.000920028 0.00319748
695 2 -0.711521 5.13485 23.3364 7.29664 -0.00863157 -0.013867 0.00871214
696 2 -0.763497 3.27949 22.7334 8.97553 0.00284336 0.0123996 -0.00526602
697 2 -0.923085 6.73016 17.5976 6.9189 -0.00795408 0.00359438 -0.00494194
698 2 -0.954696 6.979 19.4203 8.63389 -0.00664598 0.0055214 0.00213838
699 2 -0.904293 8.4567 19.2436 7.00299 -0.00904458 0.0136751 -0.0138716
700 2 -0.835781 8.6346 17.4813 8.80898 0.00172123 -9.84158e-05 0.0081754
701 2 -0.951611 7.19205 21.3165 3.5501 0.00115769 -0.00166061 0.00358043
702 2 -0.816271 5.05411 21.2533 30.5244 -0.00748786 0.0125385 -0.00491854
703 2 -0.780208 6.88687 19.2253 30.1996 -0.00173614 -0.00464194 -0.0208217
704 2 -0.829574 7.35194 23.4958 5.29475 -0.014163 -0.000948439 0.000587344
705 2 -0.825232 8.72563 21.3945 5.58596 0.00606921 -0.00947908 0.00529815
706 2 -0.880193 9.18341 22.7376 3.69602 0.00177237 0.00806613 -0.00172935
707 2 -0.936086 3.70857 17.7594 10.4948 -0.0169347 0.001501 0.000963947
708 2 -0.803064 30.8599 15.9225 10.8394 -0.00937811 0.00250877 0.0118697
709 2 -0.804967 30.2301 17.3394 8.86394 -0.00316322 0.00712408 0.00127634
710 2 -0.843512 3.32246 19.1842 12.5305 -0.018165 0.00354612 -0.00922419
711 2 -0.881895 5.26786 17.687 12.3551 0.005711 -0.00168343 0.00510785
712 2 -0.874256 5.50469 19.6194 10.8186 -0.00510254 -0.00358468 0.00277084
713 2 -0.94124 3.582 21.1198 14.0176 0.000224722 0.00835304 0.00789965
714 2 -0.798221 29.9567 19.851 14.4312 -0.00269041 -0.000758593 0.00733476
715 2 -0.901022 30 20.9657 12.2987 0.00323779 -0.00910012 0.0045369
716 2 -0.961212 5.37395 21.2453 15.9387 0.010412 -0.00569507 -0.00837449
717 2 -0.82483 5.24042 23.0145 14.1788 0.0192634 -0.00572373 -0.00786504
718 2 -0.823176 3.56685 22.8672 15.6444 0.00689527 0.0100454 -0.00243427
719 2 -0.843433 7.45581 17.8758 13.985 0.00313524 0.00789846 -0.0109021
720 2 -0.926219 7.1898 19.3554 16.1354 -0.00732506 0.00593375 0.00389372
721 2 -0.81882 8.65432 19.8993 14.2197 0.00101978 -0.00344452 0.000248783
722 2 -0.806606 9.35315 17.9864 15.8776 -0.000158246 -0.00610934 -0.00434752
723 2 -0.877461 7.30986 21.2876 10.2831 -0.00300607 0.00405652 -0.00448212
724 2 -0.874485 7.07465 22.8179 12.4692 0.00616005 -0.00560979 0.00475874
725 2 -0.84363 8.87689 21.545 12.1735 -0.000899202 0.00858278 0.00332721
726 2 -0.908226 8.72119 23.4853 10.6244 0.00881974 -0.0133726 0.0119603
727 2 -0.80738 3.57554 17.4091 18.2379 0.0175028 -0.0115608 -0.00077344
728 2 -0.869489 30.1894 15.797 17.6985 -0.00107496 0.003442 0.00248803
729 2 -0.900736 30.5367 17.8548 16.0335 0.00476501 -0.0109188 0.0136962
730 2 -0.873889 3.72694 19.2379 19.8888 0.00902295 -0.0010403 -0.00724906
731 2 -0.792902 5.53417 17.9851 19.4671 -0.00709829 0.00784433 0.0076978
732 2 -0.936463 5.05191 19.5443 17.6988 -0.00545398 -0.00146212 -0.000853758
733 2 -0.861123 3.50245 21.1683 21.426 0.011757 -0.0089856 0.00501223
734 2 -0.825216 29.9344 19.5729 21.3265 0.0203896 0.00267118 0.0034647
735 2 -0.84775 30.2461 20.8905 19.4119 -0.0107881 0.0022955 -0.00201814
736 2 -0.904269 5.33388 20.9145 22.8552 0.00617552 -0.00296827 0.0258024
737 2 -0.926683 5.43767 22.4552 21.0835 -0.0128581 -0.000118807 -0.00638241
738 2 -0.894598 3.99959 23.0164 23.2084 0.00653928 -0.00297067 0.00249829
739 2 -0.792845 7.31989 17.3847 21.2792 -0.0115428 0.00470809 0.00627052
740 2 -0.809056 7.01671 18.7676 23.0846 0.0188522 -0.00260294 0.0125051
741 2 -0.827953 8.76907 19.7516 21.3538 -0.00538295 0.0109383 -0.00778216
742 2 -0.756163 9.30395 17.8258 23.1717 0.00140652 0.00212898 0.00836951
743 2 -0.877052 7.24863 21.2492 17.4838 0.0067155 0.000376064 -0.0138708
744 2 -0.964775 7.19763 23.053 19.199 -0.0114423 -0.00204118 -0.00544333
745 2 -0.894638 8.98345 21.4247 19.426 -0.00520928 0.00348338 0.0086983
746 2 -0.867553 9.23932 22.9158 17.6261 0.00463773 0.00457802 -0.00497085
747 2 -0.838325 3.21128 17.5526 24.7321 -0.00958235 -0.000195297 0.00553777
748 2 -0.804367 30.179 15.5399 24.2998 -0.00840328 0.00241146 -0.00670733
749 2 -0.795847 30.4208 17.8019 22.7895 -0.00517475 -0.0069227 0.00612821
750 2 -0.659043 2.98449 19.5814 26.4099 -0.00386699 0.000972457 -0.00666459
751 2 -0.843343 4.79386 17.7754 26.8269 -0.00513173 0.0023134 -0.0114371
752 2 -0.807403 5.02712 19.4314 24.9547 -0.00500727 -0.00855871 -0.00677523
753 2 -0.862323 3.64903 21.2412 28.2336 -0.00956349 -0.00643547 -0.0127803
754 2 -0.899451 29.791 19.4722 28.3303 -0.0108093 -0.00238365 -0.00209641
755 2 -0.71218 30.2019 21.3397 26.6064 -0.006905 0.0128912 0.0111811
756 2 -0.894207 3.465 23.0188 30.1552 0.00950988 -0.00228551 -0.00560451
757 2 -0.875102 5.31869 22.9899 28.5366 -0.0168573 0.0123726 0.00441416
758 2 -0.788957 7.2899 17.5356 28.0522 -0.00897152 0.00565791 -0.00739019
759 2 -0.814433 8.87264 17.7997 29.8656 0.00148434 0.0105515 -0.00225662
760 2 -0.780533 8.66912 19.561 28.1563 0.00358355 -0.00396669 0.0123987
761 2 -0.752016 7.00735 20.8277 24.512 0.0156974 0.00387201 0.0110431
762 2 -0.580892 6.54303 23.2205 26.6196 0.0102799 0.00921886 -0.00308233
763 2 -0.762791 8.68348 21.2563 26.3978 0.0167785 -0.00215437 0.00979004
764 2 -0.878155 8.2409 22.7661 24.3938 0.00899758 -0.00487551 -0.00275445
765 2 -0.899323 3.93232 24.6684 3.30835 0.00183999 0.00482087 -0.00782505
766 2 -0.864493 30.3869 22.9528 3.62556 -0.00240406 0.00738921 -0.000716884
767 2 -0.97762 30.1776 24.6224 30.1799 -0.00499914 0.0100477 -0.0142706
768 2 -0.832149 3.36624 26.3662 5.22071 0.0142732 -0.00366613 -0.00162025
769 2 -0.722088 5.30623 24.651 5.49241 -0.00296296 0.0162191 0.00962338
770 2 -0.828763 5.62765 26.5461 4.01103 0.00446088 -0.010023 -0.00455912
771 2 -0.789288 3.64826 28.5014 6.35014 0.00145233 0.0083513 0.0061908
772 2 -0.852881 29.9473 26.8969 6.90658 -0.0156911 0.0031853 0.00113977
773 2 -0.749762 30.4724 28.1727 4.55149 0.00128412 0.00972956 -0.00859508
774 2 -0.806126 4.63255 28.2531 8.7592 0.00505264 0.00315042 0.0101278
775 2 -0.766535 6.92177 25.2176 7.39431 -0.0111541 0.0123314 0.00885997
776 2 -0.901179 6.95626 27.0897 8.951 -0.00177977 0.00635962 0.0066346
777 2 -0.909585 8.78955 26.9939 7.17369 -0.00513172 -0.0080669 0.000608293
778 2 -0.94041 8.94086 25.3521 8.85652 0.00824903 2.84686e-05 0.00680197
779 2 -0.820636 7.2812 28.431 3.95884 0.00217343 0.00213487 0.00246875
780 2 -0.656821 5.3685 28.5533 30.763 -0.0110767 -0.00417265 -0.00912874
781 2 -0.8755 7.27568 26.8346 30.477 0.00816464 0.00238465 0.0104093
782 2 -0.846209 8.85697 30.5962 3.79864 0.0047313 -0.0125051 0.000709321
783 2 -0.84848 9.37476 28.7588 5.42129 0.00894925 -0.00301175 0.00325485
784 2 -0.690981 3.64582 25.098 10.0418 -0.00113808 0.00410357 -0.0128805
785 2 -0.829866 30.2507 23.1833 10.7392 0.00680395 0.0162231 -0.00537386
786 2 -0.766076 30.187 24.8365 8.52708 0.00594788 0.00603908 0.000470142
787 2 -0.724993 3.23416 26.2866 12.2742 -0.00455514 0.00776914 -0.0174841
788 2 -0.714534 5.287 24.7036 12.5186 -0.00325104 -0.0044886 0.0117739
789 2 -0.655859 5.1222 27.1231 10.7998 0.00570431 0.00913144 0.00130852
790 2 -0.715776 3.94767 27.9688 13.8781 -0.0049483 0.000918028 -0.00437094
791 2 -0.776167 30.6292 26.1433 14.4577 0.00871574 -0.00107321 0.0137056
792 2 -0.853297 30.1905 28.4392 12.8765 -0.0057935 -0.0138084 -0.00802861
793 2 -0.775048 5.86491 28.5591 15.4471 -0.00130299 0.00337164 0.00266591
794 2 -0.879198 7.45308 24.9842 13.8096 -0.000616602 -0.0033955 -0.00868259
795 2 -0.861863 7.63301 26.957 15.6667 -0.00170694 -0.00373449 0.00118157
796 2 -0.869643 9.4987 26.3419 14.3551 -7.5681e-05 -0.0144875 0.0152069
797 2 -0.888455 8.55956 24.8651 16.0927 -0.0061787 0.00191113 -0.00433891
798 2 -0.83916 6.38879 29.3077 10.3206 -0.00294682 0.00443646 -0.0137995
799 2 -0.837496 8.5049 30.5101 10.6311 -0.0122696 0.00291992 0.0066726
800 2 -0.666454 9.53362 28.5919 13.7161 -0.00199899 -0.00715804 -0.00219521
801 2 -0.765452 3.6634 24.751 17.6247 0.00149252 0.00291226 -0.0126949
802 2 -0.738873 30.3946 23.0515 18.0211 0.001988 0.00554239 0.00249948
803 2 -0.636901 30.028 24.3015 15.9839 -0.00807487 0.000513263 -0.00792838
804 2 -0.781983 3.8032 26.6456 19.4204 -0.014681 0.0104919 0.00624285
805 2 -0.724539 5.00143 24.2162 19.6852 0.00311837 -0.0119928 -0.00420901
806 2 -0.802459 5.65368 26.7741 17.4365 0.00350699 -0.00714485 -0.00513619
807 2 -0.864438 3.34879 28.5626 21.1313 -0.00470239 -0.00223314 -0.00201227
808 2 -0.765283 30.5342 26.4012 21.214 0.00148502 0.00906099 -0.00987577
809 2 -0.784653 29.8917 28.0631 19.5405 0.00116375 0.00208738 0.00155667
810 2 -0.76127 4.99674 28.5489 22.7714 0.00752912 -0.000327476 -0.0158438
811 2 -0.91443 6.77789 24.7168 21.0797 -0.000615227 0.000300846 -0.0142653
812 2 -0.794774 6.59753 26.8073 22.6402 -0.00405777 -0.00216993 0.00146954
813 2 -0.79327 8.74635 26.4405 21.2405 0.00863883 0.00880462 0.0123084
814 2 -0.803492 8.32729 24.742 22.8847 -0.000716768 -0.00492338 -0.0180392
815 2 -0.790089 7.37646 28.4817 17.7667 -0.00514894 0.00301636 -0.00573618
816 2 -0.939721 9.36995 30.0999 18.0556 -0.00520419 0.0111966 0.00403784
817 2 -0.83069 8.50151 28.4983 19.8945 0.00930321 -0.00968957 -0.00698629
818 2 -0.837154 3.75582 25.2916 24.3558 0.0018639 0.00974392 -0.0125282
819 2 -0.804935 30.3322 23.1533 24.4355 0.0123075 0.00364518 0.00394412
820 2 -0.735707 30.4149 24.5572 22.5971 -0.00526986 0.00329456 0.00500002
821 2 -0.872585 3.13467 26.9018 26.1642 -0.000616266 0.00665619 -0.01073
822 2 -0.717131 5.08216 25.0472 26.4529 -0.00662583 0.00144541 -0.00110897
823 2 -0.735875 5.47369 27.1095 24.9696 0.0182101 -0.00734247 0.00787064
824 2 -0.754681 3.40738 28.4851 28.2025 0.000711235 -0.0134704 0.00465081
825 2 -0.928836 30.3814 26.5347 28.6164 0.011533 -0.00228984 0.00255769
826 2 -0.847574 29.9237 28.4175 26.7578 -0.00474877 -0.00298512 -0.00399069
827 2 -0.718586 7.20363 24.8505 28.513 0.010447 0.000368706 -0.00544416
828 2 -0.83813 8.82559 24.6152 30.4554 0.00391188 -0.0060644 0.00735388
829 2 -0.752154 9.10815 26.545 28.8545 -0.00078487 0.00517465 0.00251817
830 2 -0.855596 7.37334 28.7102 24.5384 0.00270659 0.00127973 -0.00251516
831 2 -0.809715 9.159 30.3325 24.988 0.000389992 -0.00310798 0.00251137
832 2 -0.699121 8.57623 28.1041 26.6172 -0.013351 -0.0106318 0.00142535
833 2 -0.977359 10.824 3.68964 3.42886 -0.013079 -0.00263599 0.0100687
834 2 -0.863907 10.6909 30.1818 30.3917 -0.0122721 -0.0091706 0.00734965
835 2 -0.859234 10.3999 5.28617 5.18237 -0.0105402 -0.00837461 0.00993057
836 2 -0.867559 12.3783 3.78276 5.35194 0.00630946 0.00297553 -0.00690211
837 2 -0.87405 12.3697 5.63672 3.60944 0.00911621 -0.015591 0.00192085
838 2 -0.818988 10.7111 7.29343 6.98811 0.00102219 -0.00936502 -0.000849002
839 2 -0.945703 12.326 7.28689 9.12264 -0.00260692 -0.0021574 -0.00250668
840 2 -0.782108 12.7061 8.8803 7.0733 0.00499913 0.00442768 -0.00761901
841 2 -0.771906 10.5339 8.99584 8.57868 -0.0116989 0.00784731 -0.016007
842 2 -0.864588 14.4655 3.46006 6.97778 -0.00114531 -0.00413875 -0.00447125
843 2 -0.837509 12.009 30.6856 6.92448 0.00608412 0.00910967 -0.00777974
844 2 -0.840718 14.0986 30.0762 5.32527 -0.00239591 -0.0103688 0.013794
845 2 -0.90627 14.0225 5.44646 8.47724 0.00560909 -0.00848541 0.00294833
846 2 -0.812674 16.11 5.46351 7.26567 0.0110988 -0.0108496 -0.0125302
847 2 -0.804756 15.925 3.98704 9.12639 -0.0151229 -0.0147434 0.00633576
848 2 -0.763544 14.0412 7.20912 3.76786 -0.000774161 -0.00239068 0.0157674
849 2 -0.799321 12.7585 7.16972 29.9797 -0.00748714 -0.0059869 -0.00307935
850 2 -0.823008 14.2682 5.13079 30.472 0.00858836 0.00254522 0.0071383
851 2 -0.800771 14.4291 9.26039 4.9833 -0.00226225 0.00642662 -0.00476311
852 2 -0.902831 15.6801 7.39213 5.40256 0.00651757 -0.0110733 -0.00132438
853 2 -0.951152 16.0111 8.81806 3.10825 0.00322519 0.00984171 0.00720336
854 2 -0.852084 10.5969 3.98406 10.7285 0.00159856 -0.000894842 -0.00329597
855 2 -0.85247 10.5627 30.2736 9.21254 -0.00532235 0.0056428 -0.00252975
856 2 -0.794658 11.1435 5.3869 12.7836 -0.00216303 0.0109133 -0.0022938
857 2 -0.772457 12.5572 3.46422 12.1746 -0.00196123 0.0041471 -0.00161383
858 2 -0.907328 12.6752 5.33078 10.6148 -0.000373683 -0.00041561 0.0102681
859 2 -0.714421 10.8999 7.22604 14.2636 -0.01092 0.00873265 0.00455172
860 2 -0.80095 12.7139 7.15574 16.3096 0.0152859 0.00198955 -0.00131261
861 2 -0.816214 12.907 8.84152 14.2816 0.0149597 -0.0210846 -0.00139474
862 2 -0.752088 11.175 9.30266 15.8793 0.000636993 0.0098805 -0.00378572
863 2 -0.753329 14.3403 3.42894 13.9842 -0.00473576 -0.00589754 -0.000734414
864 2 -0.778867 12.3537 30.3008 14.3833 -0.00037847 -0.00258246 0.0085623
865 2 -0.747593 14.1645 29.9632 12.7712 0.0121824 -0.00061152 0.0011754
866 2 -0.685132 14.7577 5.66504 16.2887 -0.0130785 -0.00256714 0.00909553
867 2 -0.765457 16.3191 4.9784 13.9374 0.00473684 0.00256022 -0.00110306
868 2 -0.714382 15.9726 3.35661 15.8725 0.0089224 -0.0102825 -0.00796984
869 2 -0.890396 14.3417 7.12275 10.5553 -0.00235093 0.00460968 0.0287283
870 2 -0.870294 14.4082 8.68865 12.3945 0.00791652 0.00794591 -0.00333908
871 2 -0.942472 16.0776 6.81584 12.4718 -0.000910201 0.000740323 0.00914334
872 2 -0.788132 16.3452 8.76733 10.7412 0.00202521 -0.00266928 0.0179756
873 2 -0.955242 11.042 3.35321 17.4964 -0.00714495 0.000232144 0.00349893
874 2 -0.833634 10.7435 29.6683 16.1276 -0.00706325 0.000738765 0.00086187
875 2 -0.779423 10.555 4.89639 19.5665 -0.0032511 0.00304761 -0.013682
876 2 -0.798126 12.662 3.64801 19.6309 0.00364036 -0.0012331 -0.0144957
877 2 -0.780246 12.7172 5.34173 17.9887 0.0142616 0.00589193 -0.00633517
878 2 -0.773923 10.9055 6.94277 20.5849 -0.00105865 -0.00697353 -0.0103027
879 2 -0.734121 12.6121 7.1365 22.5127 0.00838604 0.008061 -0.00801769
880 2 -0.751412 12.491 9.17497 21.4383 0.00929639 -0.00823341 -0.012536
881 2 -0.838883 10.5571 8.34916 22.85 -0.00375751 -0.00500965 -0.0071653
882 2 -0.866072 14.0364 3.2048 21.8332 0.00182289 -0.0118991 0.00309252
883 2 -0.915654 12.1454 30.3449 21.4879 0.0017384 -0.0044964 -0.00217427
884 2 -0.895949 14.5286 30.4073 19.986 0.0152444 0.00919138 -0.0129164
885 2 -0.838196 14.3973 5.32956 23.109 -0.0173357 -0.00134345 0.0129476
886 2 -0.835409 15.5339 5.26001 21.0554 0.00529933 -0.0164919 0.00399369
887 2 -0.835366 16.2668 3.88223 23.1775 0.00688324 -0.00389264 -0.0053266
888 2 -0.915198 14.4566 7.36281 18.113 0.00419197 -0.0119352 -0.0096227
889 2 -0.913488 14.2078 9.09623 19.6625 0.000805253 -0.00287757 -0.0105337
890 2 -0.820045 16.1868 7.43069 19.9457 0.00969469 0.00763356 0.0123931
891 2 -0.932639 16.0138 9.30593 18.1746 -0.00113509 0.00217701 0.000541877
892 2 -0.886735 10.5314 3.88936 24.6112 0.00185178 0.00380793 -0.00201569
893 2 -0.780774 10.2618 30.1883 23.0556 0.00312066 -0.00494538 0.00644262
894 2 -0.737787 11.011 5.49497 26.6527 -0.00192649 0.000286223 -0.00787652
895 2 -0.68411 12.2665 3.36361 26.225 -0.00267832 0.00467075 -0.00388826
896 2 -0.833781 12.2632 5.54009 24.4394 -0.00791968 0.00565406 0.00197434
897 2 -0.81232 10.6383 6.80725 28.6627 -0.00039258 0.0229227 -0.0146207
898 2 -0.736188 10.9954 8.99246 30.1709 -0.000913227 -0.00671141 -0.00485289
899 2 -0.653209 12.3073 8.71328 27.9783 -0.0160573 -0.00724664 0.0100526
900 2 -0.787556 14.2853 3.68713 28.2368 -0.00603314 -0.00233518 0.00399188
901 2 -0.813712 12.2876 30.8214 28.6312 -0.0127394 -0.00549371 -0.00678347
902 2 -0.772022 14.1151 30.1775 26.6584 -0.00556212 -0.00388045 0.0165607
903 2 -0.759085 16.5149 3.83829 29.9124 0.00018647 -0.00755127 -0.000333761
904 2 -0.686797 15.835 5.50644 28.3856 -0.00883786 -0.00145609 -0.0015507
905 2 -0.830937 14.0112 7.34979 24.6925 0.012454 -0.000710667 0.012631
906 2 -0.70895 14.301 9.25047 26.0587 -0.00714059 -0.00230066 0.00876133
907 2 -0.818719 16.0941 7.42365 26.4273 0.00426383 -0.00106333 0.00615235
908 2 -0.840133 15.7767 9.13358 24.2323 0.00324036 -0.00454198 0.0172995
909 2 -0.726858 10.6966 10.7678 3.39709 -0.000525127 0.00698653 0.00937611
910 2 -0.859258 10.6684 12.1503 5.50775 -0.00488236 0.00126481 0.00627206
911 2 -0.78542 12.3225 10.3501 5.21122 0.00729927 0.00952716 -0.00443626
912 2 -0.854505 12.6118 12.3489 3.65814 0.000512983 -0.00939162 -0.00504839
913 2 -0.75131 10.3533 14.2692 7.12092 -0.010947 -0.0023807 -0.00633194
914 2 -0.964219 12.1501 13.9989 8.87857 0.00797929 0.00664199 0.0029174
915 2 -0.854867 12.348 16.0118 6.98579 -0.00374092 -0.0116059 -0.0134012
916 2 -0.708303 10.6575 16.2334 8.91549 0.00440796 0.00894838 -0.0112475
917 2 -0.839711 14.6715 10.6186 6.97573 -0.00233979 0.0157399 0.0158149
918 2 -0.975293 13.9948 12.2684 9.07712 0.0047676 -0.00510305 -0.00404257
919 2 -0.848536 16.0055 12.4439 7.45056 -0.00674446 -0.0055884 0.00483325
920 2 -0.852328 15.7914 10.5913 9.05502 0.0171614 0.0107084 -0.000372002
921 2 -0.701101 13.9068 14.2239 3.92033 0.0012744 0.00177389 -0.00987857
922 2 -0.807787 12.2788 13.9431 30.0557 -0.0106766 0.00191149 0.001145
923 2 -0.83241 14.3334 12.5597 30.3929 -0.00536507 0.00150309 -0.000423757
924 2 -0.770251 14.3439 16.1335 5.3406 0.00100824 0.00486541 0.00736523
925 2 -0.775514 16.2998 14.4479 5.79972 0.00879745 -0.00477702 0.000636931
926 2 -0.73547 16.1954 16.3437 3.99709 -0.000267489 -0.0101756 -0.00979322
927 2 -0.805441 10.7893 10.6841 10.4753 -0.00387749 0.00566553 -0.00382139
928 2 -0.755042 10.3864 11.9659 12.5552 -0.000309547 0.00103573 -0.00700914
929 2 -0.783898 12.5607 10.3234 12.1485 0.00684896 0.0130457 -0.00124776
930 2 -0.829576 12.6057 12.5585 10.9256 -0.00564495 0.0185579 -0.012575
931 2 -0.829216 11.0153 13.736 14.0091 -0.00326667 -0.0119952 0.000568521
932 2 -0.713068 12.6874 14.1882 16.1143 -0.00723994 0.00926171 -0.00805437
933 2 -0.696233 12.4641 16.0517 14.4379 0.00746999 0.00429212 -0.00446279
934 2 -0.834241 10.5942 15.6254 15.806 0.00115252 0.00137264 -0.000995146
935 2 -0.790444 14.2801 11.116 13.8247 0.0033696 0.0107331 0.0124698
936 2 -0.80273 14.0811 11.9283 16.0075 -0.00273386 0.00106277 -0.00758239
937 2 -0.751536 16.018 12.8946 14.7315 -0.0152922 -0.00288945 0.0161933
938 2 -0.920086 15.8704 10.5134 15.7797 -0.0133634 0.00133324 0.00248158
939 2 -0.911405 14.2749 14.2331 10.2887 0.01275 -0.00440988 -0.00719007
940 2 -0.832387 13.8215 15.9091 12.2326 0.00343951 -0.00839738 0.00789972
941 2 -0.779342 15.5226 14.2661 12.7567 0.013014 3.12401e-06 0.00867468
942 2 -0.802897 16.1513 15.8373 11.0662 0.00201471 -0.00624459 -0.00344901
943 2 -0.824224 10.3432 10.586 17.899 -0.00574888 -0.0099198 -0.0172805
944 2 -0.827936 10.8241 12.5226 19.8012 -0.00218863 0.00942286 -0.00402602
945 2 -0.749377 12.4833 11.0306 19.7713 -0.00303393 0.00763107 0.0190922
946 2 -0.73696 12.2258 12.5114 17.8542 -0.00641463 -0.00655798 -0.00491482
947 2 -0.923796 10.4172 14.337 21.5547 -0.0102456 -0.00875792 0.00697692
948 2 -0.921348 12.7711 14.559 22.9331 0.00968524 -0.0155225 0.00294713
949 2 -0.763095 12.1385 16.1408 21.1176 -0.0117655 -0.00414053 0.0114088
950 2 -0.884072 11.0809 16.1799 23.2784 -0.00240529 -0.00318345 -0.0071236
951 2 -0.885224 14.3007 11.0279 21.4396 0.00501994 -0.01433 -0.00103574
952 2 -0.8578 14.4384 12.8571 22.8194 0.00585882 8.0616e-05 0.0116603
953 2 -0.921851 16.0683 12.4393 20.6951 0.00151556 -0.000373478 -0.0129216
954 2 -0.870153 16.494 11.1328 22.9898 -0.00645182 0.000700251 0.00117351
955 2 -0.847676 14.5166 14.0082 17.6884 0.00215792 -0.0056126 -0.00851495
956 2 -0.738173 14.4998 16.2408 18.8512 0.010166 0.00717614 -0.00286754
957 2 -0.895886 16.4344 14.4621 19.1223 0.00792192 0.00943396 0.00863952
958 2 -0.740046 16.1859 15.7165 17.0542 0.000528267 -0.0102303 -0.00321375
959 2 -0.681171 10.4638 10.4279 24.3756 -0.0031543 0.0106308 -0.000535063
960 2 -0.622886 8.48802 12.7625 27.94 -0.00559804 -0.00465311 -0.0109835
961 2 -0.650205 12.736 11.0113 26.3113 0.00631289 -0.0175311 0.00207008
962 2 -0.718 12.5998 12.5542 24.2215 -0.005273 -0.0085432 0.00582671
963 2 -0.785185 10.5644 14.234 28.349 0.00179097 -0.003967 0.00552562
964 2 -0.897314 10.7916 16.0744 30.0128 -0.0106977 0.00395619 -0.0069432
965 2 -0.874835 12.6063 15.8157 28.1875 0.000375428 -0.0048368 -0.00545106
966 2 -0.674692 14.1398 10.8531 28.4548 0.00330245 -0.00738601 0.000867162
967 2 -0.923971 16.1515 10.6673 29.8688 0.00667754 -0.00552096 -0.00786419
968 2 -0.912969 15.7364 12.9249 28.3598 -0.00643937 -0.00131943 0.00429167
969 2 -0.865945 14.4056 14.3998 25.0028 -0.00408701 0.0151941 -0.0125609
970 2 -0.819701 14.5541 16.0046 27.0574 0.00204751 0.00859003 0.011539
971 2 -0.964706 16.429 14.4857 26.6627 -0.00724064 -5.12015e-05 -0.0144972
972 2 -0.814968 15.6968 16.2774 24.8287 -0.00874239 0.0055384 0.0082332
973 2 -0.712803 10.8743 17.8669 3.18155 0.0112101 -0.00100507 0.000658184
974 2 -0.776754 10.2451 19.6035 5.08507 -0.0096519 0.0142706 -0.00651067
975 2 -0.844786 12.3202 17.7183 5.24382 0.0162323 0.011179 -0.000974064
976 2 -0.766196 12.5893 19.449 3.23135 0.0119007 -0.00236779 -0.00593354
977 2 -0.900072 10.3326 21.0558 7.20861 -0.00488756 -0.00164814 0.00467154
978 2 -0.810084 12.2196 21.4322 9.15755 0.00137918 0.00401734 -0.00121377
979 2 -0.631446 12.3414 22.7344 7.38883 -0.00454628 -0.00160212 -0.010144
980 2 -0.834746 10.3926 23.3103 8.54843 -0.00468929 -0.0112563 0.00525563
981 2 -0.868026 14.1286 17.8189 6.78404 0.00625222 0.00554601 0.00574474
982 2 -0.795948 13.9758 19.278 8.66551 0.00796571 -0.00033828 0.00585682
983 2 -0.659602 16.1278 19.9779 7.73444 0.00370678 -0.00813738 -0.00369412
984 2 -0.771702 15.5617 17.3578 9.13777 0.00214759 -0.00766765 0.0072747
985 2 -0.769033 14.5825 21.3371 3.48804 0.00293155 0.00366799 0.00445359
986 2 -0.799534 12.7181 21.3623 30.1597 0.00283298 0.0030663 -0.00741976
987 2 -0.881649 14.6125 19.7294 30.2166 -0.00530421 0.0061975 0.00638497
988 2 -0.784128 14.113 22.9557 5.66116 -0.0109678 -0.00338905 0.00219119
989 2 -0.588804 16.062 21.1992 5.43392 -0.00941077 0.00669489 0.00835214
990 2 -0.718734 16.2759 23.1858 3.77831 0.0118704 -0.0112463 0.00518551
991 2 -0.807205 10.0878 18.2873 10.6841 -0.000979519 -0.0114744 -0.00871828
992 2 -0.78324 10.605 19.7501 12.7831 0.00883436 0.0143469 0.00777095
993 2 -0.641211 11.6702 17.5758 12.3121 0.0116625 -0.011251 -0.00331299
994 2 -0.861874 12.2865 19.4047 10.7412 -0.00975523 -0.00439843 -0.00224459
995 2 -0.730858 10.2318 21.4379 14.686 -0.0152393 0.00123194 0.00791408
996 2 -0.894287 12.5096 21.4501 15.8517 0.00135126 -0.008712 0.00941545
997 2 -0.808199 12.1113 22.6472 13.6646 0.00137382 4.65585e-05 -0.00335142
998 2 -0.905338 10.7473 23.4812 15.7987 -0.00975011 -0.0115556 -0.0133217
999 2 -0.637387 13.7157 17.9413 14.3738 0.00481861 -0.00493767 0.00798504
1000 2 -0.874512 13.9054 19.671 15.9126 0.00457767 0.00190861 0.00620689
1001 2 -0.664925 15.7161 19.8828 14.3514 0.0107902 -0.000705562 0.00995869
1002 2 -0.841588 15.9086 17.7104 15.6616 0.0093863 0.0129191 -0.00379185
1003 2 -0.772652 14.2604 20.9861 10.2046 0.0207747 0.0075239 0.0025707
1004 2 -0.69366 13.7074 22.6411 11.6301 0.00217242 -0.0037026 0.00132717
1005 2 -0.729871 15.5798 21.2916 12.1525 -0.0019378 0.00141108 0.000501279
1006 2 -0.92557 16.0905 23.0981 10.3624 0.00394878 0.00802701 0.0093197
1007 2 -0.877467 11.1136 17.4756 17.4987 0.0174299 -0.00479682 -0.00205882
1008 2 -0.781036 10.345 19.3972 19.2508 -0.00884215 -0.0058417 0.00198095
1009 2 -0.745399 12.6103 17.9891 19.5265 0.00210427 -0.0135424 -0.00734318
1010 2 -0.808151 12.2637 19.689 17.6892 -0.0119943 -0.00584044 -0.00764486
1011 2 -0.789529 10.8128 21.1516 21.1723 -0.0130108 -0.000684607 -0.00387042
1012 2 -0.911983 12.2422 21.4025 23.2274 -0.000505755 -0.00014571 -0.00283156
1013 2 -0.846382 12.3731 23.1983 21.5518 0.00185417 0.0110862 0.00286215
1014 2 -0.949167 10.2058 22.7895 22.9915 0.00571631 -0.000466142 0.00133168
1015 2 -0.719967 14.1849 17.4749 21.329 -0.0122796 0.00558035 -0.0018172
1016 2 -0.721695 14.2573 19.4028 23.4124 -0.00558456 -0.00190104 -0.0108526
1017 2 -0.789105 15.9718 19.348 21.1436 0.0160148 0.00950841 0.00734133
1018 2 -0.713748 16.1979 17.4994 22.7901 -0.0026202 -0.00335806 0.00149484
1019 2 -0.885801 14.1415 21.3829 17.8105 0.00569579 0.0117821 0.0118595
1020 2 -0.937099 13.8493 23.1019 19.5789 0.00131947 0.010436 0.0108536
1021 2 -0.986598 15.9034 21.6248 19.7356 0.000533602 0.0166575 0.00676002
1022 2 -0.88218 15.668 23.4242 18.138 -0.020744 0.00539921 -0.00855199
1023 2 -0.86911 10.5823 17.8578 25.3861 0.00561663 -0.00691423 -0.00495386
1024 2 -0.800935 10.7 20.143 26.7379 -0.00314891 -0.0122541 0.0074928
1025 2 -0.882618 12.7362 18.1794 26.7973 -0.0091231 0.0219922 0.00471457
1026 2 -0.861275 12.2042 19.6388 24.9554 -0.000810894 0.00599692 0.00741517
1027 2 -0.785739 10.6093 21.498 28.8504 0.00548966 -0.000678027 -0.00477057
1028 2 -0.922868 10.8865 23.4352 30.5067 0.0088779 -0.00273064 -0.0019892
1029 2 -0.851875 12.522 23.2447 28.9594 0.0148371 0.00438384 0.00195915
1030 2 -0.862335 13.9303 17.7982 28.7403 0.0175046 -0.00730465 -0.00400928
1031 2 -0.747053 15.8703 17.5953 30.1768 0.00475701 -0.00240534 0.0107589
1032 2 -0.971524 16.1763 19.3175 28.3716 0.00317658 0.00442025 0.00330514
1033 2 -0.782565 14.0035 21.0941 25.22 -0.000726912 0.00304254 0.00789533
1034 2 -0.785646 13.9907 23.0428 27.0336 0.00462226 0.00339268 3.67984e-05
1035 2 -0.79992 15.7766 21.2737 26.9147 -0.00944047 0.0131367 -0.00285423
1036 2 -0.815328 16.0818 23.0808 25.0617 -0.0036806 -0.00452216 0.00233872
1037 2 -0.88495 10.3798 25.0042 3.9638 -0.0111932 -0.0124076 0.013366
1038 2 -0.792838 10.6739 26.6242 5.65285 0.00523838 -0.00577088 -0.00354123
1039 2 -0.929938 12.2756 24.8614 5.22704 -0.00058249 0.00964481 -0.00212828
1040 2 -0.837148 12.2679 26.9203 3.47215 -0.00656255 0.00832516 -0.00700046
1041 2 -0.852188 10.6706 28.4363 7.61237 0.01747 0.000863856 0.00947072
1042 2 -0.831618 12.6385 29.0504 8.96096 -0.0056081 0.012842 0.00276477
1043 2 -0.697895 13.8164 24.6308 7.40372 0.00497652 0.0133362 0.00953226
1044 2 -0.718811 14.2997 26.9593 8.94277 0.00434512 0.0112563 -0.00438672
1045 2 -0.964854 15.658 26.5598 6.97346 -0.00431701 -0.0089291 -0.0111223
1046 2 -0.868326 15.5007 24.9841 8.93874 0.00333191 -0.00128495 -0.00305833
1047 2 -0.806713 14.0937 28.5651 3.56736 -0.00922458 -0.0154456 -0.00338736
1048 2 -0.846944 12.7665 28.8577 30.1398 -0.00588648 -0.00774368 -0.00862137
1049 2 -0.907077 14.1737 26.6771 30.3448 -0.00597941 0.0129196 -0.00688688
1050 2 -0.971901 15.7899 30.4191 3.31745 -0.00677461 0.0153031 0.00121115
1051 2 -0.889004 15.8703 28.4425 5.25127 0.00767376 0.00275329 0.00570454
1052 2 -0.749543 11.0353 24.4959 10.5161 -0.0146932 0.0178251 0.00399782
1053 2 -0.939344 10.9838 26.6061 12.3492 -0.000869312 0.00606488 0.00905106
1054 2 -0.756931 12.815 24.8793 12.124 0.00139332 0.0138961 -0.00644834
1055 2 -0.831455 12.3906 26.6029 10.2659 -0.00903327 0.0028243 0.00359768
1056 2 -0.718629 11.6473 27.9432 14.4155 -0.0154298 0.00879368 -0.00711075
1057 2 -0.666278 13.2874 28.6064 16.5262 -0.00154496 0.00214184 0.00491927
1058 2 -0.673544 14.0665 26.3888 14.4144 0.00754291 0.00486457 -0.00162939
1059 2 -0.674636 14.9277 27.0287 16.6523 0.00570006 -0.00679997 -0.0065535
1060 2 -0.726109 16.7105 26.2497 14.6549 -0.00753778 0.00289535 0.00601034
1061 2 -0.716786 15.5656 24.6991 16.0985 -0.00121924 -0.011733 -0.00207684
1062 2 -0.738281 14.0066 28.2621 10.9283 0.00576189 0.00729056 0.0170596
1063 2 -0.711674 15.2701 4.15132 11.5776 -0.00664112 0.00202216 0.00664457
1064 2 -0.726032 15.9137 28.0752 12.9773 0.0189934 -0.0113922 0.0133933
1065 2 -0.961292 10.6179 24.7951 17.8488 -0.00633403 0.0156856 -0.000233649
1066 2 -0.861541 10.5351 26.7961 19.5347 -0.00484786 -0.00967307 -0.00392019
1067 2 -0.805749 12.2519 25.0635 19.9109 0.00263905 -0.000527751 -0.000586752
1068 2 -0.907495 12.6583 26.4317 18.1253 -0.0128734 -0.00420312 0.00493104
1069 2 -0.845511 10.6849 28.4908 21.1591 0.00450867 0.00711209 -0.00157958
1070 2 -0.826183 12.2342 28.4497 23.1225 -0.00375671 0.000405748 0.0107905
1071 2 -0.902857 14.2441 25.0989 21.2551 -0.0120332 -0.00763222 0.00854435
1072 2 -0.793056 14.044 26.4739 22.9975 -0.00324133 0.0117398 0.0082704
1073 2 -0.959837 16.341 26.5896 21.5816 -0.00165739 -0.0140928 0.00518927
1074 2 -0.944347 16.0701 24.8091 23.0125 0.0044295 -0.000383622 -0.0032577
1075 2 -0.755607 14.5198 28.3052 18.5944 0.0054835 0.00164729 -0.00256742
1076 2 -0.798234 15.8623 29.9454 17.7997 0.00504407 -0.0178115 0.00244453
1077 2 -0.85007 16.4951 28.6106 19.8476 -0.00140253 -0.0138774 0.00287083
1078 2 -0.701396 11.3241 25.2072 25.0952 0.00601091 -0.00794871 -0.0101794
1079 2 -0.735955 10.6755 26.8776 26.732 -0.0150128 0.00309598 0.00702977
1080 2 -0.926678 12.5281 25.2014 27.0789 0.00952509 0.00626502 0.0130006
1081 2 -0.746422 12.8059 27.2399 25.2507 0.00446566 0.00054731 -0.00166328
1082 2 -0.719635 11.0585 28.4261 28.4745 0.00107585 -0.0109404 -0.00900751
1083 2 -0.854132 14.1384 25.1217 28.6731 0.00416474 -0.00741863 0.00780466
1084 2 -0.822127 15.9802 24.8233 30.1634 0.00869566 -0.00754405 -5.17396e-05
1085 2 -0.839311 16.0831 27.0447 28.7764 0.0074235 0.00704192 -0.00244649
1086 2 -0.665104 14.6524 28.5699 24.7734 0.000210432 -0.00429078 0.0109523
1087 2 -0.86649 16.2119 30.6147 25.0937 -0.0023474 -0.00425711 0.00866188
1088 2 -0.844753 15.932 28.3742 26.7154 -0.00576767 -0.000503453 -0.00110076
1089 2 -0.846262 17.8115 3.68174 3.30495 0.000598398 0.00795504 0.00499652
1090 2 -0.936817 17.8829 30.3005 30.2758 -0.00489032 -0.00425341 -0.0004121
1091 2 -0.80282 17.4306 5.51622 5.09201 0.00263646 0.0192573 0.00388672
1092 2 -0.662257 19.1474 3.75996 5.23168 -0.00541164 -0.0161033 -0.000898245
1093 2 -0.873865 19.6581 5.70225 3.62687 0.0193507 -0.00797906 -0.000224643
1094 2 -0.775225 17.7873 7.20918 6.84005 0.00667521 -0.00199894 0.00763639
1095 2 -0.856902 19.5115 6.82846 8.68966 0.00303506 -0.00562772 0.000877537
1096 2 -0.805823 19.5499 8.67116 6.86699 -0.0130005 0.00781324 -0.00679503
1097 2 -0.894881 17.9445 9.02405 8.86145 0.00998844 0.00170138 -0.00154662
1098 2 -0.669328 20.9798 3.46675 7.18002 -0.00478622 -0.00374042 0.00108646
1099 2 -0.799044 19.6423 29.8875 6.97028 0.00761643 -0.00564495 -0.00692243
1100 2 -0.765017 21.4551 30.6214 5.04275 -0.00468415 0.00635246 0.00136734
1101 2 -0.863204 21.5301 5.35736 9.02335 0.00693715 0.00501272 0.00154067
1102 2 -0.891041 22.871 5.13845 7.07348 -0.00501069 -0.00688838 0.00133665
1103 2 -0.798176 23.2523 3.08061 8.40588 0.00660642 -0.00120824 -0.00694508
1104 2 -0.854115 21.4889 7.31239 3.15961 0.0130449 -0.0138765 -0.00767093
1105 2 -0.834989 19.2694 7.03736 30.0853 -0.0117116 -0.0264044 0.00875408
1106 2 -0.872114 21.4212 5.37138 30.218 0.00456306 -0.00264981 -0.00765572
1107 2 -0.810923 21.5118 8.75936 5.06714 0.0114385 -0.00299898 0.0149921
1108 2 -1.00698 23.047 6.84939 5.09897 0.00333463 0.00200905 -0.00012176
1109 2 -0.796268 23.4948 8.85076 3.49272 0.0047615 -0.00411492 -0.0166704
1110 2 -0.765711 17.5705 3.88158 11.0342 0.00105767 0.00519358 -0.00355907
1111 2 -0.757377 17.8753 30.3032 8.61025 -0.00311551 -0.00868559 -0.00691418
1112 2 -0.853185 18.2815 5.66303 12.5428 -0.0144071 -0.00199402 0.00413187
1113 2 -0.870395 19.8938 3.50721 12.3759 -0.00479909 -0.0101027 -0.000233351
1114 2 -0.751216 19.3694 5.3106 10.3172 -0.00713903 -0.00744893 -0.00500517
1115 2 -0.868933 17.8894 6.90664 14.5743 0.0122724 0.00139738 -0.000407405
1116 2 -0.831637 19.4828 7.16039 16.5463 0.00172457 0.00623127 0.00762088
1117 2 -0.788608 19.5512 8.72417 14.5314 -0.0151949 -0.00856892 0.000190603
1118 2 -0.86514 17.7279 8.85789 16.293 0.0051409 -0.000352716 0.0012846
1119 2 -0.863378 21.5445 3.59605 14.248 -0.0017575 -0.00674678 0.0137242
1120 2 -0.907223 19.3269 30.3614 14.2657 0.000182857 0.0066017 -0.0140744
1121 2 -0.852519 21.634 30.2448 12.8029 0.00477657 0.00459234 0.00366046
1122 2 -0.933964 21.1613 5.05561 16.0304 -0.000461761 -0.00941235 0.00153115
1123 2 -0.855375 23.1402 5.33411 14.4369 0.012335 0.000367434 0.00640463
1124 2 -0.856437 23.1205 3.77566 16.3519 -0.0130189 -0.00730848 0.00405694
1125 2 -0.875698 21.1589 7.06012 10.8032 -0.00351821 -0.0042971 -0.000270474
1126 2 -0.882896 21.3558 8.61319 12.8431 0.00496759 -0.00149198 -0.0211021
1127 2 -0.830827 23.2278 7.02399 12.3065 -0.0037892 -0.0150313 0.000881159
1128 2 -0.783505 23.0078 8.96481 10.9108 -0.00723729 -0.00727566 -0.0103615
1129 2 -0.833148 17.9365 3.07417 17.7817 0.00492669 0.0107851 0.0102021
1130 2 -0.875506 17.6058 29.8866 15.9792 -0.0018822 -0.00153144 -0.00714401
1131 2 -0.870772 17.5432 5.11021 19.4232 -0.00481089 0.0022495 0.00271741
1132 2 -0.778231 19.2432 3.65467 20.2121 0.00539333 -0.00686641 -0.0128192
1133 2 -0.752258 19.2441 4.93605 17.7461 -0.00334861 -0.00118792 -0.00333369
1134 2 -0.826014 17.532 6.79109 21.5708 -0.00936649 -0.00578436 -0.00653188
1135 2 -0.900503 19.7085 7.01422 22.774 0.0115844 -0.00979689 -0.00282901
1136 2 -0.743011 18.9349 8.8394 20.9316 0.00500018 -0.00594763 -0.00451923
1137 2 -0.898328 17.6551 8.59508 23.1572 -0.00573865 -0.00390394 0.00260375
1138 2 -0.914639 21.3172 3.57317 21.3146 -0.000471331 -0.00107829 -0.0119803
1139 2 -0.84205 19.8502 30.0525 21.6665 -0.00820295 0.000402086 0.00448409
1140 2 -0.74673 21.1438 30.1962 19.5026 0.00217314 -0.000429858 -0.0076881
1141 2 -0.751014 21.5872 5.21935 23.5837 -0.00215443 -0.00082285 0.00411902
1142 2 -0.829864 22.9951 5.26952 21.712 -0.0169813 -0.00339613 0.0103165
1143 2 -0.829678 22.8798 3.4597 23.4628 -0.00824672 0.00523231 0.00361687
1144 2 -0.766615 21.2665 6.75513 17.8858 -0.0050083 0.00485154 -0.00476317
1145 2 -0.679736 21.0793 8.67823 19.8365 -0.000890149 -0.00565046 -0.0100841
1146 2 -0.685144 22.7532 6.92357 19.7423 -0.0157498 0.0042028 0.0115687
1147 2 -0.610456 23.3211 8.90411 17.4457 0.00018925 -0.00331704 0.004521
1148 2 -0.899001 17.9999 3.9945 24.9903 -0.00807779 0.00545815 -0.00186856
1149 2 -0.891095 17.8034 30.2954 23.3632 0.00318753 -0.00195241 -0.00393593
1150 2 -0.770333 17.5352 5.0977 26.9579 -0.00658809 -0.00686456 -0.00669318
1151 2 -0.855277 19.527 3.54443 26.7736 0.000138813 -0.00598304 -0.00547003
1152 2 -0.819663 19.7905 5.76133 25.1987 -0.000667226 0.0236123 0.0171253
1153 2 -0.767389 17.4396 7.33666 28.4785 0.0050788 0.000178574 0.00413187
1154 2 -0.802092 18.1024 9.32303 29.9755 -0.000936246 0.00108289 0.00939114
1155 2 -0.861037 19.94 8.67049 28.3452 -0.0137496 0.0057057 0.0100752
1156 2 -0.864652 21.1596 3.26539 28.7511 0.00434201 0.00839391 0.00335175
1157 2 -0.831065 19.6582 29.9684 28.257 -0.00698758 0.00612865 -0.0016966
1158 2 -0.946639 21.3006 30.3056 26.3867 0.00221523 -0.00980295 -0.0120032
1159 2 -0.816334 23.2237 3.75534 30.2538 -0.0148992 0.00477226 -0.0102346
1160 2 -0.98426 22.8372 5.2316 28.2793 0.00984495 -0.00149381 -0.000208124
1161 2 -0.823448 21.5009 7.33522 24.5632 0.0019916 -0.0052511 -0.00097776
1162 2 -0.873283 21.4831 9.12468 26.6445 -0.0110856 0.00139971 -0.00431939
1163 2 -0.892463 23.1176 7.18227 26.7733 -0.00898274 -0.00679329 -0.000975133
1164 2 -0.788731 23.2786 8.83797 25.0453 0.00403778 -0.00373726 0.00315262
1165 2 -0.975686 17.5115 10.7843 3.5357 -0.0075069 0.00519983 0.0049615
1166 2 -0.888849 17.857 12.4134 5.54172 -0.0110921 -0.00651746 -0.00810096
1167 2 -0.770378 19.4587 10.3409 4.91768 -0.000205203 0.010074 0.00425454
1168 2 -0.89351 19.4901 12.267 3.57499 0.00364027 0.0060174 -0.00177791
1169 2 -0.878282 17.8248 13.8747 7.74604 0.00730268 -0.00216338 -0.0077607
1170 2 -0.842846 19.7316 14.3611 9.12385 0.00510758 -0.00398296 -0.00475793
1171 2 -0.800652 19.1891 16.093 7.43294 0.0025348 0.00208245 0.00218328
1172 2 -0.857314 17.7996 15.7191 9.49652 -0.00754442 -0.00558169 0.00397048
1173 2 -0.770824 21.2247 10.7357 6.798 0.000409248 -0.000865666 0.0145057
1174 2 -0.689716 21.5328 12.6321 8.82337 -0.00346232 0.0139803 0.0109836
1175 2 -0.845263 23.251 12.2877 7.16066 -0.00279845 0.0107477 0.00409302
1176 2 -0.783625 23.2143 10.3318 8.82807 -0.00605947 0.00382223 0.00634086
1177 2 -0.84396 21.0918 13.9921 4.0345 -0.00476302 0.00368593 0.000884026
1178 2 -0.835995 19.398 14.5948 30.6725 0.00604282 0.00138289 0.00599202
1179 2 -0.822014 21.2128 12.4678 30.3785 -0.0111466 -0.00411091 -0.0017941
1180 2 -0.910903 20.9517 15.6835 5.58998 -0.00188244 -0.000791369 -0.00296955
1181 2 -0.879869 23.2524 14.2037 5.35653 0.00173356 0.0201938 -0.0117348
1182 2 -0.867616 22.5883 15.82 3.56257 -0.000260182 -0.00141094 -0.00625736
1183 2 -0.806776 17.5889 10.9283 10.5922 -0.00501695 -0.00843762 0.00418871
1184 2 -0.695166 17.7212 12.3986 12.6592 -0.00795321 -0.0151218 -0.00752547
1185 2 -0.744892 19.574 10.6507 12.5692 0.0139517 0.0049777 -0.00120388
1186 2 -0.835154 19.6258 12.4257 10.8352 -0.0152559 -0.0046496 0.0017028
1187 2 -0.828302 17.7767 14.4683 14.2626 -0.00539093 0.00421552 -0.00419499
1188 2 -0.822848 19.5024 14.3922 15.8341 0.0065014 -0.00446305 0.00951805
1189 2 -0.971801 19.6975 16.0855 13.8816 0.00477283 -0.000255488 0.0150643
1190 2 -0.796014 18.1952 16.317 16.0174 -0.0062124 -0.00344749 0.0131065
1191 2 -0.829669 21.0748 10.8854 14.2709 -0.00629917 0.00846189 -0.00208272
1192 2 -0.864568 21.569 12.9114 15.7224 -0.00371276 0.00607737 0.0148958
1193 2 -0.851002 23.2339 12.3299 13.9971 0.00937811 -0.00300509 0.0161518
1194 2 -0.733767 23.0168 10.5497 15.7856 0.0084066 -0.000875836 -0.0049278
1195 2 -0.773197 21.4836 13.9981 10.8456 0.0163226 0.00679548 -0.00290091
1196 2 -0.774479 21.5509 16.4563 12.233 -0.00178365 -0.00782993 -0.00367227
1197 2 -0.812358 23.3696 14.6675 12.6875 -0.00425555 -0.019754 -0.00438788
1198 2 -0.696214 23.369 15.8496 10.4899 0.00386646 -0.00455177 0.00273742
1199 2 -0.851525 17.4548 11.0903 17.4821 -0.00599857 0.00694281 0.00029974
1200 2 -0.919421 18.017 12.7353 19.1589 0.00445717 0.00316046 -0.0159387
1201 2 -0.839993 19.5983 10.588 19.1699 -0.00529737 0.00705634 -3.08022e-06
1202 2 -0.753392 19.6346 12.3367 17.1703 0.00803655 0.00500132 0.00865646
1203 2 -0.908345 17.5268 14.1507 21.3054 0.00812151 -0.00526809 0.00543038
1204 2 -0.788132 19.5279 14.2257 23.2058 -0.000439084 -0.00249737 0.00327718
1205 2 -0.837324 19.4794 15.9093 21.4027 0.00155644 -0.0155718 0.00243259
1206 2 -0.749367 17.8968 15.9285 23.4288 0.00592053 0.00110055 0.00761805
1207 2 -0.942329 20.8017 10.6642 21.4297 -0.00989371 -0.00782538 -0.00183251
1208 2 -0.99397 21.2741 12.5196 22.9679 0.00771134 -0.0154247 -0.000587481
1209 2 -0.795912 23.129 12.1798 21.2927 0.0109441 -0.0127756 -0.0076627
1210 2 -0.943381 22.7041 10.5444 22.9343 -0.00528217 0.00801388 0.00193537
1211 2 -0.804439 21.0831 14.522 17.6865 -7.3244e-05 0.0163692 -0.000500744
1212 2 -0.796196 21.2718 15.9002 20.0374 -0.0108891 0.0153843 -0.0101513
1213 2 -0.814375 22.8642 13.9074 19.5957 -0.00616694 -0.0176291 0.0157836
1214 2 -0.777863 23.2031 16.0346 18.3139 -0.0094813 -0.000320295 -0.00836012
1215 2 -0.833589 17.6885 10.694 24.8688 -0.0106805 -0.00362532 -0.00716953
1216 2 -0.881001 17.5113 12.2141 27.0553 0.00315564 -0.01738 0.00611803
1217 2 -0.859082 19.6182 10.8543 26.6763 -0.00118144 -0.0130286 -0.00700976
1218 2 -0.768331 19.3599 12.6834 24.916 -0.00148335 0.000616619 -0.00343958
1219 2 -0.925269 17.8342 14.2899 28.6062 -0.00342354 0.00195308 -0.00904187
1220 2 -0.742146 17.6006 16.2118 29.9564 0.00341175 -0.00464558 -0.00331373
1221 2 -0.778011 19.5716 16.3868 28.5453 0.00548926 -0.0134431 0.00110096
1222 2 -0.922758 21.4544 10.6501 28.5805 -0.0012654 -0.00397767 0.00432015
1223 2 -0.819921 23.2634 10.8068 30.4948 0.0054847 0.0143179 -0.00788252
1224 2 -0.916807 23.0065 12.3955 28.5495 0.00146853 0.00225999 0.00379327
1225 2 -0.892043 21.2274 14.0388 25.1039 -0.00315278 0.0117514 -6.418e-05
1226 2 -0.864171 21.5496 16.1809 26.5394 -0.00488168 0.00435216 0.0068445
1227 2 -0.886763 22.9309 14.4477 27.2059 -0.00176678 -0.00573819 0.00169376
1228 2 -0.823426 23.4671 15.5254 24.8515 0.00174927 -0.00328036 -0.0114737
1229 2 -0.791154 17.8551 18.1334 3.52522 -0.00545805 0.00763234 0.00147401
1230 2 -0.66239 17.7902 19.6883 5.29218 0.00474309 0.00741959 -0.00262513
1231 2 -0.822026 19.5191 18.0003 5.62156 0.00985524 0.00402797 -0.00774306
1232 2 -0.888193 20.031 19.7665 3.76813 0.0171858 0.00639143 -0.0164096
1233 2 -0.772539 17.848 21.8109 7.03554 -0.0101493 -0.019535 -0.00561597
1234 2 -0.930062 19.3916 21.2513 8.74933 0.00834732 -0.0110956 0.00450915
1235 2 -0.855743 19.9968 23.0781 7.26193 -0.00948831 -0.00530963 0.00270509
1236 2 -0.852109 18.017 23.7057 8.79602 -0.00178867 0.011103 -0.00613659
1237 2 -0.903472 21.263 17.5371 7.22802 -0.00382279 -0.00146186 -0.00466066
1238 2 -0.926113 21.1808 19.6628 8.69553 0.00918745 0.00709197 -0.00429383
1239 2 -0.78221 23.0569 19.0511 7.16454 -0.000460647 -0.0100841 -0.0014733
1240 2 -0.806325 23.0793 17.9383 9.21455 0.00193293 0.00522698 0.00138073
1241 2 -0.849368 21.4768 21.5355 3.30511 0.00990673 0.000893379 0.00659031
1242 2 -0.858224 19.3944 21.0942 30.2321 0.0105586 -0.00165448 -0.00232586
1243 2 -0.889464 21.5869 19.6073 30.123 0.00113046 -0.00493114 0.00355533
1244 2 -0.735319 21.6363 23.437 5.27722 -0.0158984 0.00778744 -0.00377857
1245 2 -0.650583 22.7972 20.9829 5.0973 -0.000218027 0.00289387 0.00034028
1246 2 -0.875237 23.4246 23.0753 3.56903 0.00442949 0.00520531 0.00564665
1247 2 -0.863429 17.342 17.9905 10.6894 0.00272738 -0.00833538 -0.00760255
1248 2 -0.765689 17.6795 19.6201 12.7172 0.0136116 0.0124002 0.00265674
1249 2 -0.84476 19.5725 18.0149 12.3116 -0.00376553 -0.00714894 0.00556016
1250 2 -0.813501 19.3312 19.684 10.535 0.00436116 -0.00772593 -0.00805513
1251 2 -0.813592 17.585 21.4312 14.7164 -0.00770713 -0.00621481 0.00787485
1252 2 -0.91316 19.641 21.4632 16.0526 0.00844063 0.0119729 -0.00850073
1253 2 -0.877231 19.3355 22.9853 14.3724 0.00982244 0.00249583 0.0013175
1254 2 -0.945954 17.7599 22.9883 16.5307 0.0100634 0.0156787 -0.00407619
1255 2 -0.827625 21.3082 17.8859 14.3545 -0.0105836 0.00694509 -0.0138942
1256 2 -0.956129 21.4142 19.6126 16.1962 -0.00120786 0.0156842 -0.0121647
1257 2 -0.964473 23.2841 19.5267 14.6815 -0.00714569 0.0215046 0.0112274
1258 2 -0.864294 22.9355 17.6745 16.292 0.00759288 0.00797521 0.0172412
1259 2 -0.781554 21.02 21.4611 10.5161 0.00201995 0.00163267 0.000481115
1260 2 -0.73953 21.7655 23.0408 12.8889 0.00187266 -0.00130563 0.00509354
1261 2 -0.801996 23.5606 21.1554 12.6425 -0.000330947 0.0114275 0.00142674
1262 2 -0.694002 23.2528 22.8807 10.8005 0.00420001 -0.00313886 0.00976546
1263 2 -0.870349 17.6605 17.6066 17.8881 0.00886591 0.0121102 0.00227746
1264 2 -0.860412 17.8983 19.6198 19.698 0.00581415 0.00202367 -0.00593636
1265 2 -0.889566 19.4191 17.6252 19.7279 0.00736845 0.00665069 -0.00381388
1266 2 -0.889778 19.1031 19.3465 17.5585 -0.0114602 0.00570347 -0.00351317
1267 2 -0.814816 17.488 21.1288 21.4874 -0.000309588 -0.000149222 0.000603472
1268 2 -0.872145 19.5015 21.5824 23.1066 -0.00824987 -0.0106215 0.00193406
1269 2 -0.866149 19.2071 23.0751 21.1263 -0.0139313 0.00994535 -0.00689806
1270 2 -0.87132 17.2987 22.9241 23.1247 0.0108517 0.00318956 -0.0060065
1271 2 -0.835857 20.8933 17.7604 21.9964 0.0106736 0.000574553 0.00595091
1272 2 -0.852409 21.1728 19.6619 23.1133 -0.00631605 -0.00675356 -0.000833307
1273 2 -0.846128 23.159 18.8284 21.5836 -0.00798272 0.0152866 0.00949769
1274 2 -0.784209 22.7345 17.4983 23.6091 -0.015512 -0.0178529 0.000348357
1275 2 -0.799309 21.1025 20.8419 17.9957 -0.00564779 -0.00298909 0.00357959
1276 2 -0.744719 21.3046 22.9293 19.648 -0.00256366 -0.00221875 -0.00297447
1277 2 -0.81091 22.8836 21.1077 20.2652 -0.00393449 -0.00175928 0.0108555
1278 2 -0.652309 23.0902 22.719 18.2026 -0.00324782 -0.00383038 -0.00780905
1279 2 -0.85566 17.6657 18.0355 24.8085 0.0105132 -0.00206852 -0.0086328
1280 2 -0.798659 17.79 19.7645 26.6424 -0.000977478 0.00400477 0.00341213
1281 2 -0.818883 19.8356 18.0626 26.6831 0.00641017 -0.000959504 0.00814763
1282 2 -0.820408 19.4419 19.54 24.8671 0.00306693 -0.0103669 -0.00719413
1283 2 -0.84886 17.6221 21.6861 28.3271 0.00260399 -0.00109446 -0.011571
1284 2 -0.81979 17.9544 23.1595 30.4028 -0.00213915 -0.00243944 -0.0071823
1285 2 -0.79055 19.7636 22.8291 28.7361 0.00928982 -0.00239318 0.00240112
1286 2 -0.823025 21.4766 17.842 28.4485 0.000228353 -0.00644374 -0.00565623
1287 2 -0.838307 23.2693 17.4841 29.9917 0.0116818 -0.0127614 -0.00368108
1288 2 -0.800833 23.3848 19.3814 28.3989 -0.00134701 -0.00827048 0.0182514
1289 2 -0.902186 21.0131 21.3182 25.0464 0.00440537 -0.00868893 0.00266401
1290 2 -0.976512 21.2778 23.2896 26.8147 0.01997 0.00463295 0.00507686
1291 2 -0.773663 22.5166 21.1022 26.7474 0.00863312 -0.00792394 -0.010107
1292 2 -0.842224 23.0184 22.9991 25.011 0.00481888 -0.00178924 0.000758857
1293 2 -0.698854 17.8597 25.5163 3.31083 0.0125871 0.000844533 -0.00734571
1294 2 -0.907913 17.7075 26.8861 5.35985 0.000206417 0.00754546 -0.0102852
1295 2 -0.746483 19.4831 24.9178 5.25807 0.000693783 -0.00239109 -0.00735685
1296 2 -0.798791 20.0381 26.4242 3.70489 -0.00421853 -0.000655047 0.000938943
1297 2 -0.905488 17.4189 28.3539 7.27615 0.011527 0.00277778 -0.00870579
1298 2 -0.977157 19.4206 28.3898 8.88417 0.00856878 0.00490985 0.00580327
1299 2 -0.854107 21.1304 25.3724 7.12867 0.0114515 -0.00596434 -0.00309024
1300 2 -0.895724 21.5469 27.0273 8.90301 0.00245426 -0.00735651 -0.00604438
1301 2 -0.866413 23.2511 26.7229 7.30807 -0.00982913 0.0162189 -0.000240638
1302 2 -0.890407 22.6911 24.8381 9.08401 -0.00711191 -0.00140171 0.0110563
1303 2 -0.810644 21.3071 28.6563 3.86312 0.0123835 -0.00164051 0.00332191
1304 2 -0.89538 19.6908 28.5676 30.4663 0.0107947 -0.00282731 -0.00217786
1305 2 -0.858591 21.6166 26.9553 30.2926 0.0131324 -0.00448416 -0.00241776
1306 2 -0.742473 23.2497 30.1065 3.1222 0.00481217 -0.00652203 -0.0131068
1307 2 -0.890952 23.4274 28.6594 5.24027 0.000887541 0.0195052 0.00818683
1308 2 -0.828657 17.3999 25.0985 10.6475 0.00557738 -0.00337404 0.00812825
1309 2 -0.829232 17.9903 26.4241 12.5669 -0.00146302 0.015425 0.00516436
1310 2 -0.885531 19.5042 24.4705 12.1503 -0.0116902 -0.0116469 -0.00507131
1311 2 -0.932482 19.5379 26.6146 10.7315 0.0143479 0.00895433 0.00214651
1312 2 -0.962225 18.105 28.2083 14.1988 0.0103042 0.0209484 -0.0077322
1313 2 -0.875125 19.8811 28.735 16.098 -0.0130245 -0.00988301 0.0128463
1314 2 -0.733523 21.0964 24.8261 14.2601 0.0018137 0.000785068 -0.00761418
1315 2 -0.837159 21.432 26.9599 15.6957 0.00403021 -0.0179758 -0.00294439
1316 2 -0.719498 23.4659 26.3855 13.9369 -0.00514045 -0.000967434 -4.86306e-05
1317 2 -0.680006 22.9734 24.8816 16.0944 -0.0173186 -0.00379611 0.000169059
1318 2 -0.89665 21.1707 28.5906 10.706 -0.0148541 -0.00788538 -0.00833392
1319 2 -0.807431 22.7701 30.1951 10.3212 0.0101377 -0.00233348 -0.00569519
1320 2 -0.854146 23.2688 28.46 12.07 -0.00459948 0.00993136 0.000459608
1321 2 -0.729129 17.4838 25.2288 17.8827 -0.00186651 0.00390388 -0.00628019
1322 2 -0.776941 18.3456 26.7779 19.7338 -0.00206068 0.0017219 0.013214
1323 2 -0.788543 19.5485 24.7698 19.0816 0.00346153 0.00627133 0.0117096
1324 2 -0.958359 19.7196 26.6269 17.4577 -0.00298055 -0.00315132 0.00641525
1325 2 -0.757491 18.0784 28.2934 21.5855 0.0203504 0.0052411 -0.00519616
1326 2 -0.747891 19.4659 28.2918 23.4382 0.0160898 0.0119119 -0.00346031
1327 2 -0.655685 21.1195 24.751 21.2451 0.0132296 -0.00868677 -0.0218019
1328 2 -0.740408 21.1943 26.7096 23.0106 -0.00574766 -0.00222098 -0.00360083
1329 2 -0.765046 23.2711 26.3725 21.194 0.00348697 -0.0103825 -0.000604046
1330 2 -0.644482 23.1093 24.761 23.1805 0.00211547 -0.00658572 0.00756961
1331 2 -0.861218 21.7437 27.9937 17.8452 -2.22319e-05 0.0176677 -0.0129269
1332 2 -0.643672 23.3103 30.3098 18.2163 0.00523043 0.0047134 0.00353442
1333 2 -0.72846 23.4582 28.4966 19.6029 -0.00421309 0.00128151 0.00320798
1334 2 -0.858405 17.9192 24.6495 24.7905 -0.000945942 0.0133568 -0.0178768
1335 2 -0.80051 17.5149 26.5845 26.5994 -0.0122053 -0.00103386 0.00200594
1336 2 -0.887573 19.2187 24.6039 27.1845 -0.00664503 0.0141813 -0.0061932
1337 2 -0.770315 19.6895 26.6061 25.5122 0.0022988 0.000467575 0.00188263
1338 2 -0.877187 17.8717 28.4727 28.6719 -0.00833333 0.0097478 -0.0103768
1339 2 -0.900445 20.9819 24.9645 28.8208 -0.00571019 0.000263969 0.00286344
1340 2 -0.917005 23.1483 25.1352 30.4394 -0.0169082 -0.00685806 0.000167163
1341 2 -0.902095 23.1595 26.4677 28.4629 -0.00192576 -0.00612662 -0.0113049
1342 2 -0.918548 21.4549 28.4181 24.7227 -0.0032597 -0.00755329 0.00414904
1343 2 -0.852758 23.451 30.0453 25.1338 0.0164045 -0.0107924 0.00108043
1344 2 -0.959983 22.8068 28.2433 26.7395 -0.000862264 -0.0146579 0.0153961
1345 2 -0.765348 24.9528 3.78112 3.39593 -0.00196059 -0.00645199 0.0108802
1346 2 -0.717869 25.2084 30.1822 30.3647 -0.0074956 -0.00966722 -0.00143819
1347 2 -0.967774 24.7945 5.24144 5.6235 0.0148417 0.0120338 -0.0048434
1348 2 -0.863521 26.5643 3.36349 5.2507 0.00450639 -0.0193861 -0.000186444
1349 2 -0.985487 26.5724 5.46901 3.68449 -0.00446832 0.00181055 0.00210524
1350 2 -0.8626 24.4635 6.98259 7.16996 0.0134309 0.00523471 0.00937727
1351 2 -0.824067 26.1973 6.33792 8.93575 0.0148872 -0.0125643 -0.00201718
1352 2 -0.826095 26.6818 8.35685 7.49623 0.00314124 -0.00204701 -0.00113845
1353 2 -0.801436 24.609 8.32934 9.10551 -0.00426891 -0.00228657 0.00341464
1354 2 -0.725672 28.5643 3.47438 6.6594 -0.000387609 0.00982439 -0.00703426
1355 2 -0.870353 26.8351 30.0643 7.25033 0.00649479 0.000327603 0.0084006
1356 2 -0.738816 28.8013 30.0056 5.04453 0.00943339 -0.00836401 0.00485289
1357 2 -0.705632 28.1546 4.70069 9.0354 -0.00286069 0.00805808 0.00726326
1358 2 -0.861986 28.5867 6.90849 3.08939 0.00239076 -0.0107895 -0.0130978
1359 2 -0.895897 26.9007 7.10667 30.0237 -0.010549 0.0044094 -0.00667286
1360 2 -0.83671 28.3194 5.0961 30.2084 0.00773847 0.00116102 0.0019001
1361 2 -0.786831 28.5133 8.435 4.9743 0.00265193 0.0219269 0.00506931
1362 2 -0.933964 24.9235 3.01185 10.5749 0.00680207 -0.00573217 0.00122191
1363 2 -0.865691 24.7374 29.8596 8.57145 0.00708198 0.0160627 0.0141846
1364 2 -0.883462 24.4508 4.69297 12.2966 -0.00254037 -0.0043073 0.0128401
1365 2 -0.887333 26.3152 2.95891 12.6787 -0.00583198 -0.000665237 0.00158019
1366 2 -0.745489 26.5255 4.96176 11.0319 0.0138766 -0.0184708 0.00986502
1367 2 -0.836241 25.1203 6.75377 13.7548 -0.00733453 0.0077988 0.00611241
1368 2 -0.85342 26.7115 6.78925 15.9094 -0.0062401 -0.00754263 -0.00634827
1369 2 -0.925441 27.1359 8.5286 14.1255 0.00400202 -0.0174933 0.0031469
1370 2 -0.789698 25.0113 8.33037 15.5208 0.00239828 0.00776039 -0.00772557
1371 2 -0.806597 28.2812 4.12048 14.1561 0.00139816 -0.00732167 -0.00836304
1372 2 -0.710592 26.9328 30.2709 14.6401 -0.00719548 0.00252669 -0.000689012
1373 2 -0.884464 28.384 30.1504 12.7965 0.0034236 -0.00264628 -0.0111882
1374 2 -0.860735 28.3627 5.19592 16.227 0.00243023 0.000129437 -0.0128076
1375 2 -0.828224 28.1618 6.82105 10.7356 -0.00230701 -0.00321581 -0.00660697
1376 2 -0.743759 28.5647 9.20118 12.0979 0.00667613 0.00460646 -0.0071504
1377 2 -0.680996 25.295 3.98769 17.5611 -0.00974603 0.0132824 0.00695475
1378 2 -0.831325 24.9697 30.2866 16.0364 -0.00884454 -0.0136088 0.00462725
1379 2 -0.803095 24.7416 5.33643 19.5435 0.0161736 -0.000733631 -0.0132919
1380 2 -0.921116 26.6307 3.41505 19.5954 0.012094 0.00628609 -0.00443923
1381 2 -0.827969 26.9494 5.6949 18.2882 0.00758611 0.0016593 -0.00697464
1382 2 -0.799928 24.5283 7.17605 21.5451 0.00491112 -0.00240649 0.00372279
1383 2 -0.802792 26.1428 7.08536 23.3237 0.00841592 -0.00139082 -0.000118271
1384 2 -0.834993 26.7471 8.84079 21.275 0.0142551 0.00189551 -0.0011032
1385 2 -0.829185 24.8518 9.14527 22.7851 0.0171553 0.00933029 -0.00362063
1386 2 -0.97732 28.2778 3.72327 21.2347 0.0144644 0.0105915 -0.0113612
1387 2 -0.957755 26.5194 30.2082 21.266 0.00501109 -0.000334283 -0.0110421
1388 2 -0.843536 28.688 30.2684 19.7956 -0.00445776 -0.000450999 0.0119172
1389 2 -0.899292 28.0589 5.42377 22.9196 0.0110996 0.00305168 0.00435223
1390 2 -0.921742 28.5922 7.44714 17.7079 0.00585586 0.00736135 0.00940588
1391 2 -0.920472 28.7406 9.19644 19.6958 0.0129659 0.00131467 0.00085254
1392 2 -0.816047 24.8883 3.49833 25.1044 0.00205754 -0.00695325 -0.00780903
1393 2 -0.922292 24.9747 30.4173 23.0301 0.00948492 -0.00295322 0.0172689
1394 2 -0.900864 24.8355 5.36222 26.7151 -0.00194657 -0.00337899 0.000773622
1395 2 -0.736015 26.6291 3.95877 26.8598 0.0151185 -0.0110765 0.00976808
1396 2 -0.823272 26.9268 5.47757 25.0618 -0.00762022 -0.00583595 0.0111791
1397 2 -0.861393 24.9065 6.80081 28.6341 -0.00453762 -0.0153537 0.000192376
1398 2 -0.854307 24.9999 8.65413 29.9596 -0.00297814 0.00644724 0.0021414
1399 2 -0.930322 26.3184 8.93437 27.9901 0.00352278 0.0031629 6.2404e-05
1400 2 -0.712083 28.8751 3.94271 28.1264 -0.0082061 0.00447219 0.0082118
1401 2 -0.800085 27.1899 30.2733 28.5068 -0.0016572 0.00246084 0.000169134
1402 2 -0.691354 28.1953 30.2552 26.344 0.00184243 -0.00119333 0.00352727
1403 2 -0.807657 28.5571 7.4067 24.4442 0.00757816 -0.00108979 0.00893296
1404 2 -0.933294 28.0299 9.18044 26.3319 -0.016254 -0.000363099 0.00543341
1405 2 -0.879694 25.3525 10.296 3.4618 -0.00665532 0.0133546 0.00556654
1406 2 -0.895868 25.1524 12.2853 5.2748 -0.00815694 -0.0145833 0.0136059
1407 2 -0.825233 26.7788 10.4332 5.32213 0.00125342 0.000135404 -0.00487273
1408 2 -0.917231 27.0174 12.243 3.54783 0.00278066 -0.00913851 -0.00250936
1409 2 -0.824208 25.1641 13.8518 6.93972 -0.00328677 0.00596921 -0.0103492
1410 2 -0.784296 26.4522 14.2435 9.23067 0.00774675 -0.00815288 -0.00475935
1411 2 -0.861632 26.7767 15.7403 7.17267 -0.00480964 0.00571759 0.00429376
1412 2 -0.750625 24.779 16.0147 8.40421 0.00493943 -0.000244026 -0.0124258
1413 2 -0.676743 28.2398 10.024 6.91541 0.001523 -4.95086e-05 0.0140283
1414 2 -0.685391 28.3951 12.7304 8.70642 0.0108053 0.000501603 -0.00623705
1415 2 -0.833414 28.9492 14.002 3.43625 -0.00304715 0.00494261 -0.00113597
1416 2 -0.83035 26.834 14.1612 30.3177 0.0036677 -0.0138896 0.00491906
1417 2 -0.902372 28.4936 12.3984 29.9474 0.0103857 0.0109771 0.00755908
1418 2 -0.860819 28.2786 15.8595 5.12425 -0.0130556 0.00234241 0.00764332
1419 2 -0.774845 24.8326 10.614 10.9641 0.00758857 0.00126116 -0.00413475
1420 2 -0.805677 24.9288 12.5982 12.4317 -0.000268671 -0.000444178 -0.0106185
1421 2 -0.799582 26.5505 10.5784 12.7136 -0.00389254 -0.00463338 -0.00232134
1422 2 -0.853546 26.7862 12.377 10.6823 0.003687 0.00431633 0.00491624
1423 2 -0.871073 24.8367 14.2298 14.4155 0.00302358 -0.00909635 -0.00120209
1424 2 -0.689758 26.4821 14.3311 16.4235 0.000123314 -0.010841 0.00317315
1425 2 -0.770578 26.5433 16.0084 14.0739 -0.0137129 0.00140782 0.00557386
1426 2 -0.86617 24.8639 16.114 16.3294 -0.0165005 0.0132263 0.0148289
1427 2 -0.799598 28.5933 10.7696 14.1825 0.0170927 0.00223565 0.00766063
1428 2 -0.812054 28.7597 12.7973 16.1394 0.000784548 0.00587199 -0.0182007
1429 2 -0.724053 28.7552 14.3919 10.4782 -0.0199079 0.00276457 -0.00639959
1430 2 -0.764737 28.776 16.1494 12.4675 -0.00186524 0.0131822 0.00379946
1431 2 -0.859196 24.8469 10.6382 17.6628 0.00780348 -0.00355994 0.00579203
1432 2 -0.739049 25.0734 12.4315 19.3869 -0.00976091 0.00771287 0.0073356
1433 2 -0.928035 26.5825 10.3616 19.3949 -0.00203625 0.00280177 -0.0032276
1434 2 -0.780962 27.0596 12.2945 17.8683 -0.00929206 -0.00669089 -3.63174e-05
1435 2 -0.763818 24.9115 14.0086 21.2488 0.0061437 -0.0126043 0.0142827
1436 2 -0.812192 26.7547 14.1073 22.5737 -0.0042069 0.00843836 -0.00999028
1437 2 -0.788167 26.3477 15.8926 20.8857 -0.0124184 -0.0044453 0.0062866
1438 2 -0.805953 25.0045 16.1694 22.9339 0.00520806 0.00514063 -0.00644467
1439 2 -0.937367 28.3252 10.7181 21.5606 0.00562945 0.0119989 0.0229838
1440 2 -0.90048 28.4173 12.3024 23.2861 -0.0126023 -0.00140662 -0.00377247
1441 2 -0.853932 28.3181 14.3162 18.1833 0.0043459 -0.000626012 -0.00231489
1442 2 -0.841618 28.6966 16.364 19.5473 -0.00040258 0.00484499 -0.000183862
1443 2 -0.765864 24.3114 10.9297 24.7559 -0.00447117 0.00083186 0.00316368
1444 2 -0.846996 24.3827 12.3442 26.6402 -0.00147459 -0.00898571 0.000365612
1445 2 -0.761561 26.4189 11.0039 26.3867 -0.0110198 -0.00472471 -0.00436899
1446 2 -0.873744 26.0931 12.7463 24.7346 0.00385674 -0.0116332 0.00302949
1447 2 -1.00916 24.9213 14.0653 28.5446 0.0189218 0.00517711 0.000124674
1448 2 -0.775587 24.7109 15.4003 30.5594 -0.00458847 -0.00267461 -0.00926723
1449 2 -0.596126 26.3815 16.1549 28.8527 -0.00513598 0.00343531 -0.0102853
1450 2 -0.925252 28.3493 10.6052 28.3013 0.00571819 0.00895044 0.00114457
1451 2 -0.790862 27.9881 14.2811 24.8675 -0.00694782 -0.0132024 -0.00900771
1452 2 -0.613845 28.859 16.4315 26.3432 0.00565799 0.00532321 -0.00273044
1453 2 -0.805146 24.6692 17.4769 3.55249 0.00615353 0.00695355 -0.00325064
1454 2 -0.671006 24.9998 19.582 5.38536 -0.00752521 0.000855198 -0.0183172
1455 2 -0.794257 26.4733 17.6332 5.53857 -0.00245977 -6.84781e-05 -0.00248271
1456 2 -0.715087 26.786 19.1944 3.59225 -0.000858751 0.00771918 -0.0123383
1457 2 -0.678227 24.94 21.1246 7.04113 -0.00181912 0.00687811 -0.0067305
1458 2 -0.92507 26.5005 21.0175 8.81308 0.00836656 -0.00466426 -0.0167528
1459 2 -0.762812 26.5848 23.1013 7.0689 0.0132402 0.00411459 -0.0030629
1460 2 -0.641571 24.8653 23.0414 9.26386 0.00915915 -0.00206901 -0.00578801
1461 2 -0.913466 28.5872 17.5853 7.00392 0.0121389 0.00355674 -0.00661947
1462 2 -0.808402 28.3896 19.1877 8.87308 0.000107672 -0.0208481 0.00197848
1463 2 -0.81552 28.4388 21.3712 3.44618 -0.008958 -0.00734504 0.00995461
1464 2 -0.793135 26.5818 20.7661 30.1219 -0.00297418 -0.00239962 0.0128171
1465 2 -0.925686 28.4392 19.3643 30.3536 -0.00247271 0.00494639 -0.0103909
1466 2 -0.886213 28.4859 23.1639 5.17522 -0.00655775 0.0103481 -0.0173113
1467 2 -0.83158 25.2732 17.4667 10.72 0.00173798 0.00733615 0.00421501
1468 2 -0.88482 25.1241 19.1724 12.8891 0.00542779 0.0124386 -0.00066117
1469 2 -0.690187 26.8401 17.758 12.4229 0.00204169 0.00962881 -0.00432912
1470 2 -0.834835 26.7102 19.7762 10.9131 0.00631942 0.0108207 0.0133461
1471 2 -0.913267 25.2956 21.1504 14.3829 0.000508161 -0.00426928 0.0105195
1472 2 -0.804571 27.2595 21.3649 15.9163 0.00729341 -0.019479 0.00354206
1473 2 -0.860623 26.8293 23.126 14.1651 0.00875649 0.00175319 0.0100564
1474 2 -0.747035 25.2475 23.0362 16.1739 0.00189573 -0.00761157 -0.00858754
1475 2 -0.815059 28.3883 18.0318 14.3451 0.00374375 -0.0141101 -0.00132344
1476 2 -0.822707 28.5004 19.3456 16.4567 -0.00174084 0.00301381 -0.000431582
1477 2 -0.892196 28.4596 21.3737 10.3862 0.00205087 -0.00356114 0.0155534
1478 2 -0.843346 28.6311 22.9764 12.5368 -0.00608786 0.0146368 -0.00553485
1479 2 -0.864416 24.8168 17.8268 18.1663 -0.0167359 0.00490174 0.00332724
1480 2 -0.811958 24.9862 19.5268 19.9323 -0.00813623 -0.00136218 0.00429513
1481 2 -0.901055 26.8506 17.9816 19.609 -0.018225 0.0129793 0.00818141
1482 2 -0.91738 26.4659 19.6332 17.5932 -0.00822289 0.00524479 0.00158984
1483 2 -0.839147 24.7158 20.863 21.9961 0.00737012 -0.00426894 0.00112824
1484 2 -0.81809 26.8201 21.2777 22.8996 0.00484843 0.00283657 0.0159794
1485 2 -0.886975 26.6072 22.8566 21.0681 -0.000237153 0.000251334 -0.00219778
1486 2 -0.767527 25.3686 23.1019 23.1913 -0.0112769 -0.000173548 -0.0114459
1487 2 -0.804657 28.2482 17.6442 21.5724 -0.0135095 -0.00722178 0.01263
1488 2 -0.839314 28.4625 19.4284 23.4337 0.0100916 0.00465127 0.00795136
1489 2 -0.945153 28.3994 21.5397 17.8974 -0.0173058 0.000998356 -0.00845702
1490 2 -0.888574 28.6573 22.9002 19.9081 0.00854086 0.00663427 0.0128088
1491 2 -0.763169 25.2215 17.7962 24.5632 -0.00591563 -0.00641925 0.00517231
1492 2 -0.734604 24.2813 19.4216 26.2708 -0.0115111 0.000459323 0.00938705
1493 2 -0.725497 26.5014 17.8082 26.621 0.00344571 -0.00679239 -0.00968575
1494 2 -0.872786 26.63 19.7869 24.8148 -0.00237016 0.00322235 -0.000860344
1495 2 -0.732235 24.6791 21.5275 28.0479 0.00323107 -0.000693861 0.00103044
1496 2 -0.624087 24.9909 23.353 30.0138 -0.0100683 0.00604064 -0.00602397
1497 2 -0.83716 26.9455 23.0449 28.4091 -0.0125818 0.00715884 0.00339626
1498 2 -0.715286 28.0326 17.9156 28.512 -0.0120011 0.00878773 0.00597629
1499 2 -0.844041 28.3962 21.5692 25.0644 -0.0093284 0.0155716 0.00144793
1500 2 -0.909358 28.4985 23.3233 26.557 0.00138313 0.00391424 -0.0129491
1501 2 -0.860827 25.219 24.7795 3.55479 0.0050134 0.00153806 0.0122864
1502 2 -0.891175 24.8211 26.6713 5.18295 0.000387567 -0.00507155 -0.0031267
1503 2 -0.87311 26.6112 24.6991 5.41622 -0.00663656 0.00316543 -0.00586771
1504 2 -0.882826 26.726 26.7241 3.66626 -0.00413416 0.00967486 -0.00245864
1505 2 -0.832358 25.1929 28.2364 6.85059 0.013221 -0.00460088 -0.0050993
1506 2 -0.958456 26.8545 28.4057 8.9816 -0.0123499 -0.00909346 -0.000886752
1507 2 -0.961224 28.437 24.8387 7.19319 -0.000883296 -0.00630193 0.00714168
1508 2 -0.908079 28.7519 26.6762 9.13574 0.0104681 -0.0169021 0.00261834
1509 2 -0.829698 28.8068 28.4317 3.01166 0.00257389 -0.00346627 -0.00688429
1510 2 -0.786369 26.609 28.4291 30.1865 -0.00529335 -0.00939633 -0.00624919
1511 2 -0.867291 28.2416 26.4273 30.2327 -0.000806961 -0.0169408 -0.0024589
1512 2 -0.74061 25.0041 25.1129 10.2867 -0.00339539 -0.00489942 -0.0072096
1513 2 -0.763921 25.0848 26.8121 12.5915 -0.00173886 0.007337 -0.00649372
1514 2 -0.794264 26.3381 24.5664 12.3895 0.0101683 -0.0069194 -0.00312204
1515 2 -0.848412 26.8185 26.4201 10.6793 0.00746095 0.00279071 0.0080418
1516 2 -0.879698 24.872 28.5827 14.0387 -0.00477386 0.00918874 -0.00179475
1517 2 -0.725771 26.2991 28.1266 15.9031 -0.0114186 -0.00897183 0.0120991
1518 2 -0.851556 28.5156 24.9196 13.9546 0.00345358 0.027989 -0.00862724
1519 2 -0.823358 28.6341 26.4961 15.9477 0.00134395 0.00822693 0.00609168
1520 2 -0.907805 28.3419 28.2273 11.0561 0.0038586 0.014709 -0.00351846
1521 2 -0.75055 24.8623 24.4788 18.103 -0.00378572 0.0126842 -0.00213128
1522 2 -0.895643 25.1286 26.5006 19.651 0.000690803 -0.00124163 -0.00534871
1523 2 -0.870608 26.8798 24.6839 19.3719 -0.0199608 -0.0121449 0.00521746
1524 2 -0.822415 26.8509 26.4764 17.8975 -0.0144315 0.00118573 0.00418601
1525 2 -0.846402 24.7491 28.3135 21.5877 -0.00496986 -0.00493259 0.00171695
1526 2 -0.98631 26.7432 28.4527 22.8372 -0.0040653 0.0157925 0.000296771
1527 2 -0.864254 28.134 24.9154 21.311 0.0136105 -0.0138404 0.00685437
1528 2 -0.882697 28.579 26.4653 23.0873 0.00433202 0.000771885 0.00257494
1529 2 -0.665932 28.3324 28.7494 17.5435 -0.00116507 -0.00927482 0.00439149
1530 2 -0.753627 24.7579 24.9607 25.1448 -0.00797128 0.00912599 0.00638298
1531 2 -0.862702 24.9707 26.8393 26.6203 -0.00563521 -0.00608798 -0.00582501
1532 2 -0.867405 26.6467 25.0953 26.8262 -0.000719169 -0.00652714 -0.0209267
1533 2 -0.909939 26.4201 26.6792 24.5797 0.00272364 -0.00349696 -0.00490977
1534 2 -0.691817 24.7783 28.6128 28.0206 -0.00102504 0.00282083 0.00289864
1535 2 -0.977085 28.4955 24.9384 28.3808 -0.00219763 0.0101095 0.00702348
1536 2 -0.848684 28.3833 28.1988 24.8321 -0.00319435 0.00102625 0.0107244
1537 2 -0.59257 18.8646 11.7744 29.2839 -0.00144122 0.00985669 -0.0112426
1538 2 -0.692166 4.67257 7.65283 3.73938 0.00323569 0.00290748 -0.00272762
1539 2 -0.647368 16.7015 17.478 6.65608 0.00904333 0.00473946 -0.0018376
1540 2 -0.75154 7.3443 29.0426 12.5394 0.0109342 -0.00738046 0.00774262
1541 2 -0.592927 27.1678 27.7504 27.9764 -0.00807234 0.00421708 -0.00628049
1542 2 -0.716495 25.8046 11.3551 7.90073 -0.0128549 0.00120773 0.00164136
1543 2 -0.599415 27.4524 10.2369 9.3025 0.00258793 -0.00868074 -0.00022802
1544 2 -0.687231 7.5275 22.6336 7.90905 -0.0120752 0.00939777 0.00115789
1545 2 -0.658878 27.5889 23.9151 9.88733 0.0115793 -0.0103896 0.0091467
1546 2 -0.65101 20.6321 21.0023 12.945 -0.00596523 -0.00600652 -0.00760064
1547 2 -0.601274 17.3399 16.9699 27.0632 -0.000760559 -0.0149803 -0.00236483
1548 2 -0.572027 29.5431 4.05976 4.29183 0.00754584 0.00990839 0.00148474
1549 2 -0.612376 6.21076 20.8567 27.0018 -0.00933961 -0.0166839 -0.00796851
1550 2 -0.643088 11.0878 22.4381 25.8514 0.00226583 -0.00980227 -0.00322557
1551 2 -0.622586 27.4016 24.3749 24.2132 -0.00798193 0.00539886 -0.00734377
1552 2 -0.612486 12.5413 19.9921 5.95572 -0.0131658 -0.00209125 -0.00194257
1553 2 -0.633237 8.4166 7.37277 14.9517 -0.00827831 -0.0096681 0.0110784
1554 2 -0.654483 25.5071 22.3376 25.521 0.0121421 -0.00275866 0.00143228
1555 2 -0.59145 25.6791 18.2889 8.02381 0.000831544 -0.00578909 -0.00320576
1556 2 -0.657637 26.4976 29.4748 4.71719 -0.00306073 0.00119922 0.00486945
1557 2 -0.639922 2.97617 4.85672 11.2875 0.000333172 -0.00287775 -0.00489818
1558 2 -0.633063 20.8537 13.2323 20.6045 0.00813848 0.00410782 0.00647582
1559 2 -0.534235 23.863 6.16205 16.8866 -0.00334254 -0.00898324 0.0103677
1560 2 -0.571394 11.4053 18.6409 22.0712 -0.000624943 0.00901978 -0.000732535
1561 2 -0.606621 27.7478 5.95774 6.67976 -0.0124217 -0.0120153 0.00276282
1562 2 -0.653426 28.913 22.1923 8.00467 -0.0148071 -0.00325821 0.0123127
1563 2 -0.566731 27.731 17.2727 16.9191 0.00488869 -0.0113453 0.00691415
1564 2 -0.623443 16.6169 27.8539 10.5471 0.0052052 0.00829864 0.00256266
1565 2 -0.580718 15.0976 25.6991 25.7084 -0.00198808 0.00189613 0.00999731
1566 2 -0.664273 14.7162 18.3251 12.3148 -0.00447914 0.00582189 0.0126541
1567 2 -0.594514 20.3332 13.6011 27.7613 0.000176458 -0.00604942 -0.00196361
1568 2 -0.692392 17.9091 22.106 11.863 0.00425812 0.00235877 -0.0088773
1569 2 -0.571756 16.6905 24.0656 5.98438 -0.00416467 -0.00125208 -0.00090366
1570 2 -0.582304 7.84651 11.59 11.441 0.013833 0.00608935 -0.00232282
1571 2 -0.646928 22.4473 25.3603 11.3198 0.00378216 -0.00923384 -0.00445876
1572 2 -0.668462 6.39461 2.79966 16.551 -0.00127266 0.014956 0.00264367
1573 2 -0.733737 16.4815 13.9563 2.96179 -0.00410374 0.00871768 0.00814208
1574 2 -0.580062 12.9125 16.5506 9.91269 0.00613193 -0.000784985 -0.0102285
1575 2 -0.667161 13.6789 5.90154 14.1963 0.000265068 0.00926918 -0.00951643
1576 2 -0.628474 29.374 21.7354 29.2045 -0.00906848 0.00668483 0.00423446
1577 2 -0.630695 25.6939 21.9852 18.593 -0.00684575 -0.00106118 0.00404901
1578 2 -0.646229 11.8128 22.3776 4.83482 -0.00873315 -0.00614436 -0.00389264
1579 2 -0.657855 8.18236 26.6879 11.6196 0.0111174 0.00817224 0.00689436
1580 2 -0.649292 29.1171 14.5477 14.7833 0.00189206 0.0156859 -0.0131208
1581 2 -0.606251 19.8845 9.83338 24.1581 -0.00210635 -0.00200229 0.00444328
1582 2 -0.581486 22.201 18.443 4.40072 0.00575102 0.00638309 0.00124909
1583 2 -0.63522 14.5761 14.8768 30.0372 0.00247155 -0.00235455 -0.00581511
1584 2 -0.637537 4.52939 4.67646 9.12539 -0.00460732 -0.00316704 -0.0124869
1585 2 -0.605428 18.4245 29.6694 11.3332 0.0037126 -0.00769036 -0.00654493
1586 2 -0.594928 23.42 9.26505 19.7993 0.00505199 -0.00704824 -0.0068008
1587 2 -0.602123 16.4952 20.4449 17.3302 0.00749158 0.005916 -0.00874344
1588 2 -0.555571 21.0782 9.14257 16.9675 0.0232215 -0.00128131 0.00687601
1589 2 -0.658138 22.5529 21.6765 7.66523 0.00360129 -0.00376861 0.00376198
1590 2 -0.569879 8.84277 24.8769 26.218 -0.00577885 -0.00196758 -0.00134052
1591 2 -0.642316 14.5643 23.5084 13.7442 -0.00379202 0.0151287 0.00671943
1592 2 -0.633936 29.9977 14.3595 7.95423 0.0040327 0.00116078 -0.00551097
1593 2 -0.6153 31 23.754 27.0419 0.00394911 -0.0085131 0.00955755
1594 2 -0.600177 23.948 23.3619 20.9692 -0.0100834 -0.00470485 0.00407612
1595 2 -0.646358 8.32319 22.0642 29.0442 0.00278372 -0.000142177 0.0204429
1596 2 -0.646436 16.4534 30.861 27.4725 0.00224065 -0.0112949 -0.0101508
1597 2 -0.679925 10.6396 12.5352 25.7686 0.000407849 -0.00421874 0.00486035
1598 2 -0.752655 2.77565 30.7756 27.4836 -0.00948923 -0.00143207 -0.000857102
1599 2 -0.700327 26.0061 7.97088 4.91757 -0.00556992 0.0098624 -0.00254781
1600 2 -0.660904 5.94962 13.1579 13.3941 0.00461443 -0.00646604 0.00334187
1601 2 -0.798879 6.64613 9.98408 30.7975 -0.0101212 -0.00765801 -0.0061698
1602 2 -0.628781 8.43873 7.68386 29.2805 -0.00514479 -0.00615519 -0.00466072
1603 2 -0.714739 8.79931 29.3977 28.9126 0.00521652 0.00304069 0.0027108
1604 2 -0.602828 18.7346 29.7656 4.7671 -0.00256837 0.00011136 -0.0011126
1605 2 -0.659898 25.8802 10.683 15.3705 0.0129196 0.00324472 0.00372511
1606 2 -0.59831 11.2554 4.75455 8.23012 -0.0108019 0.0027434 0.0087252
1607 2 -0.578169 10.9723 8.37623 11.4191 0.00176375 -0.014092 0.00442439
1608 2 -0.654526 20.4283 24.1142 23.9618 -0.00364916 -0.00683861 -0.00496119
1609 2 -0.607239 4.27808 14.925 25.2532 -0.00478292 0.0101241 -0.000268955
1610 2 -0.686177 22.9548 22.2585 15.4414 0.0052352 0.000472172 -0.0053959
1611 2 -0.575987 20.6059 9.74399 9.6106 0.00799383 0.000834488 0.00689033
1612 2 -0.555828 18.6925 4.27063 15.288 0.0105836 0.0159287 0.008485
1613 2 -0.69008 26.8443 20.9066 27.3917 0.00588887 0.0130453 -0.00427925
1614 2 -0.646619 14.8341 21.8908 22.859 0.00754709 0.0119975 -0.00163572
1615 2 -0.538144 10.9896 29.0561 11.3434 0.0136195 0.0132787 -0.00470799
1616 2 -0.638945 6.11925 24.5776 10.2856 -0.000325418 -0.00630856 -0.00213665
1617 2 -0.550754 11.0434 11.4978 28.2442 -0.00565242 -0.0101811 -0.0164545
1618 2 -0.644464 4.94056 25.7796 29.0954 -0.00607727 -0.00609347 0.00689702
1619 2 -0.62871 7.84336 22.5727 21.9709 0.0010569 0.0127849 -0.0089605
1620 2 -0.663492 13.5945 14.4742 20.2142 -0.0138288 -0.00580368 0.00056157
1621 2 -0.602631 25.9518 15.4592 26.2559 -0.0053778 0.00127903 -0.00887052
1622 2 -0.569811 23.8732 27.524 23.7252 0.00343442 0.00189703 -0.00104579
1623 2 -0.606228 24.4199 9.61536 6.13046 0.0107321 0.00473231 -0.00499053
1624 2 -0.669393 20.9128 27.2042 13.3763 -0.00134279 -0.00574366 -0.00826637
1625 2 -0.636657 20.0807 5.96833 27.552 0.000639384 -0.00834094 0.00533184
1626 2 -0.715414 3.19661 27.0443 17.1958 0.0108782 -0.00809055 0.0107504
1627 2 -0.734499 15.5096 30.3915 10.7274 0.002154 0.00443281 -0.000884896
1628 2 -0.562389 2.77298 13.7048 16.6763 0.00235414 0.013347 0.0100721
1629 2 -0.600028 30.5562 19.8645 9.4757 0.00591831 -0.0184191 2.42009e-05
1630 2 -0.616911 24.2327 30.928 27.6749 0.00114194 -0.00172936 0.00449066
1631 2 -0.666102 28.4927 14.8193 28.0886 0.0124421 -0.00345197 -0.00781216
1632 2 -0.552051 12.75 9.89959 24.0052 0.00128943 -0.00249913 0.0106716
1633 3 0.384989 18.5713 11.3635 30.1472 -0.016783 0.0182638 -0.0267205
1634 3 0.393802 18.1507 12.2423 29.0885 0.0206064 -0.0301286 -0.00147313
1635 3 0.404443 3.84457 8.12734 3.585 -0.0252726 -0.0105175 0.0139191
1636 3 0.37336 4.46449 7.13673 4.41827 0.000329504 0.0150067 -0.0555712
1637 3 0.449823 16.3898 17.3678 5.78615 0.0135108 -0.020112 -0.035809
1638 3 0.372816 16.9013 16.4381 6.6915 -0.0116927 -0.00542338 0.019044
1639 3 0.484352 8.61544 28.6426 14.0869 -0.0202747 -0.0640541 0.0170802
1640 3 0.394232 6.40054 28.5199 12.6461 -0.0121644 0.0263739 0.00982574
1641 3 0.381076 28.1348 27.5526 28.3498 0.0452125 -0.0332645 0.0205316
1642 3 0.421155 27.0051 27.0742 27.2879 0.00656695 -0.0027269 0.0277167
1643 3 0.399265 26.3061 12.0457 7.40498 0.0287496 0.0251603 -0.00386106
1644 3 0.401596 24.9615 11.6817 7.67042 -0.0182005 0.0189439 -0.010099
1645 3 0.425561 27.0426 9.48602 8.69219 -0.0516271 0.0432704 -0.100009
1646 3 0.436613 26.8639 11.0306 9.33347 -0.0160804 0.0304534 -9.31947e-05
1647 3 0.391462 7.13583 21.7951 7.82171 0.00248595 -0.0572579 0.0173763
1648 3 0.378356 8.27461 22.3119 8.48395 -0.00443906 0.0700957 -0.00949766
1649 3 0.429792 26.7526 23.5871 9.56732 0.0270367 -0.0574055 0.020253
1650 3 0.412223 28.0647 24.7227 9.62312 -0.00604102 0.0218647 -0.00995193
1651 3 0.391913 19.6666 20.7326 12.7321 -0.0115007 0.0284785 0.0566744
1652 3 0.377487 20.3571 21.3257 13.819 -0.0379025 0.0309963 -0.00752948
1653 3 0.404947 16.6019 16.7346 27.7243 -0.0185705 -0.0315679 0.0353625
1654 3 0.355422 16.9017 17.7925 26.7081 -0.033053 -0.0500621 0.034803
1655 3 0.442465 5.37328 4.27431 8.88538 0.0300228 -0.02485 -0.062539
1656 3 0.429437 29.4562 4.38002 3.47839 -0.0203739 -0.000912118 0.0080359
1657 3 0.416872 5.76787 20.1059 26.3645 0.00717188 0.0282355 -0.0553069
1658 3 0.436316 5.72005 21.6127 26.8384 0.0312944 -0.00114154 0.00647997
1659 3 0.406567 11.6566 21.9434 25.1494 -0.0338295 0.0246201 -0.061428
1660 3 0.437599 10.2479 22.1227 25.6498 0.0310789 -0.0507131 0.0703878
1661 3 0.431266 27.3373 24.5682 23.2641 0.0140646 -0.01231 -0.0299768
1662 3 0.414398 28.2203 24.1114 24.3763 -0.0220715 -0.00204106 -0.00966663
1663 3 0.386384 13.5421 20.1436 5.81154 -0.0135576 -0.00436158 0.0114849
1664 3 0.406826 12.2411 20.7754 6.56169 -0.0141328 -0.0124423 0.0148904
1665 3 0.405704 7.53177 7.67178 14.5522 -0.0538134 -0.0130235 -0.00157314
1666 3 0.417869 8.08819 7.15147 15.8728 -0.00137986 -0.0266078 0.000118999
1667 3 0.46081 25.8159 22.0824 26.3688 -0.00160509 -0.00798744 0.0636254
1668 3 0.399382 25.75 21.6532 24.82 -0.0529947 0.0212159 0.0315281
1669 3 0.396069 25.1164 18.7366 7.34585 0.0658572 -0.0435196 0.0264059
1670 3 0.402132 26.1763 19.081 8.19507 0.00393898 0.0436165 -0.031548
1671 3 0.431025 25.8043 29.3331 5.3604 -0.014298 -0.00798282 -0.0119143
1672 3 0.43023 26.1912 30.1865 4.26008 -0.0360469 -0.00836597 -0.00995628
1673 3 0.490533 2.90204 4.69364 10.396 0.0454211 0.0245149 -0.0131789
1674 3 0.430906 3.34261 30.7812 11.0087 -0.0244413 0.0574874 0.0192624
1675 3 0.391115 19.9909 13.0138 20.2913 0.0359688 0.0283484 0.0453408
1676 3 0.425646 20.8354 13.8926 21.2916 0.0252318 0.0333598 -0.00844917
1677 3 0.395627 23.4842 7.09531 16.7571 0.0505262 -0.000476366 -0.0100085
1678 3 0.433389 24.7279 6.12223 16.4634 -0.0146651 -0.0618979 0.0160085
1679 3 0.403127 11.5702 19.1712 22.8292 0.0543579 -0.0292211 0.0123812
1680 3 0.439851 11.9209 17.7425 22.047 0.00332979 -0.0343843 0.000405386
1681 3 0.380744 26.9346 6.53639 6.37242 0.0175218 -0.0812034 0.017164
1682 3 0.368836 28.2537 6.69881 6.95452 0.0109411 -0.038709 -0.0419298
1683 3 0.423836 28.6019 22.774 8.57834 -0.00188111 0.0254615 -0.0536549
1684 3 0.435407 29.368 21.561 8.54687 0.0240321 0.0063322 0.0593622
1685 3 0.408323 28.4095 16.7744 17.2434 -0.0633151 -0.059215 0.0331388
1686 3 0.361426 26.9084 16.5659 16.8031 0.029095 -0.00454719 -0.0579302
1687 3 0.396431 17.4405 27.2605 10.2939 -0.0449521 0.00520679 -0.0421942
1688 3 0.38234 16.573 28.6498 9.88402 -0.0485134 -0.0265865 0.00895324
1689 3 0.411263 15.6401 25.9215 26.4851 -0.039178 -0.00957609 0.0937209
1690 3 0.375059 15.1756 26.558 25.0529 0.0675213 -0.0485627 -0.0128843
1691 3 0.395716 15.64 18.1618 11.9132 0.0058291 0.0223649 0.00660768
1692 3 0.426274 14.4068 19.1295 11.8221 -0.00647935 0.0102322 0.0136178
1693 3 0.377356 20.9171 12.6954 27.7424 -0.0196987 0.0165218 -0.0077753
1694 3 0.407873 20.7217 13.954 27.0459 -0.00500767 0.0488848 -0.00449391
1695 3 0.396618 17.8311 21.778 11.0015 -0.0461798 -0.0533678 -0.0134497
1696 3 0.419536 17.6727 23.0305 11.7211 0.0384855 0.0310756 0.008052
1697 3 0.365608 16.8959 25.025 5.9414 0.0303767 0.0151295 0.00575982
1698 3 0.380928 15.8043 24.1332 6.25823 -0.0225212 -0.0582422 -0.00742663
1699 3 0.435554 7.73112 10.729 11.3406 0.0364695 -0.0357102 -0.0402407
1700 3 0.369648 7.04495 11.8048 12.0971 0.0104547 0.0220857 -0.00430722
1701 3 0.418537 21.975 24.6566 11.6966 -0.0668452 0.00284748 -0.0130013
1702 3 0.385644 21.7992 25.9875 10.8369 0.0003397 -0.0139395 0.0265884
1703 3 0.364405 5.95329 30.9357 15.7747 -0.0293603 0.0297187 -0.0220845
1704 3 0.409135 5.61512 2.91088 17.1122 -0.0453655 0.0310798 -0.00169665
1705 3 0.364286 16.9111 13.3634 3.55862 -0.0203944 -0.0315464 0.0261088
1706 3 0.380919 17.2072 14.3782 31.077 -0.0177328 0.013534 -0.00931054
1707 3 0.388933 13.7234 16.7334 10.4122 0.010746 0.000215185 -0.0400941
1708 3 0.385841 13.2654 16.7418 9.04055 0.0184099 0.0188713 0.0179395
1709 3 0.394131 12.6927 5.70676 14.102 -0.0701914 -0.0196357 -0.00886144
1710 3 0.3938 13.7319 6.78784 13.7617 -0.0185583 -0.0477956 -0.0465175
1711 3 0.388624 28.4478 21.6333 29.618 0.0300974 0.0537642 -0.0210803
1712 3 0.397404 29.7002 22.6258 29.3787 0.00816618 -0.014419 -0.0353421
1713 3 0.41389 26.5187 22.4888 18.7823 -0.00694288 -0.0303118 -0.0307663
1714 3 0.445113 25.2751 22.188 17.8347 -0.0150871 -0.00710911 0.00934667
1715 3 0.408686 10.9643 22.8629 4.95998 0.00559589 0.0540541 -0.0519584
1716 3 0.347436 12.1734 22.6726 3.93159 0.0153348 -0.0134061 0.0153373
1717 3 0.397016 8.6328 26.2321 12.2686 -0.0110508 -0.0333483 0.0198523
1718 3 0.375668 8.80765 27.3268 11.2975 0.0412589 0.0201798 0.0152497
1719 3 0.400526 28.6686 14.3181 13.9773 -0.00111677 -0.020849 -0.0198736
1720 3 0.386688 30.0998 14.4751 14.6651 0.0248724 -0.0202344 -0.00340731
1721 3 0.370192 20.2622 10.1201 25.1327 0.0459181 0.0120718 0.0155442
1722 3 0.405969 20.5705 10.085 23.6315 0.01975 -0.0149704 0.0309112
1723 3 0.419524 21.6988 19.3692 4.33942 0.026666 0.0251257 0.0281768
1724 3 0.386248 21.7886 18.1356 5.22898 0.00210036 -0.0202994 0.0282541
1725 3 0.443549 14.1081 14.8296 29.1543 0.0312018 -0.0405279 0.00807441
1726 3 0.432195 15.5705 15.0253 30.1219 -0.0315799 0.0466781 -0.0103899
1727 3 0.452028 4.13546 5.20679 8.39773 -0.0281653 -0.0670055 -0.0111405
1728 3 0.377396 28.8905 3.25067 4.31126 -0.0156546 -0.015199 -0.062613
1729 3 0.513604 15.2401 4.58524 12.4226 -0.0038009 0.044857 0.0248827
1730 3 0.347534 17.5667 29.3095 11.667 0.0306658 -0.0167625 -0.0524943
1731 3 0.406033 23.5969 8.57162 20.4479 0.00145029 -0.0495166 0.00708208
1732 3 0.390548 24.3493 9.28516 19.423 0.0198614 -0.0314188 -0.0372192
1733 3 0.39645 16.8827 21.0687 16.6543 0.00530046 -0.0236477 -0.0229223
1734 3 0.367698 17.327 20.1728 17.8433 0.00319893 0.0127457 0.0173973
1735 3 0.394442 20.0934 9.50509 16.7978 -0.0276198 0.0368931 -0.00446671
1736 3 0.401036 21.695 9.14948 16.0733 -0.0374135 0.0140644 -0.0232747
1737 3 0.436402 21.7588 21.4071 7.96794 0.0695266 -0.0149099 -0.00863528
1738 3 0.374811 22.7408 22.235 8.46207 0.0566002 0.0607687 0.0181277
1739 3 0.424436 11.4487 24.2937 25.379 -0.0161796 0.0141422 -0.00327445
1740 3 0.39729 9.43554 24.7816 26.9554 0.0157831 -0.0122493 0.00412558
1741 3 0.422585 14.4986 26.409 13.6228 0.00630354 0.022757 0.0305389
1742 3 0.375987 14.4481 24.2058 14.3739 0.0318565 0.000655419 -0.0244921
1743 3 0.432722 28.9653 13.9344 7.86416 -0.0347945 0.0240462 -0.0301754
1744 3 0.441083 30.256 15.1928 8.02255 -0.00575567 -0.0104223 0.0401623
1745 3 0.311295 3.47356 23.9171 27.6697 -0.0367561 0.0221222 -0.0231434
1746 3 0.375379 30.424 23.8127 27.7621 -0.0365832 -0.0448127 -0.0161493
1747 3 0.417721 23.579 22.5186 21.0059 -0.0407314 0.0537787 0.0654709
1748 3 0.433438 23.7882 23.5032 19.9329 -0.0286272 -0.0447953 -0.0215874
1749 3 0.42795 7.78905 22.912 29.1009 -0.124226 0.0159939 -0.00537346
1750 3 0.386527 8.62375 21.7753 29.9615 0.00555651 0.00867879 0.0240775
1751 3 0.391286 17.4093 30.7174 27.6014 0.00167276 0.0356247 0.0101197
1752 3 0.451163 16.5073 3.26862 27.8268 0.0139198 -0.0159621 0.00669282
1753 3 0.42283 10.5292 13.2859 25.2794 0.0206957 0.0643182 -0.00815287
1754 3 0.444779 8.11732 12.4157 27.0419 0.0299261 -0.0155197 -0.0294904
1755 3 0.439617 2.76506 3.13701 26.8052 -0.0515512 0.025332 -0.0532891
1756 3 0.354686 4.2929 26.4905 28.4617 0.0222919 -0.0115875 -0.0150204
1757 3 0.388253 26.5038 8.17805 4.04427 0.0246168 -0.0486236 0.00937923
1758 3 0.463861 25.246 8.5922 4.88675 0.0144164 0.0458765 -0.00576421
1759 3 0.42114 6.57147 13.8568 13.2952 0.0110174 -0.00817661 -0.0592192
1760 3 0.370594 5.2028 13.5089 12.9578 -0.00653891 -0.0536672 0.00145156
1761 3 0.44726 5.82011 9.58877 30.5638 0.00538161 -0.0348396 -0.00451705
1762 3 0.43216 7.87985 14.3661 29.9467 -0.00788868 0.0607051 0.00486208
1763 3 0.398755 7.81577 8.30962 29.5662 0.0569192 -0.0309005 -0.0585684
1764 3 0.401409 8.06648 6.81094 29.1831 0.0384394 -0.0393293 0.00552402
1765 3 0.43795 8.13509 29.493 29.5981 1.97496e-05 0.023276 -0.0443019
1766 3 0.427276 9.07082 30.1689 28.5297 0.00636055 0.0595061 -0.0179572
1767 3 0.372471 18.9264 29.1612 3.91022 0.0107122 0.0268322 0.0877568
1768 3 0.371042 18.1216 29.248 5.31699 0.0247927 0.040332 -0.00704587
1769 3 0.389384 25.8816 9.81683 14.9017 0.00415499 0.00166131 0.0395178
1770 3 0.370543 26.5554 10.7694 16.0081 -0.052409 0.0144268 -0.0756101
1771 3 0.402244 11.5214 4.28839 9.08203 -0.0113401 0.0175969 0.0234545
1772 3 0.395994 10.7997 4.10345 7.69111 0.0125772 0.0196843 -0.0594942
1773 3 0.395328 11.0147 7.45054 11.5638 -0.0208155 0.022723 -8.92294e-05
1774 3 0.419089 11.5893 8.30196 10.7126 0.0441155 -0.0350279 0.0240413
1775 3 0.438033 19.5566 23.8485 23.8762 0.0236521 -0.0115542 -0.0371997
1776 3 0.41766 21.1655 23.6608 23.6089 0.0174581 -0.0251576 0.0192548
1777 3 0.389873 3.51961 14.3113 25.4766 -0.0706922 -0.0151074 -0.0272856
1778 3 0.407635 4.79957 14.8334 26.0038 0.0250012 -0.00839449 0.0258774
1779 3 0.428928 22.261 22.7684 15.1511 0.0399302 0.0557543 0.024785
1780 3 0.435505 23.0061 21.4773 14.9749 -0.0109404 0.0896177 -0.0232797
1781 3 0.390271 21.2071 9.2461 10.1932 0.0250154 -0.0348789 -0.0480944
1782 3 0.342175 20.5724 9.34498 8.62616 -0.0254952 -0.0211657 0.00809207
1783 3 0.408038 17.9018 3.68151 15.3309 0.00257204 0.0152334 -0.0357403
1784 3 0.392432 18.8632 4.15894 14.4128 -0.0403011 0.0240623 0.0257499
1785 3 0.43243 27.6309 21.3343 27.1383 0.0206877 0.028266 -0.0271851
1786 3 0.4069 27.2954 20.0856 27.8567 0.0321415 -0.00747489 0.0399739
1787 3 0.451902 15.5712 21.4157 22.7884 -0.0150467 0.0379624 -0.0797043
1788 3 0.390351 15.1498 22.8417 22.6977 -0.0101247 0.0240126 -0.0310826
1789 3 0.371735 11.6296 28.4593 11.916 -0.0357358 -0.00898599 -0.0222946
1790 3 0.370064 11.2307 28.6976 10.4448 0.0716975 -0.0867779 0.0505775
1791 3 0.395372 6.82407 25.0456 10.7778 -0.0186499 -0.0334118 0.00518845
1792 3 0.409632 6.56012 24.1694 9.51118 -0.0794225 -0.038792 -0.00486155
1793 3 0.455939 11.0486 12.479 28.0187 -0.0140821 -0.0538236 -0.0119421
1794 3 0.451418 10.265 11.4589 28.7586 0.0218128 0.0202403 0.0434778
1795 3 0.435205 5.31643 29.4715 2.66935 -0.0124814 0.0390756 -0.0587445
1796 3 0.412242 4.68234 25.2313 29.8109 0.00729777 0.0306955 0.0230606
1797 3 0.40579 7.44921 21.7958 22.5543 0.0332628 -0.00622541 -0.0195313
1798 3 0.428281 9.4023 25.1132 25.4802 -0.026709 -0.0238873 0.00676756
1799 3 0.406964 13.6714 14.4201 21.1508 -0.0077666 -0.0294335 -0.0282818
1800 3 0.397735 13.1872 13.459 20.1187 -0.0052451 0.0104233 0.0216192
1801 3 0.370567 25.1528 15.0145 26.6278 0.0139314 0.0285988 -0.0161006
1802 3 0.372672 25.6681 15.4103 25.2808 0.00428587 0.0336879 0.0526185
1803 3 0.423409 24.4479 27.6273 24.4442 0.0304774 0.00810183 0.0168656
1804 3 0.389852 22.9678 27.1607 23.983 0.0415243 -0.00764954 -0.00770481
1805 3 0.345532 24.9658 9.29316 6.95994 0.0140829 -0.0175928 0.0199536
1806 3 0.373112 24.686 10.5021 6.33995 0.0439557 -0.00868931 0.0075445
1807 3 0.425382 20.0339 27.1256 13.6599 -0.0203049 0.064641 -0.0258984
1808 3 0.369081 20.8616 27.574 12.582 0.0186107 -0.0285517 0.0311835
1809 3 0.406869 20.8746 6.54893 27.7421 0.000417556 -0.0278674 -0.00814446
1810 3 0.340401 19.3568 6.54822 27.4621 0.0319254 0.0464233 -0.0427127
1811 3 0.509722 4.20698 24.6594 19.6757 0.012072 -0.00305506 -0.0557814
1812 3 0.424488 3.55468 27.4961 16.4672 -0.0183944 -0.0182202 -0.0352253
1813 3 0.45517 18.2631 30.6799 9.34305 -0.0464764 0.00550709 0.00158403
1814 3 0.353779 18.9574 28.819 11.3756 -0.00225645 -0.0359096 0.0140638
1815 3 0.367023 3.03499 13.2133 15.8576 -0.0423613 0.039377 0.0448069
1816 3 0.396856 30.1811 13.7456 16.7074 0.018123 -0.0115575 -0.0258853
1817 3 0.389098 30.7242 20.2263 10.3609 -0.0192641 0.00584156 -0.0333403
1818 3 0.346073 2.85399 19.0945 9.34173 0.00869224 0.0427865 0.0113445
1819 3 0.45333 24.1358 2.99833 26.954 0.000167489 -0.0196977 0.0200403
1820 3 0.412448 23.9546 30.0096 27.2651 -0.0222173 0.0121631 0.0546027
1821 3 0.413711 28.6648 13.8306 27.9788 -0.0191769 -0.00588304 0.0418854
1822 3 0.434323 28.2724 14.8436 28.9394 0.0284404 -0.000394374 0.0413475
1823 3 0.409648 13.7168 10.1143 23.5598 0.0219774 0.0771235 0.00189028
1824 3 0.426555 12.5195 8.98342 23.5547 0.00341698 -0.0323416 0.0867141
