ITEM: TIMESTEP
0
ITEM: NUMBER OF ATOMS
222
ITEM: BOX BOUNDS pp pp pp
0.0000000000000000e+00 1.7160000000000000e+01
0.0000000000000000e+00 1.7160000000000000e+01
0.0000000000000000e+00 1.7160000000000000e+01
ITEM: ATOMS id type q x y z vx vy vz
1 1 0.832558 0.0470286 0.0835616 0.00425287 0.000493728 1.0565e-05 -0.00219074
2 1 0.881973 2.22448 2.29285 2.13947 0.00164351 -0.00572281 0.000349927
3 1 0.866516 0.0301693 4.35263 4.29969 -0.00284522 0.00513265 0.000926204
4 1 0.884277 2.11123 6.4201 6.49851 -0.00154185 -0.0057428 -0.00184016
5 1 0.89744 4.2783 17.1301 4.32929 -0.00127741 0.00430089 -0.00372836
6 1 0.885972 6.39807 2.09788 6.50639 -0.00149679 0.00235573 -0.0040606
7 1 0.894844 4.41032 4.3942 0.0260616 -0.000224597 -0.00044719 0.00277452
8 1 0.916575 6.43597 6.46218 2.19053 0.00346766 0.000683908 0.000513816
9 1 0.953102 17.1526 0.0219848 8.65032 0.00234383 0.00574868 0.00292196
10 1 0.89335 2.0728 2.17314 10.7856 0.000911623 -0.00433662 0.00283005
11 1 0.898717 3.56892e-06 4.30901 12.893 0.0023309 0.0013927 -0.00453844
12 1 0.877867 2.17849 6.48977 14.9714 0.00548769 0.00211749 0.00436524
13 1 0.930508 4.2585 0.0219012 12.9203 -0.00153863 0.00090863 0.00404009
14 1 0.900027 6.40713 2.20087 15.0924 0.00091763 -0.00311209 0.00140784
15 1 0.684903 4.30018 4.28085 8.65146 0.00212625 -0.000981395 -0.000396211
16 1 0.952414 6.37877 6.4289 10.7378 -0.000187461 -0.00297371 0.00203775
17 1 0.861068 0.00368431 8.59524 17.1526 0.00763211 -0.00381031 0.000170941
18 1 0.94098 2.1331 10.7181 2.08359 0.000423681 -0.00237281 -0.000956038
19 1 0.862981 0.026872 12.8381 4.2713 0.00469835 0.00274021 -2.4984e-05
20 1 0.883514 2.11854 15.011 6.46913 0.000948713 -0.00325485 0.00109047
21 1 0.861842 4.27175 8.57925 4.26775 0.00186466 -0.00177088 0.00327596
22 1 0.87367 6.43488 10.6943 6.42657 -0.00126133 0.00285993 -0.0010698
23 1 0.906031 4.31177 12.8754 0.0464655 -0.00259444 0.00313801 -0.00012997
24 1 0.893509 6.47686 14.9537 2.21122 0.00145605 0.00203508 0.00227653
25 1 0.921838 0.010175 8.63796 8.55855 -0.00457575 -0.00532876 -0.00183172
26 1 0.940446 2.19363 10.7724 10.7009 -0.00173227 -0.00186644 -0.000125882
27 1 0.924824 0.0282291 12.9008 12.8955 -0.00285075 -0.00189611 -0.0016242
28 1 0.846037 2.14712 15.0384 15.0257 2.05109e-05 -0.0018058 0.00401493
29 1 0.863783 4.32041 8.61136 12.8814 -0.00347858 0.00522757 -0.00088788
30 1 0.874669 6.46487 10.7071 15.0459 0.00296911 0.0029531 0.00121248
31 1 0.915477 4.29244 12.8887 8.57451 -0.00194665 0.000550693 0.000601632
32 1 0.917465 6.47892 15.0088 10.7622 0.000241183 0.00100686 -0.00265928
33 1 0.902262 8.54984 17.1143 0.0562682 0.000712265 -0.000355326 0.000845549
34 1 0.848447 10.7601 2.08295 2.07384 -0.00136229 -0.00268119 0.000512665
35 1 0.906783 8.48364 4.30301 4.37578 -0.00305475 0.00503465 -0.00637433
36 1 0.842565 10.7256 6.45338 6.43116 -0.00220279 -0.000253993 0.00252206
37 1 0.903454 12.9408 0.0250867 4.354 0.00727198 -0.00118343 -0.0102086
38 1 0.903004 14.9112 2.25129 6.51412 -0.00253896 0.0042511 -0.000709334
39 1 0.913181 12.849 4.24992 17.101 -0.00149927 -0.00186787 0.00222113
40 1 0.843584 15.0987 6.48522 2.18083 0.00288303 -0.00122098 0.00676508
41 1 0.931214 8.61578 17.1595 8.58738 -0.00134639 -0.0026472 -0.00529716
42 1 0.884673 10.7383 2.19287 10.7183 -0.000391745 -0.00182488 0.00845277
43 1 0.88267 8.56044 4.31952 12.8961 0.00217569 -0.00188279 -0.000736886
44 1 0.883675 10.6929 6.39817 15.019 0.00127571 -0.00196587 0.00804195
45 1 0.868611 12.8438 0.0421662 12.8818 0.000459655 0.00355813 0.00284404
46 1 0.923269 14.9691 2.14751 15.0272 0.00398375 -0.00143726 -0.00127636
47 1 0.913254 12.8584 4.35268 8.55451 -0.00087936 0.00377463 -0.000225156
48 1 0.870174 15.0701 6.42951 10.7138 0.000434554 -0.00168564 0.00178161
49 1 0.922385 8.58557 8.51999 0.017851 0.00139816 -0.000543922 -0.0048388
50 1 0.907404 10.7003 10.6677 2.13213 -7.40037e-05 -0.00424065 0.00400725
51 1 0.917716 8.55332 12.7928 4.31904 -0.00106188 0.00260609 0.00398664
52 1 0.883402 10.7492 14.9971 6.42491 0.00129035 -0.00308557 0.00873875
53 1 0.803837 12.9756 8.54621 4.29739 -0.00306723 0.004122 -0.000832648
54 1 0.907945 15.0193 10.7338 6.38904 0.000975894 -0.00132848 0.00311561
55 1 0.93945 12.8352 12.835 0.0981025 -0.00119078 -0.000610541 0.000776355
56 1 0.814903 14.9822 14.9977 2.14865 0.00407094 0.00348141 -0.00239733
57 1 0.931883 8.54987 8.56543 8.5552 0.00240653 -0.0035494 -0.00357858
58 1 0.795625 10.5965 10.7418 10.7845 0.00121515 0.00206206 0.00109564
59 1 0.884653 8.56124 12.8569 12.8952 0.00352702 -0.000903891 -0.00616111
60 1 0.927627 10.691 15.0228 15.093 0.00134657 0.000544847 -0.00148668
61 1 0.842646 12.8867 8.63914 12.9034 0.00484863 -0.00186026 0.00150274
62 1 0.861108 14.9249 10.791 15.103 0.000643934 0.000473856 -0.00132249
63 1 0.872901 12.8955 12.9305 8.4909 -0.00184638 -0.00259921 0.00266121
64 1 0.814537 15.0343 15.0315 10.7159 -0.00170451 -0.00214558 0.00137366
65 2 -0.514021 1.06714 1.15421 1.08929 -0.00234141 0.00513674 -0.00246441
66 2 -0.46812 1.06889 16.042 16.0649 0.000529609 0.00438175 0.000134476
67 2 -0.50143 16.1687 1.09854 16.208 -0.00688182 0.000602789 -0.000792399
68 2 -0.529324 16.2219 16.2887 1.28679 0.00415573 -0.00113979 -0.00186324
69 2 -0.464151 1.19184 3.14113 3.23823 -0.000763422 -0.00147756 -0.0022186
70 2 -0.428291 3.17267 1.04417 3.15915 0.00185704 -0.000539494 0.00423247
71 2 -0.465367 3.57986 3.19638 1.2022 -0.00221497 -0.00382922 -0.000674827
72 2 -0.4658 0.955025 5.30282 5.35292 0.0088283 0.00105565 -0.00553364
73 2 -0.435944 16.0152 3.31414 5.37731 -0.000332223 0.001531 0.00281641
74 2 -0.444781 15.9424 5.42194 3.16406 -0.000394314 0.00025475 0.0090511
75 2 -0.452655 2.923 5.38173 7.63428 5.08746e-05 -0.003717 -0.00376074
76 2 -0.440704 3.21918 7.56241 5.41168 -0.00422796 -0.00671904 0.000281586
77 2 -0.440018 1.12787 7.46529 7.53626 -0.000294033 0.00124082 0.00282031
78 2 -0.455126 5.39386 1.01153 5.34763 0.00058143 -0.00371644 -0.00381616
79 2 -0.447523 3.29855 16.0663 5.35705 0.00283863 -0.00885296 -0.000644012
80 2 -0.428157 5.34939 16.0947 3.21614 -0.00191508 -0.00237976 -0.00350241
81 2 -0.455775 5.37601 2.82882 7.64963 -0.00285425 0.00353648 -0.00426609
82 2 -0.466319 7.58272 3.29145 5.37522 0.00744503 0.00193424 0.00468479
83 2 -0.449091 7.54285 1.09903 7.54481 0.00155605 -0.000342854 -0.00496649
84 2 -0.474193 5.39292 5.38717 0.96649 -0.00667956 0.00292802 0.000250065
85 2 -0.452469 3.26824 5.38998 16.1598 0.00286764 -0.00356342 0.00394325
86 2 -0.483643 5.44808 3.16778 16.0774 -0.000624435 0.000969311 -1.85695e-05
87 2 -0.470052 5.47003 7.42425 3.22571 -0.000953039 0.00303182 0.0015273
88 2 -0.453087 7.46698 5.36335 3.16394 0.00300569 -0.00419137 0.00569195
89 2 -0.465414 7.56277 7.61805 1.0699 0.000439449 -0.00219644 0.00276788
90 2 -0.467662 1.01776 0.977484 9.59274 0.000907465 0.00430259 -0.000122052
91 2 -0.470443 1.07341 16.0963 7.42261 -0.00213321 0.000619581 0.00366486
92 2 -0.458358 16.0308 1.02194 7.54688 -0.0038478 -0.00068731 0.00303337
93 2 -0.474495 16.1408 16.1683 9.55311 -0.00371105 -0.00238567 0.000683293
94 2 -0.47251 1.17031 3.22988 11.7464 0.00318994 0.00303543 0.00183461
95 2 -0.446662 3.1696 1.01363 11.8541 -0.000802669 0.00219615 -0.00332393
96 2 -0.397243 3.24372 3.14771 9.65392 -0.0051988 -0.00134605 0.000594761
97 2 -0.451298 1.04727 5.25589 13.9018 0.000431065 0.0039159 0.00439705
98 2 -0.443902 16.06 3.19183 13.8821 -0.00393294 0.00334944 0.00418015
99 2 -0.432108 16.0443 5.42547 11.8195 0.000819446 -0.000352529 -0.00640457
100 2 -0.42591 1.10354 7.60542 16.161 -0.00137516 0.000327647 -9.88777e-06
101 2 -0.457511 3.13372 7.42045 13.946 -0.00216773 -0.00526097 0.00337095
102 2 -0.451447 5.28631 1.14283 13.9206 -0.00334277 -0.0023389 -0.00431582
103 2 -0.463904 3.33213 16.1649 13.9184 0.00205632 0.00218126 -0.00408408
104 2 -0.433198 5.35778 16.0267 11.8124 0.00208353 -0.000491748 -0.00215301
105 2 -0.438469 7.58563 1.05031 16.1455 0.00784542 7.71509e-05 0.00139638
106 2 -0.442823 7.49118 3.20355 13.9541 0.00125486 -0.000164097 -0.000865202
107 2 -0.453892 5.36481 5.39153 9.80202 0.00200277 0.000704457 -0.00320785
108 2 -0.458951 5.46725 7.42403 11.7772 -0.000989763 0.00160203 -0.0079049
109 2 -0.45259 7.59546 5.37521 11.8303 -0.00359776 -0.00109043 0.00228003
110 2 -0.455491 7.46288 7.53426 9.69027 -0.00512472 -0.000182381 -0.00114241
111 2 -0.465412 1.17869 9.67045 1.09516 0.00345156 -0.000758544 0.00143762
112 2 -0.450956 16.0584 7.42133 1.1301 0.000327308 0.00166077 -0.00186101
113 2 -0.427086 16.0574 9.69051 16.0287 -0.000735203 -0.000173668 0.00408132
114 2 -0.455591 1.05934 11.8069 3.29617 -0.00312167 -0.00305535 0.00137431
115 2 -0.444756 3.29085 9.64091 3.1543 -0.000523075 -0.00133266 -0.0031485
116 2 -0.470943 3.12114 11.7692 1.1798 -0.00357372 -0.00729191 0.000630694
117 2 -0.452131 1.16862 13.9847 5.37984 -0.0050415 -0.004079 0.00128326
118 2 -0.45405 16.0259 11.8163 5.39347 -0.00665395 3.61998e-05 -0.00441261
119 2 -0.449198 16.0429 14.0113 3.25234 -0.00106839 0.00332221 -0.00284909
120 2 -0.457848 3.31232 13.8346 7.5352 -0.00234669 0.00322412 0.00192972
121 2 -0.438118 5.33078 9.66362 5.43407 -0.0032888 -0.00401725 0.000242326
122 2 -0.43376 5.3178 11.7694 7.56634 0.000638762 0.00223739 -0.00694709
123 2 -0.471115 7.55461 11.8798 5.33348 -0.00013612 -0.000311277 -0.00261587
124 2 -0.446834 7.57627 9.66638 7.51018 0.00249921 0.00578492 0.00257383
125 2 -0.453931 5.27851 13.9221 1.04071 0.00627783 -0.001353 -0.00633596
126 2 -0.430404 3.29105 13.9179 16.0857 -0.000900298 -0.00894327 -0.00204967
127 2 -0.443521 5.35083 11.86 16.0998 -0.00541678 -0.00120692 0.00226309
128 2 -0.449843 7.53386 16.1031 1.00382 -0.00134726 0.000628751 0.00299058
129 2 -0.470439 7.49284 14.0022 3.17162 0.00596862 0.00309933 -0.0061968
130 2 -0.453693 0.984513 9.68145 9.61208 0.00447691 -0.000108712 -0.000811202
131 2 -0.4477 16.1236 7.43762 9.63238 -0.00263555 0.00522162 0.00571652
132 2 -0.464077 16.2008 9.67726 7.56708 -0.00030791 -0.00163719 -0.00366366
133 2 -0.449795 1.12998 11.7455 11.8192 0.00300966 -0.000501464 -0.00354718
134 2 -0.442282 3.17059 9.72295 11.7948 -0.00392766 -0.00203033 0.00130248
135 2 -0.477605 3.20589 11.7037 9.71924 -0.000629567 0.0049664 0.00125242
136 2 -0.459573 0.969015 13.9457 13.882 0.00144273 0.00346128 0.000998247
137 2 -0.440171 16.0437 11.8837 13.9202 0.000605393 -0.00395757 0.00178398
138 2 -0.45543 16.1632 13.8554 11.7583 -0.000550756 0.00306866 -0.00609033
139 2 -0.452183 5.35195 9.55017 13.902 -0.00328165 -0.00922987 -0.00532269
140 2 -0.451212 7.55316 9.72541 16.0277 0.0102652 0.0077393 -0.000341036
141 2 -0.443595 7.46805 11.8598 13.9268 -0.00175886 0.00230266 0.00612098
142 2 -0.442755 5.33233 13.9792 9.67203 0.000829426 -0.00226624 -0.00206577
143 2 -0.44336 7.52303 16.0531 9.60944 -0.00201946 0.000912317 0.00440918
144 2 -0.457056 7.50198 14.0443 11.7936 0.000748659 0.00361869 0.00228201
145 2 -0.446646 9.78124 1.00906 1.17717 -0.00366613 -0.00717357 0.00437598
146 2 -0.467148 9.65012 16.0082 16.0155 0.00723508 0.00274012 -0.00315836
147 2 -0.483041 9.52409 3.18209 3.19725 -0.00522188 -0.000378019 -0.00122858
148 2 -0.472023 11.848 1.01035 3.25214 -7.80352e-05 0.00205679 0.00353875
149 2 -0.431429 11.7797 3.13168 0.783261 -0.0011958 0.00189544 0.00133579
150 2 -0.460639 9.61592 5.36654 5.29794 -6.26376e-06 -0.00244537 0.00667518
151 2 -0.504611 11.8807 5.40372 7.62264 -0.00580938 -0.00270438 -0.00697275
152 2 -0.428849 11.7394 7.45771 5.36553 0.00176391 0.00603975 -0.00196271
153 2 -0.469324 9.61575 7.61234 7.49966 0.0114359 -0.00586573 0.000291808
154 2 -0.433077 13.5748 1.37764 5.55611 0.00118028 -0.00530595 0.00271399
155 2 -0.447123 11.9281 16.1172 5.29209 -0.000979286 0.002088 -0.00242501
156 2 -0.441827 13.8708 15.9357 3.0827 0.00172627 0.000674838 0.00584995
157 2 -0.479871 13.9561 3.16502 7.49163 0.0034464 0.00396293 -0.00208895
158 2 -0.432115 14.1331 5.31207 0.95636 0.000975409 0.00609546 -0.00293236
159 2 -0.450137 11.8836 5.33491 16.1076 0.000698534 -0.000675714 0.00462746
160 2 -0.471354 13.9934 3.20214 15.9635 -0.00479962 -0.00207601 -0.00257292
161 2 -0.461871 14.4184 7.68893 3.45747 -0.00724817 0.00660268 -0.000163444
162 2 -0.444769 9.60378 0.998246 9.67457 -0.00110047 0.0100454 -0.0124855
163 2 -0.445621 9.65661 16.0891 7.59428 -0.000516254 -0.00142507 0.00232223
164 2 -0.433891 9.7193 3.24471 11.8572 -0.00567731 2.57001e-05 -0.00276905
165 2 -0.432279 11.8386 1.03389 11.7749 3.44048e-05 0.00438728 -0.00312434
166 2 -0.443467 11.7875 3.16239 9.6388 0.013046 0.00180407 -0.00799472
167 2 -0.455486 9.72436 5.45002 13.9815 0.0087224 0.00122727 0.00249738
168 2 -0.46855 9.62399 7.58711 16.1848 -0.00185449 -0.00543775 0.000878499
169 2 -0.467037 11.8156 7.49504 13.8884 -0.00268503 0.00214894 -0.00461188
170 2 -0.465273 14.0362 1.11791 14.0144 -0.00383929 -0.00626697 -0.0016217
171 2 -0.44447 11.8089 16.0482 13.9883 0.00497397 0.00303483 -2.49593e-05
172 2 -0.423697 13.8933 16.0484 11.8218 0.000509025 -0.00477115 -0.000590743
173 2 -0.468287 13.9466 5.2795 9.59143 -0.000402419 -0.00074147 -0.00186082
174 2 -0.480234 14.0383 7.58967 11.8172 0.000630256 0.00203321 -0.00042614
175 2 -0.478146 9.7501 9.69209 1.0966 -0.00409678 0.0029916 -0.00122101
176 2 -0.443092 9.66342 11.7837 3.23294 -0.000949528 0.00174963 0.00385293
177 2 -0.463557 11.8662 9.66391 3.12844 -0.00682885 0.00108023 0.00206829
178 2 -0.462152 11.8536 11.8869 1.08855 0.00232113 -4.08751e-05 -0.00219523
179 2 -0.425375 9.58601 13.9398 5.35554 -0.00383724 -0.00507488 0.00090338
180 2 -0.449896 11.7279 13.9301 7.38762 0.00989385 0.00380148 0.00786658
181 2 -0.435124 13.9482 9.7495 5.44197 0.00257901 0.00543549 -0.00249214
182 2 -0.469782 13.9307 11.8518 7.58954 -0.00855984 -0.00272323 0.00100942
183 2 -0.417409 13.7219 13.8381 1.20134 -0.00113486 -0.00166063 -0.00144147
184 2 -0.45253 11.7087 13.9569 16.0585 0.00189595 -0.00373622 0.000185631
185 2 -0.451771 14.2007 11.7615 16.2334 -0.00558658 0.00108895 -0.00511914
186 2 -0.476407 9.61428 9.54816 9.59477 -0.00123182 0.00207325 -0.00284507
187 2 -0.467168 9.70851 11.7264 11.7706 0.00280426 -0.00028004 0.000539475
188 2 -0.491597 11.7802 9.58887 11.9144 -0.00458542 0.00150615 -0.00269119
189 2 -0.491739 11.6635 11.8991 9.56657 -0.00674111 -0.00502326 0.00601468
190 2 -0.43899 9.67488 13.871 13.9143 -0.00664829 0.00492422 -0.00119802
191 2 -0.518138 14.0114 9.47287 13.8366 0.00374353 0.00495086 -0.00379408
192 2 -0.466412 13.8643 13.9177 9.62152 -0.00063688 0.00167963 0.0057381
193 2 -0.585147 13.6576 10.5035 10.4228 0.0111404 -0.0018703 -0.00681389
194 2 -0.5826 12.9749 8.95011 8.55471 -0.0104267 -0.00351072 0.00334619
195 2 -0.575031 1.41358 3.50175 0.451694 0.00113105 0.0101865 -0.000944397
196 2 -0.566344 15.0379 14.8742 17.0193 -0.00979203 -0.00399395 -0.00827919
197 2 -0.642341 15.1764 0.0874507 4.54442 0.00335768 -0.00497967 -0.00355462
198 2 -0.587429 12.6343 11.1212 14.8857 0.00843787 0.0101165 0.00203348
199 2 -0.539954 5.30236 5.16094 6.75655 -0.0137947 -0.00179578 0.000513729
200 2 -0.556579 12.4245 6.9415 2.36286 -0.0028643 0.0046159 0.00711527
201 2 -0.567755 11.9069 3.7903 2.88131 -0.00354256 -0.00306483 0.00195955
202 2 -0.565792 12.1183 6.04979 11.2815 8.20505e-05 0.00201196 0.00130848
203 3 0.381548 12.846 11.1524 10.2929 0.00473578 -0.0136342 0.0280004
204 3 0.391241 14.4323 10.9111 10.075 0.00419942 0.00108567 -0.00632759
205 3 0.37515 12.1506 9.25116 8.92613 -0.0111664 -0.0261877 -0.0134854
206 3 0.357161 13.0958 8.0858 8.9148 -0.0267626 -0.0028583 -0.0185357
207 3 0.368244 2.1856 3.21203 17.0113 0.0070927 0.00899056 0.00419451
208 3 0.391309 0.774023 2.69542 0.515167 0.00504988 0.0119065 -0.0128487
209 3 0.36977 16.0136 15.0063 0.208085 -0.0153064 0.00137121 -0.0202304
210 3 0.36521 14.6677 15.7878 17.1191 -0.0229971 0.00221652 -0.00403072
211 3 0.389573 15.7625 17.1491 3.75762 0.00996256 0.0106276 0.0055907
212 3 0.37711 15.5248 16.7869 5.35276 0.0112834 -0.0127874 0.00137886
213 3 0.375784 12.7111 10.1518 14.5148 0.0103592 -0.00313824 -0.0172879
214 3 0.367236 12.965 11.7158 14.2012 -0.0223647 0.0306737 0.0247471
215 3 0.298156 4.91777 4.73787 7.57541 -0.00808691 0.00232768 0.0225665
216 3 0.364461 4.70899 4.81913 6.05874 0.0193593 0.00570211 0.00998977
217 3 0.380539 12.3479 7.87723 2.18224 0.00941388 -0.0281847 0.00487578
218 3 0.322265 13.4283 6.68524 2.24829 0.00906146 0.0156809 0.00335247
219 3 0.379584 12.4921 3.19689 3.39279 0.00478798 -0.0125046 -0.00487141
220 3 0.38855 10.8814 3.81363 3.3573 0.00655465 -0.0190264 -0.00373094
221 3 0.391354 12.4573 6.77645 11.8428 -0.0124056 0.00518336 -0.015541
222 3 0.346877 11.921 6.44572 10.4372 -0.00477115 -0.00242102 -0.00432423
ITEM: TIMESTEP
1000
ITEM: NUMBER OF ATOMS
222
ITEM: BOX BOUNDS pp pp pp
1.5233436762659487e+00 1.5636656323734037e+01
1.5233436762659487e+00 1.5636656323734037e+01
1.5233436762659487e+00 1.5636656323734037e+01
ITEM: ATOMS id type q x y z vx vy vz
1 1 1.77887 1.74763 15.539 15.5924 -0.00555753 -0.00122236 0.0040259
2 1 1.55973 3.16474 3.51132 3.23432 -0.00299401 -0.0027646 0.000303585
3 1 1.852 15.3866 5.14852 5.16965 0.00245473 -0.00331159 -0.0033124
4 1 1.75345 3.24675 6.80066 6.7077 -0.00705028 0.00668169 7.51015e-05
5 1 1.73201 4.86254 1.53272 5.07263 -0.00097706 -0.00187426 -0.00146256
6 1 1.82171 6.71695 3.07751 6.9235 -0.00133662 -0.0021546 -0.00561241
7 1 1.7329 5.22142 5.07734 15.5935 -0.00139122 -0.00312235 0.00746629
8 1 1.78788 6.95121 6.82169 3.45523 0.000609399 0.00531233 0.0122304
9 1 1.69624 1.51928 1.59427 8.84281 -0.00308142 -0.00587984 -0.00110329
10 1 1.83914 3.44342 3.12397 10.5332 -0.00388979 -0.00093379 0.00681297
11 1 1.84819 1.7603 4.98612 12.2464 -0.000166042 -0.0097305 0.00241356
12 1 1.70333 3.43118 6.98018 13.9052 -0.00493509 0.00133486 0.00312267
13 1 1.73609 5.43167 1.52704 12.1626 0.000623264 -0.000884276 -0.00076973
14 1 1.87016 7.14538 3.28618 14.0366 -0.00508122 -0.000171112 -0.00094505
15 1 1.75174 4.92941 4.98569 8.52819 -0.000964394 0.00582082 0.00117516
16 1 1.73255 6.60754 6.7284 10.418 0.00201821 0.00152241 -0.000178091
17 1 1.82225 1.72682 8.65303 1.6119 0.00898761 -0.00147712 -0.0127377
18 1 1.88371 3.36742 10.4299 3.41462 -0.00332689 2.749e-05 0.000896233
19 1 1.88722 15.5287 12.058 5.10057 0.00473329 -0.000883341 0.000421275
20 1 1.76951 3.03719 13.9606 6.77696 0.000685701 0.00250176 -0.0072663
21 1 1.88577 5.06751 8.5267 5.06192 -0.00271314 -0.00625055 -0.00430244
22 1 1.83424 6.78116 10.3566 6.67473 -0.00114193 -0.00544474 -0.00460359
23 1 1.82507 4.9891 12.1504 1.56236 0.0030794 0.00438107 -0.00565584
24 1 1.79291 6.66118 14.0213 3.31695 -0.00366219 -0.00635475 0.00364316
25 1 1.64565 15.5633 8.70767 8.50561 0.000610859 -0.00706381 -0.00281396
26 1 1.8582 3.36522 10.4857 10.1471 0.00230883 0.000813589 0.00137135
27 1 1.72404 1.66649 12.1578 12.0074 -0.00222589 -0.00112748 -0.00197806
28 1 1.92119 3.45564 13.899 13.6813 0.00474049 -0.000785002 0.00598702
29 1 1.8583 5.03308 8.83072 12.0316 -0.000182594 0.00293175 0.0021428
30 1 1.71797 6.80547 10.3286 13.9627 0.00283899 0.000979174 -0.000199701
31 1 1.80075 5.06459 12.2908 8.4345 -0.00173383 -0.0072565 -0.00233262
32 1 1.86858 6.9211 13.8047 10.2412 -0.00596429 -0.000862399 -0.000192941
33 1 1.72548 8.67003 15.5593 1.72143 0.00233534 0.000681354 -0.00634339
34 1 1.6409 10.4723 3.26222 3.52694 -0.00182497 0.00250752 0.00392877
35 1 1.81211 8.53504 4.91392 5.23411 -0.000893288 -0.00200359 -0.00155217
36 1 1.62286 9.96254 6.89698 7.0321 0.00173149 -0.00506009 -0.00550532
37 1 1.56455 12.4124 15.4517 5.13524 0.0023533 0.00352151 0.0042027
38 1 1.73345 13.8624 3.23553 7.00029 0.00462714 0.00294831 0.000408481
39 1 1.66873 12.1819 4.98623 15.579 -0.00582841 0.00151098 -4.45534e-05
40 1 1.53683 13.8525 6.99476 3.24991 -3.54654e-05 -0.00199991 -0.00291404
41 1 1.68296 8.67286 15.6071 8.5389 -0.00516008 -0.000406549 0.00661538
42 1 1.5848 10.5023 3.2129 10.2108 0.00281907 0.00513404 -0.00617465
43 1 1.53874 8.65951 5.1234 12.0363 -0.003553 -0.00508116 -0.00422805
44 1 1.73882 10.4056 6.88332 14.0556 0.00471099 0.00156031 -0.00555457
45 1 1.80346 12.1287 15.5958 12.1468 0.00519272 -0.00269733 0.0137406
46 1 1.65115 14.0051 3.19876 13.8626 0.000770447 -0.00346684 -0.00181691
47 1 1.62545 12.1559 5.14874 8.52856 0.0014299 0.00206232 0.000450969
48 1 1.70541 14.1423 6.64692 10.3368 -0.00444307 -0.00212363 -0.00395783
49 1 1.72569 8.53537 8.62399 1.59802 -0.00111889 -0.00142479 -0.000864917
50 1 1.69485 10.2009 10.5064 3.2556 0.00304958 0.00415552 -0.00437124
51 1 1.86127 8.43584 12.1848 4.93818 -4.21218e-05 -0.000373793 -0.00348628
52 1 1.80247 10.3298 13.9098 6.70212 0.00731163 0.00187454 -0.00353211
53 1 1.45309 11.4265 8.35313 4.86006 -0.00108162 -0.00157516 0.00021828
54 1 1.63002 13.6345 10.2765 6.7116 0.00439569 0.00191612 0.00732283
55 1 1.74674 12.1361 11.7422 15.5372 -0.00366792 -0.000525907 -0.00366037
56 1 1.66062 13.9829 13.6109 2.9715 0.00521092 -0.0041653 -0.00535476
57 1 1.71945 8.33821 8.70499 8.81999 -0.00559397 0.00281332 -0.00773419
58 1 1.78305 10.3596 10.1837 10.5062 -0.00205521 0.0107778 -0.00894189
59 1 1.59485 8.65695 12.0758 12.1749 0.00121445 -0.003047 0.00216202
60 1 1.74414 10.4278 13.8788 14.0371 -0.00160574 0.00075191 0.00265099
61 1 1.6665 12.2615 8.36058 12.065 0.0050959 0.00539047 0.00831423
62 1 1.65688 14.0974 10.165 13.784 0.00726529 -0.00107924 -0.00116941
63 1 1.61793 11.8146 12.0088 8.60858 0.000906776 -0.00450967 0.00482316
64 1 1.7251 13.7265 13.7605 10.3304 -0.00396721 -0.00073013 0.000231471
65 2 -0.882875 2.52069 2.17997 2.54997 0.0047223 0.00676348 0.00614222
66 2 -0.943035 2.54849 14.8691 14.4748 0.00397267 0.000228366 -0.00216929
67 2 -0.934949 14.6965 2.28603 14.8884 -0.00218774 -0.00616136 -0.00163097
68 2 -0.880629 15.0439 14.4838 2.11832 0.00506909 -0.00784558 -0.0113933
69 2 -0.888505 2.13514 4.33993 4.27807 -0.00121044 0.0102242 -0.00289327
70 2 -0.754221 3.87422 2.67473 4.3358 0.00253793 0.00623492 -0.00571506
71 2 -0.842387 4.33971 4.10555 2.42065 0.00390015 -9.52826e-05 -0.00550316
72 2 -0.928203 2.1456 6.02269 6.00632 -0.00304711 0.00126762 0.00201772
73 2 -0.934564 14.7397 4.15079 6.08063 -0.0118701 -0.000732604 0.00849004
74 2 -0.911667 14.2487 6.05686 4.48619 0.000257501 0.00327192 0.00114615
75 2 -0.879384 3.85754 5.82653 7.7719 -0.00439635 -0.00391619 -0.00441204
76 2 -0.957604 4.1065 7.56829 5.66502 -0.000679867 -0.0103084 0.00217296
77 2 -0.758289 2.46064 7.95941 7.43396 -0.00187095 -0.00345643 -0.000245714
78 2 -0.932319 5.81439 2.06863 6.07647 -0.00982468 0.00681827 0.0041768
79 2 -0.866529 3.84779 14.6224 5.66406 -0.00267773 0.00345755 0.00234262
80 2 -0.887597 5.52248 14.7622 4.03863 -0.00164932 0.00153365 0.00498248
81 2 -0.848746 5.59136 3.77252 7.81365 -0.00283034 0.00670761 0.00397123
82 2 -0.936202 7.51756 4.0394 6.11819 0.00354574 -0.00107123 -0.00575011
83 2 -0.893214 7.58408 2.50506 7.96154 -0.00252374 -0.00286067 -0.00130053
84 2 -0.835971 6.19099 6.0235 2.32704 0.00813028 -0.00112716 -0.00617851
85 2 -0.922395 4.36111 5.96178 14.7433 0.00608705 -0.00457436 -0.000644264
86 2 -0.894 6.13852 4.08164 14.8839 0.00433964 0.00500246 0.00294519
87 2 -0.934259 6.17312 7.736 4.33253 0.000802599 -0.0121481 -0.00592687
88 2 -0.893779 7.65468 5.66654 4.2405 0.00482527 -0.0100833 0.00229429
89 2 -0.893303 7.87263 7.84376 2.69813 -0.00596572 0.00316969 -0.00527238
90 2 -0.935719 2.72424 2.05822 9.78394 0.0068286 0.00835451 -0.00822679
91 2 -0.864694 2.2021 14.9504 7.69023 0.000194151 0.0018723 0.00690426
92 2 -0.834261 14.8803 2.77469 8.15465 -0.000391935 0.00244496 0.0110173
93 2 -0.850107 14.527 14.7505 9.38679 0.000875817 0.00137123 0.0057217
94 2 -0.929036 2.64199 3.93072 11.5423 -0.0068824 0.00597596 0.00381713
95 2 -0.853923 4.60422 2.70826 11.3504 0.00468782 -0.00782926 0.00262345
96 2 -0.815567 4.16073 4.25921 9.63688 -1.73074e-05 0.00659813 0.0033871
97 2 -0.893227 2.71225 5.99038 12.883 0.00821579 -0.00626652 0.00266078
98 2 -0.920458 14.9259 4.33639 13.3078 -0.00557699 -0.00182852 -0.00533275
99 2 -0.920263 14.9481 5.62717 11.2879 -0.000833271 0.00311645 -0.0113778
100 2 -0.950809 2.38915 7.69716 14.6776 0.0191482 -0.00410647 -0.00570843
101 2 -0.814607 4.31156 8.09958 13.2244 -0.000333385 0.00346259 0.00110188
102 2 -0.904345 6.44023 2.25369 13.1729 0.000306534 -0.000875351 0.00345714
103 2 -0.929078 4.48977 14.7086 12.8944 0.0031088 -0.0066253 -0.0117357
104 2 -0.920827 6.03998 14.6627 11.1557 0.00388678 -0.00446459 0.00384767
105 2 -0.886987 8.1858 2.64698 14.92 -0.00161466 0.00210333 0.00286179
106 2 -0.811313 7.82887 4.27879 13.1344 0.0108687 0.00703458 0.00233497
107 2 -0.889857 5.94705 5.88075 9.2751 -0.00157579 0.00165778 0.00848808
108 2 -0.868153 5.57465 7.63055 11.2135 -0.00192198 0.00461054 0.0103193
109 2 -0.799969 7.37142 5.88852 11.49 0.00365144 -0.00551205 -0.000536236
110 2 -0.89681 7.31897 7.79826 9.65795 -0.00358701 0.00270354 -0.00380101
111 2 -0.944917 2.47189 9.76887 2.2628 0.00356171 0.00785182 -0.00148944
112 2 -0.853072 15.1294 7.65567 2.55579 -0.00756926 0.0113536 0.000444906
113 2 -0.881347 14.759 9.29182 14.9091 0.00634586 0.00660567 0.00853912
114 2 -0.956089 2.48037 11.117 4.4174 0.00409436 0.000489899 -0.00523981
115 2 -0.942532 4.18082 9.32128 3.97513 -0.00343332 0.00266713 -0.000596915
116 2 -0.911147 4.3393 11.4087 2.78045 0.00226237 -0.00198833 -0.0089172
117 2 -0.947748 2.16683 13.0709 5.87002 0.00336273 0.00470599 0.00281127
118 2 -0.900941 14.4649 11.3793 5.99758 -0.00501429 -0.0110352 0.00285146
119 2 -0.900861 14.8118 12.7974 4.00547 -0.00136591 -0.00186581 0.00370421
120 2 -0.888447 3.88422 13.0884 7.73338 0.000527497 -0.000884312 0.00363436
121 2 -1.01272 5.8835 9.34469 6.03292 0.00911888 0.00926953 0.00404561
122 2 -0.884674 5.8341 11.4436 7.39829 -0.00119548 0.00502883 0.000383922
123 2 -0.942251 7.82784 11.1333 5.79779 0.000618946 0.00636132 -0.0017283
124 2 -0.912597 7.63332 9.5517 7.61011 -0.00146631 -0.00620097 0.00305551
125 2 -0.851649 6.01136 13.0544 2.18917 0.00145017 0.00784188 -0.00838931
126 2 -0.929581 4.16087 13.0878 14.8088 -0.00549033 0.0038929 -0.00148922
127 2 -0.854146 5.70854 11.0304 14.8754 0.00676734 -0.00351274 0.00110815
128 2 -0.944279 7.55326 14.9673 2.56286 -0.00818949 -0.000936435 -0.00282696
129 2 -0.929295 7.3874 13.085 4.35082 0.0105784 -0.00414586 2.25293e-05
130 2 -0.87834 2.57805 9.53786 9.20107 -0.0133893 0.00101664 -0.00349744
131 2 -0.878963 15.0187 7.54642 9.44304 -0.000627704 0.00558819 -0.00637324
132 2 -0.938396 14.4417 9.34248 7.61383 -0.00309799 -0.00413387 0.00332666
133 2 -0.870828 2.42445 11.4659 10.8566 -0.0130457 -0.00430686 0.00199059
134 2 -0.964119 4.12346 9.74484 11.2551 0.0013325 -0.0085042 -0.00646959
135 2 -0.920315 4.43257 11.2741 9.45858 -0.00518405 0.00309054 -0.00619272
136 2 -0.950191 2.75267 12.9773 12.7905 -0.00251248 0.00633889 -0.00836383
137 2 -0.860073 15.113 11.1571 13.0415 -0.00688651 -0.00840812 0.00583716
138 2 -0.863703 14.792 12.9926 11.1017 0.00107823 -0.00392359 0.00612772
139 2 -0.901002 6.00737 9.54116 12.8838 -0.0074129 -0.00515223 0.00282415
140 2 -0.837677 7.45174 9.11386 14.7275 -0.00271987 -0.000845507 -0.00109595
141 2 -0.825475 7.78273 11.3568 13.4083 -0.0043252 -0.00793724 0.00160521
142 2 -0.943109 6.04084 13.1393 9.18245 6.86606e-05 0.0038219 -0.00087635
143 2 -0.926694 7.90546 14.6116 9.45285 0.00161938 0.00180406 0.00299202
144 2 -0.861245 7.74193 12.772 11.0813 0.00707654 -0.00275228 0.00826629
145 2 -0.807832 9.70993 2.17815 2.73009 -0.00594256 0.0171086 0.00642102
146 2 -0.908012 9.4159 14.5959 14.8535 0.000644109 0.00872337 0.00491163
147 2 -0.890938 9.44363 4.01811 4.48141 -0.00536638 -0.000922256 0.0126632
148 2 -0.824897 11.4429 2.38585 4.4858 -0.00270025 -0.00636903 0.00104775
149 2 -0.848784 11.3044 4.03317 2.40465 -0.00182442 0.00192952 0.00411464
150 2 -0.935331 9.09574 6.04961 6.15772 -0.00197089 -0.00397124 -0.00580067
151 2 -0.797184 10.889 5.74087 7.77249 -0.00849845 0.0033877 -0.0094146
152 2 -0.861958 10.8521 7.84219 6.12816 0.00260833 0.00574314 0.00329075
153 2 -0.874799 9.08122 7.50716 8.18922 9.63985e-05 -0.0129411 -0.00741065
154 2 -0.873788 13.0741 2.14319 6.29447 -0.00370878 -0.0102349 0.000684434
155 2 -0.835448 11.5608 14.474 5.97068 -0.00140847 -0.010133 -0.00133188
156 2 -0.71948 12.9363 14.1956 3.95294 -0.00629216 0.000376863 0.00239383
157 2 -0.919159 12.826 4.16841 7.56113 -0.00624738 -0.00306346 0.00973466
158 2 -0.8292 13.0506 6.10668 2.19454 -0.00124184 0.00226764 -0.00460803
159 2 -0.875134 11.3638 5.83037 14.5857 0.00166934 -0.0161347 0.000289347
160 2 -0.884646 13.017 4.03082 14.7392 0.00385756 0.00522569 0.00250261
161 2 -0.800156 13.1364 8.33108 3.40421 -0.00494368 -0.00165688 -0.00420833
162 2 -0.832719 9.90641 2.35824 9.04636 0.00598048 0.00735818 0.00562167
163 2 -0.858938 9.25065 14.8412 7.30868 0.000654051 -0.00358604 -0.00542925
164 2 -0.792416 9.36182 4.02119 10.968 -0.00105004 0.00311302 0.0119752
165 2 -0.898868 11.1461 2.22883 11.2366 -0.00584452 0.0123598 -0.00528419
166 2 -0.858413 11.5305 4.33049 9.67571 0.00570846 -0.00718444 -0.000924568
167 2 -0.776656 9.62612 6.02713 12.9462 0.00975274 -0.00824311 -0.00399575
168 2 -0.943237 9.60906 7.64811 15.089 -0.00137304 0.011779 0.00743961
169 2 -0.877072 11.2633 7.82301 13.1414 -0.00481119 0.000604712 0.000754855
170 2 -0.87823 13.26 2.38083 12.7413 0.00731857 -7.52911e-05 -0.00568406
171 2 -0.908191 11.4958 14.8374 13.3245 0.00472394 0.00304782 -0.00215502
172 2 -0.895377 12.9699 14.6069 11.4185 -0.00429232 -0.00214509 -0.00833323
173 2 -0.851229 13.1957 6.1408 9.26383 0.0143261 -0.000529535 -0.000969366
174 2 -0.942211 13.0632 7.43469 11.1645 0.00567697 0.000733956 -0.000283628
175 2 -0.85124 9.21321 9.91043 2.16087 0.00254755 0.000288419 -0.00023818
176 2 -0.860738 9.32889 11.6673 3.79404 0.00425855 -0.00899531 -0.000977999
177 2 -0.850383 10.5445 9.47491 4.39483 1.20753e-05 -0.00561757 -0.00448513
178 2 -0.941297 11.4055 10.9941 2.47008 0.000114959 -0.00150401 0.00134219
179 2 -0.852174 9.50946 13.0145 5.76941 -0.0011237 0.00252894 -0.00102339
180 2 -0.843249 10.8027 13.0159 7.81223 0.00711368 0.00878419 0.00261808
181 2 -0.677598 12.7569 9.46179 5.78111 -0.00318886 -0.00475515 0.00022946
182 2 -0.790793 12.4303 11.0107 7.51946 -0.00246029 0.0163474 0.000871484
183 2 -0.824882 13.3043 12.4979 2.03006 0.0104352 -0.00197142 -0.00447462
184 2 -0.89528 11.0641 12.6654 14.7115 0.00508266 -4.93719e-05 0.00401032
185 2 -0.841722 12.9349 10.6957 14.7034 0.00473943 0.00429901 0.0148855
186 2 -0.948648 9.25082 9.44563 9.69209 0.00302056 0.00185725 0.000418984
187 2 -0.895207 9.53736 10.9728 11.5348 0.00420178 -0.00042931 -0.0129131
188 2 -0.945039 11.4899 9.39089 11.2058 0.00229096 0.00226929 0.00166834
189 2 -0.924279 11.1852 11.2249 9.75272 0.00116775 0.00213722 0.00530258
190 2 -0.822686 9.53591 13.1576 12.9222 0.00201738 -0.0103814 0.00247194
191 2 -0.879857 13.3201 9.36881 12.7228 -0.000311251 -0.000790005 0.00684225
192 2 -0.880792 12.9114 12.76 9.4349 0.00788553 -0.00662433 -0.00137831
193 2 -0.639744 14.2991 10.1978 9.89219 0.00111587 0.00885845 -0.00515051
194 2 -0.591449 12.2367 8.32539 8.50941 0.00441207 -0.00117685 0.00350343
195 2 -0.656301 1.90008 4.97897 1.91268 0.000756783 0.00466407 -0.00272987
196 2 -0.628628 12.6745 14.9015 15.6629 -0.0137315 0.00994773 0.0198861
197 2 -0.693238 14.6387 1.72101 4.47367 0.00348635 0.00441201 0.00109788
198 2 -0.604519 12.0931 12.1924 12.3687 -0.0155215 0.0121259 -0.00379036
199 2 -0.607438 6.43518 6.75938 7.02269 -0.00171113 -0.00213021 0.00786306
200 2 -0.681718 11.1493 7.24988 3.67736 0.000511482 0.00250878 -0.00284925
201 2 -0.624143 11.7288 4.82207 4.87907 -0.00153673 0.00481499 0.00199727
202 2 -0.612772 10.0084 6.36219 10.672 -0.00671205 -0.00243922 -0.00439091
203 3 0.394383 13.6281 10.7796 9.54808 -0.00289106 0.0245132 -0.00938716
204 3 0.369514 13.702 9.7146 10.5433 0.0181589 -0.00359802 -0.00143681
205 3 0.417024 12.4558 8.31686 7.55273 -0.0289041 0.0322215 -0.0235912
206 3 0.399596 13.0682 8.45579 8.98607 0.000910833 -0.0305614 0.00195852
207 3 0.385839 2.5491 5.62875 1.55359 -0.00552754 0.0135577 0.000453064
208 3 0.402604 15.4126 4.73797 15.252 -0.0215176 0.0110113 0.00454555
209 3 0.435354 13.0092 15.2669 14.8644 -0.0315434 -0.0307109 0.0334973
210 3 0.373983 12.6122 1.64827 2.10097 -0.00858951 -0.0310114 0.0428632
211 3 0.41071 15.378 2.37688 4.36663 0.00662555 0.0220325 0.0215373
212 3 0.40255 15.2146 15.0849 4.64807 -0.0159462 0.00836416 -0.00456446
213 3 0.394261 12.2486 11.3193 11.8998 0.0246647 0.0141896 -0.0219644
214 3 0.425577 11.3451 12.0569 12.8521 -0.0309305 -0.0255332 0.0199003
215 3 0.41702 6.36017 7.56794 7.51282 -0.0110553 0.0047047 0.0246776
216 3 0.429073 7.35601 6.42501 7.16803 -0.00497599 0.0126283 -0.0296939
217 3 0.424253 10.6519 7.65065 3.00522 0.0293583 0.0346995 -0.0192192
218 3 0.454138 13.2601 9.15785 2.81161 -0.0413216 0.022113 0.00429312
219 3 0.437682 12.049 4.23354 5.52863 -0.0388821 0.0230147 0.0209744
220 3 0.405724 12.4361 5.41181 4.45747 0.0228489 -0.00874568 -0.0481958
221 3 0.405227 10.9225 6.58216 10.9963 -0.00176557 -0.0462166 0.0449583
222 3 0.40496 10.0302 5.61978 9.97076 0.00173632 -0.0202089 -0.0191099
ITEM: TIMESTEP
2000
ITEM: NUMBER OF ATOMS
222
ITEM: BOX BOUNDS pp pp pp
1.5440580522862852e+00 1.5615941947713694e+01
1.5440580522862852e+00 1.5615941947713694e+01
1.5440580522862852e+00 1.5615941947713694e+01
ITEM: ATOMS id type q x y z vx vy vz
1 1 1.68738 1.9031 1.58319 15.5574 -0.00156622 -0.00294006 -0.00161089
2 1 1.68314 3.17735 3.55946 3.43447 0.00636604 -0.000434913 0.00351938
3 1 1.71141 15.3032 5.17685 5.24651 -0.000108887 -0.000830084 -0.00438879
4 1 1.82558 3.22172 6.77215 6.84214 -0.000546191 0.00399477 0.00175825
5 1 1.8351 4.94493 1.6301 5.02248 0.00503748 -0.000423789 -0.00190477
6 1 1.78728 6.62001 3.19828 6.98587 0.000525833 -0.00156724 0.00114475
7 1 1.88021 5.267 5.03529 15.7146 -0.000317581 -0.00403169 0.00452883
8 1 1.88983 6.92404 6.85337 3.37217 -0.00314312 0.00407326 0.00166156
9 1 1.79544 1.73084 1.56481 8.76887 -0.00336135 0.0025631 0.00035249
10 1 1.83595 3.42313 3.35299 10.5007 0.00541186 -0.00067693 -0.00169841
11 1 1.86161 1.53251 5.03088 12.0671 0.000246434 -7.36124e-05 0.00342993
12 1 1.71585 3.40886 6.66235 13.8933 0.00235423 -0.00256422 0.00324146
13 1 1.92449 5.31847 1.54407 12.1462 -0.000183555 -0.00297482 -0.00410355
14 1 1.907 7.004 3.22773 14.0172 -0.00592618 0.0010879 -0.00337555
15 1 1.93823 4.99268 5.11102 8.65735 -0.00410254 0.00352487 0.00547888
16 1 1.80066 6.71569 6.86059 10.4465 -0.00158586 -0.00210148 0.0019933
17 1 1.7224 1.81262 8.54785 1.59834 0.00215689 0.00629478 0.00289113
18 1 1.87379 3.51187 10.325 3.32815 0.00194592 0.00253539 0.00251276
19 1 1.64283 1.57889 11.9855 4.92635 -0.00076071 -0.0044869 -9.69627e-05
20 1 1.62589 3.24823 13.8121 6.74624 0.00835642 0.00218466 0.00203394
21 1 1.76346 5.02552 8.44906 5.06657 -0.00100718 0.00112122 0.00513365
22 1 1.78072 6.76474 10.3877 6.74863 0.00184587 -0.000554326 0.00552185
23 1 1.95294 5.19973 12.0314 1.48955 0.00156856 -0.00087938 -0.000240658
24 1 1.86361 6.76748 13.9668 3.24956 0.00438777 -0.0029669 -0.00487755
25 1 1.74747 1.63677 8.66899 8.59252 -0.00215402 0.00468531 -0.00167341
26 1 1.82722 3.33526 10.48 10.3739 -0.000848259 0.000360828 0.00363184
27 1 1.79558 1.51918 12.2034 12.2397 0.00172711 0.00118824 0.000471041
28 1 2.00495 3.54141 13.8329 13.8371 -0.00362315 -0.00283307 -0.00131658
29 1 1.82409 4.92461 8.60282 12.112 0.0019078 -0.00249218 -0.00150669
30 1 1.85395 6.85726 10.2917 13.7564 -0.000712158 -0.000201002 0.000878053
31 1 1.86678 5.11452 12.1707 8.56483 0.00169997 -0.00553986 -0.000549832
32 1 1.93551 6.88474 13.9358 10.2388 -0.00029133 -0.00274977 0.000937579
33 1 1.82724 8.75689 1.5757 1.66615 0.00154323 0.00300434 0.00438411
34 1 1.6194 10.669 3.2891 3.50406 -0.00426431 0.000499279 0.000615519
35 1 1.7528 8.43294 4.82497 5.02025 0.00130125 0.000975086 -0.00130745
36 1 1.70497 10.0077 6.692 6.91273 0.00667956 0.00014227 -0.00133725
37 1 1.73318 12.3504 15.3079 5.1345 -0.00670327 -0.00159183 -0.00478128
38 1 1.73329 13.8719 3.18665 7.03414 0.000204503 -0.000835947 -0.00232138
39 1 1.78658 12.2366 4.99041 15.5005 0.000383737 0.00424026 0.000322748
40 1 1.70466 13.772 6.9043 3.20863 -0.00266282 0.00236557 0.00357006
41 1 1.90695 8.69386 1.57493 8.53416 0.00651884 -0.000955313 0.00397693
42 1 1.9076 10.2603 3.2931 10.434 -0.0011827 -0.00356541 0.00328777
43 1 1.87945 8.49124 5.02772 12.1588 -0.00330044 0.00215884 -0.00533571
44 1 1.73598 10.3525 6.74878 13.8651 -0.00263014 0.00207776 -0.000789006
45 1 1.826 12.074 15.5594 12.143 0.00124576 0.00520568 0.00123458
46 1 1.75012 14.0127 3.19856 13.8567 0.00140754 0.00574824 -0.00609294
47 1 1.75985 11.9428 5.03304 8.60161 0.00158046 -5.93856e-05 7.64055e-05
48 1 1.72994 13.9156 6.73408 10.2366 -0.00298986 0.00192833 0.00291936
49 1 1.77544 8.56103 8.60284 15.5196 -0.00216693 -1.37415e-06 0.00255454
50 1 1.7373 10.1239 10.4949 3.2397 0.0066938 -0.00168799 0.00130325
51 1 1.91601 8.41163 12.1964 4.99177 0.00565674 -0.00283651 -0.000900729
52 1 1.90462 10.2396 13.7717 6.70957 -0.00546069 -0.0030753 -0.00160889
53 1 1.64486 11.2904 8.08561 4.5438 -0.00638516 -0.00166741 -0.00354379
54 1 1.65679 13.8541 10.4764 6.85239 0.00705802 0.00368822 0.00621763
55 1 1.69611 12.15 11.9046 15.5487 -0.00158885 0.00591102 0.00150162
56 1 1.63075 13.9751 13.8067 3.0638 -0.00582792 0.00418517 -0.00497915
57 1 1.78246 8.40972 8.65009 8.65316 0.00698933 -0.000698258 0.0041714
58 1 1.72384 10.2959 10.4209 10.4702 -0.00326024 0.000936143 -0.00635369
59 1 1.73448 8.45795 12.1457 12.1069 0.000157243 -0.0018314 -0.00702712
60 1 1.66725 10.3184 13.7633 13.8663 0.00666626 -0.00123629 -0.00263404
61 1 1.70871 12.1451 8.55358 12.0162 -0.000485118 -0.000927602 0.000507789
62 1 1.77085 14.0147 10.1548 13.9012 -0.00365827 0.000267695 -0.00274352
63 1 1.72273 12.0446 12.2647 8.56922 0.00774199 -0.00195824 0.00253691
64 1 1.79103 13.8811 13.8851 10.3686 0.000970354 -0.00466183 0.00188913
65 2 -0.908725 2.59829 2.34972 2.63119 -0.000708173 -0.000840691 0.00167538
66 2 -0.940811 2.93193 14.8645 14.7135 -0.000973025 0.000882164 0.0022953
67 2 -0.919913 15.1801 2.64316 14.6852 -0.00198144 1.96286e-05 0.00103441
68 2 -0.794406 14.8643 14.6287 2.03971 -0.00058849 0.000384334 0.00212238
69 2 -0.889268 2.22706 4.27504 4.47674 -0.000594808 -0.00269866 -0.00155425
70 2 -0.88777 4.14067 2.78056 4.36199 -0.00199303 -0.00261228 -0.000445432
71 2 -0.857377 4.2539 4.50773 2.63141 -0.00358125 -0.000463301 0.000769522
72 2 -0.874888 1.97406 6.02481 6.31633 -0.0053224 0.00439429 -0.00384129
73 2 -0.914054 14.3833 4.17399 5.98343 0.00268325 0.000975832 -0.0107874
74 2 -0.88797 14.2667 6.00628 4.43987 -0.0042279 0.00452563 0.00456659
75 2 -0.949963 3.94564 5.8013 7.72245 -0.00109912 -0.00401042 0.00446986
76 2 -0.890146 3.92803 7.46855 5.65408 -0.00126868 0.00658938 0.00645272
77 2 -0.914287 2.58599 7.89092 7.69919 0.00355058 -0.0046909 -0.0064146
78 2 -0.929419 5.76262 2.24784 6.10219 0.00230428 -0.00235647 -0.00759857
79 2 -0.851187 4.31014 14.5324 5.70027 0.00058514 0.011033 -0.00122863
80 2 -0.85521 5.71798 14.8788 3.92021 0.00326752 -0.00758613 -0.00267466
81 2 -0.999473 5.80853 4.24913 7.70244 0.0044977 0.00603192 -0.00448985
82 2 -0.858375 7.39357 3.98209 5.82075 0.00111711 -0.00555098 -0.00273743
83 2 -0.917903 7.70956 2.6299 7.93761 0.000566691 0.000638356 0.00531304
84 2 -0.932784 6.10061 6.1213 2.30647 0.0015802 0.00352895 0.00397072
85 2 -0.874201 4.4979 5.83149 14.6313 0.00145477 0.0031109 -0.000760956
86 2 -0.944017 6.16298 3.97494 15.1079 -0.00361095 0.00426264 -0.00143056
87 2 -0.937824 6.12789 7.59996 4.381 0.00502583 0.00207863 0.000761519
88 2 -0.94036 7.80679 5.76595 4.01619 -0.000290779 0.000167227 -0.00136881
89 2 -0.898465 7.73343 7.92021 2.57204 -0.00480568 0.00461786 -0.00648077
90 2 -0.889548 2.82056 2.3058 9.5058 -0.0064048 0.00856949 0.00157343
91 2 -0.838448 2.4952 14.7327 7.75531 0.00554237 0.00197562 0.00434232
92 2 -0.935754 15.0508 2.6125 7.85716 -0.0050098 -0.00107601 0.00351392
93 2 -0.932291 15.0085 14.6861 9.62727 0.00826904 0.00373658 0.0034949
94 2 -0.943757 2.22875 3.9646 11.2382 -0.000170027 0.00147525 -3.20932e-06
95 2 -0.898142 4.32241 2.53409 11.5003 -0.00360427 -0.00220473 0.00136549
96 2 -0.998958 4.30531 4.3149 9.70042 -0.00580169 -0.00587512 -0.00785806
97 2 -0.89912 2.62411 5.65247 12.9654 0.0010036 -0.00311307 -0.00688764
98 2 -0.933469 14.5751 4.29249 12.9341 -0.000424914 -0.000147295 -0.00113311
99 2 -0.939108 15.004 6.06067 11.1459 -0.00475512 0.00623934 -0.00461533
100 2 -0.908929 2.5428 7.33913 15.0253 0.00158549 -0.000706105 0.00218442
101 2 -0.895117 3.96581 7.83252 13.0165 -0.00345676 -0.00530392 0.00924782
102 2 -0.956577 6.07343 2.24252 13.2623 -0.00738967 0.0038177 -0.00221253
103 2 -0.955538 4.51649 14.5116 12.8602 -0.000799642 0.00709486 -0.00299813
104 2 -0.987025 6.119 14.9862 11.0353 -0.00382833 0.00117504 0.0042454
105 2 -0.953296 8.12862 2.45737 14.6572 -0.000525465 0.000360676 0.00678634
106 2 -0.965125 7.5525 4.24274 13.033 -0.000738738 0.00227488 0.00578223
107 2 -0.979967 5.84861 6.14459 9.38872 -9.95427e-05 0.0058845 -0.00205516
108 2 -0.93023 5.9156 7.60098 11.5126 0.00284206 -0.00341183 0.00144024
109 2 -0.949754 7.69839 5.94851 11.236 0.000306502 -3.11661e-05 0.00480701
110 2 -0.905954 7.33584 7.96421 9.49353 0.00375319 0.000536989 -0.00274267
111 2 -0.907299 2.60502 9.67793 2.21094 0.0030031 0.00272436 -0.000727838
112 2 -0.880948 14.8862 7.85035 2.62265 -0.0026428 -0.0037749 -0.0026125
113 2 -0.876875 14.8986 9.15073 14.5873 0.00335555 0.0050566 0.00608826
114 2 -0.887767 2.57517 10.9711 4.35556 -3.72772e-05 0.00263468 -0.00542944
115 2 -0.926625 4.32092 9.25832 3.94045 0.00420907 0.00299638 0.00232977
116 2 -0.954315 4.51463 11.2398 2.59297 0.00652159 0.000821214 0.00290664
117 2 -0.803984 2.32722 12.6481 6.08648 -0.000806838 -0.00173455 0.000409381
118 2 -0.865429 14.4878 11.1113 5.66833 -0.000124416 -0.000877129 0.00267747
119 2 -0.760451 15.0909 12.7673 3.66172 -0.00274794 -0.00043944 0.00218411
120 2 -0.807762 3.98855 12.9385 7.82817 -0.000222426 -0.00350335 0.00011005
121 2 -0.864242 5.64794 9.51977 6.03901 -0.00925575 -0.0030087 -0.00546505
122 2 -0.910142 6.04243 11.504 7.53533 0.00390473 0.00807294 0.0014084
123 2 -0.907612 7.57982 11.0812 5.63345 0.00273732 -0.00374765 -0.00157598
124 2 -0.925894 7.68245 9.55205 7.68346 -0.00156367 0.00224183 0.00490796
125 2 -0.920434 6.06824 13.1063 2.17911 0.00069836 0.000444263 -0.00924477
126 2 -1.01708 4.24156 12.8041 14.6821 -0.00600123 -0.00332577 0.00212534
127 2 -0.954725 6.25752 11.2003 14.8935 -0.00158544 -0.000735981 -0.00398334
128 2 -0.941797 7.71929 14.9424 2.53675 -0.00828227 6.3232e-05 0.0027356
129 2 -0.953659 7.47454 13.2489 4.38894 0.00295635 -0.00169436 0.00183482
130 2 -0.899211 2.37811 9.74409 9.41973 -0.000261937 0.00032505 -0.00322066
131 2 -0.936568 14.7168 7.84798 9.49716 -0.00425788 -0.00890488 -0.00126619
132 2 -0.867164 14.684 9.60372 7.8136 0.00191368 0.00188331 -0.00143742
133 2 -0.89015 2.59582 11.5087 11.366 0.000249318 0.00176648 0.00031877
134 2 -0.936748 4.10408 9.36584 11.0699 -0.00136334 -0.00383141 -0.00330067
135 2 -0.920873 4.31853 11.2099 9.49465 0.0030597 -0.00477542 0.00709741
136 2 -0.906007 2.37243 13.1707 13.1721 -0.000200756 -0.00355843 -0.00232391
137 2 -0.931924 14.9225 11.1489 13.1728 0.00090108 -0.00523133 0.0032308
138 2 -0.91964 14.6186 13.0916 11.4913 -0.00314959 -0.00475468 0.0114752
139 2 -0.913179 5.70458 9.67672 12.9912 0.000146591 0.00174798 -0.00304144
140 2 -0.898746 7.66137 9.14428 14.4282 -0.00319758 -0.0056639 0.00496811
141 2 -0.965657 7.85052 10.9584 12.8582 -0.00200205 0.00339707 -0.00682752
142 2 -0.955666 5.92084 13.1612 9.32911 -0.00343328 -0.000232646 0.000674161
143 2 -0.972554 7.93688 14.5827 9.33069 0.00445397 0.00844158 0.00494579
144 2 -0.917106 7.39703 12.9477 11.2617 -0.00815045 -0.00303664 -0.000797235
145 2 -0.812873 9.83327 2.32741 2.53291 -0.00849144 0.00301969 -0.00238507
146 2 -0.890518 9.73777 14.7773 14.9826 0.00705857 0.00498682 0.00228821
147 2 -0.821239 9.43898 3.83671 4.37033 0.00056268 0.0035659 -0.00313184
148 2 -0.845148 11.5806 2.20106 4.21252 -0.00415399 -0.000686139 -0.00909868
149 2 -0.855982 11.3288 4.34321 2.45566 -9.61653e-05 0.00159365 0.00532992
150 2 -0.903148 9.08432 5.66122 6.1599 -0.00433363 -0.00803237 0.00261034
151 2 -0.925983 11.0476 5.74052 7.57125 -0.00568174 -0.000942134 -0.000932074
152 2 -0.882577 10.8655 7.504 5.89881 0.00668208 -0.00436758 0.00420292
153 2 -0.92457 9.01984 7.48574 7.83396 -0.0017557 0.00164435 -0.000960537
154 2 -0.913223 13.2228 2.09838 6.1714 -3.30056e-06 0.00527992 0.000717131
155 2 -0.902317 11.1452 14.4972 5.70989 0.00267688 -0.000280086 -0.00185516
156 2 -0.927766 13.2518 14.4241 4.28321 -0.00147439 -0.00033128 -0.00689547
157 2 -0.867569 12.7751 3.93168 7.87694 0.00300575 -0.0022502 -0.00422823
158 2 -0.955071 13.1305 5.94342 2.23149 -0.000526544 -0.00626953 0.00550052
159 2 -0.889853 11.4816 5.90369 14.4609 0.000586625 0.00369057 0.000346875
160 2 -0.972882 13.0122 3.82344 14.8662 0.00220589 -0.00758327 -0.000173895
161 2 -0.868409 12.6961 7.73889 3.90939 -0.000260307 -0.00636445 0.00303333
162 2 -0.986498 9.62493 2.35839 9.4191 0.00163222 0.00296087 -0.00183318
163 2 -0.89921 9.39211 14.9452 7.38648 0.000493244 0.00789734 -0.000799206
164 2 -0.933308 9.20374 3.92947 11.2883 -0.000155336 0.000295956 -0.00146001
165 2 -0.894792 11.066 2.47686 11.5427 0.00790603 0.00312978 0.000814041
166 2 -0.945184 11.1849 4.22287 9.74221 -0.00281662 -0.00745723 -0.00140144
167 2 -0.947642 9.5591 5.74206 13.0132 0.00484009 -0.00747377 -0.00082721
168 2 -0.919256 9.43756 7.44627 14.8826 0.00257151 0.00496369 -0.00947254
169 2 -0.887763 11.1061 7.81183 12.9015 0.0072635 0.00476572 -0.000417756
170 2 -0.890354 13.1982 2.2177 12.9165 0.00279724 -0.00260429 0.00599841
171 2 -0.94533 11.2735 14.5056 12.8955 -0.0011723 -0.00123818 -0.00507883
172 2 -0.964874 12.8262 14.6687 11.1417 0.00796323 -0.000311309 -0.00430265
173 2 -0.911004 13.0316 5.92366 9.27478 0.000269282 -0.00445005 -0.00155555
174 2 -0.91932 12.8111 7.50329 11.0127 0.00029498 -0.000779653 -0.00236255
175 2 -0.931176 9.4042 9.68073 2.0891 0.00387196 0.00143549 0.00314083
176 2 -0.942004 9.12412 11.5227 3.84982 0.0012515 -0.00587711 0.00271047
177 2 -0.907728 10.9135 9.52281 4.18321 0.00346165 -0.000882862 -0.00537217
178 2 -0.845978 11.269 11.2417 2.56554 -0.00239495 -0.000384542 -0.00435229
179 2 -1.00821 9.31173 12.8025 6.06046 -0.00134949 -0.001154 0.00582027
180 2 -0.953 11.1146 13.2636 7.80209 0.000120167 -0.002535 -0.00905025
181 2 -0.68883 13.1039 9.38365 6.00596 0.000172787 -0.004995 0.000692798
182 2 -0.888979 12.7346 11.3194 7.54733 0.00405945 -0.00461054 -0.00514597
183 2 -0.841185 13.201 12.6821 2.22295 -0.00327882 0.0111973 0.00318845
184 2 -0.924885 11.0963 12.7003 14.6918 -0.00155087 -0.00165789 0.0039769
185 2 -0.937896 12.8812 10.8021 14.6707 -0.00088668 -0.00260245 0.000306762
186 2 -0.871938 9.29852 9.56371 9.58038 -0.00704546 -0.00739972 -0.00237215
187 2 -0.876597 9.54641 11.5695 11.0921 0.000621803 -0.00125727 0.00271677
188 2 -0.976303 11.2894 9.50896 11.2458 -0.00231957 -0.00508495 -0.00529997
189 2 -0.837044 11.1847 11.1984 9.40314 0.00202668 0.00151799 0.00158497
190 2 -0.869634 9.12276 13.2035 13.0087 2.50659e-05 -0.00265748 0.010184
191 2 -0.895006 13.2865 9.23628 12.7612 -0.00434437 -0.00280413 -0.00384864
192 2 -0.912701 13.1552 12.9641 9.35735 -0.00276032 0.00294288 -0.000906002
193 2 -0.593266 13.8572 10.6042 10.3134 -0.00180841 -0.00397422 -0.00144415
194 2 -0.624134 11.7372 8.60376 8.60246 0.00244293 0.00655209 -0.00333892
195 2 -0.673139 1.84082 4.93785 2.1904 -0.000456542 0.00463057 0.00887148
196 2 -0.643558 12.5361 15.1513 1.80241 -0.000168702 -0.00378351 -0.00104324
197 2 -0.677836 1.92537 15.2341 5.43254 -2.28777e-05 0.00382474 -0.00668881
198 2 -0.602305 12.0637 11.8805 12.2867 -0.00390705 0.00361275 0.00400775
199 2 -0.609119 6.68292 6.66581 6.8197 -0.00977218 -0.00214124 -0.00421056
200 2 -0.710627 10.3538 7.21813 3.67412 -0.00801883 -0.000748608 0.00262535
201 2 -0.629147 11.7817 4.72738 4.9158 0.00191899 -0.00147905 -0.00134677
202 2 -0.605224 10.2022 7.00575 10.337 -0.000812302 0.00166007 -0.00526128
203 3 0.392437 14.2623 9.70534 10.1537 -0.00747853 -0.000754472 0.0135411
204 3 0.413914 13.3671 10.468 11.1208 0.0119465 -7.45093e-05 0.0199296
205 3 0.420083 11.9732 9.56723 8.46337 0.00408451 -0.00115755 -0.00649525
206 3 0.405695 12.5863 8.26931 8.83124 -0.00779842 -0.00143386 0.01409
207 3 0.417718 15.7186 5.88952 2.0163 0.0125602 -0.00958169 -0.00578424
208 3 0.41134 15.3494 4.36392 15.7464 -0.00202134 -0.00730274 0.00427543
209 3 0.420093 12.3788 2.02236 1.72584 0.0139534 -0.00645177 0.0131736
210 3 0.410626 11.6096 14.7706 1.80374 -0.0110797 -0.0267991 0.0205928
211 3 0.405371 2.20111 1.89915 4.88986 0.00720209 -0.011871 0.0131061
212 3 0.418617 15.3733 1.49603 6.03728 0.00560337 0.00778961 -0.00231402
213 3 0.411427 12.1302 12.8329 11.9213 0.0131023 -0.0148326 0.00187727
214 3 0.389076 12.2562 11.9971 13.2442 -0.0107662 -0.0105207 -0.0118208
215 3 0.437652 7.02007 6.96314 7.65579 0.0174022 0.0284565 0.0252687
216 3 0.43258 6.98707 5.77807 6.74486 -0.00637002 -0.000140084 0.02719
217 3 0.419411 10.0786 7.58036 2.83349 -0.00422607 -0.00134335 -0.0168183
218 3 0.457227 13.1918 9.54044 5.03388 0.00235259 0.0140469 -0.0239581
219 3 0.410656 11.1597 5.19775 5.55103 -0.0137982 0.000395468 0.0353607
220 3 0.458477 12.6913 5.04638 5.15787 0.000651052 -0.0130793 -0.00906878
221 3 0.42738 10.7735 7.768 10.194 0.0183714 -0.0097287 -0.0435313
222 3 0.402903 10.3239 6.79299 11.2819 0.0120691 -0.0199265 -0.00298623
ITEM: TIMESTEP
3000
ITEM: NUMBER OF ATOMS
222
ITEM: BOX BOUNDS pp pp pp
1.5324224068004888e+00 1.5627577593199439e+01
1.5324224068004888e+00 1.5627577593199439e+01
1.5324224068004888e+00 1.5627577593199439e+01
ITEM: ATOMS id type q x y z vx vy vz
1 1 1.73187 1.63989 1.59375 15.5192 -0.00278069 0.000682788 0.00180424
2 1 1.55582 3.14274 3.61188 3.22428 -0.000242843 0.00027109 -0.00404992
3 1 1.75655 15.4785 5.06308 5.23729 0.008849 -0.00477538 0.000743069
4 1 1.84793 3.18993 6.67009 7.01962 0.000384629 0.000779135 0.00122635
5 1 1.77302 5.07277 1.6258 5.07567 0.00345381 -0.00165888 -0.0023964
6 1 1.77802 6.78363 3.28318 7.0114 -0.00261259 -0.000638311 0.000342584
7 1 1.80413 5.21119 5.14222 1.65568 0.00192475 -0.00500063 -0.00259313
8 1 1.85689 6.95043 6.92329 3.38765 0.00167801 -0.00128118 -0.00184706
9 1 1.7151 1.71394 15.6615 8.59711 0.00120526 -0.000388519 0.000472044
10 1 1.86236 3.23954 3.2964 10.496 -0.00214034 -0.0055013 -0.000653028
11 1 1.90877 1.64485 5.26976 11.9945 0.00516522 0.002271 0.00258894
12 1 1.88681 3.34298 6.78429 13.9844 0.00237145 0.00329532 0.00534893
13 1 1.83311 4.99702 1.58872 12.3008 0.00244199 -0.000966861 0.00234863
14 1 1.83727 6.8176 3.29959 13.9846 0.000222879 -0.00392643 0.002635
15 1 1.7965 5.03374 4.99583 8.77858 0.00061787 0.000104368 0.000578816
16 1 1.75413 6.70295 6.91964 10.5975 -0.0042494 0.00271945 -0.00261834
17 1 1.82031 1.57906 8.5879 1.65418 0.00132097 -0.00223326 0.00029578
18 1 1.78277 3.39473 10.3168 3.3415 -0.00245951 0.00199929 0.003253
19 1 1.88408 1.71901 12.3085 4.85033 -0.00506024 0.00185977 0.0049774
20 1 1.75547 3.44375 13.8094 6.81396 -0.00353342 0.00175849 -0.00400334
21 1 1.81114 4.90937 8.358 5.16572 0.00245602 -0.00452061 -0.00256465
22 1 1.71967 6.7014 10.2922 6.7956 -0.0012014 0.00478607 -1.95134e-05
23 1 1.8431 5.21247 12.0305 1.56932 0.000530926 0.00205452 0.00135456
24 1 1.84209 6.83555 13.8852 3.33236 -0.000465832 0.00291722 0.000438958
25 1 1.79112 1.50154 8.6418 8.65011 -0.00253475 0.0012174 0.00369102
26 1 1.84649 3.37766 10.282 10.3557 0.00259842 -9.57039e-05 0.00232624
27 1 1.76064 1.62308 12.0316 12.1657 0.0012244 -0.00133762 0.00238789
28 1 1.80199 3.37368 13.7356 13.994 -0.00330946 -0.00292974 -0.00219661
29 1 1.89743 5.00129 8.68111 12.3542 -0.00381111 0.00157642 -0.0004556
30 1 1.90867 6.99441 10.4214 13.8284 -0.000212046 -0.00129264 -9.91528e-05
31 1 1.80393 5.1524 12.0873 8.65841 0.000487359 0.00357516 0.00118865
32 1 1.76471 6.70186 13.985 10.4355 -0.000726756 0.00296699 -0.00106894
33 1 1.78493 8.58631 1.45099 15.6568 -0.00187606 -0.00364033 -3.19385e-05
34 1 1.77849 10.4559 3.29695 3.24222 -0.00171113 -0.00580794 0.00018224
35 1 1.76234 8.47774 4.87814 5.00229 -0.000760224 0.00258074 -0.00223533
36 1 1.70536 10.1329 6.54892 6.98013 -0.000194518 0.00234317 -0.00806497
37 1 1.80946 12.0216 15.4192 4.87672 -0.00204932 0.00442085 -0.000542071
38 1 1.74675 13.777 3.0353 6.81009 0.00362011 0.0069574 -0.00160622
39 1 1.80717 12.2039 5.06176 15.5477 -0.00126651 -0.000527535 -0.00241975
40 1 1.73518 13.8077 6.90449 3.3619 -0.000335255 0.00336079 0.00325422
41 1 1.95971 8.5835 15.5112 8.60513 -0.00167821 -0.00144752 0.00205476
42 1 1.88358 10.3315 3.0981 10.3853 -0.00279862 -0.00225982 0.000156598
43 1 1.72093 8.5908 4.90464 12.1317 -0.00123579 0.000777376 -0.000498111
44 1 1.91136 10.3541 6.72767 13.841 0.00411132 0.000187504 -0.000310876
45 1 1.71853 12.3427 15.6076 12.015 0.00332097 -0.00336519 -0.0024756
46 1 1.85385 13.9865 3.41913 13.7231 0.0044583 -0.00221359 -0.00373735
47 1 1.75248 12.0712 4.78071 8.62974 -0.000646189 -0.00597931 -0.00134252
48 1 1.78078 13.7581 6.78914 10.3399 0.000814076 0.00483481 0.00161716
49 1 1.88129 8.69149 8.57708 15.5566 -0.00230164 -0.00015711 -0.00129591
50 1 1.85051 10.3261 10.4338 3.16971 -0.00149835 0.000421234 -0.00269908
51 1 1.7365 8.53288 12.0045 4.98022 -0.00572454 0.000823788 -0.00636724
52 1 1.82059 10.2266 13.83 6.7461 0.00126443 -0.00546822 0.00526068
53 1 1.61983 11.1939 7.91986 4.50729 -0.00252818 -0.00311543 0.00300107
54 1 1.73349 14.1935 10.6336 6.79716 0.00474726 -0.00340429 -0.000341072
55 1 1.77451 12.1444 12.0964 15.5203 0.00219298 0.00109026 -0.00176667
56 1 1.90962 13.8923 13.8705 3.15596 0.00145857 -0.0022868 0.00517904
57 1 1.7453 8.43727 8.51141 8.67758 0.00451989 -0.0017238 0.00352333
58 1 1.85808 10.2789 10.4153 10.2428 -0.000737389 0.00259077 -0.00527352
59 1 1.83988 8.60822 12.2321 12.0702 0.00339423 -0.00127483 0.000353805
60 1 1.71339 10.4341 13.9651 13.7872 -0.00190049 0.000752114 -0.00352883
61 1 1.81871 11.9349 8.58599 12.0679 0.00151465 -0.000628997 -0.00357163
62 1 1.78258 13.9389 10.15 13.8218 -0.0010316 -0.00332662 0.00225551
63 1 1.74856 12.1349 12.1484 8.45536 -0.00407055 0.000452218 0.00692083
64 1 1.77352 14.084 13.7568 10.236 -0.00353246 0.00149755 -0.00274697
65 2 -0.834445 2.22967 2.49224 2.54853 -0.00357903 0.00364691 -0.00124421
66 2 -0.947389 2.66464 14.7489 14.899 0.00315856 -0.000173506 -0.000320369
67 2 -0.910167 15.0466 2.58847 14.5372 -0.00593403 -0.000148069 -0.000930689
68 2 -0.862369 14.7268 14.9397 2.36687 0.00713503 0.00186048 -0.00387481
69 2 -0.868916 2.39509 4.31016 4.38993 -0.000710982 0.00780578 -0.00245963
70 2 -0.776189 4.01474 2.4771 4.51876 0.00291052 -0.00220668 0.000809956
71 2 -0.872136 4.38405 4.31008 2.64236 -0.00300835 0.00266821 -0.00122021
72 2 -0.913901 2.05791 6.00809 6.26084 0.000240995 -0.00179582 0.000651783
73 2 -0.945479 14.4625 4.1076 5.93093 -0.00685808 -0.00142478 -0.00934548
74 2 -0.932561 14.5887 5.877 4.19727 -0.00361408 0.00109958 -0.00336243
75 2 -0.954284 4.04306 5.80188 7.91527 0.00726989 0.0028172 -0.00140951
76 2 -0.892193 4.05119 7.31144 5.85536 0.00514807 -0.00110876 -0.00385036
77 2 -0.913788 2.449 7.78567 7.80405 0.00356893 -0.00490506 -0.0040545
78 2 -0.840773 5.7015 2.44239 6.26784 -0.000563145 0.00622604 -0.00347362
79 2 -0.90567 4.39684 14.6289 5.8902 -0.00478817 -0.000216529 0.00653273
80 2 -0.883609 5.96836 15.0043 4.05173 0.00781987 0.00309031 -0.00231861
81 2 -0.922996 6.12681 4.36043 7.90627 0.00220787 -0.00447737 0.00270882
82 2 -0.891825 7.45991 3.99019 5.82621 -0.000283596 -0.0059971 0.00160291
83 2 -0.949874 7.65071 2.38964 7.93719 0.0014868 -0.00517876 -0.000920512
84 2 -0.896706 5.906 6.22443 2.49954 0.00126196 0.00310889 -0.0056985
85 2 -0.902711 4.28412 5.78092 14.6326 0.00199498 -0.00180617 -0.00147947
86 2 -0.891087 6.20467 4.21029 15.0213 -0.00107068 -0.00407037 0.00758567
87 2 -0.902338 6.05529 7.77192 4.36831 0.000775438 -0.000208463 0.00173865
88 2 -0.952837 7.64035 5.77696 4.09305 0.00234892 0.00200403 -0.00194055
89 2 -0.913309 7.79635 7.88971 2.55625 0.00403645 0.00637205 0.00624157
90 2 -0.930048 2.21801 2.63192 9.59289 0.0044135 -0.000746478 -0.00175889
91 2 -0.882795 2.81916 14.9061 7.74863 -0.00227939 0.00237068 -0.00103649
92 2 -0.910502 14.7938 2.16964 7.59101 5.11911e-05 0.0013223 0.00122594
93 2 -0.900077 15.1108 14.5089 9.42409 0.00452261 0.00189045 0.00182212
94 2 -0.956852 2.72033 4.50885 11.2142 -0.00517053 -0.000864259 0.0038013
95 2 -0.914954 3.88931 2.30315 11.5034 0.00527125 -0.00138927 -0.00290602
96 2 -0.882714 4.34198 3.84161 9.5488 -0.0044238 -0.00122739 -0.000930482
97 2 -0.968984 2.36268 6.18107 12.9862 -0.00129272 0.00435737 -0.00438569
98 2 -0.932995 14.8511 4.18814 12.7237 0.00115756 0.00118289 0.00104372
99 2 -0.972163 14.8715 6.07962 11.0872 -0.000348303 -0.00425486 -0.00667325
100 2 -0.880791 2.60563 7.60086 15.1017 0.00279247 0.0060498 -0.00143477
101 2 -0.947172 4.15051 7.89998 13.3227 0.00309096 -0.00137989 0.000878042
102 2 -0.923022 5.67698 2.64246 13.1705 -0.000776738 0.00225816 -0.00532849
103 2 -0.898951 4.46146 14.5084 13.141 -0.00449019 -0.00397972 -0.00157789
104 2 -0.890167 5.9642 15.0805 11.2756 -0.00213612 0.001412 0.00324099
105 2 -0.914923 7.60102 2.20897 14.734 2.51058e-06 -0.00243801 -0.00383802
106 2 -0.884177 7.55305 4.36848 13.1343 0.000171167 -0.00356481 0.00524232
107 2 -0.832493 5.68783 5.93101 9.87803 0.00153765 -0.00175758 0.000435841
108 2 -0.923988 5.9533 7.68642 11.6993 -0.00231068 -0.000964753 0.00209242
109 2 -0.858464 7.76279 5.96725 11.2626 -0.0030485 -0.00256986 0.000973223
110 2 -0.934324 7.44617 7.72794 9.53861 0.00445979 0.00476242 -0.000568205
111 2 -0.907606 2.35988 9.70836 2.36134 -0.000216529 -0.00410814 -0.00477266
112 2 -0.940453 14.8822 7.75003 2.64932 -0.0033938 0.0026898 -0.00134186
113 2 -0.898687 14.7041 9.15695 14.6924 -0.00592807 0.00842693 -5.31697e-05
114 2 -0.923671 2.78154 11.4609 4.19282 -0.000574172 0.000720078 0.00836651
115 2 -0.875031 3.9953 9.20363 4.2338 0.000878364 0.00156452 -0.00430601
116 2 -0.868475 4.56529 10.934 2.49071 -0.00199807 -0.00134661 -0.000456985
117 2 -0.96281 2.3699 13.2791 5.90898 -0.00464488 -0.00278837 -0.00673195
118 2 -0.902346 15.1376 11.2718 5.75063 0.00690253 0.00628977 -0.00289665
119 2 -0.985828 14.9483 13.0028 3.83724 -0.00158664 -0.00140587 -0.0015728
120 2 -0.87697 4.14397 12.7393 7.72152 0.000740974 0.00184289 0.00175572
121 2 -0.85628 5.59236 9.4644 6.0899 7.33656e-05 0.000832658 -0.00211444
122 2 -0.899803 6.13093 11.4277 7.63077 -0.00633968 -0.00322839 -0.00148024
123 2 -0.832355 7.6105 10.9073 5.66861 0.00277166 -0.000408553 0.00399088
124 2 -0.896144 7.53806 9.25426 7.66241 0.00265835 0.00204449 0.00284114
125 2 -0.950691 5.91656 13.0806 2.42466 -0.00478258 -0.00383838 0.000654499
126 2 -0.922871 4.17091 12.6728 14.7793 -0.00439142 0.00505758 0.00151855
127 2 -0.912716 6.36253 11.4398 14.8128 -6.41016e-06 -0.00377121 0.00401673
128 2 -0.961127 7.88655 14.703 2.58106 0.00491011 0.00224858 3.29339e-05
129 2 -0.904996 7.58751 13.0673 4.4078 -0.0042528 -0.000282609 0.00160585
130 2 -0.936643 2.24526 9.5531 9.63846 -0.00362762 -0.00284948 0.00238601
131 2 -0.90174 14.4226 7.77261 9.30089 -0.0024629 -0.00170618 -0.00298495
132 2 -0.903252 15.005 9.71106 7.70735 -0.000636253 0.0031466 0.00170526
133 2 -0.899488 2.70242 11.238 11.3675 0.00131288 0.00339282 0.0035985
134 2 -0.929589 4.20646 9.25316 11.179 0.0063755 -0.00278355 -0.000911827
135 2 -0.960008 4.37027 11.1022 9.54619 0.00110528 -0.00111722 0.00140619
136 2 -0.902171 2.33035 12.9383 13.1779 0.00164765 0.00327667 0.000154273
137 2 -0.900972 15.0051 10.9177 13.0863 0.00265328 0.00573581 -0.00411328
138 2 -0.992048 14.768 12.8383 11.296 -0.00272606 0.00122172 0.00533286
139 2 -0.952109 5.87985 9.7497 13.0843 -0.000752794 0.00593119 0.0024668
140 2 -0.927837 7.71899 9.32567 14.6123 0.00201507 -5.81099e-05 -0.00297717
141 2 -0.951143 7.98175 11.1277 12.8982 -5.67832e-05 0.00396253 0.00303698
142 2 -0.904414 5.81132 13.2802 9.39648 -0.00100108 -0.00177596 0.00433367
143 2 -0.937102 7.7766 14.6892 9.63202 0.00330537 0.000120022 0.00467464
144 2 -0.871283 7.37184 12.9374 11.4684 -0.00503369 0.000169824 0.00171249
145 2 -0.884507 9.50455 2.50614 2.24828 -0.00527014 0.00205017 -0.00273233
146 2 -0.927687 9.65941 14.9707 14.6224 0.00399791 -0.00321997 -0.0015868
147 2 -0.894942 9.45637 3.92671 4.18478 -0.00508502 0.00361511 -0.00616661
148 2 -0.983504 11.4748 2.34941 3.89421 0.00288557 0.00760242 0.00141397
149 2 -0.966425 11.1994 4.37226 2.40423 0.00383068 -0.00116007 0.00243367
150 2 -0.90784 9.13763 5.58962 6.17102 0.00223681 -0.00675058 -0.00633213
151 2 -0.888621 11.1151 5.5184 7.62903 0.00142089 0.00141933 -0.00665752
152 2 -0.858021 10.8833 7.46139 5.93753 -0.00346801 -0.00482009 0.00245453
153 2 -0.899264 9.17854 7.39479 7.84638 0.0046081 -0.00335712 -0.0007067
154 2 -0.879933 12.8088 2.04742 6.02478 -0.00193249 0.00781174 0.000209209
155 2 -0.920759 10.9489 14.6609 5.66434 -0.00242386 -0.00202313 -0.00284757
156 2 -0.953655 12.9349 14.3522 4.2196 -0.00122725 -0.000329436 -0.000267287
157 2 -0.933336 12.9523 3.80472 7.84704 -0.00137927 0.00402425 -0.00713199
158 2 -0.935501 13.0309 6.01585 2.33202 -0.00257863 -0.000386067 -0.00204382
159 2 -0.947259 11.4082 5.97847 14.6083 0.00204298 -0.00331374 -0.00209812
160 2 -1.00857 13.2355 4.28453 14.6933 -0.0032097 0.00380578 0.00780637
161 2 -0.906547 12.6721 7.71066 4.05203 -0.000106887 -0.00293044 -0.00294355
162 2 -0.976058 9.67304 2.1968 9.32409 0.00424316 -0.000552652 -0.00277117
163 2 -0.974052 9.21437 14.6076 7.57405 -0.00518174 -0.000742172 0.00426764
164 2 -0.929542 9.2711 3.82644 11.2901 0.00283343 0.00169647 -0.00152809
165 2 -0.923392 11.4655 2.54918 11.2374 0.00252149 -0.00610115 -0.00199352
166 2 -0.919596 11.0689 4.11229 9.61734 -0.00297677 -0.00438737 0.00132402
167 2 -0.971699 9.67853 5.72297 12.9251 -0.00363897 -0.0067698 -0.00295251
168 2 -0.963795 9.42123 7.51533 14.8001 0.000142985 -0.00896335 0.00406463
169 2 -0.953115 11.0563 7.80894 13.0287 -0.000385149 -0.000690347 0.00202013
170 2 -0.959127 13.2205 2.32556 12.9966 0.000282265 0.00263693 0.00420776
171 2 -0.969523 11.4792 14.6408 12.9049 0.00305498 0.000958164 2.72177e-05
172 2 -0.936837 13.1004 14.6119 11.0406 -0.00191137 0.000552716 0.00580715
173 2 -0.883401 12.977 5.70311 9.516 -0.00021612 -0.00349991 -0.000679417
174 2 -0.962404 12.7241 7.54789 11.208 -0.00564883 -0.000261632 0.000893674
175 2 -0.937187 9.6629 9.6127 2.08348 -0.000655053 0.00666514 0.000578134
176 2 -0.911343 9.24487 11.3217 3.79057 -6.50064e-05 -0.00187755 -0.00167439
177 2 -0.930584 10.8985 9.38468 4.12665 -0.00111319 0.00315462 -0.00585928
178 2 -0.915476 11.4094 11.3126 2.48568 0.0016465 -0.00543709 0.0022753
179 2 -0.869054 9.57591 12.6503 5.94595 0.00675703 0.00107222 0.00187476
180 2 -0.894683 11.1279 13.0433 7.76205 -0.00483239 0.00417929 0.00139372
181 2 -0.772935 13.455 9.66645 5.88429 0.00218219 0.00953039 -0.000965539
182 2 -0.930315 12.9956 11.3898 7.38591 0.00297847 0.00350463 0.00266289
183 2 -0.954938 13.1556 13.085 2.1179 0.00017712 0.00254396 -0.00280842
184 2 -0.949013 11.091 12.8165 14.6673 -0.00193542 -0.00178221 -0.00139977
185 2 -0.902894 12.8952 11.0772 14.5861 -0.000653607 0.00521561 0.00365779
186 2 -0.928364 9.35509 9.59404 9.36015 -0.0021998 -0.00370911 0.00790232
187 2 -0.933861 9.49359 11.4512 11.0627 0.00398683 -0.0057889 0.00379145
188 2 -0.993325 11.147 9.5768 11.208 -0.00478247 0.000769293 -0.00149694
189 2 -0.939856 11.2501 11.1429 9.29118 -0.0042077 0.000382248 0.0015872
190 2 -0.912613 9.38441 13.2833 12.8277 -0.00413306 -0.00200693 -0.00750062
191 2 -0.862165 12.9447 9.22267 13.0859 0.00343553 0.00314992 0.00964696
192 2 -0.945486 13.2616 12.8508 9.26465 0.00592651 0.00576198 -0.00442223
193 2 -0.628121 13.6222 10.3021 10.35 0.00387504 0.00511697 -0.00393465
194 2 -0.590319 12.0561 8.54519 8.12401 0.00140143 -0.000597762 0.00230692
195 2 -0.653253 1.88819 4.85506 1.85608 -0.00460288 -0.000658904 0.00463284
196 2 -0.60343 12.2147 1.54284 15.5336 -0.00423846 -0.00624904 0.00126784
197 2 -0.552746 15.8029 15.5855 5.1633 0.00686664 -0.000988445 0.00493386
198 2 -0.675658 12.1581 12.0176 12.1145 -0.00101685 -0.00420391 0.000831105
199 2 -0.567825 6.56993 6.73157 6.9044 0.00107318 -0.00109948 -0.000262203
200 2 -0.708927 10.3424 6.93449 3.6168 -0.000276153 0.00522927 0.0098367
201 2 -0.632695 12.1677 5.15378 5.21199 0.00501165 -0.0023139 0.00106144
202 2 -0.608139 10.2207 6.7903 10.3247 0.000722613 -0.00236775 0.000235707
203 3 0.416141 12.7235 10.571 10.5738 -0.00424635 -0.013748 0.0248528
204 3 0.40124 14.024 11.1727 10.354 0.00476334 -0.00525342 0.00622441
205 3 0.418428 12.1176 9.34402 7.57793 0.0245698 -0.00343263 0.0193535
206 3 0.426096 12.8362 8.65281 8.64717 0.0204757 -0.00369354 -0.00546162
207 3 0.409908 1.41869 5.62191 2.32963 -0.00044649 -0.0075276 -0.0208567
208 3 0.412378 15.2548 4.231 15.7469 -0.0149571 0.0101818 0.00329902
209 3 0.399129 12.3463 15.3751 14.6063 -0.0313342 0.0236334 0.00134363
210 3 0.400872 11.2414 1.55576 15.6748 -0.0385549 0.0412748 -0.00638822
211 3 0.445486 2.66508 1.49675 4.90318 -0.0149459 0.00265546 0.0220258
212 3 0.411497 1.70283 15.2933 6.12896 -0.000320644 -0.00664995 -0.0147112
213 3 0.425178 12.4821 12.865 11.9121 -0.0115372 -0.0261266 -0.0250975
214 3 0.428029 11.9412 11.9541 13.026 0.0154207 -0.0134516 0.0115207
215 3 0.4178 7.33793 7.39748 6.99418 0.000473223 -0.0140486 0.00326468
216 3 0.430713 6.98156 5.83662 6.8075 0.00488724 0.0140362 -0.022311
217 3 0.433051 10.9584 6.31385 3.16753 0.0156198 -0.0124726 -0.00747501
218 3 0.498331 13.1098 9.47539 5.03122 -0.00568477 0.00516998 0.0175322
219 3 0.418561 12.1787 4.79033 6.09471 0.00322242 0.00255356 0.0208923
220 3 0.418411 12.8723 4.76489 4.7218 0.0252816 0.00544233 -0.0262936
221 3 0.426966 11.1064 6.62055 10.5739 -0.0117976 0.0106821 0.0281511
222 3 0.403552 9.67861 6.59368 11.0905 -0.018231 -0.0250474 -0.00418047
ITEM: TIMESTEP
4000
ITEM: NUMBER OF ATOMS
222
ITEM: BOX BOUNDS pp pp pp
1.5350531802841969e+00 1.5624946819715760e+01
1.5350531802841969e+00 1.5624946819715760e+01
1.5350531802841969e+00 1.5624946819715760e+01
ITEM: ATOMS id type q x y z vx vy vz
1 1 1.7038 15.4955 15.4378 15.4512 -0.000277336 -0.00121698 -0.000409398
2 1 1.65355 3.04699 3.2376 3.20404 0.000655365 -0.00280405 -0.00209501
3 1 1.76229 15.6576 5.08065 5.21166 -0.000956724 -0.00268138 -0.00258959
4 1 1.87343 3.30743 6.76254 6.93714 -0.00408358 -0.00427955 0.00414074
5 1 1.7169 5.09925 1.69231 4.93134 0.000315326 0.00263708 0.00551376
6 1 1.76616 6.71772 3.22863 7.03346 -0.00019039 -0.000848751 -0.00148253
7 1 1.85228 5.00573 5.02327 1.58412 0.000208073 0.00128563 -0.000257619
8 1 1.88672 6.7015 6.68902 3.37111 -0.00262493 -0.000693701 -0.00433218
9 1 1.81597 1.56295 1.74861 8.73694 0.00499593 0.00301011 0.00316204
10 1 1.76713 3.3205 3.32598 10.5879 0.00720747 -0.00417362 -0.00232814
11 1 1.81751 1.58577 5.12541 12.2029 -0.00367478 0.00197975 -0.000219105
12 1 1.83779 3.29433 6.90247 13.9457 1.46845e-05 0.00324166 -0.00298095
13 1 1.8867 5.15378 15.568 12.1236 0.00267299 0.00351877 0.00344872
14 1 1.93262 6.83079 3.25456 13.9598 -0.000951401 0.000626655 -0.00261214
15 1 1.80942 5.00489 5.09586 8.76246 -0.000324196 -0.00151339 -0.00282811
16 1 1.71894 6.84102 6.91881 10.5328 0.000600494 0.00339075 -0.00210814
17 1 1.8311 1.62864 8.6874 1.72815 -0.000924345 -0.000174268 0.00182551
18 1 1.7608 3.4252 10.3917 3.48281 0.00668872 -0.00248972 0.00113716
19 1 1.78033 1.72118 12.3177 5.10935 -0.00367574 -0.00624987 0.00165881
20 1 1.68824 3.34633 14.0622 6.99423 0.00239579 -0.00313657 -0.00390742
21 1 1.71922 5.12712 8.55922 5.19434 0.00015684 0.00237977 -0.00212375
22 1 1.6579 6.88273 10.4324 6.78631 4.74082e-06 0.00192059 0.00201005
23 1 1.79848 5.1213 12.1188 1.7206 -0.000867476 0.0020136 -0.00398993
24 1 1.72829 7.00453 13.9547 3.31949 -0.000927604 -0.000654284 0.00387999
25 1 1.78088 15.6308 8.60591 8.60439 -0.000752664 0.00237697 -0.00265799
26 1 1.76809 3.43949 10.3237 10.2327 -0.00248134 0.0017012 0.00217107
27 1 1.69597 1.79564 11.9642 12.1575 -7.72564e-05 -0.00250427 0.000730491
28 1 1.91979 3.41984 13.8319 13.9259 -0.00194803 0.000181772 0.000693231
29 1 1.86345 5.01707 8.70504 12.1808 0.00185384 0.00271254 0.0037875
30 1 1.75784 6.68428 10.3183 14.034 -0.00196449 0.000275412 0.00066531
31 1 1.78227 5.20558 12.1802 8.55233 -0.0039198 -0.0044461 -0.000612896
32 1 1.79755 6.90051 13.825 10.3775 0.0013787 -0.000239676 -0.00328078
33 1 1.95066 8.69503 1.53344 15.5813 0.00110011 -0.00285413 -0.00300373
34 1 1.82422 10.3497 3.37219 3.24406 -0.00332498 0.000789601 -0.000953731
35 1 1.85956 8.43438 4.88765 5.16291 -0.000732387 0.00222951 -0.00307093
36 1 1.82831 10.082 6.72178 6.93614 -0.00570195 -0.0024496 -0.00272555
37 1 1.87105 12.0928 15.6405 4.9226 0.0051613 -0.00657358 0.00289368
38 1 1.74952 13.8126 3.21799 6.82309 0.000664312 0.00550898 -0.00284186
39 1 1.69392 12.1288 5.16288 15.5157 0.00464481 -0.00087597 -0.000490632
40 1 1.6371 13.8637 6.83276 3.38791 0.00211866 -0.0011011 0.00203793
41 1 1.89424 8.579 15.3434 8.46328 -6.18787e-05 -0.00187474 -0.000951707
42 1 1.84037 10.2484 3.07248 10.2452 0.0028944 0.00370152 0.00534923
43 1 1.76946 8.57908 4.90652 12.1268 0.00338928 0.00204489 -0.00413574
44 1 1.993 10.3601 6.72986 13.6946 -0.00324874 -0.00251999 0.00473534
45 1 1.7383 12.1469 15.4736 11.9259 -0.00172066 0.000521675 -0.00328065
46 1 1.68493 13.7721 3.29133 13.6891 -0.00237078 7.55105e-05 -0.00307347
47 1 1.75923 12.0182 4.96039 8.61247 -0.00541964 0.00192576 -0.0014365
48 1 1.76941 13.8741 6.69329 10.296 -0.00553658 0.00190785 0.00358752
49 1 1.79915 8.41577 8.24214 15.5059 -0.00284319 -0.00428646 -2.91957e-05
50 1 1.85631 10.1477 10.1701 2.9705 -7.63627e-05 0.00468324 -0.00143296
51 1 1.79853 8.69505 11.9696 4.93734 -0.00643285 0.00366102 0.0051703
52 1 1.86993 10.3379 13.8221 6.62429 0.00265549 0.00389415 0.000913398
53 1 1.62265 11.3863 7.99831 4.58481 -0.00281556 0.000262595 -0.00846716
54 1 1.71031 14.0234 10.692 6.98857 -0.00323681 -0.000483867 0.000954448
55 1 1.71789 12.1104 11.9116 15.5486 -0.00110005 -0.00544902 -0.00266831
56 1 1.81933 13.8154 13.7364 3.24886 0.00316723 0.00183333 0.000732101
57 1 1.82994 8.57183 8.73002 8.76533 0.00323871 -0.00171655 0.00201783
58 1 1.87568 10.4488 10.4785 10.3527 -0.00191646 -0.0036345 -0.00428304
59 1 1.71502 8.48815 11.9057 12.1794 -0.00325669 -0.00248989 0.00148267
60 1 1.78459 10.3695 13.8408 13.8013 -0.000924086 -0.00308614 0.00150465
61 1 1.83934 12.1726 8.53944 12.1303 -0.000442893 -0.00373047 1.17398e-05
62 1 1.77743 13.9809 10.2224 13.8923 -0.000728719 0.00285796 0.00121055
63 1 1.85654 12.084 12.3274 8.60765 -0.000928338 0.000577817 0.00481208
64 1 1.66764 14.1031 13.7834 10.3034 0.00212406 0.00230944 0.00316669
65 2 -0.880185 2.11761 2.1878 2.45553 0.0046441 -9.20316e-05 0.000715782
66 2 -0.927388 2.57741 14.8228 14.6508 0.00220156 0.00338167 -0.00240004
67 2 -0.886407 14.8123 2.36324 14.403 0.000380297 -0.000989061 -0.00872884
68 2 -0.935454 14.7309 14.4096 2.23911 -0.00283754 -0.00286334 0.000236677
69 2 -0.863217 2.52669 4.2 4.33503 0.00483327 -0.00293884 -0.00164164
70 2 -0.842274 4.00076 2.28434 4.0522 -0.00182899 -0.000106356 -0.00294178
71 2 -0.850492 4.20093 3.90499 2.31039 -0.00478965 0.00261017 -0.00640391
72 2 -0.94961 2.28711 6.11315 6.08315 0.0082719 -0.00046547 0.00188179
73 2 -0.923 14.6809 4.25878 6.02688 -0.000316412 0.001759 0.000606514
74 2 -0.887645 14.5367 5.74193 4.29526 -0.00183162 0.00242319 -0.00208624
75 2 -0.952953 3.96855 5.76343 7.8814 -0.00385438 0.000482498 0.00090753
76 2 -0.85789 4.18349 7.53709 5.88002 0.00325227 -0.000770173 0.0010928
77 2 -0.905449 2.57462 7.82402 7.81205 0.00980939 -0.00143342 -8.5658e-05
78 2 -0.866895 5.69215 2.61721 5.98157 0.00330463 -0.00284643 0.0030386
79 2 -0.783057 4.41027 14.8835 6.05552 0.00271899 -0.00355824 -0.00711278
80 2 -0.853822 6.116 15.102 3.99962 -0.0054132 0.00335163 -5.54233e-05
81 2 -0.942127 5.98752 4.25318 7.9259 -0.000159185 -0.00181002 0.00116217
82 2 -0.943456 7.71225 4.12849 6.28354 0.00704739 -0.00490678 0.00251889
83 2 -0.899699 7.45073 2.15079 7.89698 -0.00215347 0.00422589 -0.00482605
84 2 -0.94949 5.63092 5.97648 2.56045 -0.00378258 0.00372499 -0.000960573
85 2 -0.90549 4.2959 5.99569 14.7488 0.000935152 0.0033904 0.00302097
86 2 -0.921742 6.04814 4.28386 14.7574 0.00875752 0.0023716 0.000228968
87 2 -0.887973 6.22063 7.79125 4.29723 0.00303046 0.00353176 -0.000111797
88 2 -0.91459 7.42978 5.59033 4.25443 -0.000796591 -0.00309093 -0.00364921
89 2 -0.944754 7.63411 7.3592 2.40891 -0.0071293 -0.00311719 -0.000755534
90 2 -0.893736 2.23919 2.8768 9.52163 -0.000521745 0.00151347 0.00438198
91 2 -0.919121 2.59311 15.1339 7.80924 0.00233465 -0.00520889 0.00469624
92 2 -0.92968 14.5379 2.33173 7.85577 0.00475135 -0.00478798 -0.00257813
93 2 -0.915325 15.1404 14.7223 9.61187 -0.00340931 0.00227723 0.00339092
94 2 -0.916555 2.63717 4.14247 11.6723 0.000721194 -0.00412913 0.00578466
95 2 -0.908306 4.15211 2.12822 11.1602 -0.0020612 0.000993734 -0.000833531
96 2 -0.885648 4.27039 4.32522 9.85689 0.00285489 0.0059646 0.00149971
97 2 -0.934016 2.31917 6.24318 12.9866 -1.73369e-06 -0.00398071 -0.000952181
98 2 -0.936832 14.6604 4.38652 13.0694 -0.00807106 0.00403313 -0.00151931
99 2 -0.873219 14.9709 5.77436 10.9868 -0.00478319 -0.00239085 -0.00173591
100 2 -0.886018 2.48847 7.80253 14.937 -0.00351595 0.000602611 -0.00605427
101 2 -0.895409 4.09527 7.93654 13.1485 -0.000718251 0.00571012 -0.00277506
102 2 -0.939402 5.87221 2.58046 12.9393 0.0106739 0.00402614 0.00447661
103 2 -0.960633 4.42884 14.5259 13.0036 0.00510595 0.00595405 0.00680639
104 2 -0.913173 6.20927 14.942 11.2676 0.00328663 -0.00404418 0.00152809
105 2 -0.962867 7.6633 2.2226 14.6483 0.00476061 0.00439243 -0.00201789
106 2 -0.898989 7.84198 4.11231 13.241 0.00256817 -0.00288566 0.00139565
107 2 -0.845837 5.80679 6.23974 9.49764 2.18767e-05 -0.00297927 -0.000790814
108 2 -0.887423 6.02401 7.66936 11.5867 -0.00120207 -0.00098714 0.00164078
109 2 -0.890901 7.65176 5.76639 11.1808 -0.00196363 0.00568891 0.000910513
110 2 -0.909315 7.67878 7.98459 9.72188 -0.00282596 -0.00402334 -0.00645024
111 2 -0.872251 2.65213 9.66405 2.33805 0.00176296 0.00356897 0.0021285
112 2 -0.87186 14.9827 7.7626 2.72904 -0.00711515 -0.00243194 -0.00461862
113 2 -0.925195 14.6775 9.46761 14.9817 -0.00803675 0.00514845 0.00459056
114 2 -0.89769 2.40506 11.1773 4.36473 -0.00521163 0.00563216 0.00191865
115 2 -0.86799 4.16567 9.25078 4.19453 -0.00248308 0.00879501 0.00228028
116 2 -0.899455 4.31151 11.5064 2.86334 -0.00218167 0.00324241 -0.000836182
117 2 -0.961985 2.58149 13.3309 5.85428 0.00588507 -0.00298036 -0.00559947
118 2 -0.835068 15.0955 11.5733 6.30583 0.00420504 0.00475212 -0.00473757
119 2 -0.901036 14.6659 12.921 4.25723 0.00238577 -0.00979159 0.00492481
120 2 -0.881298 4.07172 13.0048 7.83407 0.0039503 -0.0061235 -0.000383559
121 2 -0.878382 5.65665 9.70993 6.09671 -0.000683191 0.0118675 0.00106146
122 2 -0.851825 6.32791 11.6647 7.627 -0.00315036 0.00314582 0.00207158
123 2 -0.913711 8.01541 10.939 5.84962 0.00334437 -0.0151512 -0.0014292
124 2 -0.861374 7.51339 9.42887 7.82086 -0.0027671 -0.00560594 0.000697479
125 2 -0.872581 6.00872 13.2629 2.35567 0.00128418 0.00013888 -0.00434026
126 2 -0.932377 4.13722 12.9085 14.9315 -0.0082041 -0.00793008 -0.00630872
127 2 -0.940801 5.97923 10.9992 15.234 -0.00752847 -0.000996574 0.00306076
128 2 -0.952506 8.0508 14.7785 2.50552 0.0013615 0.00287942 -0.000287471
129 2 -0.897559 7.72664 13.0452 4.35117 0.00292147 0.000589731 -0.00181437
130 2 -0.913217 2.25427 9.72404 9.40366 0.00508251 0.0029106 -0.0026205
131 2 -0.930049 14.6576 7.61251 9.35421 -0.00322267 0.0067395 0.000481005
132 2 -0.897892 14.7354 9.44017 7.64406 0.00245396 0.00186972 0.0015548
133 2 -0.906254 2.85759 11.3449 11.2477 4.97953e-05 -0.00227068 -0.00180308
134 2 -0.928247 4.18575 9.29456 11.0411 0.00168415 -0.00677155 -0.000873121
135 2 -0.858395 4.5477 10.9986 9.3191 0.000899665 0.00104356 0.00263716
136 2 -0.910254 2.46152 13.0014 13.0922 -0.00183447 -0.00362911 -0.00370299
137 2 -0.873462 15.0863 10.8494 12.983 0.00715394 -0.000261704 -0.00879579
138 2 -0.8783 14.8207 12.7287 11.2833 0.00371711 -0.00230606 0.00018234
139 2 -0.920534 5.71399 9.79414 12.9633 0.000630625 -0.00534353 0.00651
140 2 -0.844591 7.43599 9.00896 14.5204 9.86324e-05 -0.000613784 0.00418688
141 2 -0.908776 7.61829 11.2919 13.2807 -0.00147516 0.000919848 -0.00170916
142 2 -0.91461 5.81858 13.1219 9.53362 0.000847375 -0.00319559 0.00223029
143 2 -0.941348 8.0123 14.4158 9.51917 -0.00563962 0.00235304 0.00860429
144 2 -0.852404 7.57473 12.6489 11.1765 -0.00103474 0.00313519 -0.000678661
145 2 -0.946117 9.5672 2.63868 2.16172 -0.00129122 -0.0020839 0.00476953
146 2 -0.945096 9.43563 14.7935 14.5758 0.000153991 -5.39449e-06 0.00708314
147 2 -0.905777 9.27623 4.00714 4.26341 0.00634972 -0.00385524 0.00127223
148 2 -0.98948 11.2013 2.33476 3.91856 0.00502984 5.0178e-05 -0.00787315
149 2 -0.920609 11.1891 4.43287 2.50491 0.002775 0.00489981 2.55528e-06
150 2 -0.963606 9.2403 5.90174 6.03437 0.00119077 0.00947128 0.00363457
151 2 -0.930586 10.9537 5.68967 7.71615 0.000624978 0.00474297 0.0011224
152 2 -0.92543 10.9767 7.54585 6.01347 0.00139124 0.00113079 0.00169771
153 2 -0.943477 9.18559 7.62068 7.87671 0.00786833 -0.00397514 0.000713519
154 2 -0.91542 13.1449 2.31152 5.74338 0.00386154 0.00502623 -0.00267256
155 2 -0.899646 11.132 14.9774 5.88261 0.00409566 0.0102295 -0.00789254
156 2 -0.90689 12.8447 14.554 4.2134 -0.0119235 -6.15018e-05 -0.00306589
157 2 -0.937741 12.7306 4.04191 7.5873 -0.000753021 0.00566975 -0.00474499
158 2 -0.912139 13.211 5.98279 2.26056 -0.00397207 0.00128443 -0.00201746
159 2 -0.972312 11.2994 5.8486 14.4697 0.00137938 -0.00153165 -0.00484634
160 2 -0.877151 13.0128 4.03662 14.8952 -0.00171232 -0.00588637 0.00668678
161 2 -0.940116 12.8331 7.65342 4.20597 -0.00395893 3.51199e-05 -0.00209499
162 2 -0.921293 9.46609 2.29268 9.1475 0.00254516 0.00186405 -0.00182558
163 2 -0.956122 9.24146 14.5512 7.3429 0.00104297 -0.00317811 -0.00270125
164 2 -0.904431 9.26381 3.86729 11.1343 -0.00406805 0.00685526 0.00765418
165 2 -0.940868 11.1259 2.08598 10.9933 -0.00892301 0.00062939 -0.00354673
166 2 -0.926114 11.1961 4.08088 9.60805 0.00209154 -0.00862114 0.00640149
167 2 -0.977033 9.65121 5.73348 12.7977 0.00677195 0.00150745 0.00220372
168 2 -0.923495 9.2763 7.3162 14.5762 -0.0066796 0.0102872 0.00105004
169 2 -0.995309 11.2357 7.73595 13.0119 0.00343962 -0.00141518 0.00303616
170 2 -0.915465 12.8013 2.48031 12.8594 -0.00586431 0.00235961 0.00504977
171 2 -0.957126 11.4169 14.625 13.0055 0.00262903 -0.00810618 0.00344838
172 2 -0.912228 13.2932 14.6063 11.4246 -0.00348194 0.0017403 -0.00406452
173 2 -0.976524 12.8557 5.86743 9.51096 0.00684922 -0.00221936 -0.00333801
174 2 -0.936071 12.9726 7.50296 11.28 -0.00176481 -0.0010869 -0.000244274
175 2 -0.95303 9.37413 9.27984 2.01643 0.00405907 0.0021304 -0.00159509
176 2 -0.921194 9.35396 11.2512 3.69576 -0.00149305 0.00341536 0.00320345
177 2 -0.919514 10.9431 9.32527 3.96766 0.00468196 0.000211492 -0.0034444
178 2 -0.889393 11.2163 10.8308 2.06203 0.00471165 0.000461079 -0.00795133
179 2 -0.931189 9.75855 12.7935 5.64709 -0.00541196 0.00307634 0.00506551
180 2 -0.938279 11.2346 13.2479 7.74681 0.00101539 -0.0070278 0.00132387
181 2 -0.774545 13.4675 10.0907 5.73422 0.00514508 0.00402688 -4.93975e-05
182 2 -0.966086 12.8461 11.3001 7.70409 0.000578403 -0.00711621 -0.00517223
183 2 -0.862105 12.9141 12.7335 2.52047 -0.00150869 0.000192472 0.0038566
184 2 -0.909388 11.0885 12.8793 14.7308 0.00425312 -0.0026894 0.0102935
185 2 -0.921407 13.1338 11.3818 14.5223 0.00359826 0.00102252 -0.00249725
186 2 -0.940881 9.45659 9.76994 9.35989 -0.0030143 0.00411977 -6.93815e-05
187 2 -0.905799 9.54313 11.0115 11.422 0.000455772 5.94444e-05 -0.00155628
188 2 -0.936196 11.3776 9.48207 11.1108 -0.00283513 0.00211236 -0.00103667
189 2 -0.959994 11.1415 11.5929 9.58525 -0.000295118 0.000376727 0.00513983
190 2 -0.83775 9.44876 13.0477 12.828 0.00269255 -0.00544449 0.00396714
191 2 -0.955537 13.0956 9.1937 13.0801 -0.00574263 -0.00461799 -0.00826458
192 2 -0.982721 13.2116 13.0909 9.29663 0.00144228 0.00149112 -0.00435904
193 2 -0.629149 13.8753 10.2659 10.4807 -0.00405282 -0.00422869 0.00983278
194 2 -0.605931 12.1611 8.85684 8.32452 0.00332236 0.00118957 0.00570547
195 2 -0.643475 1.72232 4.62426 1.88943 -0.00986208 -0.00126292 0.00233916
196 2 -0.630287 12.3953 15.4374 15.5617 -0.00149599 0.000561882 -0.00456723
197 2 -0.582252 15.5446 15.598 4.84714 0.00653208 0.00804885 0.00194687
198 2 -0.672298 12.1837 12.0116 12.1832 0.0013456 0.00209732 -0.00338014
199 2 -0.598108 6.64362 6.88278 6.85046 -0.00685305 -0.00782113 -0.000353153
200 2 -0.669118 10.5584 6.98755 3.69263 0.000805753 0.00171781 0.00453451
201 2 -0.669514 11.9103 4.87856 5.13095 0.00387712 -0.000793132 0.00740242
202 2 -0.578382 10.2192 6.76616 10.2035 0.00368575 -0.00398977 0.00561978
203 3 0.403051 13.2518 10.4688 11.2103 -0.00907688 -0.010955 0.0121619
204 3 0.409307 14.5035 10.9575 10.4824 0.00738444 0.0181988 0.00208904
205 3 0.413134 12.3037 9.28545 7.49043 -0.00229161 0.00390495 -0.0215131
206 3 0.423762 13.0492 8.76837 8.66253 -0.00451789 -0.00229094 0.0201353
207 3 0.425148 14.96 4.98071 2.24554 -0.00400225 -0.0196948 -0.00267708
208 3 0.39979 15.5042 3.89358 15.3322 -0.0113965 -0.0104466 -0.00486231
209 3 0.429742 12.2643 1.50744 14.6267 0.00867232 -0.0158235 -0.00116579
210 3 0.410064 12.0377 2.06237 2.01789 0.00039878 0.0227343 -0.00684682
211 3 0.42088 2.14183 15.2299 4.28128 0.0184192 -0.0210006 -0.00723825
212 3 0.394302 1.50599 15.1048 5.7106 -0.0076661 -0.0233448 -0.00984374
213 3 0.418759 12.4333 12.8513 11.8691 0.0148504 -0.00694391 0.000262414
214 3 0.427126 11.9323 12.1455 13.0628 -0.0164157 -0.0132552 0.000998947
215 3 0.422571 7.16372 7.44265 7.45947 -0.00408633 0.00403559 0.00318551
216 3 0.419557 6.90624 5.95603 7.092 0.0171105 0.0131011 -0.0208475
217 3 0.413548 11.1574 6.18011 3.49807 -0.00191272 -0.00427686 0.0243613
218 3 0.489068 13.4025 9.56135 4.9293 0.0106372 -0.00357305 -0.0140166
219 3 0.434585 11.6899 4.80533 6.05502 0.0268048 0.0160763 0.0115319
220 3 0.434267 12.8295 5.05911 5.15043 -0.0140673 0.0119414 0.020352
221 3 0.40637 11.2388 6.84511 10.2814 0.0237196 -0.0131475 0.00698204
222 3 0.397887 10.0726 5.85623 10.4986 0.00817025 0.0187527 -0.00315905
ITEM: TIMESTEP
5000
ITEM: NUMBER OF ATOMS
222
ITEM: BOX BOUNDS pp pp pp
1.5296421908048181e+00 1.5630357809195115e+01
1.5296421908048181e+00 1.5630357809195115e+01
1.5296421908048181e+00 1.5630357809195115e+01
ITEM: ATOMS id type q x y z vx vy vz
1 1 1.72489 15.5433 15.4903 15.5451 0.00239225 0.00367598 0.00103099
2 1 1.52435 3.33034 3.63394 3.29193 -0.000881434 0.000557522 -0.00183923
3 1 1.69324 1.54546 5.25607 5.18852 -0.000931705 0.000765245 -0.000963026
4 1 1.85195 3.32644 6.90156 6.95602 0.000481263 0.000979713 -0.000589871
5 1 1.69474 5.05377 1.7342 5.01762 0.0006223 -0.00287021 0.00400373
6 1 1.82027 6.72568 3.22912 7.0196 -0.00073098 -0.00325226 -0.00443591
7 1 1.84069 5.11517 5.18547 15.4858 -0.000663489 1.88945e-05 0.00161441
8 1 1.76358 6.79134 6.76122 3.35814 -0.00265769 0.000404286 0.000130353
9 1 1.74899 1.76606 15.5625 8.43478 -0.000639751 0.00101014 0.000674072
10 1 1.96511 3.37165 3.1946 10.4128 0.00099795 -0.00161534 -0.00546465
11 1 1.82382 1.64683 5.0606 11.9619 0.000755322 0.000119397 -0.00405045
12 1 2.02148 3.2902 6.87611 13.7744 -0.00239151 -0.000485527 0.00149194
13 1 1.85604 5.09418 15.5908 12.1891 0.00350603 -0.000977004 -0.00244749
14 1 1.84116 6.85581 3.28765 13.8539 0.000901131 0.000482641 -0.00470635
15 1 1.92626 4.95951 5.06414 8.70337 -0.00478324 -0.00518639 0.00521096
16 1 1.8318 6.72739 6.8383 10.4826 -0.00192336 0.00211231 0.000522351
17 1 1.86309 1.60444 8.48224 15.6112 0.00372895 -0.00218434 0.00469335
18 1 1.87534 3.31828 10.1718 3.31197 0.00239894 -1.72306e-05 0.00127152
19 1 1.90119 1.64523 11.9908 4.95737 0.00243367 0.00201383 0.00399858
20 1 1.75652 3.48784 13.7014 6.61768 0.0042357 0.00177111 -0.00402881
21 1 1.73646 5.10422 8.62278 5.2723 0.000760707 -0.00257605 -0.00143617
22 1 1.84498 6.99776 10.3396 6.93502 0.00397811 0.000662159 0.00601248
23 1 1.85105 5.01679 12.0154 1.64092 0.000943203 -0.00450353 -0.00420987
24 1 1.78961 6.8349 13.878 3.42761 0.00185873 -0.000263415 -0.000572446
25 1 1.79696 15.693 8.70186 8.67464 0.00240931 0.00569827 0.00306669
26 1 1.95821 3.34072 10.52 10.3498 0.00162275 0.000655814 -0.0012568
27 1 1.72442 1.67467 12.2511 12.1509 0.00109558 -0.00319452 -0.00502687
28 1 1.89459 3.40773 13.879 13.9855 -0.00422951 -0.00103829 -0.00080156
29 1 1.91864 5.01447 8.70025 12.0913 0.00551516 -0.000137306 0.000185412
30 1 1.86533 6.72985 10.2536 13.9781 0.00509683 -8.98848e-05 -0.000703268
31 1 1.83728 5.21785 12.0774 8.5955 -0.00222063 -0.00273707 9.90699e-05
32 1 1.83683 6.88525 13.8157 10.4648 -0.00215567 -0.0046977 -0.00487399
33 1 1.75015 8.43123 15.5079 15.5834 -0.00338879 -0.00457282 0.0025238
34 1 1.69592 10.27 3.20871 3.12969 -0.00383026 0.00158767 -0.0007789
35 1 1.69761 8.43517 4.73942 5.03706 0.0058411 0.005796 0.00541551
36 1 1.76905 10.1208 6.45784 6.93878 -0.00126583 0.00285384 -1.99771e-05
37 1 1.75034 12.1014 15.6375 4.95559 -0.000262766 0.00191334 0.000245211
38 1 1.70584 13.9833 3.23924 6.7521 -0.00477742 -0.00029039 -0.000303943
39 1 1.76216 12.2461 4.96159 15.5554 4.64431e-05 -0.00105806 0.00241268
40 1 1.67497 13.7637 6.89971 3.25514 -0.00310623 -0.000876952 -0.00420762
41 1 1.85235 8.56598 15.5886 8.61743 -0.00101376 0.00573536 -0.000111732
42 1 1.72784 10.2986 3.24464 10.3668 -0.000637169 -0.00490841 -0.0042837
43 1 1.82219 8.54935 5.06706 12.1348 -0.00345008 0.00340913 0.00829568
44 1 1.74663 10.3575 6.75293 13.9279 -0.00288063 -0.00278971 -0.00498392
45 1 1.72551 12.099 15.5918 12.1038 0.000228087 -0.00106584 -0.000303061
46 1 1.67009 13.996 3.30416 13.717 -0.00109082 -0.00167254 0.00147637
47 1 1.73146 12.1965 4.89306 8.59461 -0.00391851 0.00287106 0.0013815
48 1 1.67691 13.8427 6.77338 10.3671 -0.0039359 -0.000343712 0.00199199
49 1 1.87716 8.46208 8.44595 15.6172 -0.000842963 -0.00426084 0.00012377
50 1 1.80145 10.1146 10.3322 3.13847 -0.00610565 0.00366851 0.0126255
51 1 1.81914 8.63903 12.1646 5.12185 -0.00314897 -0.00813902 0.00262665
52 1 1.94599 10.3986 14.0026 6.82598 0.000527159 -0.000931807 -0.00112781
53 1 1.61593 11.1734 7.83138 4.44631 0.000322404 -0.00599451 -0.00427827
54 1 1.68082 13.9923 10.6138 6.93081 -0.00360346 -0.00427944 0.000649143
55 1 1.72259 12.1256 12.0117 1.58755 -0.000614289 0.000331509 -0.00348529
56 1 1.78024 13.8681 13.7526 3.31461 0.00194118 0.00416381 0.000718358
57 1 1.71953 8.61146 8.49623 8.72413 -0.000754814 0.00691645 -0.00109114
58 1 1.82614 10.3617 10.3148 10.4274 -0.00537533 8.75507e-05 0.00090698
59 1 1.80199 8.48715 11.9513 12.2499 0.00212958 1.83058e-05 0.00142448
60 1 1.69547 10.3446 13.7667 13.855 0.000368611 -0.00258524 -0.000496002
61 1 1.73892 12.1273 8.54318 12.1849 -0.00246288 -0.00472385 -0.00280219
62 1 1.77772 14.0323 10.3417 13.9367 0.00182294 -0.00118763 -0.00537788
63 1 1.8155 12.0321 12.2935 8.67815 -0.00174413 -0.00230275 0.0041315
64 1 1.71302 14.007 14.0219 10.3032 -0.0037354 -0.00208263 0.00175577
65 2 -0.784231 2.03798 2.37815 2.44384 -0.00579097 0.00365742 -0.00820805
66 2 -0.906662 2.63876 14.6936 15.0042 -0.00300213 -0.00407124 -0.000679285
67 2 -0.912371 15.0126 2.35624 14.4516 0.000645256 0.00407935 0.0090619
68 2 -0.902315 14.6017 14.5024 2.13751 0.00705299 0.00136227 0.000672417
69 2 -0.882021 2.66601 4.54418 4.38053 0.001046 -0.00224814 0.000299399
70 2 -0.857297 4.10748 2.52157 4.05605 0.00229593 0.000367486 3.24713e-05
71 2 -0.864493 4.33539 4.20972 2.31037 -0.00236808 0.00112048 0.00404186
72 2 -0.888075 2.23031 6.32047 6.1106 0.00487449 0.00221845 0.00511164
73 2 -0.917088 14.7571 4.33432 6.01275 -0.0023518 0.00182293 -0.00126632
74 2 -0.863517 14.6194 6.13833 4.34576 -0.00043005 0.00351344 0.000182351
75 2 -0.930825 3.94121 5.74334 7.79713 0.00277683 0.00356433 -0.00267261
76 2 -0.929659 4.33948 7.90232 6.39679 0.00451956 2.43366e-05 0.000366072
77 2 -0.877721 2.52947 7.68664 8.01695 0.00661836 0.00377814 -0.000994501
78 2 -0.897567 5.5999 2.59941 6.20981 -0.003679 -0.000310055 -0.00105491
79 2 -0.876858 4.1393 14.7716 5.6826 -0.00424559 0.0082249 0.000364437
80 2 -0.889767 6.11697 14.9857 4.23367 0.00258066 -0.00303066 0.00517033
81 2 -0.921716 6.01842 4.26154 7.94231 0.00378926 -0.00190809 -0.00796734
82 2 -0.91842 7.76247 3.81989 6.03318 0.00829746 0.00318972 0.00285982
83 2 -0.931029 7.44488 2.15289 7.86895 -0.00233389 -0.000752025 0.0021998
84 2 -0.911871 5.7874 6.15918 2.3712 -0.00124834 -0.0049882 -0.00586165
85 2 -0.986739 4.32158 6.05486 14.5197 0.00121523 -0.00579027 -0.00297721
86 2 -0.909127 6.21581 4.31067 14.8401 -0.000460448 0.00154813 -0.00198363
87 2 -0.86189 5.97184 7.60101 4.46829 -0.00322522 0.00311677 0.00272619
88 2 -0.934043 7.49933 5.73165 4.26844 0.00994921 -0.00328878 0.00464872
89 2 -0.955436 7.77985 7.67075 2.63059 9.83185e-05 0.000887247 0.00769245
90 2 -0.91619 2.3936 2.42888 9.45154 -0.00257499 -0.00472157 -0.000823573
91 2 -0.917715 2.7195 14.7096 7.57458 -0.0100246 0.00272497 -0.00669068
92 2 -0.84768 15.1479 2.40141 7.40172 0.00724159 0.00353741 7.43698e-06
93 2 -0.867409 14.7355 14.7796 9.12913 0.00615737 -0.00454437 0.00716285
94 2 -0.964247 2.6404 4.02173 11.3966 0.00371369 -0.00134052 -0.00475996
95 2 -0.943832 4.07898 2.11092 11.1675 -0.0012255 0.0034045 0.00111293
96 2 -0.989938 4.34475 4.11593 9.7011 0.000518691 -0.001207 0.000226884
97 2 -0.957952 2.43427 6.00445 12.9097 0.00135492 0.000127705 0.000869971
98 2 -0.924335 14.6488 4.3123 12.7294 -0.000382764 0.000607908 -0.00315335
99 2 -0.864685 15.0883 5.92588 10.8487 -0.00278547 -0.000985486 -0.00196345
100 2 -1.00281 2.35935 7.51413 14.7771 0.000231489 -0.00189501 0.000614601
101 2 -0.979111 3.98427 7.9438 12.9134 -0.00800527 0.00527337 -0.000217116
102 2 -0.903679 5.77582 2.64287 12.9165 -0.00797819 0.00208301 0.00199332
103 2 -0.963384 4.35273 14.7762 13.2547 -0.00325273 -0.00301473 -0.00231442
104 2 -0.920993 6.13155 14.693 11.4475 -0.00753196 -0.00286696 0.00484948
105 2 -0.918715 7.42602 2.09548 14.6068 0.000814995 0.00420216 0.0106714
106 2 -0.954048 7.8578 4.06049 13.0224 -0.00189997 -0.000213718 -0.00300391
107 2 -0.911312 5.73229 6.09895 9.54613 0.0037505 0.000419545 -0.00793861
108 2 -0.935129 5.96071 7.63454 11.5835 -0.00349121 -0.00188944 -0.00299756
109 2 -0.926254 7.51854 5.77224 11.1966 0.00860638 2.64775e-05 -0.00291774
110 2 -0.905986 7.47277 7.84694 9.60259 -0.00300961 -0.000202696 -0.00539226
111 2 -0.916834 2.60568 9.50039 2.12537 -0.00580766 0.00395612 0.00135521
112 2 -0.89973 14.8504 7.7992 2.63043 0.00485238 -0.00610001 0.00952893
113 2 -0.940554 14.7266 9.27431 14.7072 -0.000248062 0.00555948 0.00050169
114 2 -0.975683 2.33591 10.837 4.29705 0.000189985 -0.000943825 0.00538887
115 2 -0.91929 4.17787 9.22465 4.13189 0.00249568 -0.00225626 -0.00523648
116 2 -0.945123 4.14624 11.2449 2.60778 0.00540232 -0.00508838 -0.0019496
117 2 -0.9634 2.56415 12.9592 5.67493 -0.00236085 0.000938618 0.000517918
118 2 -0.896412 14.9386 11.5637 6.2244 0.00609217 0.0121481 -0.0132992
119 2 -0.925579 14.8909 12.6977 3.92674 -0.00503377 -0.00388331 -0.00197599
120 2 -0.890608 4.49495 12.8696 7.45282 -0.00155781 0.00269953 1.14949e-05
121 2 -0.916132 6.12249 9.61125 5.93923 0.00401636 0.00319009 0.00273999
122 2 -0.961633 6.11689 11.0285 8.00127 -0.00417638 -0.00501346 -0.00406816
123 2 -0.935652 7.95246 11.3044 6.1809 -0.00320735 0.00568464 -0.00634403
124 2 -0.90543 7.87116 9.27512 7.64042 0.00462108 0.00138609 -0.000689614
125 2 -0.849565 5.82614 13.0719 2.52302 -0.00457171 0.0020623 0.00741572
126 2 -0.922467 4.13433 12.6797 14.6949 0.000404724 0.00138741 -0.0053962
127 2 -0.926964 6.03474 11.1069 15.04 0.00147281 0.00296913 0.00297338
128 2 -0.890954 7.81627 14.4744 2.44637 -0.00342137 0.00649411 -0.00164871
129 2 -0.901673 7.5074 12.8398 4.3792 -0.000179583 0.00121787 0.00447242
130 2 -0.954784 2.38476 9.66717 9.58302 0.00296465 -0.000882476 -0.000156652
131 2 -0.809578 14.5534 7.83708 9.36537 0.000370777 0.00149147 -0.0021328
132 2 -0.89426 14.8275 9.55553 7.72636 -0.000449035 0.00251126 0.00829692
133 2 -0.948839 2.68257 11.3928 11.3846 0.000187662 -0.00466131 -0.000785053
134 2 -0.945252 4.32102 9.54623 10.9941 -0.00110128 -0.00316564 0.00101145
135 2 -0.936641 4.03434 11.4183 9.3136 -0.00334948 0.00221985 0.00413387
136 2 -0.926121 2.32896 13.3033 13.062 -0.000849515 0.00322644 -0.00548658
137 2 -0.857094 15.0261 11.1599 13.0757 -0.00599779 0.00698718 0.000138603
138 2 -0.930651 14.9426 12.9908 11.0212 0.00575762 0.000653624 0.000943714
139 2 -0.935089 5.71165 9.78128 12.9011 0.00208561 0.00229022 -0.00191084
140 2 -0.942942 7.46484 9.05634 14.6261 0.000170983 -1.10815e-05 0.00411574
141 2 -0.924752 7.73722 11.1956 13.3243 0.00416291 0.0038707 -0.00268805
142 2 -0.927982 5.92885 13.1553 9.47549 -0.000254288 -0.000511867 -0.000569722
143 2 -0.915855 7.93974 14.7204 9.74309 -0.00216195 0.00228082 0.000754504
144 2 -0.886688 7.45698 12.6649 11.3225 0.000734497 0.00200775 -0.00166937
145 2 -0.873053 9.10722 2.46059 2.44983 0.00488093 0.00595516 0.000569399
146 2 -0.857293 9.51934 14.7113 14.8085 -0.00259492 -0.00235876 0.00304902
147 2 -0.882416 9.63945 4.17389 4.13744 0.000730334 -0.00154117 -0.00125241
148 2 -0.872137 11.1216 2.16607 3.94483 -0.000362357 -0.000109395 -0.000691113
149 2 -0.937362 11.1955 4.07422 2.17969 0.00136991 0.00819342 -0.00247548
150 2 -0.858584 9.12703 5.63478 6.13852 -0.00150713 -0.00833018 0.0031139
151 2 -0.95873 11.1396 5.5006 7.61868 0.00367604 -0.00294192 -0.00187605
152 2 -0.894125 10.852 7.25738 5.84465 -0.00169703 0.00441178 -0.000769171
153 2 -0.927813 9.18224 7.33236 7.81245 0.00251188 -0.000407539 5.84948e-05
154 2 -0.900407 13.0147 2.57349 5.71633 0.000705947 0.00896483 -0.000278516
155 2 -0.920346 11.2066 15.0149 6.03532 -0.00329432 0.00418136 0.000708835
156 2 -0.89936 12.9741 14.4983 4.25478 -0.00336665 0.00276525 -0.00582508
157 2 -0.894675 13.2242 4.02845 7.89988 0.00130119 -0.00315665 0.00703648
158 2 -0.969416 13.256 5.73037 2.34701 0.00259192 0.00240425 0.000490669
159 2 -0.91823 11.3753 5.73366 14.5745 0.00294889 0.0048125 0.00116673
160 2 -0.927114 13.1846 3.94275 14.9252 0.0100343 0.00299846 -0.00119434
161 2 -0.918075 12.6216 7.68908 3.95507 -0.00206059 0.00612406 -0.000482634
162 2 -0.908554 9.52327 2.54859 9.19897 0.00352284 0.000526939 -0.001575
163 2 -0.949001 9.28957 14.6428 7.63739 0.00239619 0.000285095 -0.00445459
164 2 -0.94434 9.46662 4.28446 11.1413 0.00512464 -0.00353634 -0.00775382
165 2 -0.899264 11.0613 2.20798 11.251 -0.00309783 4.36321e-05 0.000649051
166 2 -0.891817 11.4156 4.10143 9.65101 0.00258133 0.00223146 -0.00445902
167 2 -0.909561 9.2296 6.05421 13.1275 -0.00212221 0.00205566 0.00113424
168 2 -0.873781 9.57285 7.62266 14.9538 -0.00566562 -0.00619961 0.00616753
169 2 -0.901579 11.209 7.81476 13.1704 -0.0040635 -0.00427577 0.00146289
170 2 -0.913799 12.8599 2.42233 13.1043 -0.00106134 -0.00330581 -0.00496995
171 2 -0.96566 11.3326 14.5516 12.9842 0.000396818 -0.00604748 0.00191457
172 2 -0.950651 13.1821 14.9254 11.1869 -0.00104965 -0.00411601 -0.00654771
173 2 -0.921112 12.87 6.06172 9.40347 0.000447448 0.00303096 0.00164909
174 2 -0.909153 13.1329 7.61785 11.4269 -0.00191655 -0.00150861 0.00394434
175 2 -0.900512 9.24604 9.64537 2.06012 0.0031932 0.00706529 0.00439926
176 2 -0.875729 9.3467 11.4279 3.92127 0.00144623 0.00532667 -0.00114529
177 2 -0.901044 10.6358 9.25211 4.09695 -0.00474651 -0.00190046 -0.000845429
178 2 -0.862243 11.3337 10.958 2.46043 0.00492671 -0.00166452 -0.00059445
179 2 -0.927921 9.71235 13.054 5.83898 0.0027428 -0.00334605 -0.000573418
180 2 -0.964062 11.3157 13.3004 7.79341 0.0029031 0.00503725 0.0020119
181 2 -0.754626 13.3073 9.79695 5.80632 0.00511655 -0.00202886 0.00227505
182 2 -0.92278 12.8399 11.3372 7.76322 -0.00356873 0.000850459 0.000936514
183 2 -0.855711 12.7756 12.9646 2.5513 -0.00445995 -0.00515472 -0.00369405
184 2 -0.890569 11.0804 12.6059 14.6438 0.0088322 -0.00507041 0.00242524
185 2 -0.892024 13.2713 11.413 14.8177 0.00687607 0.00130744 0.000332981
186 2 -0.923711 9.52438 9.34922 9.67555 0.000655317 -0.00261716 0.00241359
187 2 -0.912665 9.33718 10.9997 11.3364 -0.00732302 -0.000606646 0.000134846
188 2 -0.949105 11.4129 9.4322 11.1712 -0.000776194 -0.00665069 0.00133495
189 2 -0.941957 11.0347 11.3407 9.43552 -0.00410562 -0.00291666 -0.00301325
190 2 -0.882235 9.3424 13.0718 12.8843 0.00712476 0.00370357 -0.00148874
191 2 -0.875372 13.0676 9.60808 12.9562 0.00249387 0.00477558 0.00637506
192 2 -0.935584 12.9988 13.0849 9.53603 0.000371088 0.00341786 -0.00154903
193 2 -0.613058 13.7519 10.4926 10.3541 -0.000953352 -0.00455528 0.00124814
194 2 -0.62189 12.0235 8.66061 8.10712 0.00303364 -0.00756322 0.00103107
195 2 -0.599571 1.88213 4.70169 1.91926 0.0046476 -0.00177881 0.00247007
196 2 -0.609846 12.0371 15.608 1.47423 0.00208256 -0.00403534 0.000861267
197 2 -0.614095 1.63036 15.7579 5.02324 0.00317967 0.01068 5.4563e-05
198 2 -0.656472 12.2787 12.1793 12.0963 0.00705119 -0.00556461 0.00342473
199 2 -0.594676 6.64386 6.63031 6.80447 0.00026555 -0.00114087 -0.000917012
200 2 -0.694026 10.4533 6.78973 3.50818 8.17841e-05 0.00135051 -0.000631701
201 2 -0.61085 12.1577 4.94464 5.03211 -0.00301183 -0.00583431 0.0024832
202 2 -0.618329 10.4526 6.69197 10.2311 -0.00525624 -0.00351473 -0.000461036
203 3 0.450625 13.2007 10.4126 11.1361 0.0102463 -0.0174467 0.0114624
204 3 0.421816 13.9371 11.443 10.2831 -0.0315164 0.000802731 -0.0153572
205 3 0.407795 11.8763 9.63918 8.08446 -0.00130773 0.0252759 -0.00753595
206 3 0.440931 12.9035 8.57827 8.46666 0.0116347 0.00872822 -0.0114508
207 3 0.385324 15.1974 5.11444 2.44861 -0.00855007 0.0159019 -0.0260166
208 3 0.399488 15.565 3.74822 1.66141 -0.00511332 -0.0168717 -0.00830943
209 3 0.429151 12.0133 1.57948 14.6381 -0.015577 -0.0143181 -0.0218759
210 3 0.418755 12.1719 2.37316 1.7808 -0.0175649 -0.007418 -0.0119488
211 3 0.439643 2.35379 1.64501 4.41312 -0.00712206 0.0103611 -0.00278951
212 3 0.437687 2.01792 15.5387 5.89664 0.0140793 -0.000216197 0.0121611
213 3 0.382804 12.5115 13.0844 11.892 0.00464343 -0.0207219 -0.0109144
214 3 0.415483 11.9734 12.2592 12.9999 0.0083624 0.00754175 -0.028829
215 3 0.457697 7.22903 6.88174 7.49858 0.00314518 -0.00510807 -0.0101232
216 3 0.453944 6.97391 6.74107 5.88279 0.031143 -0.0224439 0.0147254
217 3 0.460347 10.6258 5.84972 3.6822 -0.00497751 0.00554214 0.0182883
218 3 0.489988 12.8968 9.35327 5.05986 -0.00818108 0.00741755 0.00561167
219 3 0.406259 12.3292 5.02105 6.00822 0.00300929 0.012228 -0.0166409
220 3 0.396325 13.0463 4.79394 4.68913 -0.0267716 0.0388221 -0.00123381
221 3 0.418326 11.1538 6.94883 9.64653 -0.0150739 0.0282007 0.0103035
222 3 0.412489 10.3212 5.7579 10.0276 -0.016779 -0.00973537 0.00358243
ITEM: TIMESTEP
6000
ITEM: NUMBER OF ATOMS
222
ITEM: BOX BOUNDS pp pp pp
1.5370257093195052e+00 1.5622974290680464e+01
1.5370257093195052e+00 1.5622974290680464e+01
1.5370257093195052e+00 1.5622974290680464e+01
ITEM: ATOMS id type q x y z vx vy vz
1 1 1.74281 15.578 15.4628 15.5441 0.00704136 -0.000292511 -0.000165337
2 1 1.44768 3.32078 3.6218 3.17789 0.00420638 -0.00148366 0.00112996
3 1 1.80958 1.71061 5.16 5.20118 0.00245841 0.000644667 -0.00197074
4 1 1.78826 3.39943 6.77854 6.9828 0.000717332 0.00187663 0.00192408
5 1 1.69924 5.00959 1.76729 5.02078 0.0006103 -0.00462636 0.00290077
6 1 1.77909 6.92824 3.32879 6.79519 0.000241086 -9.36602e-05 -0.0032244
7 1 1.78728 5.15933 5.22352 15.363 -0.000559775 0.000551908 0.00294635
8 1 1.79421 6.67049 6.9113 3.2881 -0.00454551 -0.00154658 0.000306551
9 1 1.86522 1.58846 1.59362 8.7089 -0.00717833 0.00293734 0.00344998
10 1 1.78607 3.37783 3.29546 10.4632 0.00485303 0.000529133 0.00114843
11 1 1.85303 1.58114 5.01289 12.1197 0.00365515 -0.00254689 0.000108871
12 1 1.9469 3.14688 6.90075 13.8421 -0.00341926 -0.0031193 0.00241929
13 1 1.78354 5.11058 15.555 12.1796 -0.000628151 -0.00491309 0.004684
14 1 1.83196 6.89336 3.35036 13.7899 -0.000305552 0.000480777 -0.00234574
15 1 1.79392 5.19873 4.98971 8.64463 0.00453698 0.000532133 0.00154821
16 1 1.77346 6.82321 6.79781 10.4375 0.000903037 0.00292652 -0.00148794
17 1 1.91539 1.67514 8.74238 1.64165 0.00276497 0.0039013 -0.00211744
18 1 1.94468 3.22727 10.5683 3.3986 0.00164121 -0.00120321 -0.000631937
19 1 1.89918 1.57673 12.3435 5.17335 -0.000256578 -0.00041557 0.00774007
20 1 1.79408 3.40193 14.0451 6.84857 -0.00117667 -0.000988896 0.00154045
21 1 1.88582 4.89079 8.62141 5.05089 -0.00464928 -0.00275067 0.00239721
22 1 1.77734 6.69152 10.2709 6.93837 0.00191624 -0.00731207 0.00205443
23 1 1.96219 5.13495 12.1314 1.71227 0.000428986 -0.00291178 0.00272338
24 1 1.78761 6.86499 13.9722 3.49131 0.00326617 -0.00381447 0.00251628
25 1 1.8177 1.5868 8.521 8.62748 0.00140716 0.00384368 -0.00257457
26 1 1.78998 3.36469 10.263 10.4942 -0.000286928 -0.000747423 0.00278887
27 1 1.73007 1.57552 12.0682 12.2782 0.00100824 0.00356252 -0.00190627
28 1 1.88452 3.40372 13.7816 13.9547 0.00240735 0.00097437 -0.00127585
29 1 1.90407 5.00824 8.48233 12.1599 0.00264852 -0.00211291 0.000589256
30 1 1.73829 6.74252 10.2473 13.9631 -0.000179247 0.00280423 -0.00189241
31 1 1.73689 4.98686 12.1126 8.70806 0.000843499 -0.00126718 -0.00253505
32 1 1.8429 6.85512 13.8571 10.3268 -0.00367126 -0.00109407 1.01911e-05
33 1 1.83637 8.48151 1.5745 1.5706 -0.00621474 -0.00550362 -0.00102558
34 1 1.81705 10.4011 3.37182 3.07043 -0.00205296 0.00246235 0.000687817
35 1 1.6667 8.62053 4.98002 4.90421 -0.000301228 -0.000522685 -0.00121538
36 1 1.78973 10.2756 6.77232 6.8114 0.00229726 0.00361826 -0.00266359
37 1 1.82861 12.06 1.61146 4.958 0.00166463 -0.00182209 -0.0064222
38 1 1.65781 14.0029 3.23617 6.71492 -0.00206378 0.0021012 -0.0033462
39 1 1.66024 12.4214 5.10758 15.6155 -0.00397195 -0.00482265 0.00139744
40 1 1.70471 14.0265 6.93396 3.42317 -0.00382381 -0.00377133 -0.00139823
41 1 1.81875 8.54168 15.4729 8.4481 -0.00123825 0.00134937 0.00132387
42 1 1.88084 10.4196 3.092 10.0753 0.000632957 0.000517874 -0.00362579
43 1 1.76443 8.77006 4.83852 11.9286 0.000301207 0.00365266 -0.000762526
44 1 1.79372 10.2992 6.56498 13.9074 -0.00374901 -0.00119559 0.00406625
45 1 1.81318 11.9692 15.4804 12.1113 0.00437962 0.00328767 0.00755363
46 1 1.59334 13.8678 3.19674 13.7218 -0.00482592 0.000790461 0.00259556
47 1 1.693 12.2279 4.97432 8.48672 -0.00144192 -0.00531909 -0.000844028
48 1 1.74919 13.8859 6.73822 10.401 0.00329691 0.000761819 -0.00433616
49 1 1.81384 8.57954 8.41066 15.5954 -0.00149878 -0.00242921 -0.000304655
50 1 1.87099 10.0442 10.4207 3.1923 0.00595232 0.00275733 0.0011127
51 1 1.73895 8.49845 12.0171 5.20923 -0.00369133 0.000882219 0.00109991
52 1 1.80998 10.4312 13.8211 6.67656 -0.00300994 -0.00168922 -0.000417207
53 1 1.5813 11.3499 8.02966 4.33158 0.00274109 -0.00392682 0.00133776
54 1 1.73975 14.0974 10.6634 7.0861 0.00343507 0.000913647 0.000700931
55 1 1.74119 12.0246 11.9941 1.52286 -0.00246411 -0.00239082 -0.00152567
56 1 1.69383 13.7972 13.7812 3.287 0.0039419 0.00262774 -0.00266782
57 1 1.75566 8.57907 8.56046 8.59774 -0.00149495 -0.000314248 0.00025981
58 1 1.81001 10.2544 10.326 10.4732 0.00125633 -0.000774259 -0.00158915
59 1 1.87368 8.44399 11.9778 12.2157 -0.00203332 0.00135718 -0.0016316
60 1 1.77245 10.1369 13.803 13.9551 0.0019791 -0.000168529 -0.00222063
61 1 1.73335 12.0222 8.40266 12.1609 0.000544538 -0.00096204 0.00238589
62 1 1.75738 13.8481 10.1461 13.9497 0.00536457 0.00169421 0.0071851
63 1 1.72912 12.0276 12.192 8.74386 0.00127016 -0.00204331 0.0034585
64 1 1.75608 14.0133 13.8489 10.4546 0.000270454 0.00494464 0.00295988
65 2 -0.816961 1.92373 2.44241 2.42881 0.00559101 0.00159804 -0.00275465
66 2 -0.946341 2.6258 14.7991 14.7532 0.00144816 -0.00572818 -0.00276176
67 2 -0.893268 14.5183 2.01741 14.6275 -0.00181837 -0.00791613 -0.0025479
68 2 -0.916893 14.8826 14.4498 2.3857 0.00998612 0.000489585 0.00195538
69 2 -0.881305 2.79262 4.54871 4.31864 0.00407016 -0.0064669 0.0053819
70 2 -0.827692 4.06801 2.45909 3.96019 0.00672662 -0.00341494 0.0039815
71 2 -0.789814 4.51025 4.17642 2.23399 0.00923819 0.0027981 -0.00127499
72 2 -0.909247 2.21464 5.97445 6.38261 0.00813477 -0.00189902 0.0051226
73 2 -0.897797 15.0161 4.00286 5.80422 -4.15739e-05 -0.00342165 0.00446179
74 2 -0.937238 14.853 6.04198 4.33716 0.00519976 -4.22825e-05 0.00384351
75 2 -0.935888 4.34516 5.84516 7.68234 0.00229345 0.000278718 -0.00249748
76 2 -0.892867 3.96518 7.69039 5.83531 0.00207396 -0.00524174 0.00237262
77 2 -0.900626 2.75372 7.8443 7.95394 0.00573374 0.00527071 0.00204787
78 2 -0.863153 5.86051 2.82832 5.74308 0.00544258 -0.000449139 0.00261848
79 2 -0.925416 4.17073 15.135 6.11333 -0.00145579 -0.00854501 -0.00489941
80 2 -0.860689 5.8419 14.6777 4.44618 -0.00319695 -0.00611899 -0.00265665
81 2 -0.955688 6.24106 4.2901 7.75992 0.00715325 -0.00109902 -0.00301996
82 2 -0.918225 8.03215 3.95445 5.95414 -0.00334236 0.00408147 0.00153489
83 2 -0.91475 7.45808 2.16221 7.66152 -0.00392098 0.0015339 -0.0028527
84 2 -0.905235 5.79554 6.27265 2.19798 -0.000326425 0.00193833 -0.000607503
85 2 -0.925113 4.12713 5.88921 14.4068 -0.000681874 0.00104857 0.00778993
86 2 -0.907856 6.24444 4.55406 14.5015 0.00230685 0.00438369 -0.00373433
87 2 -0.907895 5.7139 7.64754 4.23182 0.00289307 0.00283922 -0.00146838
88 2 -0.825776 7.50675 5.8625 4.15083 0.00354948 -0.00863116 -0.00481133
89 2 -0.907594 7.60031 7.91949 2.58061 -0.000929728 -0.00468527 -0.00717806
90 2 -0.943366 2.36935 2.54423 9.552 -0.000327236 0.00136541 -0.00484261
91 2 -0.906705 2.5196 14.699 7.94583 0.00131144 -0.00324834 0.0062512
92 2 -0.884547 14.6647 2.18239 7.64955 -0.00415526 0.00305819 0.00460761
93 2 -0.927331 14.8997 14.8846 9.72229 0.00166277 -0.000456611 -0.00179781
94 2 -0.90076 2.82299 4.39636 11.437 -0.00403551 0.00384908 -0.00295728
95 2 -0.921688 4.16226 2.24506 11.3119 -0.00167776 -0.00118185 0.00106343
96 2 -0.876573 4.31148 3.9299 9.41989 0.000481453 0.00353182 -0.00108662
97 2 -0.922595 2.02899 6.06338 13.1897 -0.00707981 -0.00200185 -0.00316942
98 2 -0.92471 14.9488 3.92126 12.849 -0.00210954 -0.00292473 -0.00328834
99 2 -0.932845 14.7771 5.68109 11.1092 -0.00416497 -0.000272087 -0.0034876
100 2 -0.981743 2.61774 7.90556 14.8552 -0.00628682 0.00564905 -0.00103532
101 2 -0.981997 3.86996 7.66464 12.7828 -0.00141969 0.00268235 0.00170991
102 2 -0.8779 5.7677 2.43054 13.2358 -0.00676802 0.00365536 -0.00332978
103 2 -0.902909 4.30772 14.4472 12.934 -0.00127508 0.00150864 -0.00331357
104 2 -0.914187 6.18837 14.7035 11.3841 0.00145768 -0.00153304 0.00120689
105 2 -0.936817 7.55822 2.41773 14.7484 0.00270965 0.00358809 -0.00371692
106 2 -0.879056 7.86289 3.78087 12.6536 0.00118889 0.00129372 -0.000895494
107 2 -0.942091 5.8065 5.90082 9.7407 0.00332922 0.00698674 0.00747885
108 2 -0.90465 6.06772 7.58255 11.4924 -0.0068085 0.00461398 -0.00463284
109 2 -0.875973 7.82863 5.97693 11.3416 -0.000753215 0.0028733 -0.00126935
110 2 -0.920461 7.6786 7.83165 9.60287 0.00928105 -0.00148918 -0.00447433
111 2 -0.978872 2.2368 9.91733 2.40327 -0.000278249 0.000354759 0.00268514
112 2 -0.886633 15.142 7.78134 2.65058 -0.00102997 0.001409 -0.00132306
113 2 -0.951312 14.6435 9.21188 14.7956 0.000253081 0.00222704 -0.000889125
114 2 -0.958147 2.48 11.3268 4.45469 -0.00210731 -0.00637094 0.00265258
115 2 -0.929355 4.01386 9.45931 4.0973 -0.00396106 0.00446204 -0.00892743
116 2 -0.984975 4.25887 11.4765 2.72791 0.00136197 -0.0018715 -0.00517909
117 2 -0.91149 2.52978 13.3933 5.75371 -0.00633598 0.00154262 -0.00155002
118 2 -0.92362 14.9908 11.6255 6.36805 -0.00279092 -0.00948779 -0.00264944
119 2 -0.92576 14.548 12.8661 4.30361 0.0017369 -0.00445573 0.00294699
120 2 -0.833856 4.18858 12.8809 7.50091 0.000565648 0.000143233 -0.00171307
121 2 -0.92019 5.75337 9.60003 5.86559 -0.000341422 0.0026252 0.00342476
122 2 -0.858444 5.86463 10.9765 8.04791 -0.000591885 -0.00208498 0.00720887
123 2 -0.88257 7.49576 11.3735 6.19553 -0.0016408 0.00238278 -0.00233351
124 2 -0.932754 7.68098 9.25969 7.49566 -0.00605051 0.00466289 0.00191246
125 2 -0.932485 6.03702 13.1649 2.43209 -9.59002e-05 -0.0010678 0.00176265
126 2 -0.987964 4.17244 12.7565 14.8503 0.00693459 -0.00319968 0.000805792
127 2 -0.895611 6.02212 11.0832 15.1531 0.00236395 0.00256284 -0.00469741
128 2 -0.89557 7.73108 15.0413 2.79792 -0.00589106 -0.0044788 0.00660562
129 2 -0.873124 7.78943 13.1962 4.39309 0.00495633 0.00342268 0.00211267
130 2 -0.85584 2.32172 9.40852 9.72434 0.00307068 0.000134986 0.00103964
131 2 -0.941711 14.6167 7.63009 9.31857 0.000662203 0.000101725 -0.00767696
132 2 -0.907804 14.9549 9.46101 7.69368 0.00524203 -0.00679229 -9.05759e-05
133 2 -0.85309 2.59886 11.0459 11.6214 -0.00421266 -0.000952229 0.000741249
134 2 -0.961783 4.41095 9.35449 11.1148 -0.00379982 -0.00159261 -0.0045552
135 2 -0.891388 3.95002 11.3554 9.54912 -0.00311311 0.00259298 -0.00204168
136 2 -0.908341 2.28874 13.113 13.1424 0.00107746 -0.00331981 -0.00275451
137 2 -0.880626 14.75 11.2178 13.2156 -0.000116482 0.00216079 0.00155785
138 2 -0.931637 14.8312 12.7778 11.1595 0.00417708 0.00552825 0.00126755
139 2 -0.889702 5.64446 9.45968 13.1705 -0.000429346 0.00310005 0.00554209
140 2 -0.871708 7.67774 9.11899 14.5516 -0.0058123 0.00185555 -0.0040163
141 2 -0.937151 7.42778 11.2514 13.052 -0.00574773 0.00548956 -0.00444813
142 2 -0.95099 5.891 13.1159 9.41255 0.000504467 -0.00406332 0.00494818
143 2 -0.925799 7.95772 14.6018 9.54762 -0.00363332 0.00182244 -0.0012134
144 2 -0.869416 7.63891 12.7373 11.1344 -0.00107448 0.00316167 0.00192416
145 2 -0.920666 9.50689 2.62194 2.09023 0.0046108 0.00678318 -0.00169531
146 2 -0.934218 9.24553 14.564 14.964 -0.0121972 0.000939326 -0.00261084
147 2 -0.905482 9.55656 4.42698 3.76694 -0.00536982 0.0058303 0.00823968
148 2 -0.944471 11.0159 2.51376 4.15179 -0.00155873 0.00290062 0.0119879
149 2 -0.936432 11.5447 4.26846 2.5007 -0.00125426 0.000584466 0.00101447
150 2 -0.901066 9.30697 5.93518 5.88107 -0.000570926 0.00288123 -0.000889288
151 2 -0.891561 11.1935 5.74234 7.47734 0.00451432 0.0124076 -0.00184837
152 2 -0.915851 11.0302 7.60557 5.74845 0.000499061 0.000649931 0.000327911
153 2 -0.969816 9.45928 7.58132 7.79566 -0.00252199 0.0037904 0.0086729
154 2 -0.932578 12.931 2.61564 5.70852 0.000680016 -0.00401257 0.00565206
155 2 -0.950264 11.3449 14.8263 5.94399 0.00265346 9.22887e-05 -0.00131694
156 2 -0.916737 12.8626 14.9331 3.9232 -0.000528394 0.00110206 -0.0100195
157 2 -0.879292 13.2615 4.42832 7.50994 0.00424876 -0.000103245 0.0018682
158 2 -0.899302 13.4477 5.98826 2.32773 -0.00439627 0.00989833 -0.00244115
159 2 -0.867597 11.5262 5.81799 14.537 -0.00321072 0.00801211 -0.00570592
160 2 -0.89262 13.3825 4.08131 14.9136 0.00241467 -0.00268009 0.000555705
161 2 -0.872554 12.8897 7.88082 3.89095 0.00515216 0.000631877 0.00304179
162 2 -0.935453 9.4332 2.47333 9.12355 -0.00391727 0.00938453 -0.00273553
163 2 -0.91694 9.39067 14.5072 7.57196 -0.00172845 -0.00633126 -0.00449449
164 2 -0.94223 9.63536 3.98776 11.0314 -0.00898554 -0.00494696 -0.000192796
165 2 -0.908248 11.1058 2.04876 10.9817 0.00215439 0.0116682 -0.00123704
166 2 -0.891362 11.4833 3.76131 9.20305 -0.00212889 0.00151038 -0.00272667
167 2 -0.91945 9.65082 5.50055 13.0098 -0.00382346 0.00233824 -0.00312605
168 2 -0.912704 9.35251 7.20987 14.8931 -0.0104512 -0.00165891 -0.00761061
169 2 -0.940427 10.9567 7.62995 13.0099 -0.0030992 -0.00182258 0.00189857
170 2 -0.899695 12.6797 2.47319 12.9498 0.000931463 -0.00182894 -0.00662746
171 2 -0.950209 11.1142 14.5204 12.8834 -0.00368605 -0.00232475 0.0110163
172 2 -0.924547 12.9777 14.513 11.4772 -0.00624005 -0.000400913 0.011209
173 2 -0.88101 12.9924 5.82257 9.47616 0.000115232 0.000494407 -0.00790677
174 2 -0.948617 12.9213 7.44497 11.3749 -0.00227911 0.00295594 -0.00162573
175 2 -0.947458 9.48734 9.46954 2.1011 0.00136134 -0.00208466 -0.000630275
176 2 -0.931938 9.04539 11.1105 4.08262 -0.00328426 -0.00493989 -0.00218918
177 2 -0.889257 10.8215 9.47207 4.12617 0.00158442 -0.00297222 0.00385987
178 2 -0.905738 11.0286 11.364 2.55139 -0.00361382 -0.00120482 -0.000842849
179 2 -0.886091 9.72846 12.6777 5.95177 0.00485529 -0.00282823 0.000183504
180 2 -0.850297 11.4603 13.0751 7.61083 -0.00500147 -0.00529993 -0.0024085
181 2 -0.796831 13.2446 9.97306 6.04322 0.000807623 0.000732499 0.0035443
182 2 -0.893735 12.9532 11.1737 8.02078 0.00940512 -0.00788257 -0.00111771
183 2 -0.899562 12.9882 12.9564 2.25434 -0.00163687 0.00461401 -0.00107323
184 2 -0.920691 11.0318 12.7775 14.6477 0.00600249 -0.0024742 -0.00834669
185 2 -0.92431 12.8013 10.9157 14.8474 -0.00208666 -0.00519336 -0.00324364
186 2 -0.894943 9.40601 9.61609 9.37825 0.00731865 0.00491156 0.00298319
187 2 -0.957366 9.4274 10.9769 11.5573 -0.00544038 0.000642525 -0.000287336
188 2 -0.941847 11.208 9.33074 11.1901 0.000223997 0.00251698 0.00958845
189 2 -0.901547 11.0387 11.4036 9.65309 -0.000431054 0.00649469 -0.00704938
190 2 -0.92222 9.13029 12.9342 13.1669 -0.00253377 -0.00468532 0.000123235
191 2 -0.915053 13.005 9.31245 12.8897 0.000260593 -0.00408839 -0.00274053
192 2 -0.900062 13.1483 12.9418 9.53027 0.00289498 -0.00170685 -0.00585337
193 2 -0.585672 13.8332 10.1858 10.3636 -0.00246727 0.00503536 -0.00255778
194 2 -0.604482 12.1578 8.46471 8.20742 2.0136e-06 0.00209946 0.000287355
195 2 -0.639681 2.01839 4.82443 1.81446 0.00454594 -0.00088686 -0.00111523
196 2 -0.61798 12.1689 15.3931 15.527 -0.00713744 -0.00712219 0.00601412
197 2 -0.563593 1.60972 15.5538 4.8836 0.00236831 0.00120685 -0.00162413
198 2 -0.63422 12.2305 11.9305 12.3066 0.00123126 0.000511144 0.000441339
199 2 -0.5983 6.92834 6.68125 6.62656 -0.00362543 0.00323823 0.00113583
200 2 -0.711473 10.5216 7.0172 3.51709 -0.00366407 0.00101718 -0.00583939
201 2 -0.662921 12.2138 5.07395 4.93474 0.00626125 0.00224198 0.00311802
202 2 -0.602631 10.3109 6.61164 10.4642 -0.00495303 -0.00397312 -0.00169648
203 3 0.431823 13.1805 10.1722 11.107 0.0150888 0.0137533 0.0045595
204 3 0.437246 13.9757 11.1276 10.1872 -0.0125816 0.0153464 -0.0217447
205 3 0.428741 12.3254 9.186 7.59499 6.34704e-06 -0.0109834 0.0276755
206 3 0.412775 12.9942 7.94683 8.25612 0.0024941 -0.0165732 -0.00431651
207 3 0.407418 1.39251 5.54111 2.23822 0.00935709 -0.00545826 0.0137058
208 3 0.42594 15.4139 4.2653 15.5083 -0.00552158 0.0109319 0.00969493
209 3 0.420524 12.9555 14.9071 15.5974 0.00738551 -0.00224896 -0.0135916
210 3 0.418739 12.4787 2.13697 1.19445 0.0155972 0.0200753 -0.025813
211 3 0.422892 15.495 1.89083 3.96143 -0.00204491 -0.0154864 -0.00145553
212 3 0.422653 2.56905 15.6877 4.99744 -0.0172236 0.0283056 0.0241217
213 3 0.450041 12.1255 12.8757 12.2737 0.00107062 0.0122819 -0.01931
214 3 0.40624 11.908 11.6782 13.2092 0.00395328 0.0139178 0.0334352
215 3 0.414725 7.54856 7.32294 6.95118 -0.0203016 -0.0243823 0.00828528
216 3 0.4165 7.32795 5.84644 6.69262 -0.0138546 0.00486461 0.0263915
217 3 0.458299 10.8232 6.08332 3.63714 0.0130389 0.0114613 0.011786
218 3 0.478898 12.6136 9.58145 5.4401 0.0328507 -0.0140797 0.0205826
219 3 0.445989 12.4354 4.99631 5.82198 0.010043 -0.0140477 -0.00921095
220 3 0.430206 12.218 4.14543 4.67383 -0.00119541 0.0333901 -0.00823217
221 3 0.402513 11.0552 7.22195 10.4531 0.00454722 -0.000274938 -0.0294783
222 3 0.392916 9.93658 6.82734 11.3191 0.0181438 0.0204474 -0.0032938
ITEM: TIMESTEP
7000
ITEM: NUMBER OF ATOMS
222
ITEM: BOX BOUNDS pp pp pp
1.5309366948274459e+00 1.5629063305172551e+01
1.5309366948274459e+00 1.5629063305172551e+01
1.5309366948274459e+00 1.5629063305172551e+01
ITEM: ATOMS id type q x y z vx vy vz
1 1 1.76957 15.77 15.3823 15.5742 -0.000628831 0.00113037 -0.00132996
2 1 1.51262 3.3322 3.53658 3.37279 -0.0061772 -0.00273917 0.000861045
3 1 1.75826 15.495 5.01295 5.29742 -0.00156024 0.000925366 -0.00369511
4 1 1.81871 3.36409 6.63331 6.93959 -2.62711e-05 -0.00270185 0.00045546
5 1 1.70777 4.97792 1.58829 5.11533 0.000966058 -0.00043421 -0.00557154
6 1 1.69748 6.81795 3.32389 6.80594 -0.00195974 0.000653549 0.0014898
7 1 1.87431 5.1003 5.17831 15.583 -0.00135618 0.000780732 0.00204356
8 1 1.82769 6.85521 6.90182 3.31576 -0.000966961 0.00436205 -0.00271262
9 1 1.83124 15.5788 1.52383 8.72168 0.00046732 -0.00111997 -0.000109733
10 1 1.83313 3.39312 3.27358 10.2694 -0.00152684 -0.00198007 -0.000581989
11 1 1.85338 15.701 4.97897 12.0267 -0.000501838 -0.000126093 -0.00338067
12 1 1.69366 3.2289 6.82314 13.7829 -0.00136269 -0.00432846 0.00398363
13 1 1.86231 5.0789 15.7752 12.2007 -0.00294721 0.00370953 -0.00313517
14 1 1.93134 6.79614 3.41494 13.8558 0.00500805 -0.00265217 0.000818967
15 1 1.95036 5.23825 5.07813 8.68738 -0.000159818 0.000753929 0.00608725
16 1 1.81948 6.80065 6.91413 10.5089 0.000700862 -0.00151986 0.000837644
17 1 1.78743 1.53219 8.61968 1.57715 -0.00115851 -0.0072562 -0.0022862
18 1 1.84042 3.39916 10.3058 3.19948 -9.76533e-05 -0.00326922 0.00165847
19 1 1.90376 1.7505 12.0476 5.05719 0.00660826 -0.000711216 0.00501164
20 1 1.76145 3.23055 13.8943 6.89654 0.00130015 -0.00161296 0.00313159
21 1 1.79642 5.00609 8.5076 5.06954 0.000993825 -0.00134644 -0.00395494
22 1 1.77773 6.61294 10.3062 6.90333 -0.000237682 0.00251206 -0.000731953
23 1 1.78472 5.28609 12.1567 1.66394 0.000975981 -8.4952e-05 0.00346038
24 1 1.80766 6.9023 14.0612 3.44193 0.000865319 -0.000204608 -0.00465683
25 1 1.80519 1.63208 8.44276 8.72157 -0.002354 -0.00238467 -0.000993854
26 1 1.89876 3.29373 10.3516 10.4278 -0.00540363 -0.00395954 0.00192083
27 1 1.74109 1.68309 12.1235 12.2823 0.000282943 -0.00411013 -0.00270944
28 1 1.86123 3.6123 13.8034 13.9205 0.000670967 -0.0025046 -9.37687e-05
29 1 1.95971 5.03744 8.67995 12.1978 0.00452871 -0.00183717 -0.000516591
30 1 1.77981 6.86288 10.3858 13.7548 0.00231126 -0.00136448 0.000711262
31 1 1.82372 4.93741 12.1516 8.69852 0.00136664 -6.09427e-05 0.000770531
32 1 1.82503 6.70569 13.9346 10.3968 0.000353858 -0.000111131 0.00485649
33 1 1.83366 8.55512 1.64008 1.53748 0.0025845 0.00524716 -0.00295186
34 1 1.82224 10.439 3.35595 3.18044 -0.00237408 0.00253972 0.00516993
35 1 1.81621 8.58187 5.01623 4.93065 0.000661091 -0.00144827 -0.00101771
36 1 1.69709 10.124 6.84159 6.91665 0.00103689 0.002827 -0.000666009
37 1 1.78084 12.0851 15.5373 4.9324 0.0016072 -0.0039929 0.00169733
38 1 1.80993 13.7438 3.12506 6.95957 0.00391722 0.000738408 -0.00248714
39 1 1.75518 12.3165 4.99403 1.41862 0.000482024 0.00338788 -0.00275932
40 1 1.7337 13.9009 6.81199 3.36178 -0.000506503 -0.000916664 -0.00487532
41 1 1.71185 8.51923 15.4367 8.43282 -0.00324444 0.00123118 0.00850531
42 1 1.87656 10.2255 3.03917 10.239 0.0010034 -0.00810747 0.00155026
43 1 1.77614 8.58072 4.87823 12.0081 0.00430462 -0.00325867 0.00092325
44 1 1.79396 10.4305 6.63913 13.7637 -0.000922171 0.00222128 -0.00131967
45 1 1.83725 12.0373 1.49617 12.1348 0.00150976 0.00196691 0.00209851
46 1 1.67477 14.0518 3.17778 13.7826 -0.0058872 0.00116458 0.00197765
47 1 1.7227 11.9198 4.96907 8.60591 -0.000295659 -0.00167114 0.00174202
48 1 1.73477 13.8362 6.68015 10.3643 -0.000543097 0.000972046 0.000759508
49 1 1.79286 8.60293 8.44186 15.3928 -0.000229058 0.000736746 0.000635303
50 1 1.81076 10.0604 10.3629 3.19204 0.00161531 0.00300645 0.000312424
51 1 1.84649 8.38756 11.9941 5.07795 -0.00199657 0.000368615 0.00234046
52 1 1.76617 10.3123 13.7537 6.69063 -0.00313448 0.00428673 0.00138162
53 1 1.61388 11.3653 8.01048 4.41396 -0.00089314 -0.00152991 0.00330584
54 1 1.71075 14.2237 10.5272 7.03712 0.00512354 0.00031985 0.000106623
55 1 1.79541 11.9972 12.1157 15.6966 -0.00253268 -0.00466528 0.00722545
56 1 1.78706 13.9657 13.709 3.32723 -0.0049025 0.00158567 0.00665691
57 1 1.78192 8.51846 8.68176 8.67771 0.000252523 -0.00110021 -0.00276442
58 1 1.85245 10.4649 10.3788 10.326 -0.00287064 0.00176263 0.00157128
59 1 1.78281 8.55922 12.105 12.0142 -0.000414693 0.00384704 -0.00611286
60 1 1.80517 10.2321 13.8745 13.9083 -0.000700865 0.00384987 -0.0046871
61 1 1.77442 12.1543 8.58694 12.1157 0.00328098 -0.000442657 -0.007067
62 1 1.67402 13.8692 10.3729 13.9887 -0.000951708 -0.00175747 -0.00107315
63 1 1.78198 12.2181 12.2129 8.55562 0.00414467 0.000915283 -0.0049338
64 1 1.77107 13.9603 13.8272 10.5154 -0.000700597 -0.002766 -0.00106812
65 2 -0.822574 2.13078 2.19371 2.59539 0.00345489 0.000961798 0.00651097
66 2 -0.95532 2.81352 14.6823 14.9339 0.000725909 -0.0099853 -0.0094534
67 2 -0.930354 14.9482 2.14744 14.5744 -0.00385458 -0.00167676 -0.00194564
68 2 -0.995344 14.7301 14.5198 2.23758 -0.00337096 0.001214 -0.00467869
69 2 -0.834613 2.53184 4.26783 4.53635 -0.00522937 0.00620119 -0.00391622
70 2 -0.828042 4.30693 2.56183 4.09767 0.00305542 -0.00337351 0.00368132
71 2 -0.844346 4.3618 4.27987 2.48008 0.000410739 0.00304613 -0.000125462
72 2 -0.871778 2.20889 6.00272 6.14716 -0.00922964 0.00537677 -0.00014399
73 2 -0.916455 14.7718 4.0271 6.24896 0.000772846 0.00551507 -0.00110097
74 2 -0.910073 14.7237 5.78632 4.20369 0.00654013 -0.000675711 0.00150579
75 2 -0.969025 4.24144 5.66246 7.70209 0.00153919 0.00278896 0.000486476
76 2 -0.812226 3.96691 7.59593 5.85268 0.00485207 -0.00343234 -0.00273485
77 2 -0.872143 2.70254 7.60896 7.96884 -0.0106668 -0.000359643 -0.0004709
78 2 -0.846644 5.67256 2.51627 6.17096 0.0127081 -0.00368204 0.000381785
79 2 -0.894523 3.90187 15.0357 6.06116 0.000197165 0.00713843 -0.00102631
80 2 -0.917983 5.97536 14.735 4.46083 0.00461775 0.00525403 -0.00618332
81 2 -0.904932 6.33392 4.29684 7.93016 0.0038165 0.003299 0.0042061
82 2 -0.89953 7.5556 4.15335 5.62777 -0.00193451 0.00043859 -3.32821e-05
83 2 -0.849436 7.92113 2.4503 7.43124 0.00105002 0.00234746 -0.00615888
84 2 -0.852828 5.76985 6.19492 2.43956 -0.00358532 -0.010234 0.00048336
85 2 -0.877353 4.13605 6.12474 14.8462 0.00727354 0.00321424 -0.00154337
86 2 -0.99516 6.05784 4.3956 14.7564 -0.0011483 0.00741873 -0.00297921
87 2 -0.965462 6.13084 7.76793 4.32072 0.000773512 0.00168869 0.000954467
88 2 -0.933456 7.84872 5.84572 3.87751 0.00382689 0.000485242 0.00817883
89 2 -0.874622 7.56829 7.68928 2.22305 0.00840779 0.00132404 0.00416046
90 2 -0.922438 2.61438 2.42482 9.26654 0.000749032 -0.000877572 0.00446419
91 2 -0.863694 2.05058 14.5388 7.75369 -0.00707454 0.00230638 -0.000127012
92 2 -0.941731 14.4957 2.32223 7.94687 0.00820025 0.00446469 -0.000512089
93 2 -0.924976 14.9298 14.7365 9.74425 -0.00405607 -0.0079351 -0.00225093
94 2 -0.908735 2.42729 4.34061 10.846 -0.00010748 0.00476581 0.000950353
95 2 -0.947142 4.01529 2.3277 11.308 -0.000857102 0.0027037 -0.00292154
96 2 -0.925014 4.53866 3.99059 9.47808 -0.00162356 -0.00223264 0.00483934
97 2 -0.897313 2.53282 5.57693 13.0466 0.00931836 -0.00802496 0.00146022
98 2 -0.914799 15.0242 3.89445 12.8061 0.000816088 0.00132094 -0.00253833
99 2 -0.92691 14.6247 5.8686 11.4503 -0.0061848 -0.000647429 0.00363743
100 2 -0.850599 2.12355 7.68965 14.5332 0.00180187 0.00050214 0.00228613
101 2 -0.94428 4.02894 7.69981 12.7867 -0.0018435 0.00327267 0.00255525
102 2 -0.967887 5.78749 2.83555 12.8589 0.00686035 -0.00343076 0.000436595
103 2 -0.92219 4.54883 14.8187 13.2987 0.0032985 0.00374173 -0.00641236
104 2 -0.915414 6.11532 14.9078 11.4453 -0.00327535 -0.00288884 0.00131328
105 2 -0.892037 7.46712 2.35422 14.7333 0.00678636 0.000331153 -0.00513514
106 2 -0.934735 7.93238 4.14733 13.1884 0.000433604 0.000435497 -0.00429698
107 2 -0.93713 5.77555 6.14169 9.55872 -0.00402612 -0.00178005 -0.000738435
108 2 -0.945694 6.11628 7.76847 11.5684 -0.00434879 -0.00178127 0.00781197
109 2 -0.89502 7.59327 5.70417 11.1106 0.00609465 0.000843508 0.00147504
110 2 -0.918557 7.48459 7.83437 9.54549 -0.00898024 -0.000651913 -0.00188509
111 2 -0.94164 2.52529 9.56909 2.18545 -0.00782584 -0.00275937 -0.00757819
112 2 -0.860393 14.9558 7.7361 2.66441 -0.00303169 0.000458576 -0.00467524
113 2 -0.868806 14.4908 9.41936 15.0087 0.00217414 0.00861339 -0.00767841
114 2 -0.930146 2.39541 11.0791 4.0736 0.000243079 0.00379158 -0.00647503
115 2 -0.889346 4.09451 9.20854 4.0777 -0.00865486 0.00525043 -0.00067036
116 2 -0.939661 4.46855 11.2832 2.67086 -0.000470327 -0.0030214 0.00304725
117 2 -0.950581 2.70027 12.9139 5.882 0.00321047 -0.00400539 0.00631501
118 2 -0.90057 15.3049 11.2335 6.19957 0.010549 -0.00288201 0.00215185
119 2 -0.954458 14.7681 12.7806 4.26638 -0.00136963 0.00369647 0.00452119
120 2 -0.92942 4.27551 13.1533 7.79239 -0.00181916 -0.00195219 -0.00310654
121 2 -0.901447 5.5365 9.41377 6.21315 0.0025898 0.00766688 -0.00407927
122 2 -0.863075 5.98303 11.1851 8.03717 0.00178476 -0.00708258 0.00161257
123 2 -0.928221 7.33251 11.2396 5.93617 -0.00388197 -0.000695645 -0.00336388
124 2 -0.910003 7.60095 9.36752 7.62269 0.00502791 -0.00935503 0.00163436
125 2 -0.912906 6.03843 13.2776 2.38758 0.00896454 0.00930061 -0.0101287
126 2 -0.948087 4.44874 12.769 14.664 0.00704351 0.00543586 0.000677881
127 2 -0.831152 6.35088 11.2861 14.9387 0.0062331 -0.000815763 0.00558766
128 2 -0.931638 7.9286 14.9746 2.69632 0.00181941 -0.00374657 0.00274584
129 2 -0.920668 7.69632 13.1653 4.39149 -0.00608871 0.00384223 -0.00337547
130 2 -0.914536 2.31764 9.36178 9.80275 -0.00336934 0.00104748 -0.000734675
131 2 -0.925747 14.7725 7.43764 9.37224 0.000845772 0.00623783 0.0051998
132 2 -0.929807 14.8519 9.34227 7.84557 -0.00425825 0.00392536 -0.00352582
133 2 -0.9362 2.66306 11.2571 11.4447 0.00429624 0.00299038 -0.00330845
134 2 -0.971912 4.37493 9.5221 11.1508 -0.000240511 -0.00489169 0.00194909
135 2 -0.927112 3.87858 11.2172 9.29578 0.00705687 0.00806857 -0.0019326
136 2 -0.921104 2.61244 13.2001 12.9295 0.00124645 -0.00330327 -0.00226027
137 2 -0.900456 15.02 11.2682 13.3324 -0.0052661 0.00418469 -0.000816281
138 2 -0.957238 14.7259 12.7801 11.3029 -0.00295432 0.000134878 -0.00315763
139 2 -0.959313 5.70253 9.57354 13.1839 -0.00688739 0.0010218 -0.000777642
140 2 -0.871326 7.76022 9.26944 14.3913 0.000656903 -0.00183095 -0.00526422
141 2 -0.912692 7.45762 11.3367 12.6805 -4.50357e-05 -0.000293406 0.00159198
142 2 -0.904362 5.70017 12.9159 9.82172 0.000533258 0.00204006 -0.00492051
143 2 -0.884735 7.38337 14.707 9.29382 -0.00409912 -0.000682421 0.00566098
144 2 -0.871964 7.84928 13.1444 11.1049 0.00129978 0.00111701 -0.000426843
145 2 -0.910393 9.50594 2.65167 2.14368 -0.00339648 -0.00590734 -0.00198217
146 2 -0.931446 9.31646 14.8547 14.5958 0.00398358 0.00448107 -0.000494994
147 2 -0.957518 9.67578 4.22457 4.18098 0.00329498 0.00102745 0.00150123
148 2 -0.93046 11.4375 2.45741 3.97278 0.00378389 -0.000582882 0.00674689
149 2 -0.911708 11.3509 4.22396 2.34152 -0.00296961 -0.000345221 0.00571028
150 2 -0.938724 9.28146 5.7763 6.05766 0.00376871 0.00362662 0.00103722
151 2 -0.904025 11.2564 6.00441 7.61528 0.00278239 -0.000503574 -0.00458295
152 2 -0.890159 10.7891 7.78242 5.83448 0.00477922 -0.00632093 0.000212462
153 2 -0.951959 9.17608 7.64906 7.76339 -0.00213616 0.00294417 0.00106614
154 2 -0.952018 12.7482 2.39566 5.96378 0.0010575 -0.00108149 -0.00074314
155 2 -0.89184 10.9367 14.733 5.60135 0.00114368 0.00532616 -0.00472546
156 2 -0.939601 13.0879 14.6654 4.17604 0.000154069 -0.00260535 0.00888732
157 2 -0.906434 12.964 4.19742 7.78782 -0.000256172 -0.0066379 -0.00228465
158 2 -0.927251 13.309 5.90484 2.24931 0.00052652 0.000419174 0.00235266
159 2 -0.890631 11.3158 5.62426 14.4639 -0.00721148 0.000513506 -0.00176104
160 2 -0.912765 13.2949 4.02637 14.8978 0.00168544 0.00075827 -0.00250969
161 2 -0.917963 12.789 7.58682 4.11587 -0.000279657 0.00142782 -0.000475618
162 2 -0.931944 9.51307 2.04107 9.34809 0.00586987 0.00519457 -0.00687603
163 2 -0.879531 9.30943 14.3151 7.67093 -0.0015783 0.00644834 -0.00191909
164 2 -0.904944 9.202 3.79612 11.0945 -0.000701923 -0.00463667 0.00947392
165 2 -0.931564 11.3504 2.38871 11.1168 -0.00625021 0.000306648 -0.00842018
166 2 -0.91729 10.8572 4.09142 9.37233 -0.00353695 0.0004123 0.00426343
167 2 -0.894087 9.66237 5.8264 12.668 4.51162e-05 0.0104612 0.000593874
168 2 -0.938666 9.45702 7.41561 14.6573 -0.00160163 0.00530001 -0.000245746
169 2 -0.946693 11.3553 7.64983 12.9878 -0.00300603 0.00137032 -0.00113307
170 2 -0.861156 12.9566 2.44966 12.9444 -0.000616211 -0.00336186 -3.41329e-05
171 2 -0.958031 11.1091 14.5753 12.8029 0.00388568 -0.00104538 0.00289886
172 2 -0.91685 13.0761 14.6753 11.4983 -0.00499115 -0.00372063 0.00147977
173 2 -0.844799 12.8749 5.74581 9.55008 1.69898e-05 -0.00134041 0.000509965
174 2 -0.926056 12.8355 7.62262 11.0951 -0.00121189 0.00042137 0.00215879
175 2 -0.919041 9.33053 9.55377 2.13121 -0.00516892 -0.0050259 2.38009e-05
176 2 -0.951083 8.99882 11.0252 4.10836 -0.000312822 0.00274591 0.00634441
177 2 -0.92923 11.0472 9.44344 3.93238 -0.00220707 -0.000131416 -0.00094685
178 2 -0.896994 10.9379 11.4435 2.49157 -0.00315324 -0.00371731 0.0041007
179 2 -0.86767 9.5395 12.6131 5.93507 -0.00741032 0.000112761 0.00123251
180 2 -0.889406 11.3921 13.0777 7.52815 0.0018554 0.00325665 0.00681999
181 2 -0.795805 13.2695 9.94476 5.98592 -0.00154667 0.000543138 0.00193501
182 2 -0.962694 13.3808 11.4674 7.98994 -0.00325361 0.00495452 0.00219454
183 2 -0.934251 12.9361 12.8441 2.61522 -0.00176479 -0.003492 -0.00563559
184 2 -0.988458 11.2706 13.0782 14.7485 -0.0028459 0.00257773 0.0056399
185 2 -0.944115 12.8037 11.1792 14.8146 0.00438983 -0.000268204 -0.00206249
186 2 -0.934007 9.59494 9.50855 9.38244 -0.00453724 -0.0100229 -0.00191231
187 2 -0.891111 9.42535 11.0629 11.228 0.00115436 0.00108586 0.00113013
188 2 -0.967891 11.1518 9.40186 11.2399 -0.00247655 -0.00578784 0.000246946
189 2 -0.923065 11.201 11.4759 9.51515 0.00515699 0.00266476 -0.00178987
190 2 -0.90048 9.41468 12.8179 13.1299 0.00955359 -0.00649842 0.00135127
191 2 -0.927078 13.1354 9.50166 12.8784 0.00904433 0.00239745 0.00133962
192 2 -0.90584 12.9616 13.1624 9.49649 -0.00339257 0.00499999 0.00166472
193 2 -0.605633 13.9278 10.4943 10.4589 0.000426642 -0.00252368 -0.000303266
194 2 -0.647025 12.1452 8.63397 8.31438 -0.000145525 -0.00439208 -0.00149426
195 2 -0.621931 1.87383 4.5866 2.01524 0.00426603 -0.00212152 -0.00144169
196 2 -0.576886 12.2307 1.44416 1.5118 0.00340724 0.00425757 -0.00046055
197 2 -0.627359 1.42592 15.7662 4.9975 -0.00191163 -0.00263237 -0.00107787
198 2 -0.653491 12.1841 11.9434 12.1345 -0.00166948 -0.00620929 -0.00109942
199 2 -0.605667 6.65755 6.61306 6.82569 0.00159963 0.00171541 0.00199753
200 2 -0.705649 10.568 6.9788 3.50959 -0.0106416 -0.00302511 0.0044954
201 2 -0.640921 12.1719 5.02861 5.13932 -0.00148189 0.000200593 -0.00313582
202 2 -0.593901 10.3871 6.93658 10.3052 -0.00606928 -0.00475259 0.00260931
203 3 0.429688 13.6265 10.6533 11.3646 -0.037407 -0.00304936 -0.0175824
204 3 0.423906 13.9921 11.361 10.0131 0.013029 0.00187243 -0.00519084
205 3 0.421484 12.2007 8.72422 7.39031 -0.0409842 0.0250792 0.0222602
206 3 0.41673 13.0801 8.65671 8.53526 8.59643e-05 0.00232826 0.00463349
207 3 0.438254 15.1447 5.08168 2.30754 -0.00826291 -0.0143953 -0.0186388
208 3 0.383605 15.599 3.95423 1.29826 0.00267165 0.0117541 0.0221595
209 3 0.386693 12.188 14.6775 16.0145 -0.0255621 0.0297215 -0.00582474
210 3 0.401781 13.2046 15.5923 1.43628 0.0169069 0.00941748 -0.0402797
211 3 0.441959 15.5181 1.75357 4.0295 -0.00642679 0.0252048 0.00682759
212 3 0.4308 2.22763 16.0323 5.44545 0.0066168 0.00460061 -0.0233334
213 3 0.425184 11.9612 12.8652 11.9511 0.00702121 0.00559767 -0.00630994
214 3 0.402254 12.1302 11.9651 13.1173 -0.00433594 -0.0019824 0.015403
215 3 0.44412 7.17092 7.31661 7.2219 0.0182674 -0.0314638 0.00291354
216 3 0.403026 7.32519 5.9406 6.60133 0.010779 0.00385012 0.0183244
217 3 0.440382 10.8863 6.06508 3.60545 -0.000428182 0.0179966 0.0142528
218 3 0.470722 12.6806 9.966 5.18217 -0.0296899 -0.00338593 0.0364763
219 3 0.412053 12.3057 5.20741 6.08446 0.00313917 -0.00404317 -0.0108405
220 3 0.421146 11.9347 4.08214 5.14713 -0.0102238 -0.000386848 -0.0080581
221 3 0.436713 11.0578 7.64123 10.0123 0.0121324 0.0200651 -0.00955323
222 3 0.444433 10.5814 6.84 11.2067 -0.0166793 -0.00986298 0.00896898
ITEM: TIMESTEP
8000
ITEM: NUMBER OF ATOMS
222
ITEM: BOX BOUNDS pp pp pp
1.5346939374557964e+00 1.5625306062544194e+01
1.5346939374557964e+00 1.5625306062544194e+01
1.5346939374557964e+00 1.5625306062544194e+01
ITEM: ATOMS id type q x y z vx vy vz
1 1 1.70799 15.4184 15.4577 15.5231 -0.00430401 0.00238738 -0.00329325
2 1 1.46204 3.26486 3.55781 3.30257 -0.00193185 0.00195631 -0.00162883
3 1 1.71975 15.6067 5.19254 5.20982 0.00173283 -0.000938031 0.00152729
4 1 1.82334 3.44743 6.747 6.98911 -0.00133268 -0.00154932 0.00460197
5 1 1.7129 4.94086 1.56422 4.92696 -0.00304134 0.000358944 0.000691894
6 1 1.67843 6.8895 3.19613 6.71398 0.00279509 0.00269227 -0.00130223
7 1 1.85751 5.17545 5.14456 1.6427 0.0018965 -0.000821163 -0.00439587
8 1 1.84512 6.83412 6.95019 3.33503 0.00581131 0.00341875 0.00468219
9 1 1.85911 1.72516 15.589 8.56239 0.000882042 -0.00103663 -0.00170344
10 1 1.83344 3.50026 3.21383 10.3228 0.00254173 -0.000729355 -0.00176755
11 1 1.82053 1.62012 4.89838 12.0353 0.00011401 0.000576317 0.00117168
12 1 1.83331 3.31807 6.72101 13.7871 0.00144544 -0.0026499 0.00136397
13 1 1.74836 5.07016 1.55855 12.3583 0.00278209 -0.00217956 -0.00569077
14 1 1.82982 6.92766 3.4182 14.0163 0.00118002 -0.00302292 0.00086
15 1 1.71833 5.26659 4.95294 8.64849 0.00425832 -0.00254367 0.00356473
16 1 1.78876 6.9302 6.78636 10.5067 -0.00110443 -0.00188524 -0.000164131
17 1 1.82996 1.63433 8.5213 15.4924 -0.000666481 0.00277263 0.00617513
18 1 1.80069 3.33802 10.2431 3.28353 0.00229323 -0.00162264 -5.28547e-05
19 1 1.90639 1.61141 12.0724 4.94478 0.00110624 0.00159153 0.00247182
20 1 1.73699 3.34706 13.7548 6.77689 -0.00605634 0.00260572 -0.00218062
21 1 1.90729 5.02821 8.58587 5.17762 0.00413621 -0.00173048 -0.000732864
22 1 1.86737 6.70852 10.271 7.0311 0.00253119 0.00395361 0.00507265
23 1 1.83514 5.12226 12.0084 1.65338 0.00169609 0.00362433 0.00513544
24 1 1.94077 6.80205 13.9122 3.30484 0.000475035 -0.00289432 0.00170562
25 1 1.80363 1.67288 8.5607 8.69597 0.00258598 0.000475835 0.0030302
26 1 1.85673 3.3063 10.3705 10.5078 -0.000223696 -0.000169273 -0.00076553
27 1 1.72423 1.57675 12.1182 12.2253 0.00020602 -0.00427737 0.000556934
28 1 1.76225 3.39263 13.8281 14.0962 -0.00189828 0.00497589 0.00197377
29 1 1.83629 5.03927 8.50303 12.1145 0.000471606 0.00374037 -0.00145172
30 1 1.87103 6.75683 10.2287 13.8419 -0.00241395 0.00102373 0.00199742
31 1 1.82655 4.94761 12.0408 8.70772 -0.00179101 0.00151856 -0.00238994
32 1 1.89593 6.72151 13.8152 10.5556 0.00202717 0.00156993 -0.00313498
33 1 1.85708 8.56769 1.49832 1.57925 -0.00109051 0.00318037 0.00261655
34 1 1.78227 10.4236 3.40746 3.2019 -0.000460257 -0.00471244 -0.00245261
35 1 1.70917 8.64624 5.11269 5.02699 1.24018e-06 0.000822571 -0.000150656
36 1 1.7054 10.4369 6.75497 6.82191 -0.00205282 0.005392 -0.00462585
37 1 1.7605 11.995 1.50837 5.07837 0.00256625 -0.00272454 -0.00272637
38 1 1.83555 13.9901 3.12121 6.76729 0.00128535 0.000615441 -0.000923276
39 1 1.76755 12.2324 5.08367 15.5057 -0.00244573 -0.000611804 0.00168094
40 1 1.72382 13.9236 6.90029 3.2759 1.9885e-05 0.00322818 -0.000420777
41 1 1.87804 8.38783 15.4447 8.68029 -0.000919039 -0.000383678 0.0027686
42 1 1.86664 10.2754 3.20004 10.1376 -0.000491395 0.00193783 0.00229435
43 1 1.77187 8.76475 4.93261 12.0976 0.00117743 0.00254491 -0.00316473
44 1 1.8086 10.3477 6.86432 13.8448 0.00907228 0.00221684 0.00108817
45 1 1.75468 11.9355 15.6088 12.0254 -0.00526035 -0.00286903 0.00209745
46 1 1.883 13.8175 3.21266 13.7219 0.00142152 -0.000274555 -0.0002265
47 1 1.76437 12.238 4.90699 8.54017 -0.00494505 0.00038801 -0.000961842
48 1 1.77801 13.9506 6.69593 10.3427 0.00123487 0.00224608 0.00557088
49 1 1.9281 8.5087 8.59303 15.5476 -0.0030407 0.00365097 -0.0014395
50 1 1.78745 9.96838 10.4787 3.28014 5.32674e-05 0.00421633 -0.00287772
51 1 1.87207 8.28037 12.1539 5.28321 -0.00032877 -0.00067811 -0.00201672
52 1 1.84959 10.2483 13.8655 6.90754 0.00267431 -0.0024832 0.00237803
53 1 1.6581 11.3793 8.0422 4.2398 0.00471009 -0.000144847 -0.00528474
54 1 1.72727 14.1774 10.5637 7.03667 0.00273386 -0.0017185 -6.63351e-05
55 1 1.74063 11.85 12.117 15.6375 -0.0011304 -0.000659942 -0.00370437
56 1 1.72842 13.7046 13.736 3.32804 0.00252859 0.00410356 -0.000246712
57 1 1.7642 8.67184 8.49828 8.64823 0.00517828 0.0016846 0.0025399
58 1 1.85372 10.4903 10.3693 10.2781 -0.00482176 -0.00463562 0.000730349
59 1 1.86299 8.48934 11.8563 11.9618 -0.00534339 0.00289383 0.000868622
60 1 1.71361 10.0833 13.8206 13.7818 -0.00220623 0.00259407 -0.000127886
61 1 1.74802 12.2329 8.60436 12.0922 0.000656959 2.46383e-05 0.00154985
62 1 1.76861 13.8827 10.3769 13.9901 -0.000493954 0.00179959 0.00142226
63 1 1.76368 12.176 12.2964 8.5764 -0.000414946 -0.00581344 0.00630754
64 1 1.72748 13.9853 13.9513 10.4557 0.00018855 -0.00245801 -0.00121439
65 2 -0.782089 1.918 2.25324 2.48945 0.00124341 0.00194752 -0.00153987
66 2 -0.864236 2.45371 14.4449 15.1912 0.00374047 -0.000914121 -0.00528775
67 2 -0.960922 14.7814 2.22772 14.4019 -0.00175243 0.000571455 -0.00612239
68 2 -0.906302 14.4067 14.7816 2.37718 -0.00136247 0.00819777 0.000345915
69 2 -0.843195 2.66464 4.57588 4.32915 -0.000843213 0.00375797 -0.000707912
70 2 -0.851931 3.83807 2.36995 4.16438 -0.00399484 0.00217837 -0.000749583
71 2 -0.87453 4.36207 4.0547 2.34896 0.0100239 -0.00890423 -0.00674447
72 2 -0.845125 2.24144 6.00802 6.33472 0.00838354 0.0020554 -0.00476253
73 2 -0.933333 14.7476 4.05764 5.82322 0.00289794 0.000471229 0.000567343
74 2 -0.920556 14.8321 6.12547 4.2758 -0.000827727 -0.00200732 -0.00477884
75 2 -0.898583 4.17265 5.7068 7.84306 -0.00500872 0.00331225 0.00679782
76 2 -0.936256 4.30082 7.45507 5.91954 0.000217765 -0.00200018 -0.000813914
77 2 -0.88151 2.76365 7.70686 7.97325 0.00181378 0.00679681 0.000651468
78 2 -0.81545 5.71356 2.53257 5.88298 0.00564448 0.00732782 -0.00242702
79 2 -0.861639 4.18374 14.8684 6.03087 -0.00345464 0.00187648 0.0015558
80 2 -0.949828 5.87328 14.8952 3.95665 -0.00413217 0.00709921 0.000713119
81 2 -0.868304 6.33921 4.13533 7.78003 0.000259037 0.000319972 0.000251417
82 2 -0.838232 7.92921 3.87285 5.74469 -0.000127504 -0.00155511 0.00132452
83 2 -0.811308 7.53901 2.00093 7.50041 0.00129285 -0.0117135 0.00100631
84 2 -0.940541 5.8048 6.02367 2.70974 -0.000996108 -0.00708836 0.00350881
85 2 -0.885223 4.33138 6.04679 14.7674 -0.000999378 -0.00585788 -0.00170357
86 2 -0.946235 6.207 4.49094 14.8168 -0.000573714 -0.00633963 0.00313023
87 2 -0.917166 6.03915 7.98973 4.21172 0.00110639 -0.00407751 0.0028375
88 2 -0.935664 7.78782 6.14985 4.32309 -0.00347201 0.000572549 0.00326803
89 2 -0.955476 7.51061 7.67244 2.21253 0.00130532 -0.00213707 0.00219739
90 2 -0.904314 2.64217 2.47356 9.29581 -0.000671538 0.00454178 0.00020652
91 2 -0.944515 2.55072 14.479 7.88375 -0.00320886 0.00585954 -0.00545157
92 2 -0.938473 14.8856 2.44542 7.79142 -0.00557314 -0.00391211 0.00158428
93 2 -0.888878 14.8697 14.8874 9.53362 0.0017677 0.00277851 -0.00168461
94 2 -0.922773 2.51898 4.09951 11.0464 0.00317038 -0.00387827 -0.00382062
95 2 -0.876367 4.19623 2.12316 11.2079 -0.00283734 -0.00459923 0.00173705
96 2 -0.884351 4.68259 3.97315 9.65103 0.0034959 -0.00449298 -0.00134668
97 2 -0.89 2.53675 5.59895 13.0615 -0.00439104 0.00189278 -0.00428813
98 2 -0.952625 14.6125 4.06732 12.7538 -0.00500034 -0.00427136 -0.00145513
99 2 -0.877157 15.0169 6.00203 11.1879 0.00176772 0.00182092 -0.00264215
100 2 -0.944563 2.26094 7.66317 14.4452 -0.00196077 -0.00258518 0.00237083
101 2 -0.933166 4.03764 7.50643 12.6972 0.00100342 -0.00316405 -0.000988056
102 2 -0.853018 5.88838 2.66567 13.1097 0.000176022 -0.00288893 -0.00479298
103 2 -0.910102 4.11724 14.9427 13.3819 -0.00184018 0.00876227 -0.00257341
104 2 -0.90814 6.04196 14.646 11.6708 0.000123257 -0.00213386 -0.00455638
105 2 -0.909356 7.56012 2.29924 14.8132 -0.00226514 0.00594346 0.00225763
106 2 -0.873758 7.97698 3.94468 12.9767 -0.0009946 0.00538699 0.00103509
107 2 -0.900847 6.01361 6.0674 9.54784 -0.00246743 0.00105339 0.00364278
108 2 -0.881657 6.20921 7.64682 11.5407 0.00732384 -0.0102733 0.00278665
109 2 -0.886036 7.69648 5.63769 11.2355 0.00360109 0.000931391 0.0062824
110 2 -0.946546 7.75982 7.82091 9.68061 0.0101933 0.0024441 0.000823356
111 2 -0.831447 2.84201 9.28133 2.11255 -0.000230041 -0.00618211 -0.0022037
112 2 -0.90631 14.9534 7.7417 2.43301 0.00467728 0.00601125 -0.00862308
113 2 -0.92959 14.8003 9.63031 14.911 0.00213434 0.000599788 0.00389641
114 2 -0.914703 2.18565 11.0393 3.97654 -0.00298232 -0.00056656 0.00364642
115 2 -0.904353 3.96644 9.33693 4.36592 -0.000752216 0.00576635 0.000145856
116 2 -0.955939 4.36872 11.1628 2.69356 -0.00156214 0.000208699 0.00581433
117 2 -0.94925 2.64081 12.9216 5.68835 0.00167596 0.0032406 -0.00211265
118 2 -0.927972 15.046 11.4822 6.1507 -0.000954846 -0.000879438 -0.000771419
119 2 -0.925337 14.6385 12.7451 4.08614 -0.00271515 -0.00482064 0.00158724
120 2 -0.848505 4.4242 12.8641 7.51662 0.00022043 0.00320707 -0.00123319
121 2 -0.974715 5.74642 9.56486 6.11308 -0.00524899 0.00503285 -0.0035104
122 2 -0.907603 5.88286 11.0709 8.08793 -0.0079435 0.00607987 0.00192451
123 2 -0.937074 7.45092 11.369 6.23082 -0.000225997 -0.002337 -0.00122212
124 2 -0.920187 7.72296 9.33949 7.77149 0.00010945 0.00358964 -0.00490696
125 2 -0.940586 6.09154 13.1012 2.26199 -0.000715972 -0.00217695 0.00217599
126 2 -0.951131 4.24407 12.7318 14.7673 -0.00510601 -0.00550466 -0.00499632
127 2 -0.899403 6.10584 11.0487 14.9573 -0.000373862 0.00106781 -0.00115103
128 2 -0.985249 7.90533 14.6953 2.57938 -0.000182608 -0.00244114 0.00376043
129 2 -0.933815 7.31454 13.0383 4.45726 -0.00214216 -0.00396183 -0.00109013
130 2 -0.890618 2.30688 9.39608 9.82194 0.00491509 0.00385877 -0.00167142
131 2 -0.910794 14.7162 7.59527 9.3217 0.00263975 -0.00315074 -0.000945891
132 2 -0.934598 15.0779 9.47945 7.68404 0.00226213 0.00401562 -0.00956486
133 2 -0.958119 2.58567 11.1724 11.5661 -0.00684089 -0.00124835 0.00575942
134 2 -0.910881 4.46068 9.42797 11.0363 0.00138091 0.00168534 0.00118788
135 2 -0.958991 3.83358 11.1881 9.39346 0.00099989 0.000938105 -0.000280236
136 2 -0.839445 2.37942 13.1967 13.0558 0.00080741 0.00282647 0.00309263
137 2 -0.89411 14.7345 11.4519 13.2677 0.000162074 0.000472761 -0.00403823
138 2 -0.922938 14.8379 12.817 11.0568 -0.0113658 0.00676675 0.00266352
139 2 -0.919788 5.64357 9.41131 13.1797 -0.000318891 -0.00451947 0.00390561
140 2 -0.937857 7.72791 9.16438 14.4175 -0.000491391 0.00268786 0.0024303
141 2 -0.965949 7.49524 11.0842 12.8046 0.00238856 -0.00113918 0.00470637
142 2 -0.9084 5.70011 12.9934 9.7218 0.000214758 0.00253532 -0.00173224
143 2 -0.95431 7.41042 14.827 9.67178 -0.000376455 0.00238343 -0.00138977
144 2 -0.95791 7.79801 12.8662 11.0146 -0.00328912 0.00262414 0.00270164
145 2 -0.881899 9.35752 2.64321 2.35752 -0.000689734 -0.0119337 0.00360714
146 2 -0.970763 9.2944 14.8569 14.5596 0.00341315 -0.00254394 -0.00163993
147 2 -0.873099 9.65001 4.49424 3.94423 -0.000664315 -0.00412488 0.00239728
148 2 -0.939658 11.2406 2.54112 4.20714 0.00476982 -0.000275353 -0.00286381
149 2 -0.92469 11.2162 4.3462 2.28082 0.00146714 0.00252364 -0.00161773
150 2 -0.915886 9.44688 5.76469 6.10742 -0.00107692 -0.000226438 0.0141221
151 2 -0.912187 11.3985 5.81868 7.58621 -0.00160482 -0.00196264 -0.00411196
152 2 -0.948939 10.9933 7.63099 5.65266 -2.24548e-06 -0.000276158 0.0041479
153 2 -0.934632 9.48222 7.49608 7.82871 -0.00363449 -0.00842257 0.00299863
154 2 -0.943033 12.8471 2.51397 5.93395 -0.00138272 -0.000749492 3.64728e-05
155 2 -0.889921 10.9136 14.8834 5.98454 0.00629472 -0.00343044 -0.00407931
156 2 -0.936527 12.843 14.5621 4.34642 0.00039475 0.00310067 -0.00705416
157 2 -0.881948 13.2083 4.14011 7.63575 -0.00310893 -0.00103732 0.00224861
158 2 -0.92669 13.2561 5.8718 2.32505 0.00379462 -0.00452005 -0.00550055
159 2 -0.908837 11.401 5.92107 14.4799 0.009172 -0.00420263 0.00664306
160 2 -0.938911 13.1588 4.05629 14.8036 -0.00467148 -0.00697747 -0.00605604
161 2 -0.878125 12.8947 7.86958 3.90853 -0.00290173 -0.00150261 -0.000141683
162 2 -0.961207 9.33324 2.41182 9.20071 -0.000776683 -0.00205217 -0.00399467
163 2 -0.920941 9.22054 14.4293 7.95326 0.0017144 -0.00824384 0.00744766
164 2 -0.952271 9.76828 4.15564 11.1868 -0.0101284 0.00463611 -0.00141933
165 2 -0.921708 11.2167 2.19719 10.9095 0.000399403 0.00149581 0.00282698
166 2 -0.88152 11.1723 3.95935 9.18423 0.000362517 0.00223685 -0.00781421
167 2 -0.942827 9.37591 6.02713 13.0366 0.00458386 -0.00230921 0.00576203
168 2 -0.905841 9.57332 7.71898 14.8754 -0.00415435 0.000697495 -0.00336884
169 2 -0.922625 11.1165 7.81017 12.8751 0.000954139 0.00656137 -0.00840621
170 2 -0.943358 12.6789 2.44427 13.037 -0.00433451 -0.00274745 0.00430136
171 2 -0.917716 10.9232 14.6131 12.6999 -0.0051142 0.00531755 -0.000836093
172 2 -0.882242 13.1177 14.7173 11.5016 -0.00233326 -0.00366996 -0.0057186
173 2 -0.890339 13.1982 5.6519 9.54641 -0.00475929 0.00417975 -0.00535996
174 2 -0.926204 12.9477 7.45926 11.3319 0.00134299 -0.00455825 -0.00110005
175 2 -0.985385 9.16852 9.69616 2.26409 -0.00442346 0.00272588 -0.00126341
176 2 -0.888527 8.91766 11.1882 4.22057 0.0033805 -0.000927346 0.00694601
177 2 -0.910489 10.9303 9.53552 4.06268 -0.00126017 -0.00317724 0.00291654
178 2 -0.925424 10.8108 11.5219 2.5045 0.00306167 -0.003333 -0.000227245
179 2 -0.921452 9.35526 12.9459 6.04352 0.00500184 -0.0062916 -0.00126142
180 2 -0.932858 11.4007 13.057 7.48886 0.00189071 0.00159053 -0.000466941
181 2 -0.828273 13.1694 9.83682 6.15552 -0.000807087 0.00474477 0.00220977
182 2 -0.956298 13.2562 11.4176 8.00491 0.00408253 -0.00620041 -0.00108843
183 2 -0.920378 12.8754 12.9498 2.31275 -0.000833922 0.00192326 0.00476721
184 2 -0.939087 11.1708 13.1578 14.6483 -0.00569627 -0.000932321 -0.000190062
185 2 -0.898349 12.713 11.1761 14.7235 -0.000319705 -0.0028693 0.00172187
186 2 -0.892631 9.64442 9.58193 9.26275 0.00326856 -0.00452724 0.00453199
187 2 -0.959742 9.50912 10.9948 11.2243 -0.00310762 0.0041056 -0.00161271
188 2 -0.979003 11.501 9.56448 11.1827 0.00599418 -0.00156682 -0.00113007
189 2 -0.915012 11.1956 11.4216 9.41429 0.000258658 0.00395325 0.00415138
190 2 -0.887258 9.26842 12.7156 13.0249 -0.000624648 0.000239217 0.000279999
191 2 -0.949145 13.1858 9.49018 12.9191 -0.00295229 -0.00459039 -0.00206798
192 2 -0.889737 12.9064 13.3011 9.59828 0.00481378 0.00260893 -0.00408132
193 2 -0.624598 13.9435 10.3847 10.3023 0.00284436 0.00198494 0.00410344
194 2 -0.616464 12.3971 8.50515 8.49459 -0.00512646 -0.00769562 -0.00158047
195 2 -0.619603 1.88059 4.71258 1.94767 -0.00301771 0.010059 -0.00153105
196 2 -0.619194 11.8412 1.58578 15.5575 -0.000609748 0.00191383 -0.00339891
197 2 -0.663481 15.5698 15.5263 5.10858 0.000418223 -0.00172724 0.00169767
198 2 -0.650562 12.1308 12.0147 12.0371 -0.00233228 0.000425664 -1.8486e-05
199 2 -0.585891 6.77261 6.89193 6.97322 -0.00652887 0.000112251 -0.00194734
200 2 -0.769615 10.6613 7.15479 3.29096 0.00614638 -0.00281539 -0.00581776
201 2 -0.65134 12.1224 5.15034 4.91562 0.00164737 0.00391515 0.00147015
202 2 -0.59843 10.5688 6.70857 10.3959 -0.00246671 -0.0054153 -0.00231846
203 3 0.442685 13.2844 10.5445 10.9741 0.00621307 0.00311495 -0.0239739
204 3 0.415091 14.0921 11.2998 9.91994 -0.00719729 -0.019636 -0.00719332
205 3 0.406863 12.2835 8.65507 7.50993 -0.0147917 -0.0100991 0.00958145
206 3 0.408428 13.2848 8.87864 8.80485 0.00137531 0.0222696 -0.000448227
207 3 0.409877 15.354 5.2122 2.52027 -0.00571105 -0.00376607 -0.0128982
208 3 0.380765 15.5274 3.75684 1.79032 -0.0104775 -0.00550575 -0.0160897
209 3 0.432246 12.2276 14.8365 15.7221 0.00258298 0.00195645 0.00309069
210 3 0.40074 11.4447 1.58773 14.6516 0.00489739 -0.0284381 -0.000905716
211 3 0.43378 1.31994 15.4998 4.16685 -0.00760054 0.00646566 -0.00579551
212 3 0.432642 2.37683 1.68022 5.19208 -0.0219914 -0.0213036 0.00872874
213 3 0.431269 11.8851 12.9408 12.079 -0.0203372 -0.0145466 -0.00282648
214 3 0.427227 12.1071 11.721 12.9114 -0.00354897 0.0177169 -0.0158352
215 3 0.379248 6.87383 7.02259 7.99647 0.0139837 -0.0111633 0.0186913
216 3 0.406701 7.68064 6.79185 6.66969 0.0175075 -0.00538554 0.0232572
217 3 0.467414 10.6791 6.1838 3.54985 -0.00696187 -0.005123 0.00719941
218 3 0.491356 12.5189 9.78542 5.51258 -0.0239872 -0.00286392 0.00987679
219 3 0.420271 12.248 5.18555 5.87417 -0.00334632 -0.00891631 -0.00785102
220 3 0.429881 12.3144 4.21144 4.80716 -0.00840401 0.0110665 0.00132299
221 3 0.403498 11.2599 7.39556 10.3243 0.00760149 -0.0164905 0.0075267
222 3 0.410461 10.3257 6.77507 11.2887 0.00639409 -0.00637047 0.00356798
ITEM: TIMESTEP
9000
ITEM: NUMBER OF ATOMS
222
ITEM: BOX BOUNDS pp pp pp
1.5314103324310571e+00 1.5628589667568960e+01
1.5314103324310571e+00 1.5628589667568960e+01
1.5314103324310571e+00 1.5628589667568960e+01
ITEM: ATOMS id type q x y z vx vy vz
1 1 1.76973 15.5502 15.3517 15.4939 -0.00514938 0.000551356 0.00204077
2 1 1.41487 3.29502 3.51313 3.16619 -0.00344471 0.00186729 0.000234688
3 1 1.64933 1.69624 5.13544 5.27232 -0.00345636 -0.00658702 0.000910562
4 1 1.90233 3.49657 6.79432 7.06073 -0.00513556 0.00202645 -0.00251274
5 1 1.80114 5.02718 1.70848 4.95077 0.00252143 0.00117635 0.00231539
6 1 1.7651 6.72458 3.37105 6.84617 5.16426e-05 -0.00265584 0.000493652
7 1 1.78653 5.10758 5.1189 15.4838 0.00230563 0.00565049 0.00141624
8 1 1.83115 6.8309 6.76785 3.27718 0.00491786 0.00413666 -0.00131657
9 1 1.77335 1.62077 15.4891 8.48569 -0.00191523 -0.00340488 -0.00111188
10 1 1.86193 3.25742 3.10591 10.3662 -0.000593473 -0.00157362 -0.0036399
11 1 1.8162 1.6489 5.05593 12.0718 -0.00378195 -0.00048204 0.0016771
12 1 1.85685 3.31347 6.85244 13.777 0.000925339 -0.000570115 0.00369484
13 1 1.83204 4.98026 15.5886 12.2606 -0.00214796 -0.00143688 -0.000628057
14 1 1.87289 6.81957 3.23147 13.8901 0.00373389 -0.00350575 -0.00116145
15 1 1.7099 5.15144 4.96124 8.86291 -0.00217016 0.00100119 0.00344555
16 1 1.73025 6.90339 6.78635 10.6729 -0.00407497 0.00213672 -0.000226549
17 1 1.8784 1.54452 8.53613 15.531 0.000141207 0.00219303 0.0028866
18 1 1.77311 3.31275 10.1085 3.27588 0.00067941 -0.00416711 -0.0013983
19 1 1.93935 1.6435 12.0951 4.80891 0.000683517 0.00378123 -0.00254633
20 1 1.79526 3.30536 13.8412 6.61521 -0.00395492 -0.00015539 0.00227605
21 1 1.83984 5.09484 8.46316 5.11921 0.00494778 -0.000431249 0.00085192
22 1 1.66639 6.79419 10.3843 6.92581 -0.000598481 0.000530763 -0.003963
23 1 1.85986 5.23386 11.95 1.6656 -0.00240454 -0.00146031 -0.00299556
24 1 1.9173 6.81876 13.9586 3.39462 0.000318338 0.000636845 0.00219128
25 1 1.82143 1.63398 8.62675 8.57507 0.00226098 0.00427243 -0.00260626
26 1 1.74886 3.27107 10.5078 10.4154 0.00107168 0.00104611 -0.00185681
27 1 1.80664 15.595 12.1269 12.359 -0.000460613 2.58687e-05 0.00328897
28 1 2.01573 3.402 13.6117 14.0484 -0.00580764 -0.00222833 0.00420426
29 1 1.79487 4.9713 8.68 12.0819 -0.00128887 0.00498923 -0.00429663
30 1 1.74678 6.81246 10.3411 13.795 0.000666633 0.00175473 0.00327241
31 1 1.81695 4.9651 12.1836 8.55629 0.000965398 0.000709615 -0.00407493
32 1 1.75826 6.73986 13.9528 10.2725 0.0012949 0.00423595 -0.00215857
33 1 1.89564 8.53489 1.59672 1.67181 -0.00385538 -0.000209741 0.00565225
34 1 1.7652 10.3826 3.34789 3.25877 0.00142934 -0.000569815 -0.000210972
35 1 1.72203 8.63271 5.01593 5.14991 -0.00105279 0.00270206 -0.00228063
36 1 1.72347 10.2856 6.79724 6.96715 6.77197e-05 0.00301385 -0.000836177
37 1 1.77131 12.0997 15.6435 5.00061 0.00232466 0.0011038 0.00300954
38 1 1.73783 13.9735 3.23936 6.82239 0.00319116 -0.00172828 0.0023565
39 1 1.75908 12.3413 5.01917 15.5654 0.00293196 -0.000505812 -0.0027606
40 1 1.70071 14.0502 6.80753 3.3301 -0.00209574 -4.6679e-05 -0.000346359
41 1 1.84244 8.55177 15.6163 8.45181 -0.00342439 4.77457e-06 -0.0030843
42 1 1.95444 10.2984 3.2487 10.2631 0.000548924 0.00412643 0.00345869
43 1 1.88418 8.71628 4.87131 12.2359 0.00449506 -0.00337503 0.00817442
44 1 1.76245 10.5176 6.73921 13.8336 -0.000415361 0.00175787 -0.00594713
45 1 1.70549 11.9916 15.593 12.0634 0.000670344 0.00145847 0.00535862
46 1 1.76439 13.9461 3.20159 13.7044 0.00333872 -0.000747066 -0.00126013
47 1 1.7354 12.1403 4.92921 8.63365 -0.000995168 -0.00119573 -0.000747026
48 1 1.68892 13.9421 6.77259 10.2806 0.00521484 0.00666103 0.00282431
49 1 1.67789 8.54959 8.46881 15.4421 0.00457985 0.000394763 0.00210277
50 1 1.74576 9.96806 10.3448 3.23149 0.00251444 -0.00092702 -0.0058867
51 1 1.83289 8.50817 12.1922 5.12827 -0.00109952 -0.00276348 -0.000873211
52 1 1.91969 10.3478 13.9138 6.75438 0.00187632 0.000288358 -0.00470502
53 1 1.54514 11.375 7.93656 4.40312 -0.000417499 -0.0054935 0.00053243
54 1 1.75641 14.1497 10.6783 6.9442 -0.000309183 0.00258631 -0.000468864
55 1 1.81564 11.7825 12.0131 15.5927 -0.00436643 0.0019212 0.00452823
56 1 1.73193 13.6892 13.7223 3.22131 -0.000629265 0.00755192 -0.00142134
57 1 1.73096 8.47857 8.5695 8.74582 -0.00181804 0.00128663 -0.00484821
58 1 1.7606 10.2986 10.4198 10.385 0.00182972 -0.00128285 0.00373548
59 1 1.84576 8.48285 12.1733 12.0551 -0.000782431 0.00466729 0.0029477
60 1 1.80173 10.1266 13.9876 13.8673 0.00262143 0.00114365 -0.00429474
61 1 1.68273 12.1706 8.53046 12.0694 -0.00859542 0.00195475 -0.00173703
62 1 1.7719 13.7743 10.3178 14.0529 -0.00322347 0.000311797 0.0018252
63 1 1.77677 12.0757 12.2255 8.60492 -0.00265727 0.000268658 0.00191125
64 1 1.76589 13.9444 13.8849 10.3894 0.001562 0.00239509 -0.000133459
65 2 -0.80688 2.08324 2.02075 2.5148 0.0010617 -0.00102134 -0.00420188
66 2 -1.00002 2.5196 14.4281 14.8959 -0.00668938 -0.00447856 -0.0019586
67 2 -0.94795 14.961 2.36065 14.5339 0.00412176 -0.00228334 0.00374712
68 2 -0.922454 14.4472 14.5203 2.08026 -0.00460567 -0.00165584 0.000589567
69 2 -0.803618 2.81343 4.49477 4.33026 -0.00512294 -0.00214678 0.000174525
70 2 -0.811888 4.34243 2.63499 3.92647 -0.00188063 0.00290738 -0.000282465
71 2 -0.812377 4.18338 4.05887 1.98487 0.00257352 0.00407452 -0.0046987
72 2 -0.901685 2.45057 5.98371 6.32508 -0.00270476 -0.00226021 -0.0037828
73 2 -0.931219 15.051 3.98596 6.03968 0.000540337 -0.000538612 -0.00486395
74 2 -0.909324 14.8064 5.99248 4.3897 0.000677334 0.00831954 -0.00163353
75 2 -0.916693 4.14851 5.94465 8.14299 0.00326494 -0.00208481 -0.00746565
76 2 -0.952123 4.44424 7.51514 6.08701 -0.00604259 0.00213764 -0.00223719
77 2 -0.918538 2.69004 7.89209 7.74105 -0.00210195 -0.00270396 0.000595663
78 2 -0.858635 5.60453 2.68044 5.97164 0.00101965 -0.00228016 -0.00506456
79 2 -0.882883 4.14466 14.949 5.91954 0.00561157 0.0036807 -0.00168771
80 2 -0.974074 6.09115 15.0031 4.20636 0.00630184 -0.00608342 -0.00431826
81 2 -0.920593 6.13385 4.18634 8.00364 -0.0018628 0.00113675 0.00722804
82 2 -0.909387 7.84259 4.00378 6.01758 -0.00264687 -0.00475341 0.000342085
83 2 -0.836132 7.38708 2.19844 7.63211 -0.00209743 0.00533119 0.00310144
84 2 -0.867326 5.8609 5.86432 2.56455 0.00647221 0.000191616 0.00412364
85 2 -0.918505 4.37372 6.23094 14.744 0.00288853 -0.00671278 -0.00532278
86 2 -0.898489 6.22105 4.41853 14.6718 0.00555799 -0.000899148 -0.0010241
87 2 -0.937383 6.03241 7.81836 4.06678 0.0036493 -0.00376799 0.00113576
88 2 -0.90439 7.73378 5.83418 4.11099 -0.00448426 -0.00530801 -0.00351933
89 2 -0.854707 7.51694 7.52157 2.12598 -0.00676173 0.000584309 0.00567301
90 2 -0.899719 2.63339 2.32934 9.1626 0.000115423 0.00361016 -0.00167202
91 2 -0.918629 2.34793 14.4176 7.67285 0.00402463 -0.00353531 0.00328875
92 2 -0.919244 14.6538 2.11265 7.60643 -0.0025038 -0.00138064 -0.00258773
93 2 -0.889327 14.9856 14.7826 9.70603 0.0061535 -0.00626291 -0.00226177
94 2 -0.927353 2.39313 4.12548 11.0742 -0.00499806 -0.0105603 0.000519582
95 2 -0.921405 3.98747 2.13436 11.321 -0.00202463 0.00661418 -0.00633973
96 2 -0.834872 4.40013 3.88312 9.76018 -0.00460201 -0.00194652 -0.00484612
97 2 -0.928015 2.52988 5.75337 13.1088 -0.00130503 -0.0042921 -0.00315151
98 2 -0.898049 14.7324 4.07083 12.6711 0.00596313 0.00537584 0.00176581
99 2 -0.825228 15.1256 6.17003 11.1855 0.00062305 -0.00439805 -0.00122076
100 2 -0.952541 2.23059 7.70568 14.4618 -0.00584456 0.00192523 -0.00694588
101 2 -0.894007 4.03168 7.57342 12.615 0.00836688 -0.00499719 0.00283796
102 2 -0.934103 5.73774 2.61353 13.0066 0.000640579 -0.00875578 -0.000224575
103 2 -0.92422 4.30685 14.6251 13.3196 0.00116076 0.000870719 0.00186337
104 2 -0.856325 5.99913 14.8231 11.3811 0.00221358 -0.00358833 0.00207871
105 2 -0.944095 7.45986 2.29225 14.9016 -0.0095489 -0.00121851 0.002294
106 2 -0.928484 7.98596 3.79095 13.0546 0.00588633 2.22841e-05 0.00445688
107 2 -0.837624 5.91126 5.84848 9.95568 -0.003046 -0.003935 -0.000713694
108 2 -0.887996 6.09324 7.83669 11.4987 0.00342289 -0.0051207 -0.00445378
109 2 -0.929491 7.7761 5.89569 11.6046 0.00252254 -0.00235344 0.000292913
110 2 -0.935135 7.53983 7.60459 9.47307 -0.00858433 -0.00301527 -0.0023577
111 2 -0.92492 2.60846 9.39189 2.13836 0.00212545 0.000910542 0.0051574
112 2 -0.885758 15.1245 7.73287 2.59386 0.00474617 3.2563e-05 0.00719024
113 2 -0.925356 14.4485 9.35848 14.9729 -0.00746427 -0.000897188 -0.00643887
114 2 -0.936977 2.36595 10.9895 4.11957 -0.00140029 -0.000115026 0.00771123
115 2 -0.858096 3.94209 9.09896 4.34289 -0.00142213 0.00184315 0.00035663
116 2 -0.891405 4.42804 11.0597 2.61334 0.00140279 0.00256939 -0.0012496
117 2 -0.920308 2.70817 12.9306 5.49692 -0.00450927 -0.00547467 0.00154681
118 2 -0.930616 14.9504 11.582 6.00801 0.00568854 0.000656898 -0.000418614
119 2 -0.911936 14.7446 12.7758 3.86336 -0.00084794 0.00612063 0.00787415
120 2 -0.861218 4.31989 12.9264 7.37786 0.00465889 -0.00451011 0.00277185
121 2 -0.879974 5.86095 9.59181 5.8685 -0.0058042 -0.000971398 0.00419034
122 2 -0.868768 5.91164 11.169 7.9778 0.00321751 0.00632258 0.0070169
123 2 -0.841551 7.78686 11.4391 6.3547 0.00135268 0.00178127 -0.00459765
124 2 -0.859609 7.54367 9.52254 7.96698 -1.66839e-05 0.00931397 -0.00410849
125 2 -0.901369 5.84626 13.1626 2.5038 -0.000337739 -0.000892502 0.00639396
126 2 -0.986348 4.25712 12.613 14.8392 0.0004843 0.00221756 0.0017707
127 2 -0.909668 6.33401 11.2403 14.9922 0.0081545 -0.00189439 -0.00251886
128 2 -0.946073 7.93075 14.6629 2.60227 -0.000352022 0.00104397 0.00303529
129 2 -0.981129 7.5791 12.9227 4.20281 0.00246864 0.000197344 -0.0047732
130 2 -0.850449 2.42096 9.38923 9.65183 1.06752e-05 -0.0026433 -0.00207204
131 2 -0.908805 14.6916 7.65327 9.22076 0.00961527 0.00787317 -0.00134632
132 2 -0.932979 14.9011 9.57621 7.69856 -0.00822103 -0.00446577 0.00322012
133 2 -0.855412 2.26143 11.082 11.4661 -0.000545576 -0.00121356 -0.00252186
134 2 -0.924504 4.29437 9.73565 11.2165 0.00214299 0.000137664 0.00954944
135 2 -0.912888 3.83868 11.543 9.38275 0.00296365 -0.00053566 0.00246083
136 2 -1.02877 2.54393 12.9496 13.0298 0.00347175 0.00452837 -0.000248866
137 2 -0.943503 14.7625 11.3458 13.3926 -0.00408763 -0.00239786 0.00493902
138 2 -0.930076 14.5901 12.8918 11.411 -0.00369432 0.00459346 -0.00883936
139 2 -0.862879 5.56673 9.58103 13.2473 0.00586422 0.00175782 0.0025903
140 2 -0.843722 7.89169 9.31537 14.2515 0.00461105 0.00339545 0.00557999
141 2 -0.888977 7.46029 11.2842 12.8077 0.00467513 1.10353e-05 -0.00605918
142 2 -0.886528 5.66511 13.3131 9.36643 -0.00122855 -0.00204017 -0.00334136
143 2 -0.872878 7.68165 14.9147 9.50052 0.00644788 0.00238247 0.00229212
144 2 -0.901371 7.51329 12.8598 11.0477 0.000994359 0.00913005 -0.000839013
145 2 -0.952557 9.24277 2.6001 2.60243 -0.00689221 0.00064847 0.00233246
146 2 -0.974893 9.49781 14.9938 14.8041 0.00501041 -0.00198268 0.0029225
147 2 -0.890677 9.77854 4.27391 4.36098 0.00279335 0.00398753 0.00206102
148 2 -0.920868 11.4538 2.5334 4.00813 -0.00101094 0.0111237 0.00309162
149 2 -0.90246 11.2801 4.3462 2.41709 0.000477555 -0.00194775 0.00392887
150 2 -0.910494 9.26541 5.89703 6.221 0.00680729 -0.00336209 -0.00440646
151 2 -0.911291 11.2282 5.72345 7.64954 0.00129505 -0.000902159 0.00304819
152 2 -0.869419 11.0925 7.54292 5.91006 0.000167519 -0.00806035 -0.00681789
153 2 -0.917454 9.25813 7.73599 7.67296 -0.000435601 0.00254378 -0.00747717
154 2 -0.950747 13.0251 2.57383 5.8077 -0.00244147 0.00374077 -0.00466794
155 2 -0.9621 11.0458 14.8871 5.86632 -0.00248331 0.000490462 0.00194693
156 2 -0.926997 12.994 14.6898 4.22047 -0.00733235 -0.00191154 0.00245249
157 2 -0.909433 13.274 4.24872 7.76466 0.00872108 -0.00449328 0.00493356
158 2 -0.903638 13.3657 5.81964 2.31893 0.00438261 0.00592966 -0.00421882
159 2 -0.867295 11.6386 6.08678 14.6671 -0.00537631 -0.00151834 -0.000792586
160 2 -0.957112 13.2267 4.11999 14.7302 -0.00498817 0.00483421 0.00213766
161 2 -0.824307 12.9068 7.6 3.98474 0.000254011 -0.00374738 -0.00286824
162 2 -0.939631 9.34681 2.54713 9.28497 -0.00903326 -0.000550473 0.00320819
163 2 -0.989294 9.37254 14.5869 7.73708 0.00602437 0.00130957 -0.00231951
164 2 -0.982764 9.64574 4.20186 11.1839 -0.00053962 -0.0017748 -0.00167861
165 2 -0.932989 10.9125 2.17728 11.2231 -0.00432218 -0.00311019 0.00603156
166 2 -0.977684 11.281 3.88826 9.34979 -0.0073476 -0.00237932 0.00272669
167 2 -0.918193 9.62411 5.63876 13.1891 -0.00501036 -0.00117194 0.00391654
168 2 -0.847013 9.755 7.63467 14.8591 -0.000732175 -0.00567111 0.00519192
169 2 -0.939961 11.1583 7.57888 12.7023 0.00242051 -0.00612785 -0.00414196
170 2 -0.934088 12.8376 2.50341 12.9633 -0.00406486 0.00620588 -0.00015291
171 2 -0.939593 11.3042 14.6642 13.1366 0.00417332 0.00112078 -0.00381322
172 2 -0.943808 12.9369 14.7048 11.2051 -0.00486043 0.00158125 -0.00179117
173 2 -0.947807 12.9156 5.80227 9.69122 -0.00296614 -0.00210086 -0.00375506
174 2 -0.921317 13.2398 7.74179 11.2532 -0.00105873 -0.00558771 0.00119958
175 2 -0.88737 9.02138 9.5019 2.34979 0.00549641 -0.00850313 0.00474994
176 2 -0.878284 9.08647 11.0337 4.31919 -0.00430032 -0.00401474 -0.00162288
177 2 -0.795781 11.0207 9.43183 3.96959 7.47272e-05 0.00240068 -0.00901145
178 2 -0.906854 10.7549 11.3649 2.36882 0.00129409 -0.00281786 -0.00251031
179 2 -0.959514 9.62723 12.9873 5.8042 6.69069e-05 -0.00928796 0.00190925
180 2 -0.918417 11.4138 13.2198 7.68159 0.000543219 0.00419144 0.00393607
181 2 -0.673411 13.5548 9.67669 5.90026 0.00395496 -0.00404197 0.000559508
182 2 -0.910359 12.9728 11.2786 7.75272 -0.00387132 -0.00189205 -0.000292016
183 2 -0.907537 12.6903 12.7825 2.46969 -0.00441429 -0.00336367 -0.000463232
184 2 -0.937237 11.1062 13.0361 14.6858 0.00462108 0.00187878 0.00120481
185 2 -0.941436 12.5547 10.9386 14.7361 -0.00322899 0.00356616 -0.000361583
186 2 -0.944035 9.55526 9.29904 9.58424 0.00168228 0.00112491 0.00066283
187 2 -0.967267 9.4455 11.2349 11.3564 0.00204074 -0.000607346 0.00314551
188 2 -0.9152 11.3441 9.52647 11.1715 -0.00167256 0.000134178 0.00147771
189 2 -0.947158 11.0097 11.2662 9.33203 0.0100874 0.00382869 -0.0029316
190 2 -0.987388 9.17627 13.105 13.0511 0.00717244 -0.00526115 0.000652459
191 2 -0.876003 13.1097 9.34887 12.9671 0.00430699 -0.000970279 0.00106726
192 2 -0.946785 13.073 12.9892 9.47077 -0.00254376 -0.000959824 0.00166575
193 2 -0.613006 14.0212 10.4169 10.362 0.000398544 -0.00370508 -0.000579978
194 2 -0.618338 12.1412 8.77348 8.36099 0.00439264 0.000334165 -0.000182282
195 2 -0.637882 1.60685 4.49051 2.0172 0.00716192 -0.00389977 0.000231421
196 2 -0.632158 12.0538 1.66142 15.6847 0.000980114 -0.00444163 0.00295623
197 2 -0.622028 15.5297 15.3318 4.89428 0.00280511 0.0022658 -0.000841407
198 2 -0.659233 12.2143 12.0437 12.0621 -0.00146995 0.00296126 -0.00290884
199 2 -0.624348 6.77342 6.723 7.01856 -0.00528229 -0.00393396 -0.00233774
200 2 -0.711149 10.5588 6.92653 3.67207 0.000709985 0.00221716 -0.000313415
201 2 -0.643728 12.3195 5.18102 5.09949 -0.00969265 -0.000742889 0.00104734
202 2 -0.576007 10.3629 6.66134 10.3145 0.00470451 0.00621144 0.00119206
203 3 0.419423 13.7887 9.76612 10.9934 0.0016168 -0.0049055 -0.0123924
204 3 0.430927 13.6337 11.2719 10.7207 0.00237837 0.00323941 -0.017185
205 3 0.442579 11.7739 9.58422 8.60724 0.0112102 -0.0141454 0.0107301
206 3 0.405035 13.0269 8.69053 8.80923 0.00922803 -0.0142333 0.00316976
207 3 0.374167 15.1684 4.92886 2.71229 -0.0101275 0.00242572 0.0194827
208 3 0.424015 15.0304 3.90443 1.65806 0.0237635 0.0033313 -0.00252871
209 3 0.408038 12.2177 14.837 1.71266 -0.0111404 0.00334004 0.00866293
210 3 0.433968 12.0552 15.8952 14.795 -0.00752715 0.0336829 -0.00646114
211 3 0.430721 15.8694 15.6344 4.01249 0.0253694 -0.0196299 -0.00455898
212 3 0.410902 15.1364 1.96621 5.30346 0.0024235 -0.0121639 -0.00227652
213 3 0.41386 12.1987 13.0103 12.0013 -0.0649133 0.0023327 -0.00749882
214 3 0.41172 12.054 11.8536 12.9667 -0.0153689 -0.00509835 -0.00724513
215 3 0.423185 6.9685 6.53648 7.92594 -0.0157438 0.00539349 0.00271829
216 3 0.427162 7.57524 7.0762 6.70529 0.00179495 -0.00527817 0.0124899
217 3 0.461275 10.8223 5.92331 3.8421 0.00473139 -0.000463116 -0.0157619
218 3 0.469439 13.3666 8.70749 5.7862 -0.0183454 0.00674545 -0.0253553
219 3 0.419977 12.3436 5.12207 6.03971 0.0162012 -0.0126778 0.0117153
220 3 0.423328 12.3784 4.25401 4.83525 0.00537334 -0.00146255 -0.0173872
221 3 0.397343 11.2881 6.42302 10.6512 -0.00602101 -0.00229873 -0.032708
222 3 0.397431 10.3468 7.66192 10.4733 0.0278569 -0.0102014 -0.0310691
ITEM: TIMESTEP
10000
ITEM: NUMBER OF ATOMS
222
ITEM: BOX BOUNDS pp pp pp
1.5345442838878016e+00 1.5625455716112205e+01
1.5345442838878016e+00 1.5625455716112205e+01
1.5345442838878016e+00 1.5625455716112205e+01
ITEM: ATOMS id type q x y z vx vy vz
1 1 1.69973 15.3777 15.2925 15.4765 0.00135918 0.00112945 -0.00196869
2 1 1.45308 3.42113 3.43881 3.15018 0.00400515 0.00249282 0.00455063
3 1 1.6802 1.58322 4.92997 5.04464 0.00089456 -0.000366206 0.00331262
4 1 1.97678 3.11812 6.82344 6.82697 -0.00320149 0.000749919 0.000928675
5 1 1.79819 5.1968 1.66887 4.99917 -0.00166368 -0.0024686 -0.000410841
6 1 1.86135 6.64554 3.47408 6.85617 0.00362434 0.00167104 0.00108223
7 1 1.79944 5.25362 5.22324 1.53207 -0.00229448 0.00409935 -0.00347972
8 1 1.8379 6.8737 6.89171 3.44232 0.000836697 0.0021698 -0.00265501
9 1 1.88311 1.63299 15.4849 8.58013 -0.00312848 -0.00168921 0.00488549
10 1 1.86995 3.37061 3.15881 10.3333 -0.000989209 0.0016464 0.00192195
11 1 1.85203 1.61876 4.94716 12.067 -0.000463508 -0.00191041 0.000959091
12 1 1.83366 3.28295 6.76367 13.8188 0.00172975 -0.00133013 0.00014735
13 1 1.84499 5.11794 1.56624 12.2426 0.00294089 0.000568696 -0.000642469
14 1 1.80805 6.86557 3.39802 13.8371 4.92999e-05 -0.00281549 -0.00158284
15 1 1.78752 4.85519 5.18096 8.66213 0.00161525 -0.00218535 0.00174594
16 1 1.74434 6.85413 6.90652 10.31 0.00256636 0.00245609 0.00207928
17 1 1.85495 1.71637 8.62462 15.6279 0.00443667 -0.000255249 0.00355717
18 1 1.87164 3.39829 10.346 3.42179 -0.00516252 0.00104237 -0.00140773
19 1 1.89836 1.70952 12.1233 5.07557 -0.0031258 -0.00204887 0.00352037
20 1 1.80874 3.52515 13.9131 6.73571 -0.000296725 -0.00326355 -0.00467394
21 1 1.90083 5.0236 8.48499 5.22621 -0.00101736 0.00128031 0.00103408
22 1 1.87326 6.64623 10.3726 6.90228 0.00482299 -0.00247599 -0.000100374
23 1 1.73291 5.14228 12.096 1.60934 0.00074303 -6.0577e-05 -0.00109928
24 1 1.94448 6.90903 13.8731 3.37114 -0.00219449 0.000663721 -0.000968633
25 1 1.78967 1.69034 8.69823 8.66085 0.00556538 0.000373924 0.00554822
26 1 1.7644 3.36789 10.4145 10.5314 -0.00515934 0.00026329 -0.00189775
27 1 1.64928 15.6224 12.1637 12.3606 0.00765133 0.00210211 -0.01157
28 1 1.80998 3.4296 13.8993 13.9237 0.00280512 -0.00548891 -0.00401219
29 1 1.78483 5.0746 8.53404 12.1622 0.00742186 -0.00335977 -0.00328207
30 1 1.7784 6.83294 10.3606 13.8256 -0.00353329 -0.000888651 0.00253809
31 1 1.79216 5.12398 12.2841 8.70888 -0.00182552 -0.00488908 -0.00192076
32 1 1.77273 6.90995 14.0244 10.5178 0.000654048 -0.0035107 0.00390579
33 1 1.98117 8.49317 1.53485 15.6107 -0.00151955 -0.000990649 0.00790143
34 1 1.78969 10.3917 3.24786 3.19223 0.00480472 -0.00130584 -0.0023108
35 1 1.83802 8.58345 4.96284 5.05803 -0.000515912 0.00121556 -0.000187021
36 1 1.68986 10.3002 6.62374 6.94103 -0.00577983 -1.27636e-05 -0.00208849
37 1 1.80974 11.9862 15.5179 5.12715 -0.00118081 0.000625446 -0.00195526
38 1 1.79641 13.8921 3.07404 6.84255 -0.000972324 -8.77336e-05 -0.0049328
39 1 1.681 12.1633 4.97343 15.4776 -0.00140498 -0.00238426 -0.00196029
40 1 1.743 13.9949 6.70961 3.18706 0.00491137 0.000194338 0.0038131
41 1 1.81837 8.43237 1.69549 8.56629 0.00301903 0.00180119 -0.00042303
42 1 1.81139 10.2255 3.32584 10.3218 0.000974265 0.00727754 0.00368852
43 1 1.7514 8.6814 5.16602 12.0925 0.00106038 0.00437711 0.00103689
44 1 1.77615 10.4671 6.87551 13.8548 0.0038079 -0.000791295 -0.00126321
45 1 1.78631 11.8632 15.5254 12.0392 -0.0017534 -0.00109479 0.00619393
46 1 1.74111 13.8187 3.19232 13.6079 0.000428606 0.000811966 0.000192981
47 1 1.78693 12.203 4.89856 8.63363 0.00233913 -0.00218371 -0.0018864
48 1 1.72617 14.0489 6.73023 10.2958 -0.00206039 -0.00107309 0.00325144
49 1 1.70385 8.54376 8.50359 15.5058 0.00268733 -0.00672564 0.00335053
50 1 1.81644 10.1225 10.2949 3.34468 0.00112162 -0.000903958 -0.000752474
51 1 1.85927 8.43551 12.0704 5.18377 0.00122216 0.0047155 -0.00014309
52 1 1.85381 10.1618 13.8786 6.95671 0.00658323 0.00536534 -8.96437e-05
53 1 1.63509 11.4954 7.84309 4.44885 -0.0069226 0.000536732 0.000438049
54 1 1.67126 14.0583 10.582 6.93983 -0.00378276 -0.000745954 -0.00364219
55 1 1.75651 11.9245 12.0166 1.61755 0.00123233 -0.00117901 -0.000762901
56 1 1.72699 13.7761 13.6806 3.41855 0.000703279 0.000871386 -0.00401489
57 1 1.73944 8.60409 8.6829 8.4673 0.00523276 0.00386048 0.0014483
58 1 1.77383 10.4083 10.2618 10.3933 -0.00134546 -0.000389624 0.00237264
59 1 1.84786 8.55674 12.0482 12.0516 0.00270447 0.00176759 -0.000759312
60 1 1.8048 10.1671 13.8007 13.9549 -0.00127938 -0.0011603 0.000994224
61 1 1.76398 12.2671 8.52885 12.1205 0.00159558 -0.00283456 -0.000601585
62 1 1.78476 13.8722 10.3274 14.0636 0.00619661 -0.0012662 -0.00137818
63 1 1.69568 12.058 12.2038 8.6242 -0.00455037 -0.00246999 -0.00581735
64 1 1.73448 13.903 13.8855 10.3717 -0.00236114 -0.00123401 0.00624281
65 2 -0.784406 2.0171 2.08894 2.42056 -0.00328232 4.93707e-05 0.00234878
66 2 -0.946204 2.32159 14.3801 14.8289 -0.00510154 0.00644988 -0.0014078
67 2 -0.929609 14.7508 2.12209 14.3623 0.00231672 -0.00197701 0.00522791
68 2 -0.976543 14.3859 14.6315 2.29068 0.0013312 0.00393551 -0.000462347
69 2 -0.882959 2.7709 4.23268 4.28336 0.000343217 -0.00219726 -0.00894717
70 2 -0.787635 4.24563 2.30224 3.90589 6.64175e-05 -0.000334576 0.00260455
71 2 -0.832298 4.52113 4.09147 2.27916 -0.0014027 -0.00350879 -0.00317522
72 2 -0.883254 2.07615 6.00361 6.08849 -0.00704173 0.00197791 0.000465882
73 2 -0.880989 14.9166 3.8513 5.88056 0.000147872 0.00333936 -0.000993854
74 2 -0.925089 14.79 5.6795 4.02307 -0.00145437 0.00481277 0.0047528
75 2 -0.952767 3.74282 5.88592 7.84205 -0.00796529 -0.00137578 0.00164126
76 2 -0.988948 4.08153 7.42191 5.8728 -0.000569713 -0.000844169 0.00275767
77 2 -0.939462 2.42027 7.94436 7.53738 0.00364082 -0.00134361 0.000857695
78 2 -0.923558 5.63134 2.79305 5.95926 0.00415937 0.00477769 -0.00439865
79 2 -0.891118 4.27225 14.9534 5.90409 -0.0048565 -0.00133054 -0.00141726
80 2 -0.957742 6.12988 14.7154 4.40028 -0.00934181 0.00533353 -0.00358236
81 2 -0.944558 5.93044 4.39318 7.8553 0.000535857 -0.00261323 0.000230873
82 2 -0.953367 7.54317 4.20166 5.82668 -0.0105611 -0.00439727 -0.00318874
83 2 -0.933011 7.47958 2.40006 7.57497 0.00227194 0.00472571 -0.00421301
84 2 -0.903711 5.85166 5.97941 2.7364 -0.000305932 0.00125786 0.00241495
85 2 -0.88045 4.33004 6.20001 14.8011 -0.00294343 0.00224732 -0.00156371
86 2 -0.909087 6.11322 4.52871 14.6018 -0.00317658 0.00121844 0.00303649
87 2 -0.922035 6.09398 7.91586 4.22017 -0.00259016 -0.00259083 0.000256437
88 2 -0.943776 7.86761 6.14797 4.3044 -0.00161648 -0.00166223 0.000236622
89 2 -0.842893 7.52506 7.56076 2.17779 -0.00165678 0.00180946 -0.0007481
90 2 -0.946285 2.52646 2.42713 9.26874 0.00210084 -0.00355224 0.00368048
91 2 -0.920095 2.48999 14.5614 7.7336 0.00260739 -0.000510324 0.00206414
92 2 -0.951506 14.6832 2.09778 7.67814 0.00188621 0.00320158 0.00309367
93 2 -0.946774 14.9675 14.5645 9.56599 -0.00609774 -0.00608772 -0.00186153
94 2 -0.917184 2.3477 3.90534 11.2141 -0.00147137 0.0037838 -0.00039104
95 2 -0.934436 4.29554 2.21112 11.0906 0.000294294 -0.00697019 0.00106801
96 2 -0.91792 4.16324 4.29413 9.67507 -0.00381159 0.00268279 0.00514745
97 2 -0.918907 2.54279 5.6132 13.1277 -0.000270164 -0.00341048 0.00434657
98 2 -0.959886 14.6035 4.09126 12.6912 0.00564276 -0.00409938 0.000736301
99 2 -0.884338 15.2212 6.06792 11.1893 -0.000213863 0.000247675 0.00202333
100 2 -0.924723 2.32268 7.80343 14.5039 0.00256137 -0.000860016 0.003262
101 2 -0.901246 4.10972 7.45957 12.7497 -0.00337578 0.00373703 -0.00551801
102 2 -0.928156 6.00619 2.73518 12.7796 0.00791784 -0.000885042 -0.00272218
103 2 -0.983083 4.26655 15.0162 13.3085 -0.00333924 -0.0012862 -0.00545305
104 2 -0.919814 5.89139 14.525 11.5758 0.00609355 -0.00154778 -6.70566e-05
105 2 -0.954062 7.44256 2.31119 14.83 -0.00153639 0.000438946 -0.00138967
106 2 -0.869222 7.85728 4.29206 13.0669 -0.000565498 0.00233788 -0.00253101
107 2 -0.8855 5.74485 6.27799 9.41132 -0.00419703 0.00455881 -0.000487152
108 2 -0.906953 6.1946 7.892 11.3327 -0.000157484 0.00523445 0.00047946
109 2 -0.87618 7.73543 5.82438 10.9664 0.00457361 0.00165992 -0.00580366
110 2 -0.9146 7.60093 7.73063 9.26058 0.000255821 -0.00428078 0.00669114
111 2 -0.919536 2.69957 9.53223 2.25299 0.00189611 0.00516443 0.0042444
112 2 -0.884996 15.0232 7.58942 2.40777 -0.00320933 0.0047237 -0.00240569
113 2 -0.9227 14.675 9.4655 15.0472 -0.0016513 0.00166207 -0.00275576
114 2 -0.961334 2.27882 10.989 4.2209 0.00994912 0.00168287 0.0030137
115 2 -0.919388 4.12417 9.3601 4.34717 -0.000394342 0.00824866 0.000798155
116 2 -0.890432 4.29463 11.3273 2.71373 0.00066027 -0.000249731 0.00277389
117 2 -0.907837 2.85304 12.8732 5.75801 -0.00216253 -0.00290637 0.00282722
118 2 -0.928559 14.794 11.6509 6.09106 -0.000702514 -0.0062063 0.00404452
119 2 -0.92195 14.9436 12.9898 4.17336 0.00681366 0.00442877 -0.00247516
120 2 -0.891094 4.54396 13.0858 7.5205 -0.00829635 -0.00393302 0.00207383
121 2 -0.973638 5.66924 9.46458 6.17126 -0.00134809 0.00441868 0.00238628
122 2 -0.90958 5.98609 11.2707 7.97088 -0.00878722 0.00226275 0.00240671
123 2 -0.908961 7.2908 11.2577 5.84885 -0.00439851 -0.00464553 0.00323614
124 2 -0.931659 7.83472 9.62656 7.58226 0.00329842 -0.000718407 -0.0038384
125 2 -0.914083 5.90066 13.149 2.52403 0.00331106 0.00260411 0.00645346
126 2 -0.885359 4.22257 12.7934 14.6643 0.00101946 0.00398218 -0.00100344
127 2 -0.866364 6.19462 11.1884 14.9827 -0.00276102 -0.00381024 0.00122782
128 2 -1.00968 7.89331 14.7683 2.57978 0.000617982 0.002345 -0.00304463
129 2 -0.966002 7.79266 12.9015 4.09125 -0.000523512 0.00326098 0.00313904
130 2 -0.911969 2.72196 9.37305 9.639 -0.000229742 0.00191732 0.00290128
131 2 -0.920873 14.7934 7.70184 9.3664 -0.00309249 -0.00265567 -0.00925838
132 2 -0.910593 14.9225 9.6994 7.86691 0.00502586 -0.0036726 -0.00264618
133 2 -0.847668 2.26521 11.0972 11.4081 0.00494359 0.000747502 0.00275154
134 2 -0.900933 4.28893 9.6725 11.4995 0.00214984 -0.00500084 0.00220745
135 2 -0.877395 4.0793 11.4646 9.56319 -0.000184031 0.00169592 0.00138988
136 2 -0.861827 2.70965 12.9979 12.8305 -0.00755917 -0.00367229 0.00399263
137 2 -0.935479 14.7667 11.3297 13.3743 -0.00260822 0.00553374 -0.00877647
138 2 -0.879328 14.5556 12.9398 11.4809 -0.00149836 -0.0026072 -0.00268035
139 2 -0.841182 5.7265 9.37229 13.3011 0.00345811 -0.0027542 -0.00204438
140 2 -0.874816 7.90122 9.4385 14.4279 -0.00104717 0.00265834 -0.00232098
141 2 -0.928968 7.40837 11.2768 12.7475 -0.00274156 0.00313166 0.00658166
142 2 -0.885478 6.059 13.2046 9.52334 -0.000986867 0.00264493 0.000682507
143 2 -0.890764 7.58872 15.166 9.68915 -0.00252181 -0.00181264 0.00095112
144 2 -0.932506 8.00133 13.0558 11.0776 -0.00137401 0.00427109 0.00350588
145 2 -0.933087 9.49871 2.50505 2.16379 -0.00218707 0.000482099 0.000818523
146 2 -0.973944 9.19897 14.8024 14.5946 -0.00287034 0.00776503 0.00368553
147 2 -0.947153 9.52559 4.05621 4.19458 0.000892257 0.00482463 -0.00354759
148 2 -0.93554 11.2583 2.29661 4.03064 -0.00257904 -0.00109933 -0.00498489
149 2 -0.899767 11.1994 4.36978 2.5156 -0.00453321 -0.00412157 -0.00215913
150 2 -0.956638 9.30391 5.68478 6.1562 0.00216854 -0.00149265 0.00135513
151 2 -0.936507 11.295 5.8506 7.90162 0.00195715 0.00738016 0.00295843
152 2 -0.855111 11.1728 7.38559 5.86544 -0.000214669 -0.000816048 0.00605575
153 2 -0.922442 9.51074 7.77681 7.61277 -0.00406136 0.000611874 0.00399746
154 2 -0.97183 12.8073 2.41251 5.88595 -0.000571555 -0.0042813 -9.1918e-05
155 2 -0.926773 10.9054 14.8739 6.06825 0.00153046 0.00216109 -0.00218203
156 2 -0.900775 12.8258 14.4619 4.42397 0.00172188 -0.00339936 0.000585996
157 2 -0.950214 13.1603 4.14453 7.6187 -0.00172623 0.00383065 -0.00294312
158 2 -0.889383 13.2429 5.82813 2.13752 -0.00685164 -0.00356009 -4.29412e-05
159 2 -0.85517 11.2357 5.60758 14.4422 -0.00241323 0.00325632 0.00899416
160 2 -0.91753 13.0403 3.87582 14.7778 -0.00447078 0.0016512 -0.00427249
161 2 -0.900696 12.9856 7.58075 3.95441 -0.00195084 -0.00290448 -0.000601369
162 2 -0.890634 9.20919 2.87193 9.26911 0.000110837 -0.00193653 0.00698887
163 2 -0.937095 9.32389 14.7249 7.97379 -0.00168913 0.00354946 -0.00133845
164 2 -0.88909 9.76572 4.25495 11.43 0.00629019 8.11528e-05 -0.00271986
165 2 -0.887797 10.8147 2.12502 11.1445 -0.00159951 -0.00764103 0.00311962
166 2 -0.928054 11.233 4.00469 9.3953 0.00114113 -0.00667668 0.00690889
167 2 -0.880836 9.39462 6.22832 12.9495 0.00319764 -0.00258952 0.000136927
168 2 -0.852929 9.71745 7.59618 14.9746 0.000504591 0.000728315 -0.00526345
169 2 -0.924191 11.4338 7.84647 13.2004 -0.00229307 -0.00312499 0.00302793
170 2 -0.924024 12.7619 2.40737 12.8425 0.0049208 -0.00348801 -0.00545081
171 2 -0.946178 11.0602 14.5482 12.925 -0.00118311 -0.000808612 0.000314049
172 2 -0.952214 12.8054 14.6861 11.1352 0.00460575 0.00140723 0.00211079
173 2 -0.920314 13.1831 5.69481 9.54695 -0.00364063 -0.0042395 -0.00105831
174 2 -0.914719 13.0363 7.50364 11.1838 -0.00810055 0.00432997 -0.0055108
175 2 -0.839542 9.11867 9.48949 2.48781 -0.00418064 -0.00200386 0.000933501
176 2 -0.89058 9.31199 11.0532 4.43857 -0.00249248 -0.00401184 -0.00158629
177 2 -0.891649 11.0231 9.26838 4.01853 -0.00109062 0.00716844 -0.00405836
178 2 -0.905771 10.8872 11.1391 2.31969 -0.000539197 -0.00372398 3.45978e-06
179 2 -0.960594 9.38319 12.854 6.16205 0.009199 1.11862e-05 -0.00321129
180 2 -0.919914 11.2021 13.1927 7.89168 0.00926524 0.00544497 -0.0054975
181 2 -0.715106 13.6196 9.49977 5.89338 -0.00288495 0.00308662 -0.00131329
182 2 -0.857665 12.8044 11.1547 7.64022 0.00790414 -0.00169209 -0.000613668
183 2 -0.944815 12.8435 12.7647 2.62716 -0.00503065 0.00409282 -0.000349141
184 2 -0.955802 11.1153 13.0547 14.9297 0.00477477 -0.00599931 -0.00218704
185 2 -0.935089 12.6715 11.0473 14.6878 -0.00203349 0.00620828 0.00290806
186 2 -0.927491 9.3934 9.46836 9.58373 -0.00343407 0.00273875 0.00135066
187 2 -0.907953 9.58885 11.1442 11.3331 0.00955447 9.02008e-05 -0.000413343
188 2 -0.932396 11.1912 9.20582 11.2778 -0.00336261 0.00471061 -0.000920693
189 2 -0.915177 11.2697 11.0664 9.37854 0.00854577 -0.000927318 -0.00431939
190 2 -0.917782 9.36268 12.6948 13.171 -0.0011678 0.0049264 -0.00486027
191 2 -0.907963 13.3171 9.39686 12.8995 -0.00233432 0.00318681 0.00387735
192 2 -0.907914 13.258 12.8598 9.4007 -0.0020455 -0.00153717 0.00575063
193 2 -0.621476 13.9423 10.384 10.4996 -0.00385609 -0.00195489 -0.00645838
194 2 -0.625478 12.2693 8.60247 8.45564 -0.00108805 -0.00167339 0.00133876
195 2 -0.623874 2.03421 4.44183 1.73751 0.00408906 0.00266641 -0.00101452
196 2 -0.579817 11.9538 15.4465 15.5703 -0.00141883 -0.00679677 0.00222148
197 2 -0.574114 15.5389 15.6065 4.8847 -0.00446114 0.000502029 0.00134721
198 2 -0.615629 12.0477 12.0895 12.1149 0.00936989 0.00630719 -0.00438581
199 2 -0.627109 6.73023 6.93726 6.83807 -0.00404533 -0.00227318 -0.00563107
200 2 -0.695972 10.668 6.92015 3.57205 -0.00531668 -0.00548083 0.0060015
201 2 -0.635701 12.0743 4.98303 5.20439 0.00860954 -0.00565647 -0.00960182
202 2 -0.582889 10.5262 6.8153 10.1313 -0.00633222 -0.0117432 -0.00182412
203 3 0.422565 14.2571 10.1805 11.3936 -0.00390346 -0.0146867 0.00523017
204 3 0.444535 13.9532 11.3528 10.5058 0.00686983 -0.000303158 -0.000395187
205 3 0.459354 11.9568 9.46414 8.23255 -0.00118915 0.0135833 -0.00539403
206 3 0.435731 13.2161 8.7027 8.64415 -0.017883 -0.0061877 0.00907975
207 3 0.389847 15.374 4.68847 2.37642 -0.0011061 -0.00342929 -0.0128541
208 3 0.369776 1.61076 3.58421 15.4081 -0.00750517 -3.05702e-05 0.0119765
209 3 0.413796 12.3906 14.5976 1.62999 -0.00231888 -0.0105075 -0.0108254
210 3 0.399654 12.673 1.96789 15.2874 0.0123325 0.00617831 -0.000701728
211 3 0.429802 15.5708 15.5049 3.86391 0.00487977 -0.0113183 -0.0116756
212 3 0.419042 1.81019 2.39896 5.05552 0.00661541 -0.0141857 -0.0116858
213 3 0.408628 11.8232 13.0327 11.8215 0.00209089 0.00111238 0.0101353
214 3 0.428339 11.9886 11.9588 13.0544 0.0133582 -0.00448013 0.00374758
215 3 0.4338 6.72816 6.65233 7.75293 -0.0215525 0.0156092 -0.0384744
216 3 0.424966 7.6383 6.98797 6.61663 0.0358569 -0.0021598 0.00438589
217 3 0.450781 10.9358 5.94812 3.68465 -0.00822727 0.0142695 -0.0098708
218 3 0.466052 13.4608 9.34234 4.94439 0.0190554 0.0022608 -0.0048797
219 3 0.417772 12.1916 5.0945 6.15152 0.0133485 0.00876944 0.00236813
220 3 0.408033 11.8596 4.0081 5.10587 0.00733069 0.00863916 -0.020654
221 3 0.428129 11.4777 6.81323 9.89513 -0.0247492 0.00656261 -0.00746556
222 3 0.422898 10.3138 7.74562 10.135 0.023691 -0.00780327 -0.0128709
ITEM: TIMESTEP
11000
ITEM: NUMBER OF ATOMS
222
ITEM: BOX BOUNDS pp pp pp
1.5377262634617512e+00 1.5622273736538270e+01
1.5377262634617512e+00 1.5622273736538270e+01
1.5377262634617512e+00 1.5622273736538270e+01
ITEM: ATOMS id type q x y z vx vy vz
1 1 1.79788 15.3679 15.2583 15.4771 0.00360651 -0.00215298 -0.00234984
2 1 1.51675 3.30934 3.4195 3.09419 0.00186298 0.00103867 0.000447807
3 1 1.75462 1.63366 4.90879 5.1613 0.00178183 0.00341493 0.00429693
4 1 1.84374 3.40759 6.67922 6.90049 0.00152248 0.00255744 0.000780674
5 1 1.83051 5.0485 1.71127 4.93135 -0.00154897 0.00336562 -0.00306273
6 1 1.79763 6.86258 3.28277 6.76136 0.000946954 -0.00243532 -0.000615231
7 1 1.77864 5.11422 5.17871 15.5292 -0.000537321 -0.000840113 0.0015747
8 1 1.8765 6.80918 6.79953 3.34435 -0.0038989 -0.000915457 -0.00130018
9 1 1.89141 1.53256 15.3828 8.54412 -0.00403338 0.00279549 0.00293479
10 1 1.86345 3.27132 3.11482 10.2792 0.00262792 -0.00241326 0.0014005
11 1 1.87816 1.59759 4.94886 12.0321 -0.00252392 -0.00146539 -0.00125407
12 1 1.88972 3.21342 6.83963 13.7543 0.00360374 -0.0044973 -0.00330439
13 1 1.86836 4.97069 15.6962 12.2184 0.0042796 -0.00220648 0.00177388
14 1 1.83034 6.7841 3.39952 13.8601 0.00367327 -0.00468206 0.00247612
15 1 1.77602 5.15041 4.95419 8.69225 0.000123171 -0.0010904 0.00063636
16 1 1.79116 6.82091 6.85697 10.4717 -0.00137299 0.00473385 0.00420614
17 1 1.8863 1.67657 8.55179 15.6238 0.000403491 -0.000800184 -0.000253612
18 1 1.79241 3.40705 10.2475 3.19866 0.00257309 -0.000930788 -0.00403989
19 1 1.8623 1.6695 12.1437 4.84161 0.0018882 -0.00221907 -0.000415461
20 1 1.77402 3.34259 13.9613 6.5542 0.00297859 0.00503997 0.00989098
21 1 1.75569 5.07684 8.53989 5.07312 -0.00280914 0.00363923 0.00435723
22 1 1.81293 6.81001 10.4087 6.85627 -0.00761643 0.00349411 -0.00168889
23 1 1.77803 5.31404 12.1288 1.62424 0.00282826 -0.00101105 -0.00354285
24 1 1.86504 6.88567 13.905 3.45219 -0.00103087 -0.00451352 -0.00218265
25 1 1.75611 1.74673 8.47885 8.6825 0.00140717 6.09055e-05 0.00298701
26 1 1.77002 3.35492 10.3484 10.3964 0.00238058 -0.00103286 0.000898876
27 1 1.82814 1.67451 12.0707 12.201 0.00208577 -0.00632921 -0.000252715
28 1 1.79078 3.40808 13.7439 13.9708 -0.000841618 0.00151488 0.00269649
29 1 1.93698 5.09744 8.65317 12.2249 0.00110241 0.00417697 0.00389488
30 1 1.84828 6.97549 10.2582 13.9174 -0.00234568 -0.00415923 -0.00258775
31 1 1.8128 4.91172 12.1615 8.48572 4.83404e-05 -0.00117985 -0.0017609
32 1 1.79195 6.60116 13.8589 10.4172 -0.00457047 0.00168228 0.0038087
33 1 1.85645 8.41162 1.63464 1.57286 -0.00446387 0.00401727 -0.00463314
34 1 1.69651 10.3473 3.34377 3.1941 -0.000629256 0.000891203 0.00176907
35 1 1.78477 8.69908 5.04735 5.1336 0.00268537 -0.00408289 0.00120163
36 1 1.73163 10.2873 6.85999 7.00533 -0.0025963 -0.0020973 -0.0063386
37 1 1.77105 11.98 15.6843 5.18329 0.000214744 0.00265087 -0.00526904
38 1 1.77644 13.8467 3.24355 6.94385 0.00252423 5.49781e-05 -0.00191339
39 1 1.72044 12.3184 5.01617 15.6452 0.0028483 0.00401813 -0.00443553
40 1 1.67466 14.1078 6.82644 3.28654 0.00118658 0.00262791 -0.00211213
41 1 1.87163 8.37608 1.48434 8.61542 -0.00511906 0.0043048 0.00257241
42 1 1.78438 10.1297 3.24065 10.3002 -0.00438959 0.00282225 0.00259506
43 1 1.79144 8.66506 5.11759 12.2442 -0.00149855 -0.00392247 0.000193108
44 1 1.84533 10.5456 6.80809 13.9687 -0.00372744 0.000452303 0.00200276
45 1 1.7574 11.9337 15.5472 11.9596 0.00620686 -0.00203661 0.00257125
46 1 1.69783 13.8995 3.1784 13.692 -0.000767983 -0.000372989 -0.00107159
47 1 1.69765 12.0101 5.02105 8.68831 -0.00112199 0.00102068 -0.00631579
48 1 1.76045 13.91 6.76645 10.462 -0.00413615 -0.00340026 -0.00149811
49 1 1.87604 8.60757 8.41687 1.51842 -0.00125079 -0.000324871 -0.00107232
50 1 1.83836 10.1672 10.3451 3.26723 0.00675771 -0.00404777 0.00238128
51 1 1.99308 8.56667 12.129 5.17703 0.000732335 0.00160657 -0.00188239
52 1 1.87972 10.2241 13.8716 6.93396 -0.00130008 -0.00212628 -0.0018766
53 1 1.54084 11.4211 7.8698 4.40002 0.00397623 0.00186263 0.000276172
54 1 1.72312 14.353 10.5707 6.96181 0.00326707 0.00440091 -0.00552826
55 1 1.78621 11.8781 12.1141 1.47731 -0.00137607 -0.00135064 -0.00342003
56 1 1.7224 13.6066 13.7367 3.38437 -0.00130306 0.00265156 -0.0018595
57 1 1.74558 8.5548 8.70425 8.69815 -0.000370819 0.000768176 -0.00231211
58 1 1.75425 10.4277 10.4624 10.3774 0.00217815 -0.000368013 -0.00130866
59 1 1.92145 8.49778 12.0935 12.0608 -0.00209791 -0.00077184 0.00234317
60 1 1.72577 10.0725 13.9313 13.8361 -0.00265322 -0.0117601 -0.00138094
61 1 1.75972 12.2272 8.66194 12.2519 -0.00410758 0.00189628 0.000476055
62 1 1.7498 14.0056 10.3955 14.0245 0.000103346 -0.00111373 -0.0043274
63 1 1.78571 12.2157 12.1749 8.47333 -0.00337234 0.000998766 -0.000997652
64 1 1.78257 13.954 13.8091 10.4157 0.00193801 0.000333024 0.0022703
65 2 -0.813492 2.05494 2.07317 2.33209 0.000594168 0.00167875 0.00655254
66 2 -0.936718 2.31677 14.2674 14.9573 -0.00698565 -0.00414776 0.00218373
67 2 -1.01184 14.6363 2.02569 14.4803 -0.00231357 -0.00186074 0.0105607
68 2 -0.9168 14.3104 14.6949 2.34325 0.00174896 0.00192481 -0.00219558
69 2 -0.895035 2.64905 4.16119 4.37382 -0.012528 -0.00421247 -0.00112991
70 2 -0.869291 4.1849 2.35769 3.83114 -0.00117562 -0.00366382 0.00172261
71 2 -0.867076 4.32529 4.09803 2.23812 0.000888653 -0.00346538 0.00519478
72 2 -0.874583 2.32996 5.90163 6.14275 0.00572978 0.000768596 0.00176968
73 2 -0.957462 14.8757 3.92141 6.02888 0.00381531 -0.000555051 0.00414914
74 2 -0.899842 14.8806 5.74174 4.09216 -0.00137566 0.00151466 0.00249156
75 2 -0.914075 4.14378 5.61934 7.74082 0.00144988 -0.00551533 0.000457086
76 2 -0.866854 4.16476 7.52216 5.85088 -0.00762889 0.000974062 -0.00222917
77 2 -0.906031 2.74425 7.59372 7.9186 -0.00161528 -0.00325393 0.00539488
78 2 -0.91569 5.89858 2.70014 5.69242 0.00373691 0.00228189 -0.00138069
79 2 -0.92565 4.14301 15.1271 5.94958 0.000391044 -0.000287715 -0.00161795
80 2 -0.903198 6.02301 14.6489 4.47544 -0.00457305 -0.0012021 0.00296824
81 2 -0.907034 6.19605 4.17816 7.83975 7.16241e-05 -0.000177217 -0.000987131
82 2 -0.887854 8.04335 4.04023 6.03189 -0.00295248 -0.00117523 -0.00705954
83 2 -0.919313 7.58292 2.16675 7.53043 0.00478694 0.002787 6.10355e-05
84 2 -0.875159 5.70468 6.03136 2.6104 0.00154877 -0.00640034 -0.00231537
85 2 -0.870506 4.2246 6.24884 14.7237 0.00178012 0.00827513 -0.00333913
86 2 -0.958769 6.15433 4.56486 14.6462 0.00244144 0.0084075 0.00621517
87 2 -0.966204 6.1526 7.76151 4.29175 -0.0055994 -0.000575506 -0.00208033
88 2 -0.877966 7.72632 5.77631 4.09055 -0.000410095 0.000201264 0.00249343
89 2 -0.944944 7.65714 7.46707 2.28979 -0.00268898 0.00518416 0.00115731
90 2 -0.919633 2.47017 2.27129 9.22764 0.00678577 0.00185149 -0.00269792
91 2 -0.958509 2.25902 14.5617 7.53087 -0.00688731 -0.00269488 0.00701283
92 2 -0.919903 14.5347 2.22464 7.89585 -0.0039243 0.00173109 -0.00458356
93 2 -0.996705 14.9725 14.6151 9.69529 -0.006433 -0.00272359 -0.00135039
94 2 -0.90882 2.30012 4.14395 10.9319 -0.00238606 0.00759343 0.0043521
95 2 -0.9837 3.92905 2.27946 11.3179 -0.00315931 -0.00552212 -0.00339445
96 2 -0.878268 4.40541 3.9123 9.60322 0.00241544 -0.00283471 -0.00520967
97 2 -0.922903 2.65187 5.59459 12.9841 -0.00446525 0.00927935 -0.000445857
98 2 -0.975957 14.6867 4.07268 12.8012 -0.00193314 -0.00279287 -0.00677739
99 2 -0.932001 14.9755 6.02495 11.2799 0.001633 0.00130385 -0.00197731
100 2 -0.994561 2.25616 7.58879 14.6091 -0.000114903 -0.00251659 0.000397167
101 2 -0.93922 3.96989 7.83357 12.8304 -0.00574115 0.0016484 0.00452916
102 2 -0.908438 5.78747 2.68391 12.9094 0.004352 0.00753325 0.00271892
103 2 -0.907031 4.1917 14.9158 13.3381 0.00424078 -0.00266168 0.00450778
104 2 -0.913069 5.96494 14.76 11.5186 0.000799966 0.00367416 -0.00139747
105 2 -0.925795 7.40294 2.25328 14.6915 0.00448251 0.00667069 0.004751
106 2 -0.869987 7.90684 3.97602 12.9728 -0.000936746 0.00657177 0.003671
107 2 -0.916996 5.82381 6.03711 9.57164 -0.0017058 -0.00284362 -0.00107659
108 2 -0.933485 6.03971 7.70151 11.5011 -0.00118733 -0.00236081 0.0016537
109 2 -0.880483 7.59702 5.84625 11.3099 0.00319764 -0.00176738 -0.000863971
110 2 -0.956218 7.5408 7.82415 9.50598 0.0062904 -0.00117021 -0.00136895
111 2 -0.915406 2.77879 9.47285 2.0249 -0.00539458 -0.0054435 -0.00564152
112 2 -0.916811 15.0868 7.81516 2.72858 0.008087 -0.00704957 0.00492581
113 2 -0.900553 14.6239 9.37749 14.9943 0.00120694 0.00534933 -0.00447195
114 2 -0.89848 2.34501 11.0658 3.99305 0.00352857 0.000415677 -0.00464205
115 2 -0.882693 4.00004 9.20058 4.19827 0.00335082 -0.00302974 -0.00110532
116 2 -0.885851 4.3999 11.2382 2.5866 -0.00347677 0.00462674 0.00429958
117 2 -0.903624 2.70517 13.0822 5.39388 0.000247707 0.00406602 -0.00199667
118 2 -0.910594 15.1986 11.5806 6.20094 0.000194548 0.00363736 0.00415326
119 2 -0.928831 14.6846 12.762 3.97046 -0.00318677 -0.00859539 -0.0011095
120 2 -0.902755 4.22408 12.9872 7.40308 0.00326176 -0.000455813 -0.00822155
121 2 -0.879342 5.70725 9.58093 6.11201 -0.00338394 0.00685568 0.00248407
122 2 -0.893645 6.07273 11.2817 7.90916 0.000276646 -0.00541603 -0.00066416
123 2 -1.0041 7.53248 11.342 5.89114 -0.00798186 -0.000104366 -0.000217577
124 2 -0.927166 7.7297 9.40872 7.56873 -0.000428275 -0.00278105 0.00507049
125 2 -0.989549 5.99506 13.1351 2.49011 0.00372541 0.000835015 0.00376077
126 2 -0.865216 4.34212 12.7186 14.6441 -0.00509925 0.000986776 0.00175353
127 2 -0.900309 6.38288 11.3077 14.8488 0.00218281 0.000272995 0.00877752
128 2 -0.919085 7.76391 14.9636 2.67398 -0.00273157 -0.00973472 -0.00300192
129 2 -0.980139 7.96291 13.1127 4.18983 0.00152189 0.0014266 -0.00116068
130 2 -0.905545 2.58 9.16391 9.72639 -0.0056081 -0.00252209 -0.00402208
131 2 -0.87698 14.7166 7.50924 9.41345 -0.00583375 -0.0046612 0.00963095
132 2 -0.943148 14.939 9.38307 7.77409 -0.00675431 -0.00117412 0.006333
133 2 -0.954524 2.40224 11.1535 11.2332 -0.0034706 0.00685638 -0.0066072
134 2 -0.900673 4.48707 9.67838 11.284 0.00168339 -0.000850924 -0.00317855
135 2 -0.908051 3.90984 11.3171 9.25607 -0.00172078 -0.00444285 -0.00286092
136 2 -0.913608 2.76966 12.88 12.8761 -0.000320416 0.00709684 0.000728879
137 2 -0.946696 15.0523 11.1405 13.1972 0.00192604 0.00172633 -0.00338556
138 2 -0.938107 14.6705 12.9853 11.5553 0.00181951 -0.00168337 -0.00206968
139 2 -0.917943 5.78439 9.46331 13.2888 0.0013385 0.00381067 0.00155157
140 2 -0.965135 7.81974 9.15638 14.5783 -0.00603785 -0.00338175 0.00527919
141 2 -0.937871 7.77427 11.0133 12.8194 0.00756599 -0.0114902 0.00223795
142 2 -0.867247 5.50111 13.1475 9.50551 0.00298574 0.000231939 -0.00137163
143 2 -0.893101 7.3772 14.6709 9.42204 0.00354694 0.00596687 0.00633943
144 2 -0.918706 7.53857 12.8342 11.1762 0.00558271 0.00119005 0.00329869
145 2 -0.866995 9.14251 2.78668 2.33362 -0.000213162 0.00162477 -0.00119363
146 2 -0.913793 9.41298 14.8068 14.9173 -0.000873897 0.00504935 -0.000807961
147 2 -0.890529 9.70853 4.19883 4.33167 0.0059865 -0.000441585 0.00372849
148 2 -0.895004 11.2284 2.36901 4.06307 0.00714696 -0.00529564 0.00268266
149 2 -0.947247 11.3901 4.30167 2.59262 0.00490391 -0.00201051 0.00211571
150 2 -0.94639 9.31334 6.08628 6.07009 0.000155196 -0.00361049 0.00128153
151 2 -0.942701 11.2421 5.84127 7.66438 0.010428 0.000921174 -0.0107414
152 2 -0.823792 11.0764 7.67854 5.92011 0.00720946 -0.00512161 0.00241412
153 2 -0.963879 9.51999 7.88519 7.89527 0.00722592 0.0122181 0.00108027
154 2 -0.993065 12.7735 2.58193 6.01355 -0.00539364 -0.0036276 0.00254663
155 2 -0.900242 10.8996 14.9324 6.02232 -0.00471566 -0.00390527 -0.00553361
156 2 -0.903112 12.6768 14.5872 4.34185 -0.00394546 -0.000533218 0.00404976
157 2 -0.877201 13.0712 4.29617 7.72869 0.00379568 -0.00195858 -0.00315691
158 2 -0.881463 13.3843 6.03246 2.11501 -0.00298348 -0.00492401 -0.00150585
159 2 -0.915796 11.5324 5.8475 14.6215 0.00214763 -0.000800263 0.000388813
160 2 -0.910791 13.1338 3.96916 14.8097 -0.00412582 -0.00397834 -0.00183384
161 2 -0.827214 12.9348 7.58323 4.10601 0.000984511 0.000172242 0.00348231
162 2 -0.921781 9.00285 2.51325 9.60948 0.00313588 0.00449819 0.00820922
163 2 -0.943294 9.31003 14.5692 7.9673 -0.0100011 -0.00249523 -0.00371675
164 2 -0.873876 9.56259 4.37616 11.2766 0.0026284 -0.00349966 -0.000749895
165 2 -0.8727 10.8881 2.15906 11.0849 0.001555 -0.000681973 -0.00684357
166 2 -0.889177 11.0308 3.937 9.2498 0.00122922 0.00183697 -0.000117164
167 2 -0.905321 9.38894 6.02376 13.266 -0.00253869 -0.00238092 -0.00221653
168 2 -0.899064 9.8149 7.64354 15.014 0.00367405 -0.000529956 0.000354562
169 2 -0.913638 11.1676 7.84119 13.0405 -0.00612295 -0.000618427 -0.00608836
170 2 -0.831532 12.6779 2.5557 12.8274 -0.0045055 -0.00216361 -0.00190505
171 2 -0.881737 10.8962 14.7396 12.7442 0.00795307 -0.00199432 0.00441631
172 2 -0.951711 12.8248 14.6346 11.1474 0.00369307 0.00815035 -0.00541738
173 2 -0.899166 12.8352 5.8111 9.78686 0.000956829 0.00218247 -0.00283003
174 2 -0.940973 13.0044 7.6047 11.4289 0.00294283 0.00286504 0.000883958
175 2 -0.933514 9.17165 9.51117 2.49497 0.00459801 0.00266899 0.00385718
176 2 -0.957733 9.42578 11.1681 4.36625 -0.00314266 -0.00483439 0.0015684
177 2 -0.844551 11.1513 9.31871 3.84879 -0.00209282 0.00360936 -0.000844116
178 2 -0.922968 11.0539 11.1191 2.27626 0.00251738 0.00186262 0.00256514
179 2 -0.96961 9.45322 12.7956 6.21809 0.00320931 -0.00325068 0.00173642
180 2 -0.934837 11.3509 13.0519 7.61256 -0.00046306 -0.000483025 0.00023107
181 2 -0.720485 13.8208 9.80577 5.73301 0.00688957 0.00238251 -0.00351188
182 2 -0.947219 13.1328 11.2044 7.64199 -0.000637032 0.00358606 -0.0041743
183 2 -0.926137 12.6537 13.1087 2.3762 0.000884331 -0.000401792 -0.0073321
184 2 -0.945409 11.0604 12.8383 14.4729 0.00503477 0.00188724 -0.00312661
185 2 -0.881713 12.9821 11.2611 14.893 -0.00109808 0.0022691 -0.00147572
186 2 -0.907505 9.29895 9.64471 9.70022 -0.000363839 0.00482909 0.00650825
187 2 -0.923342 9.63681 11.4136 11.2578 0.00320952 -0.00263032 -0.00273135
188 2 -0.890397 11.2289 9.43996 11.2751 -0.0032992 -0.00394148 -0.000314917
189 2 -0.92279 11.3045 11.1929 9.32135 0.00288051 0.00091619 0.000701527
190 2 -0.91642 9.00597 13.0788 13.1048 0.000937928 -0.00105439 0.00306636
191 2 -0.957028 13.0741 9.66624 12.9735 0.000641817 0.00274246 -0.0031161
192 2 -0.97659 13.1068 12.876 9.50594 0.00120418 0.00477333 0.00357124
193 2 -0.635374 13.9285 10.2577 10.3866 0.000818924 -0.00149871 -0.0010871
194 2 -0.615668 12.2926 8.62716 8.41278 -0.00408067 0.00713296 0.000350732
195 2 -0.646405 1.82725 4.45692 1.80576 0.00250417 0.00206471 0.00464214
196 2 -0.627824 11.9384 15.7157 15.4205 0.0021203 0.00129908 -0.00615428
197 2 -0.630911 1.56551 1.40723 4.86164 -0.000930101 -0.00241743 -0.000341824
198 2 -0.627069 12.3483 12.0795 12.2611 -0.00157465 -0.00173678 -0.00382896
199 2 -0.609404 6.82516 7.0231 6.99409 -0.0054532 0.00579434 -0.000565969
200 2 -0.695506 10.6515 6.81722 3.56471 -0.00299935 0.00492868 0.00110855
201 2 -0.63527 12.2831 5.0191 4.91196 -0.00450337 -0.00536113 0.00681829
202 2 -0.598939 10.3627 6.94877 10.5341 -0.00480558 0.00107078 0.00380448
203 3 0.437626 13.71 10.5238 11.2545 0.00474828 -0.00440949 0.0109142
204 3 0.372946 14.112 11.1315 9.94099 0.0110911 0.00930434 0.0019056
205 3 0.428177 12.1883 9.58848 8.51713 -0.000329561 -0.0130532 -0.0311909
206 3 0.436654 13.215 8.53961 8.55662 0.00134849 0.00526035 -0.0158625
207 3 0.403483 15.1896 5.07926 2.23656 0.00165309 0.0178343 0.00498526
208 3 0.377382 1.40262 3.61691 15.5485 0.00628294 0.00569911 -0.000200654
209 3 0.433276 12.1583 15.0747 1.98501 0.0163195 0.000432503 0.00295104
210 3 0.425553 12.6855 2.14606 1.30506 0.00895302 0.00298742 -0.00547266
211 3 0.432855 16.2065 15.6494 4.07971 0.0133953 0.00810333 -0.00536352
212 3 0.415654 1.63797 2.19663 5.3353 -0.00544171 -0.00253827 -0.0131863
213 3 0.421784 12.1717 13.0044 12.1274 0.0238402 -0.0180998 -0.00755998
214 3 0.422298 12.173 11.9185 13.187 -0.00248563 -0.0120563 -0.0141565
215 3 0.411676 6.65478 6.95455 7.93256 -0.0166567 -0.00370309 -0.0164389
216 3 0.427585 7.67302 7.42786 6.91801 0.0118168 -0.0068187 0.0115222
217 3 0.456629 10.8385 5.85087 3.80684 -0.00463039 0.0155065 6.35468e-05
218 3 0.506225 13.4191 9.26189 5.03231 -0.00682121 0.0225556 0.00188983
219 3 0.417468 12.2372 5.08163 5.94171 -0.0229552 -0.000827284 0.0108654
220 3 0.428109 12.1949 4.08787 4.7521 0.0100641 -0.0239416 0.0478272
221 3 0.423942 11.3134 6.78712 10.6172 0.00928717 0.0093313 0.0419195
222 3 0.409658 10.3636 7.90936 10.3502 0.0037281 -0.00435936 -0.00790424
ITEM: TIMESTEP
12000
ITEM: NUMBER OF ATOMS
222
ITEM: BOX BOUNDS pp pp pp
1.5338873729820515e+00 1.5626112627018001e+01
1.5338873729820515e+00 1.5626112627018001e+01
1.5338873729820515e+00 1.5626112627018001e+01
ITEM: ATOMS id type q x y z vx vy vz
1 1 1.64331 15.4877 15.3258 15.6032 0.00589964 -0.00182953 -0.00136921
2 1 1.42911 3.29122 3.48278 3.23683 0.000505142 0.00103835 0.0038327
3 1 1.67801 1.62071 5.14413 5.17886 0.000407107 0.00119596 9.09073e-05
4 1 1.88515 3.49753 6.77197 6.89671 0.00223075 -0.000749241 -0.00393796
5 1 1.80592 4.98373 1.6223 5.08898 -0.003163 0.0017198 -0.000963167
6 1 1.95938 6.81598 3.13861 6.94211 -0.0033584 -0.0020437 -0.00168297
7 1 1.68992 5.12681 5.18179 1.56153 0.00202714 -0.00125099 0.000209578
8 1 1.83234 6.78258 6.81896 3.42393 -0.00783102 0.00181779 -0.00117342
9 1 1.82273 1.64784 15.537 8.55556 -0.00188508 -0.000996049 -0.00238402
10 1 1.71701 3.33209 3.21383 10.3429 0.00121786 0.00468009 -0.000139388
11 1 1.88801 15.6604 5.00631 12.0208 0.00101306 -0.000822319 -0.00298812
12 1 1.89841 3.21071 6.75464 13.8634 0.00208785 -0.000439696 -0.000373356
13 1 1.63024 4.98355 1.59263 12.3285 0.00100714 -0.00214003 0.00213282
14 1 1.92019 6.84965 3.51324 13.8734 0.000134997 0.00116678 -0.00282204
15 1 1.73862 5.17897 4.95133 8.67786 -0.000990777 -0.000973354 -0.000400515
16 1 1.7801 6.93052 6.83757 10.4361 -0.00223451 0.00465711 0.00169597
17 1 1.83175 1.58583 8.6461 15.6022 -0.0057048 0.00424855 0.00298749
18 1 1.77047 3.29207 10.364 3.32853 -0.00649251 -0.00192887 0.000893911
19 1 1.91001 1.65872 12.2015 5.09567 0.00063959 -0.00211905 -0.00297238
20 1 1.90229 3.42656 13.8159 6.8285 -0.00314151 0.00395693 -0.00219178
21 1 1.85866 5.02302 8.58935 5.0926 -0.00286826 -0.000627252 -0.00353718
22 1 1.85858 6.78333 10.3328 6.90744 0.00240472 -0.00120948 -0.000246504
23 1 1.87403 5.09935 12.1683 1.59144 -0.00424443 0.00285493 0.00383358
24 1 1.87578 6.82933 13.9813 3.27955 -0.00399665 0.00109939 0.00648432
25 1 1.78409 1.66563 8.54525 8.62849 -0.00330347 -0.00544789 -0.00378723
26 1 1.7439 3.42098 10.3423 10.3237 0.00423052 0.00309709 -0.00431458
27 1 1.78192 1.71671 12.0479 12.1727 -0.000501491 0.000154491 -0.00094125
28 1 1.83389 3.35381 13.8484 13.982 -0.000317218 8.86517e-05 -0.00081115
29 1 1.82496 4.99567 8.46892 12.158 -0.000149646 -0.00184561 0.0031397
30 1 1.80093 6.68924 10.189 14.0289 -0.00277816 -0.000123071 -0.00193122
31 1 1.89983 5.18722 12.1729 8.67045 0.00283317 -0.00102116 0.00250119
32 1 1.67277 6.78171 13.9529 10.526 -0.00139911 0.00308995 -0.00284183
33 1 1.87333 8.52893 1.58117 15.5869 0.000776608 0.00287037 0.000957046
34 1 1.7335 10.3532 3.35458 3.13778 -0.0013518 -0.00323428 0.00229655
35 1 1.75073 8.51802 4.90715 5.07657 -0.00082074 0.00123477 -0.000398473
36 1 1.70166 10.291 6.63622 6.84915 0.00391784 0.0039583 0.00265875
37 1 1.72484 12.0531 1.6145 5.08965 0.00291933 0.00441493 -0.00272083
38 1 1.76216 13.9759 3.20965 6.82018 0.00241042 -0.00126711 -0.00142769
39 1 1.80381 12.158 5.06753 15.4718 -0.00394828 -0.00321639 -0.00160484
40 1 1.69158 13.9785 6.82586 3.21213 0.00135775 0.000625505 0.00187483
41 1 1.93462 8.62436 15.5609 8.67181 0.000143665 -0.00337245 -0.00684673
42 1 1.90141 10.4266 3.2592 10.2915 0.00527055 -0.00717347 -0.00347268
43 1 1.94288 8.67673 4.96476 12.065 0.0050459 -0.00407649 0.00354748
44 1 1.89571 10.3494 6.83449 13.7545 -0.00232687 0.00372187 -8.5685e-05
45 1 1.79101 12.1205 15.4519 12.031 -0.00177469 0.00459927 -0.00204926
46 1 1.71848 13.9015 3.15314 13.7492 -0.00536166 -0.00194682 -0.000181242
47 1 1.69714 12.2913 5.01048 8.59481 0.000459089 0.00440724 -0.00149152
48 1 1.78228 13.8626 6.8551 10.4449 -0.00172872 0.00547263 0.00290595
49 1 1.78629 8.53372 8.48336 15.6376 -0.00170431 -0.000739905 -0.0031268
50 1 1.84008 10.0703 10.4198 3.27155 0.00242387 0.000291472 9.14501e-05
51 1 1.83823 8.41622 12.1219 5.15292 -0.00270979 0.00109005 0.000492941
52 1 1.82122 10.3017 13.8611 6.77702 -0.00307197 5.13902e-06 -0.00259364
53 1 1.56456 11.3238 7.86412 4.25488 -0.00143292 0.00250758 -0.00281908
54 1 1.6703 14.1827 10.4871 6.90491 0.0035503 0.00284291 0.000352936
55 1 1.79527 11.9037 12.1039 15.6081 0.00231633 0.000878337 0.00484854
56 1 1.75211 13.7075 13.7005 3.50876 0.00138785 0.000351418 -0.00135754
57 1 1.77101 8.67196 8.5715 8.55945 -0.00119436 0.00459491 0.00450712
58 1 1.71929 10.2986 10.4788 10.2746 -0.00261974 0.00197148 -0.000395654
59 1 1.83112 8.40273 11.955 12.1728 -0.00401689 -0.000616057 -0.00260561
60 1 1.71953 10.1556 13.8323 13.7866 0.00122761 -0.00382425 0.00291668
61 1 1.85901 12.0888 8.71021 12.1232 0.00165202 -0.00241935 0.00200129
62 1 1.8104 13.8269 10.4296 13.9305 0.00441646 -0.00156859 0.00397744
63 1 1.81199 12.1095 12.1743 8.49055 0.00129447 -0.000661906 0.00248568
64 1 1.73521 14.0291 13.8149 10.3428 -0.00142202 0.00397168 -0.00168643
65 2 -0.787805 1.93512 2.28874 2.47597 -0.00264963 -0.00026916 0.00363678
66 2 -0.944621 2.62108 14.8221 14.8441 0.00224866 0.00355995 -0.00171786
67 2 -0.921167 14.7427 2.15073 14.5419 -0.00271074 0.00728509 -0.00806058
68 2 -0.93586 14.4867 14.4446 2.38602 0.00485169 -0.00397091 0.000573262
69 2 -0.866448 2.68634 4.38557 4.3182 -0.00164291 0.000685076 0.00847455
70 2 -0.830832 3.95258 2.49434 4.27323 -0.00394143 0.00372532 0.00165219
71 2 -0.789584 4.3657 3.9284 2.14203 0.00970917 0.000789297 -0.00228556
72 2 -0.899933 2.40758 6.00256 6.20357 0.00757942 0.000616248 -0.00634639
73 2 -0.900237 14.9868 4.00225 5.94586 -0.00502247 -0.00476838 0.00506166
74 2 -0.903254 14.6943 5.95845 4.26021 -0.00534111 0.00256468 0.00208389
75 2 -0.902082 4.20957 5.673 7.7329 0.00547279 0.00319021 0.00180327
76 2 -0.979103 4.38222 7.50006 5.90431 -0.0031051 0.00281692 0.00236208
77 2 -0.907123 2.76576 7.72182 7.88118 0.00404656 0.00345738 -0.0048177
78 2 -0.964407 5.82792 2.52992 5.98572 0.0014956 -0.00835852 -0.00533853
79 2 -0.916287 4.20316 14.9395 6.16293 0.00167192 0.00017084 -0.00427085
80 2 -0.927041 5.86942 14.7824 4.22543 0.00142741 -0.00101958 -0.00845428
81 2 -0.957455 6.2224 4.1125 7.96991 -0.00243962 -0.0145309 0.00238739
82 2 -0.902083 7.79818 3.83175 6.01973 -0.00177277 -0.0005999 0.00220571
83 2 -0.989762 7.62888 2.22161 7.81396 -0.00231034 0.00267894 -0.00135039
84 2 -0.902763 5.87542 5.79297 2.77331 -0.00127815 0.00215175 -0.00247105
85 2 -0.884809 4.28936 6.21503 14.8207 -0.00336401 0.00650422 -0.000652031
86 2 -0.889024 6.21284 4.6181 14.6448 -0.00360642 -0.00612191 0.00535666
87 2 -0.941041 6.09591 7.95607 4.14482 0.00410962 -0.00357558 -0.00417466
88 2 -0.912972 7.67304 5.96561 4.35614 -0.00422041 0.000915468 -0.00278473
89 2 -0.829228 7.78489 7.34868 2.34348 0.00219909 0.00161821 -0.0034657
90 2 -0.881351 2.74052 2.32319 9.21572 0.00190593 0.00134634 -0.00290583
91 2 -0.943868 2.40981 14.4506 7.81579 0.00228938 0.00185067 0.00478766
92 2 -0.934253 14.6699 2.21383 7.73731 0.00264989 -0.00360653 -0.00643797
93 2 -0.891673 14.9295 14.8543 9.68212 -0.00590718 -0.00394926 -0.00020394
94 2 -0.890858 2.14351 4.12941 10.9551 -0.000776964 0.00245579 -1.71697e-05
95 2 -0.848036 3.86579 2.3181 11.462 0.00404036 -0.00957482 -0.00166621
96 2 -0.845335 4.51423 4.06628 9.8105 -0.00238427 -0.00205427 -0.0024364
97 2 -0.948021 2.54733 5.637 13.0067 -0.000439073 0.00106867 0.000514988
98 2 -0.903937 14.7061 4.06378 12.7917 0.00107 0.000829096 0.00628152
99 2 -0.908238 14.8452 6.12339 11.3877 0.00511509 0.000294869 0.0026848
100 2 -0.924841 2.26804 7.67997 14.613 -0.00654495 -0.00533354 0.00183165
101 2 -0.932159 4.00852 7.5568 12.8705 0.00394221 -0.000647587 -0.000458047
102 2 -0.854628 5.74587 2.75698 13.1117 0.00358523 -0.000140774 0.000404261
103 2 -0.876769 4.52001 14.423 13.1636 -0.000590587 -0.00780333 -0.0103907
104 2 -0.791751 6.10814 15.0727 11.4144 0.00776515 -0.00125364 0.00382543
105 2 -0.908223 7.54466 2.56634 14.9011 -0.00885575 0.00291017 0.000922978
106 2 -0.985515 7.82583 4.00549 12.877 0.00543519 -0.00336168 0.000310567
107 2 -0.854206 5.81777 6.15492 9.50995 -0.000218648 -0.00733939 0.00239117
108 2 -0.87467 6.16349 7.66246 11.4878 -0.000538528 0.00559611 -0.00121935
109 2 -0.924287 7.69012 5.73517 11.1538 -0.00376082 0.00419028 0.00871
110 2 -0.936417 7.84927 7.67462 9.55129 -0.00572773 -0.00074188 -0.000499259
111 2 -0.894117 2.684 9.56802 2.17197 0.000496188 -0.000514591 -0.00120886
112 2 -0.915022 15.0916 7.6669 2.5143 -0.000637989 0.000413264 -0.00372687
113 2 -0.926717 14.7001 9.47949 14.7933 -0.00280609 0.00406085 0.0026948
114 2 -0.94037 2.20339 11.2769 4.03137 0.0026726 -0.000567677 0.00336114
115 2 -0.937241 3.99735 9.42371 4.28235 0.00301211 0.00178807 -0.00272492
116 2 -0.855717 4.37468 11.345 2.66152 0.00169165 -0.00471847 -3.64785e-05
117 2 -0.979173 2.71035 13.1753 5.69266 0.0069858 -0.00796406 0.00437961
118 2 -0.959753 15.2236 11.4092 6.26355 0.000576194 -0.00567444 0.00980563
119 2 -0.97925 14.6211 12.9959 4.45855 0.00207617 0.00338337 4.3749e-05
120 2 -0.984389 4.44555 12.9166 7.59061 -0.00287465 -0.00202448 0.000195121
121 2 -0.917668 5.71574 9.54293 6.12682 0.0058788 0.00102362 -0.00142813
122 2 -0.894357 6.27714 11.2759 8.06103 -0.00194519 0.00155622 -0.00185259
123 2 -0.970723 7.49075 11.1958 5.90184 -0.00330495 -0.00390284 -0.000808414
124 2 -0.92456 7.66438 9.42727 7.76545 0.000471328 0.00565808 -0.00287216
125 2 -0.932283 6.01425 13.2544 2.25601 -0.00410748 -0.00376427 0.00247878
126 2 -0.95729 3.98231 12.7733 14.8909 0.0064624 0.00745765 0.00209234
127 2 -0.924183 6.0442 11.1628 15.0406 -0.000323212 -0.00808456 -0.00682041
128 2 -0.977038 7.7791 14.9119 2.53278 -0.00425058 -0.0035095 0.00360303
129 2 -0.896876 7.55355 12.8656 4.10013 -0.00832213 0.00707687 0.00757155
130 2 -0.929323 2.29292 9.51296 9.59863 0.00240071 0.00304186 0.00142561
131 2 -0.89776 14.7533 7.59033 9.43656 0.00262577 -0.004288 -0.00288301
132 2 -0.916189 14.8517 9.27184 7.64333 -0.00470883 -0.00546935 -0.00494551
133 2 -0.932482 2.71755 11.2612 11.4166 -0.00318799 -0.00455242 0.000457109
134 2 -0.882494 4.25133 9.24812 11.0646 -0.0050825 -0.00495804 0.000926606
135 2 -0.945676 4.36558 11.165 9.41549 0.000493537 -0.00500072 -0.00115047
136 2 -0.929884 2.35176 13.1129 13.0456 0.00297337 -0.00589272 6.23092e-05
137 2 -0.956038 14.7693 11.1167 12.9168 0.00309977 0.00206714 -0.00616608
138 2 -0.906683 14.9823 12.778 11.02 -0.00561217 -0.00183607 -0.00291612
139 2 -0.883057 5.64012 9.44366 13.2001 -0.00207429 -0.00261419 0.00580862
140 2 -0.866804 7.34229 9.04433 14.8288 0.00638377 -0.00248742 0.00103688
141 2 -0.91266 7.67618 10.9213 13.0496 -0.00041782 0.00175931 0.00198155
142 2 -0.906439 5.70307 13.1665 9.71308 0.00182075 -0.00171781 -0.00168635
143 2 -0.886968 7.94669 14.4974 9.52849 -0.00618861 -0.00328466 0.00699492
144 2 -0.87964 7.49055 13.032 11.5634 0.00249195 -0.00131556 0.00314534
145 2 -0.937632 9.59389 2.40078 2.1788 0.00606276 -0.000893366 -0.00142997
146 2 -0.876993 9.03642 14.7237 14.4213 -0.00206058 -0.00168925 -0.00273352
147 2 -0.937672 9.51676 4.309 4.08095 0.00179229 0.00148445 0.000483958
148 2 -0.871297 11.3587 2.56142 4.09726 0.00186385 -0.00619794 0.00687682
149 2 -0.92655 11.2509 4.33416 2.38481 0.00202378 0.00512635 0.00269212
150 2 -0.918514 9.35721 5.60645 6.17186 0.00498721 -0.00577965 0.00535654
151 2 -0.915585 11.5058 5.96219 7.59541 -0.000639153 -0.00632709 0.00222243
152 2 -0.848468 10.815 7.51247 5.669 0.00504568 -0.000256993 -0.00363179
153 2 -0.941307 9.31225 7.60704 7.52339 -0.00463062 0.00303853 0.00366401
154 2 -0.925207 12.7248 2.68685 6.03253 -0.00117413 0.00532542 0.00145642
155 2 -0.877189 10.9599 14.7554 5.68779 -0.00187236 -0.00217399 -0.000594948
156 2 -0.932644 12.9889 14.8802 4.22351 -0.00334695 0.00592512 -0.00277543
157 2 -0.895235 13.3157 4.35027 7.65813 -0.00581428 0.00109333 0.000758324
158 2 -0.882498 13.2492 5.92472 2.09394 0.00403613 -0.00193858 -0.00182406
159 2 -0.95478 11.2494 5.86419 14.5213 -0.00109807 0.00369807 -0.00281642
160 2 -0.922064 13.0313 4.01054 14.7574 0.00226845 0.0032304 -0.00380395
161 2 -0.87442 12.8887 7.67197 3.89298 -0.00122367 0.00718279 0.00556039
162 2 -0.961498 9.34357 2.43437 9.58485 0.00184628 0.00260446 -0.0076403
163 2 -0.930296 9.62378 14.9027 7.7334 0.00916985 0.000180746 -0.00256849
164 2 -0.956641 9.69644 4.12213 11.3454 0.00466183 0.00428813 0.00375895
165 2 -0.912322 11.3347 2.23237 11.0016 0.00231535 0.000298625 -0.00282
166 2 -0.927085 11.2019 4.09967 9.3189 0.00536317 0.000873036 -0.000182513
167 2 -0.95372 9.35496 6.0574 12.932 0.00213743 0.00563014 -0.00289345
168 2 -0.896358 9.56323 7.78653 14.7447 -0.00408945 -0.0027619 -0.00281479
169 2 -0.950117 11.0518 7.77654 12.7939 -0.00289062 -0.00790797 -0.00597798
170 2 -0.919211 12.8299 2.34513 12.9928 0.00454232 0.00467834 0.00373295
171 2 -0.949344 11.144 14.4896 12.8179 0.00372047 0.00576923 0.00239551
172 2 -0.957769 13.1122 14.5457 11.352 0.00288957 0.000777784 0.000396491
173 2 -0.931547 12.9901 5.84632 9.70175 0.00562078 -0.00103262 0.00849701
174 2 -0.957483 13.0467 7.89061 11.3622 0.00241401 0.00886415 0.00182518
175 2 -0.910132 9.00326 9.57608 2.51252 -0.00358141 -0.0027704 0.00674751
176 2 -0.941046 9.44039 11.311 4.31698 0.00172401 -0.00196058 -0.00377507
177 2 -0.886291 10.8891 9.31199 3.90447 -8.85102e-05 -0.0028232 -0.00600422
178 2 -0.904696 11.0075 11.0625 2.20062 0.00181101 0.00100929 -0.000203551
179 2 -0.917247 9.15759 13.1486 6.1105 0.00314977 0.00379348 0.00188408
180 2 -0.94734 11.3511 12.9216 7.39522 -0.00480775 -0.00307281 -0.000984485
181 2 -0.736466 13.4506 9.76118 5.73326 0.0035831 -0.000594788 0.00107895
182 2 -0.918099 13.0528 11.1454 7.8171 0.00377573 -0.00176181 -0.00126103
183 2 -0.862262 12.6436 12.8036 2.71468 0.00182662 0.00234986 -0.00181414
184 2 -0.936641 10.9396 13.0198 14.8766 -0.00251723 -0.00984642 0.000369497
185 2 -0.986781 12.9613 11.4616 14.7155 -0.00324085 -0.00146701 -0.000569523
186 2 -0.932856 9.65266 9.34259 9.4585 -0.00396625 -0.00449472 0.0016099
187 2 -0.870634 9.11163 11.1103 11.0925 -0.00409955 0.00482544 0.00847088
188 2 -0.913851 11.204 9.66766 11.2893 0.00378443 -0.00238701 0.00440318
189 2 -0.953419 11.0402 11.3442 9.20523 0.00325285 -0.00115668 0.00861889
190 2 -0.907956 9.4787 12.6839 12.9254 0.00128527 0.00484092 -0.00399788
191 2 -0.944518 12.9776 9.41188 13.1571 0.00352561 -0.000979149 0.00160582
192 2 -0.924107 12.9706 13.0797 9.37236 0.00250201 0.00536139 -0.00449687
193 2 -0.616593 14.0316 10.2259 10.4797 -0.00274278 0.00462411 -2.03602e-05
194 2 -0.608992 12.1804 8.6018 8.37296 -0.00750591 0.000163645 0.00138011
195 2 -0.637782 1.86895 4.62975 1.89925 0.00265625 0.000860613 0.00235442
196 2 -0.591343 11.9742 15.5062 1.49854 -0.00376307 -0.00409007 -0.00879658
197 2 -0.597304 1.46314 1.73556 4.99784 -0.00284593 -0.000267614 -0.00268434
198 2 -0.610222 12.0172 12.0463 12.2237 0.00136687 0.00355703 0.00530163
199 2 -0.584951 6.75744 6.61421 6.91137 -0.00573321 0.00376771 0.00164411
200 2 -0.691788 10.6187 6.82445 3.35166 0.000592075 0.00934085 0.00538802
201 2 -0.64699 12.1442 5.09083 5.06048 -0.000738306 -0.00460478 0.000484211
202 2 -0.582395 10.5019 6.79821 10.1298 0.00342941 -0.0046487 -0.000961627
203 3 0.425822 14.1463 9.98367 11.4077 0.000443494 0.0084849 0.00255119
204 3 0.413942 14.6577 10.9416 10.3743 0.0172583 0.0210226 0.00708645
205 3 0.420012 11.9699 9.5906 8.48675 0.00109655 -0.0127249 -0.0272832
206 3 0.417782 13.1517 8.57332 8.56639 0.0436767 0.00121099 -0.0275891
207 3 0.385833 15.3534 4.99625 2.57922 -0.00890076 0.00901868 -0.00531778
208 3 0.405571 15.4775 3.82777 1.53834 -0.0155881 -0.0230693 -0.011307
209 3 0.409701 12.6192 15.4179 2.23377 0.00374148 -0.00212133 0.0141085
210 3 0.409948 12.4428 16.0114 14.9558 0.0051053 -0.0104892 0.000897629
211 3 0.423099 1.5102 15.5623 4.0612 0.0241632 -0.0124001 -0.00585008
212 3 0.441944 1.99043 2.52778 5.0482 0.0043065 0.0230073 0.0224129
213 3 0.432258 11.9744 12.9166 11.8927 0.000854824 -0.00367102 0.00958641
214 3 0.393645 11.8431 12.1559 13.1953 -0.00429404 -0.00464674 0.0128285
215 3 0.407304 6.82101 6.62809 7.83726 0.00748638 -0.0330553 -0.0188148
216 3 0.421755 7.714 6.77923 6.64062 0.00267764 0.00154514 -0.043538
217 3 0.46674 10.6409 5.86929 3.69282 -0.0334602 -0.00419435 0.0137701
218 3 0.490285 13.036 9.37121 4.97398 -0.0108314 0.00729421 -0.00792359
219 3 0.433466 12.492 5.36752 5.90199 0.0124041 -0.0211464 0.00872185
220 3 0.44339 11.7395 4.26013 5.29486 -0.0070656 -0.0199706 0.00465146
221 3 0.401219 11.2426 6.93083 9.46926 0.00230615 -0.00208799 0.00730459
222 3 0.430142 10.2626 7.67112 10.4992 0.00145657 0.0154096 0.0298436
ITEM: TIMESTEP
13000
ITEM: NUMBER OF ATOMS
222
ITEM: BOX BOUNDS pp pp pp
1.5440653515966503e+00 1.5615934648403414e+01
1.5440653515966503e+00 1.5615934648403414e+01
1.5440653515966503e+00 1.5615934648403414e+01
ITEM: ATOMS id type q x y z vx vy vz
1 1 1.73877 15.5836 15.4688 15.3916 -0.00116989 -0.00216515 0.00118683
2 1 1.44707 3.21338 3.63485 3.30615 0.00022744 -0.00379173 0.000598104
3 1 1.6856 15.5613 5.10898 5.37933 5.43109e-06 -0.000845732 -0.00221237
4 1 1.77906 3.41703 6.81394 6.94743 -0.000760132 0.00543937 0.00125138
5 1 1.75358 4.85526 1.6683 5.00404 0.000411053 -0.00135857 -0.00338625
6 1 1.87024 6.66844 3.21002 6.91194 0.00376667 -0.000307421 0.000117235
7 1 1.74509 5.2844 5.034 1.59553 -0.00262769 0.0020966 -0.00475846
8 1 1.847 6.83925 6.85102 3.41942 0.00100565 0.000696708 0.0028893
9 1 1.82109 15.4393 15.5362 8.64499 0.00227901 0.00101539 0.00133308
10 1 1.72728 3.29002 3.05531 10.3378 0.00193946 -0.00103194 -0.00171564
11 1 1.84324 1.77305 4.98261 12.1599 7.92594e-05 -0.00230235 -0.000248776
12 1 1.80831 3.32517 6.85518 14.0326 -0.000498756 0.00286212 0.000177474
13 1 1.82209 5.27904 15.4523 12.0195 0.00114264 0.00166574 0.00155233
14 1 1.86664 6.8474 3.27882 13.7917 0.00146226 -0.00538442 0.00237597
15 1 1.82062 5.01392 4.93265 8.74163 -0.00211158 0.000850816 -0.00143607
16 1 1.70699 6.67384 6.77214 10.505 -0.00186556 -0.00615919 -0.00129636
17 1 1.79804 1.71998 8.61726 1.81734 0.000256976 -0.00306504 -0.00412482
18 1 1.95022 3.53401 10.4426 3.34285 -0.00530306 -0.00511121 -0.0019223
19 1 1.80355 1.68533 12.2916 4.89048 -0.00208839 -0.00270658 -6.78668e-05
20 1 1.78271 3.25005 14.009 6.83808 -0.00188189 0.000326133 -0.00260341
21 1 1.84456 5.04724 8.62025 5.12545 -0.00159579 -0.00297065 0.00183942
22 1 1.75418 6.99126 10.3309 6.78395 -0.00546147 0.000805622 -0.000640181
23 1 1.97795 5.34075 12.0607 15.6077 -0.0056849 0.00522838 0.00150793
24 1 1.85879 6.71438 14.0058 3.40017 -0.00158418 0.0011055 -5.56126e-05
25 1 1.70191 1.57487 8.62855 8.50183 0.000172928 0.00221278 0.00110259
26 1 1.75387 3.34598 10.365 10.2347 -0.00320118 0.00340825 0.00254381
27 1 1.69392 1.66839 12.0157 12.1456 0.00150267 0.000216975 -0.00165262
28 1 1.85938 3.53557 13.7437 13.852 -0.00161231 0.000492565 0.00048798
29 1 1.86277 4.88036 8.59712 12.1722 -0.000370254 0.00157125 0.000336669
30 1 1.82241 6.83274 10.1922 13.8116 -0.000541639 0.00348494 0.00225107
31 1 1.6837 5.12197 12.231 8.43175 -0.00343217 -0.00356306 -6.65556e-05
32 1 1.88543 6.94173 13.7172 10.2686 -0.0023803 -0.00193581 -0.00625824
33 1 1.79871 8.48633 1.56666 1.57953 -0.00515687 -0.00034625 -0.00101531
34 1 1.74037 10.2792 3.4138 3.20636 -0.000170333 0.00305542 -0.00633823
35 1 1.76301 8.49244 4.97659 5.17624 0.00306631 -5.13927e-05 -0.00467591
36 1 1.74595 10.1989 6.76762 7.00612 -0.00384054 0.00424077 0.000214038
37 1 1.67008 11.9484 15.5287 4.94291 0.000418743 0.00216293 -0.00380902
38 1 1.73239 13.6922 3.1561 6.84348 0.00540259 -0.00107606 8.0206e-06
39 1 1.71798 12.2887 5.05487 1.55694 -0.000173869 -0.00327803 -0.00598228
40 1 1.70465 13.8845 6.90741 3.39266 0.00568685 -0.00578532 0.00299779
41 1 1.85306 8.57617 15.5991 8.48029 0.00755428 -0.00104638 0.00404616
42 1 1.87614 10.3887 3.22788 10.2731 -0.00384269 -0.00317528 -0.00373074
43 1 1.73966 8.62467 4.98175 12.07 -0.00143686 -0.000535295 0.00124473
44 1 1.77289 10.3538 6.67967 13.8537 0.00201406 0.00324506 -0.00241821
45 1 1.87606 11.944 15.5731 12.1504 -0.000774223 0.00046493 0.00133033
46 1 1.78218 13.8566 3.28972 13.699 -0.00190877 -0.000900129 0.000692874
47 1 1.7783 12.2054 5.07887 8.65548 0.00158266 0.00367453 -0.000561211
48 1 1.83069 14.092 6.7214 10.4061 0.00381914 0.00018592 0.00269006
49 1 1.84331 8.53305 8.44989 15.5869 0.000981474 0.00107189 -0.00224734
50 1 1.78305 10.1318 10.3861 3.16579 -0.00180199 0.00443553 0.00016299
51 1 1.84895 8.54761 12.1587 4.98034 0.000976026 0.00103368 -0.00172573
52 1 1.8553 10.3182 13.7991 6.80311 -0.00074946 -0.00132801 0.00071422
53 1 1.65494 11.2885 7.89023 4.47923 -0.00870577 -0.000663828 -0.000317078
54 1 1.79654 14.0831 10.7517 6.89881 0.00321661 0.00295502 -0.00446673
55 1 1.81189 12.0056 12.0469 15.4966 -0.000930393 0.00233435 7.20212e-05
56 1 1.74316 13.7741 13.8405 3.20192 0.000291432 -0.00350135 0.000709595
57 1 1.73601 8.53515 8.61373 8.76966 -0.00502154 0.0026627 0.00030155
58 1 1.79502 10.5423 10.2305 10.4981 -0.00272539 0.00138696 -0.00656932
59 1 1.80873 8.50647 11.8892 12.0428 0.00271913 -0.00358863 -0.00209521
60 1 1.79662 10.0681 13.7662 13.823 0.00207364 0.00434767 0.0030389
61 1 1.70364 12.2931 8.49641 12.2924 -0.00098624 0.00221467 0.00106803
62 1 1.80603 14.0477 10.2612 13.993 0.00151376 -0.00323692 0.00264667
63 1 1.79128 12.1028 12.214 8.67447 0.00161789 0.0009895 0.00375035
64 1 1.78218 13.8466 13.8586 10.5612 -0.000207113 0.00300519 -0.00221897
65 2 -0.79642 1.95757 2.32322 2.42582 -0.00225067 -0.006769 -0.00265886
66 2 -0.87191 2.73033 14.7307 14.7217 0.00249809 -0.00702397 0.00580174
67 2 -0.928692 14.8158 2.24645 14.3909 -0.00267866 -0.00533728 -0.000765761
68 2 -0.899606 14.7716 14.4432 2.13896 -0.0078591 0.00236991 -4.30841e-05
69 2 -0.850141 2.59003 4.38847 4.60289 0.000574568 0.000599556 -0.000928283
70 2 -0.793584 3.98108 2.49464 3.97654 0.00253305 0.0108559 -0.000183515
71 2 -0.818612 4.36239 4.04877 2.36273 0.00156657 -0.000172017 -0.00527582
72 2 -0.848721 2.14068 6.17081 6.30486 -0.00265389 0.0034204 0.00569622
73 2 -0.892397 14.8501 3.9379 6.01739 0.0010432 -0.00816998 0.00311623
74 2 -0.847749 14.6269 5.72839 4.22235 0.00251648 -0.00113092 -0.000762419
75 2 -0.884669 4.08963 5.66332 7.73865 -0.00622453 -0.00221946 -0.00598043
76 2 -0.919764 4.2175 7.54025 5.82312 -0.000191661 -0.00170517 0.000996451
77 2 -0.884653 2.71125 7.83914 7.8148 -0.000228071 0.00287899 -0.000443373
78 2 -0.879846 5.86832 2.57752 5.76986 -0.00254815 0.000905689 0.00504035
79 2 -0.910089 3.97501 15.1399 6.14788 -0.0104723 0.00166695 0.00284804
80 2 -0.926099 5.56238 14.6909 4.15078 0.00743335 0.00150134 0.00394553
81 2 -0.957284 5.66794 3.80891 7.89388 0.0001137 0.00574807 -0.00507433
82 2 -0.920218 7.48063 4.25417 6.07496 -0.00290785 0.00176559 0.00165133
83 2 -0.985204 7.61935 2.21145 7.50612 -0.000240171 -0.00194132 0.00267532
84 2 -0.895471 5.99093 5.80306 2.73084 0.000908288 -0.00257764 0.00107159
85 2 -0.822668 4.47572 6.17138 14.9353 0.00402685 -0.00559895 0.00185051
86 2 -0.910966 6.17719 4.43792 14.555 0.00516406 -0.00122235 0.00164044
87 2 -0.930713 5.94464 7.95354 4.05221 -0.00365994 0.00114863 0.00398854
88 2 -0.933701 7.85387 6.07709 4.34865 -0.00895605 0.000895449 -0.00411809
89 2 -0.91309 7.66161 7.42975 2.32017 -0.00136999 -0.00464052 -0.00517753
90 2 -0.911908 2.33832 2.50417 9.23301 -0.0029676 -0.00818194 0.0025519
91 2 -0.894983 2.14375 14.4816 7.84685 0.00251724 0.00447412 0.00107958
92 2 -0.90908 14.3519 2.12132 7.80396 -0.00126162 -0.000533198 -0.00365747
93 2 -0.929629 14.8395 14.6769 9.77737 0.000204654 -0.00765186 0.00214705
94 2 -0.893354 2.48053 3.84393 11.4828 -0.001955 0.000375943 -0.00575712
95 2 -0.878628 4.26674 2.0405 11.0197 0.00362061 0.000914177 0.000692693
96 2 -0.863391 4.11181 4.20696 9.72759 0.000674164 0.00268072 9.67316e-05
97 2 -0.897323 2.59532 5.84527 13.1539 -0.00561377 0.00618964 -0.00121211
98 2 -0.921091 14.6958 4.33813 12.9769 -0.00432832 -0.00160177 0.00384981
99 2 -0.917196 15.1828 5.99482 11.1847 0.000971132 0.00314082 0.00157438
100 2 -0.90658 2.37992 7.49155 15.049 -0.00306079 0.00313951 -0.00324012
101 2 -0.934917 3.84426 7.8363 12.9735 -0.00119283 0.00174769 -0.00297403
102 2 -0.888705 5.9157 2.59002 12.7536 0.00167736 -0.00385052 -0.0105584
103 2 -0.954889 4.46955 14.5652 13.0088 0.000960436 -0.00411283 0.00478337
104 2 -0.94218 6.38633 14.6732 11.3561 0.00119056 -0.00220286 0.00279481
105 2 -0.939507 7.47103 2.28857 14.7635 0.00585481 0.00138128 0.00154606
106 2 -0.914507 7.84375 3.89966 12.8672 -0.00399116 -0.00144708 -0.000288512
107 2 -0.941538 5.62733 5.99595 9.61606 0.00215185 -0.00075974 0.000160598
108 2 -0.864256 5.89784 7.53776 11.6177 0.00050434 -0.000997954 0.00171721
109 2 -0.887716 7.71326 5.79795 11.1035 -0.00172898 0.00423089 -0.000263872
110 2 -0.884025 7.44453 7.84078 9.62828 -0.00436365 0.000899621 0.00106457
111 2 -0.943075 2.83123 9.50831 2.40989 -0.00106389 -0.00157219 0.00164641
112 2 -0.879247 14.9902 7.88431 2.95558 0.00336308 0.00728579 0.000465405
113 2 -0.904258 14.888 9.5731 15.0936 0.0028 -0.00603965 0.000283159
114 2 -0.943062 2.39323 11.3156 3.9666 0.0054674 -0.000721383 0.00104128
115 2 -0.969878 4.17526 9.66847 4.42667 -0.00777358 0.00540187 0.00171941
116 2 -0.993914 4.60558 11.262 2.57656 0.00539962 -0.00251125 0.0011697
117 2 -0.860919 2.60378 13.3417 5.58765 0.00566518 0.000738939 0.000650234
118 2 -0.873894 15.0624 11.6307 6.15213 -0.00222907 -0.00470169 0.00687261
119 2 -0.889481 14.5785 12.9682 4.21506 0.00178214 -0.00289545 -0.00190101
120 2 -0.897866 4.18048 12.9537 7.48673 -0.00158356 0.00517264 0.00545503
121 2 -0.917689 5.92159 9.48914 6.09788 -0.00640135 0.00381178 -0.0043479
122 2 -0.7915 6.31098 11.5872 7.48654 0.000600768 -0.00433082 0.00723978
123 2 -0.871556 7.89836 10.9469 5.69578 0.000115681 0.00108006 -0.000334828
124 2 -0.908195 7.92242 9.60954 7.77376 -0.000181075 0.00503319 0.00383981
125 2 -0.908633 6.29824 13.0617 2.2565 0.00555226 0.00870388 0.00303175
126 2 -0.98296 4.30605 12.7577 14.7876 -0.00304139 0.00339595 -0.000270945
127 2 -0.957741 6.33048 11.2969 14.8103 0.00486704 -0.00083333 -0.00449342
128 2 -0.910946 7.64436 15.015 2.72852 0.00420485 -0.000439605 0.00111242
129 2 -0.935492 7.48395 13.0927 4.3473 0.00551015 -0.00204262 -0.00399044
130 2 -0.938142 2.28593 9.64116 9.44497 0.000304885 -0.00634444 0.0036898
131 2 -0.906396 14.681 7.61755 9.32479 0.00888906 0.00387811 -0.00311644
132 2 -0.899003 14.7575 9.46332 7.48517 -0.0041388 -0.00328054 -0.000187077
133 2 -0.943915 2.69243 11.3279 11.1905 0.00185714 -0.00589473 -0.000415494
134 2 -0.909691 4.27184 9.37907 11.0567 0.00524149 0.00414188 0.00497625
135 2 -0.826226 4.36204 11.089 9.17604 -0.00295225 -0.00362424 0.000684017
136 2 -0.908812 2.43871 12.988 13.056 0.000408434 -0.000503315 -0.00101593
137 2 -0.904115 14.9775 10.8686 12.9525 -0.00925431 0.0052669 -0.00377362
138 2 -0.924585 14.6489 12.7364 11.265 0.00207902 -0.000701518 -0.00046111
139 2 -0.904407 5.62011 9.5968 13.0865 -0.0051802 0.00270841 2.85121e-05
140 2 -0.924339 7.57238 9.07772 14.5392 0.00096707 0.00204901 -0.00344752
141 2 -0.91797 7.58169 10.8567 12.6385 0.00115046 -0.00106067 -0.00176212
142 2 -0.914981 5.75469 13.2198 9.44859 0.000449528 0.00136439 0.00227466
143 2 -0.935715 7.81394 14.6263 9.40623 -0.00741749 0.00427829 0.00291805
144 2 -0.92255 7.68392 12.5646 10.8481 -0.00316154 0.0070798 0.00170605
145 2 -0.91478 9.37786 2.70571 2.21467 0.00415519 0.00124537 -0.00227399
146 2 -0.943461 9.3 14.6322 14.7788 -0.000339538 0.00819962 -0.00105932
147 2 -0.93661 9.43908 4.20224 4.20713 -0.00298825 0.00138473 -0.00298769
148 2 -0.920969 10.9398 2.25603 4.01637 0.00228774 0.00376595 0.00377405
149 2 -0.985664 11.4425 4.15894 2.47634 0.00151577 -4.83988e-06 -0.00235883
150 2 -0.91395 9.42227 5.63059 6.26456 0.00717904 -0.00717538 0.000534373
151 2 -0.872143 11.3268 6.11967 7.85725 -0.00136092 -0.00505467 0.00276753
152 2 -0.935286 10.9044 7.51422 5.90262 0.00161997 -0.0023043 0.00433983
153 2 -0.931739 9.11459 7.54919 7.82643 -0.00578946 -0.000667924 -0.000892091
154 2 -0.917146 12.6505 2.38 6.02978 0.0042581 -0.00836877 0.00664719
155 2 -0.903168 11.1812 14.4219 5.68592 0.00420888 0.000765496 -0.000824207
156 2 -0.912225 12.9593 14.938 3.89292 -0.00127728 0.000483122 -0.00311625
157 2 -0.942419 13.0001 4.3293 7.5497 -0.0023741 0.00175179 -0.000106272
158 2 -0.91215 13.2098 6.10969 2.30474 -0.00464882 -0.0025511 0.00804986
159 2 -0.894516 11.3917 5.76411 14.5547 0.00526709 0.00389016 0.00467998
160 2 -0.928539 13.2684 4.09777 14.8945 0.000431204 -0.00333219 0.00140217
161 2 -0.879065 12.7493 7.63767 4.15444 0.00450343 -0.00452643 0.00298471
162 2 -0.91006 9.2601 2.5727 9.41098 0.00754882 0.000837578 -0.000989393
163 2 -0.925902 9.70349 14.8713 7.72333 -0.0036227 0.00198836 0.000760729
164 2 -0.909685 9.78077 4.16839 11.2638 -3.0786e-05 1.60691e-05 0.00204009
165 2 -0.976396 11.321 2.26663 11.0182 -0.000268221 -0.00355484 -0.00398591
166 2 -0.908737 11.2067 4.07359 9.30746 0.000911244 -0.00260963 0.00185426
167 2 -0.960872 9.32358 5.98344 13.0034 0.00268442 -0.00278911 0.00196326
168 2 -0.886125 9.61571 7.71265 14.8058 0.0035367 0.00436378 -0.00118678
169 2 -0.924485 11.2137 7.56194 12.9018 5.02917e-05 -0.00074691 -0.00201229
170 2 -0.944792 12.7518 2.51858 12.9797 0.0018426 0.00642314 -0.00583513
171 2 -0.961621 10.9229 14.6245 12.8053 -0.00860703 0.00265775 -0.00754914
172 2 -0.939812 13.0476 14.6407 11.623 0.00559792 -0.000601829 -0.00195559
173 2 -0.918787 13.1127 5.7863 9.66226 -0.00320493 -0.00306637 -0.00135961
174 2 -0.841231 13.2412 7.51642 11.4293 0.00611841 0.000442797 -0.00412453
175 2 -0.962336 9.12159 9.53082 2.4178 -0.00325177 0.00645106 0.00234419
176 2 -0.944997 9.49438 11.5303 3.98526 0.000887714 0.00539089 0.00125355
177 2 -0.87401 11.025 9.37631 4.00353 0.00037403 0.00189289 -0.00196622
178 2 -0.889318 11.1692 11.0109 2.18288 -0.00204274 -0.000698443 -0.00330897
179 2 -0.918859 9.29285 12.8846 6.11615 0.00300108 0.0032723 0.00198425
180 2 -0.907136 11.1089 12.9405 7.78671 -0.00518761 0.00446117 0.00743886
181 2 -0.787064 13.1747 10.2758 5.8018 0.0057223 -0.00744695 -0.0047214
182 2 -0.984825 13.2034 11.5582 7.83913 0.000782468 0.00207173 -0.00155575
183 2 -0.891779 12.7666 12.8994 2.45992 -0.00205613 -0.00431302 0.00713549
184 2 -0.968445 11.0442 12.7825 14.5752 0.00501598 -0.00508987 -0.000825334
185 2 -0.930855 13.0191 11.2957 14.5929 0.00118874 -0.00216814 0.00247025
186 2 -0.90761 9.56607 9.24272 9.77389 -0.00334371 -0.0061262 -0.00203203
187 2 -0.93923 9.65838 11.1226 11.3573 0.000100797 -0.00135455 0.00336883
188 2 -0.963072 11.6099 9.42578 11.253 0.00906547 0.000384966 0.00491701
189 2 -0.920868 11.2453 11.0629 9.41379 0.00416035 1.78655e-05 -0.00105501
190 2 -0.944461 9.0444 12.8652 13.0872 0.00272448 -0.00253028 -0.00213128
191 2 -0.90193 13.2376 9.14889 13.3372 -0.00312915 0.000763109 -0.00259162
192 2 -0.931465 12.7334 13.2077 9.64024 0.00627633 0.00741065 0.000214138
193 2 -0.615158 14.0215 10.34 10.3442 0.00489462 0.00150355 0.00398449
194 2 -0.583302 12.2792 8.81924 8.2475 -0.0101 -0.00539223 0.00658136
195 2 -0.642734 1.83065 4.7218 1.89705 0.00442932 0.00305823 0.00065645
196 2 -0.604084 12.0144 15.7157 15.5532 -0.00127226 -0.00280793 -0.000994841
197 2 -0.596515 15.4196 1.78523 4.82105 0.00270344 -0.00106519 0.00242251
198 2 -0.65891 12.3036 11.8752 12.2196 0.00692363 -0.00347577 0.000233684
199 2 -0.622489 6.67218 6.80323 7.04314 0.00468502 0.00632746 -0.007469
200 2 -0.704949 10.5431 6.88433 3.55899 -0.000415336 -0.00355883 0.00437228
201 2 -0.646317 11.9511 4.95903 5.11317 -0.00183867 0.00301296 0.00225377
202 2 -0.544197 10.4713 6.81856 10.4626 0.00683682 -0.00527278 -0.000124862
203 3 0.436061 13.4959 11.0379 10.7448 -0.0031453 -0.00384904 0.00529214
204 3 0.411792 14.9218 10.6319 10.4998 0.00882437 -0.0479844 -0.00399276
205 3 0.415934 12.1592 9.76055 8.26217 0.0299858 0.000583425 0.0246436
206 3 0.441983 13.1949 8.66911 8.48258 -0.0034985 0.0030417 -0.00153048
207 3 0.419547 15.2105 5.15759 2.42784 0.00420796 0.00369192 0.0154991
208 3 0.410877 15.3641 3.99656 15.5102 -0.0187377 -0.00426361 0.00750492
209 3 0.418116 11.6644 15.5418 2.38197 0.00577366 -0.00613246 0.0243264
210 3 0.413884 11.8917 2.58008 15.4461 0.0226895 -0.00043272 0.00544071
211 3 0.444586 15.4213 1.721 3.82719 0.00502781 -0.0123937 0.0278995
212 3 0.447665 1.89039 2.48199 5.14636 0.00692047 -0.0031647 0.0254603
213 3 0.411572 12.073 12.7748 12.0101 -0.00768433 -0.00417151 -0.00340783
214 3 0.428546 11.8704 11.7159 13.0395 -0.0233766 -0.0106722 0.00945187
215 3 0.405612 6.79069 6.97601 7.95979 -0.00107547 0.00233542 0.010568
216 3 0.410317 7.55926 6.67933 6.64878 -0.0442721 -0.0221228 0.0303792
217 3 0.430438 10.7065 5.92625 3.87269 -0.00645169 -0.00668041 -0.00149471
218 3 0.518797 12.649 10.0748 5.02584 0.0148706 0.0138615 0.011343
219 3 0.420152 11.9646 5.24974 6.06358 -0.0126915 0.00901139 0.00246182
220 3 0.398687 11.8855 4.02023 5.17777 -0.0172161 0.0410653 -0.0297954
221 3 0.411594 10.485 6.46011 11.3927 0.0242147 0.0183332 -0.00230329
222 3 0.407071 10.5866 7.81466 10.6613 0.0153189 -0.0116712 0.00495785
ITEM: TIMESTEP
14000
ITEM: NUMBER OF ATOMS
222
ITEM: BOX BOUNDS pp pp pp
1.5367419414849959e+00 1.5623258058515036e+01
1.5367419414849959e+00 1.5623258058515036e+01
1.5367419414849959e+00 1.5623258058515036e+01
ITEM: ATOMS id type q x y z vx vy vz
1 1 1.72088 15.525 15.4291 15.4111 0.00185965 0.00151328 0.000692595
2 1 1.51844 3.36565 3.518 3.08892 -0.0019699 -0.000283671 0.00229754
3 1 1.67876 1.57345 5.03512 5.22613 -0.00520688 -0.00478986 -0.00369179
4 1 1.93508 3.34294 6.76322 6.89934 -0.00112832 0.00303423 0.000169291
5 1 1.8313 4.94946 1.7625 5.00297 0.00277252 -0.00395842 0.00334505
6 1 1.72043 6.73222 3.24853 6.92365 0.000819818 0.000578967 0.00149004
7 1 1.91027 5.05234 5.41395 15.505 -0.0041207 0.00484258 -0.0019655
8 1 1.71044 6.75392 6.95981 3.40214 0.0102656 -0.0059522 0.00433892
9 1 1.83426 1.62509 15.5251 8.59545 0.00329068 -0.000598075 -0.00258164
10 1 1.79613 3.42965 3.11505 10.3473 0.00305961 -0.00318889 0.0071438
11 1 1.84346 15.6193 4.82307 12.0614 -0.000935757 -0.00176689 0.00484436
12 1 1.93356 3.31699 6.74935 13.4667 -0.00610782 0.00234844 -0.000142791
13 1 1.98458 5.16988 1.58786 12.2517 0.00572695 -0.000964256 -0.00035896
14 1 1.82919 6.7568 3.5059 13.9479 -0.00269518 5.46343e-05 -0.000494719
15 1 1.82073 5.11694 5.06429 8.68621 0.00585166 0.000391261 -0.00356626
16 1 1.70919 6.93705 6.80407 10.3336 -0.00404884 -0.00223681 -0.00381824
17 1 1.76734 1.70103 8.38373 15.399 0.00536553 -0.00199752 -0.00264631
18 1 1.82719 3.31741 10.163 3.25675 0.0038649 0.00329132 0.000952429
19 1 1.83345 1.72113 12.0428 4.96383 -0.00191328 -0.00266567 -0.0021791
20 1 1.83822 3.32159 13.8601 6.67897 -0.00418403 0.00128405 0.00341053
21 1 1.8701 4.9687 8.66173 5.23915 -0.00163215 -0.00240507 0.00210974
22 1 1.85835 6.72068 10.5206 6.92582 4.24994e-05 -0.00115734 0.000999018
23 1 1.85608 5.0778 12.1376 1.66099 -0.00755842 0.00164308 0.00334323
24 1 1.9861 6.6948 13.9701 3.40328 0.00121836 -0.00119976 -0.00242354
25 1 1.90032 1.61508 8.55376 8.6493 -0.00168158 0.00298499 0.000763331
26 1 1.76424 3.40974 10.4035 10.3101 -0.00167011 0.00336989 -0.00255685
27 1 1.77153 1.5969 12.1302 12.165 -0.00353281 -0.000249613 -0.000353271
28 1 1.83969 3.49331 13.7774 13.8393 -0.00650702 -0.000716607 0.00426327
29 1 1.85665 5.11414 8.6586 12.0534 -0.00113609 0.00165477 -0.00409184
30 1 1.88304 6.7827 10.3412 13.9585 0.00160996 -0.00195546 -0.00250765
31 1 1.92665 5.09008 12.39 8.60752 -0.00117041 0.00339132 0.000981408
32 1 1.91858 6.8605 13.901 10.4402 -0.00194438 -0.00280426 0.000297
33 1 1.80814 8.40985 1.64497 1.63964 -0.00397329 0.00032765 -0.00252776
34 1 1.67672 10.3549 3.27435 3.36698 0.00679388 0.00333038 0.000287847
35 1 1.81387 8.47839 4.97567 5.04669 -0.0029393 -0.00321299 0.00175581
36 1 1.74667 10.1742 6.68859 6.91781 -0.00368087 -0.000294054 -0.000123291
37 1 1.69886 12.059 15.5393 5.16859 -5.55915e-05 -0.0035843 -0.00312759
38 1 1.72802 13.8857 3.22602 6.94419 -0.0021315 -0.00440643 0.00164611
39 1 1.80633 12.2281 4.86993 15.6148 0.00357937 0.00273116 0.00423519
40 1 1.62382 14.0509 6.65313 3.17513 0.0024127 -0.00161141 -0.00375674
41 1 1.69725 8.6213 15.5813 8.58246 0.00628167 0.000963306 -0.0021969
42 1 1.78444 10.3014 3.3438 10.3269 -0.00392754 0.00348072 0.000858911
43 1 1.75309 8.65267 5.12253 12.2061 0.00307652 -0.00256629 -0.00259648
44 1 1.79436 10.4862 6.81908 13.9933 0.00620817 0.0024435 0.0045967
45 1 1.76379 11.873 15.4748 11.9994 0.000881746 -0.000409494 -0.00082349
46 1 1.83694 13.8018 3.08135 13.7162 -0.00135197 -0.0028664 -0.00110449
47 1 1.85666 12.1383 5.0706 8.67374 -0.000165554 0.00242156 0.00120244
48 1 1.90122 13.9291 6.79801 10.3845 -0.00171741 0.000691176 -0.00112848
49 1 1.8552 8.5978 8.55698 1.55703 -0.00120558 -0.000322681 -0.0045792
50 1 1.73709 10.1632 10.3339 3.40792 0.000142179 -0.000329953 -0.000673627
51 1 1.91539 8.47484 12.1833 5.08347 -0.00120309 -0.00135823 -0.00350565
52 1 1.84813 10.3169 13.8095 6.8664 0.00137789 0.00012852 -0.00348367
53 1 1.50608 11.5156 7.76036 4.43402 -0.00194541 0.000958668 -0.000336669
54 1 1.73709 14.1144 10.4891 6.78782 -0.00274701 -0.00188501 0.000930256
55 1 1.72004 12.0035 12.0279 1.67199 -0.00179147 -0.000260522 -0.00175371
56 1 1.61762 13.8602 13.7579 3.37366 -0.000393724 0.00103477 -0.000454884
57 1 1.82809 8.56599 8.77318 8.56775 -0.0017446 -0.000479499 -0.00244941
58 1 1.72945 10.3948 10.3387 10.4631 0.00219122 -0.00217408 -5.13376e-05
59 1 1.89745 8.51908 12.013 12.185 -0.000906065 0.00417889 0.00091909
60 1 1.75161 10.132 13.8489 13.9723 0.0048205 0.000435829 0.00133778
61 1 1.7956 12.2485 8.54976 12.2305 0.000919009 -0.000391079 -3.85193e-06
62 1 1.75546 13.9367 10.3684 14.0085 -0.00252665 0.00666235 -0.00206953
63 1 1.75547 12.1105 12.0001 8.57156 -0.00412158 0.00168989 0.000265146
64 1 1.78482 13.8639 13.8084 10.3473 -0.000229215 0.000777202 -0.00187782
65 2 -0.815486 2.00218 2.29884 2.34785 -0.000817314 -0.00080485 0.000304432
66 2 -0.860055 2.64104 14.6665 14.78 0.00223855 0.00282171 -0.00603031
67 2 -0.965973 14.811 2.12673 14.2668 0.00196685 -7.02912e-05 -0.00333535
68 2 -0.903294 14.6894 14.5248 2.23515 -0.00123648 0.00091208 0.00471452
69 2 -0.829194 2.67581 4.20226 4.35486 0.00632535 -0.000569177 -0.00577565
70 2 -0.862163 4.0272 2.41827 3.9454 0.00190747 -0.00110476 -0.00273854
71 2 -0.904616 4.36618 4.41045 2.37654 0.00196134 0.00996774 0.00254263
72 2 -0.927065 2.25277 5.94109 6.24047 -0.00550537 0.00208302 -0.00336425
73 2 -0.937805 14.7424 3.99684 5.87605 0.00224264 -0.00492414 -0.00560516
74 2 -0.926464 14.6716 5.84893 4.34164 0.00436225 -0.00210116 -0.000536434
75 2 -0.933514 3.99958 5.71534 7.80141 0.00384136 0.00789027 -0.00247969
76 2 -1.01059 4.25461 7.53854 5.96904 0.000461306 0.00247577 -0.00177592
77 2 -0.936885 2.56723 7.7419 7.77154 -0.000827862 0.00356096 -0.0040527
78 2 -0.898769 5.6855 2.79109 5.85059 0.00822948 -0.00543921 -0.00371172
79 2 -0.8884 4.12664 14.9979 5.99175 0.000265667 0.00193408 -0.00147601
80 2 -0.975126 5.95121 14.9018 4.33858 0.00586197 0.0027779 -0.00366924
81 2 -0.949293 6.08653 4.13111 8.00245 0.00438906 0.00390106 0.00309586
82 2 -0.912222 7.75089 4.0544 6.00583 0.00407723 0.00379545 0.00290457
83 2 -0.845115 7.47656 2.06032 7.63288 0.0042386 -0.00161555 0.00362465
84 2 -0.883827 5.71799 6.41116 2.36014 -0.00311044 0.00395586 -0.0032822
85 2 -1.00197 4.17945 6.16671 14.5164 0.000275617 0.0027629 -0.000734375
86 2 -0.954756 6.07948 4.66572 14.6902 0.000708766 0.0042544 0.00223836
87 2 -0.887845 6.00714 8.03327 4.20416 -0.00358941 0.00593455 -0.00614227
88 2 -0.923087 7.40433 5.88155 4.36935 -0.000536247 0.00122723 -0.000452406
89 2 -0.861442 7.85581 7.5919 2.46444 0.00548866 -0.00197082 0.00434759
90 2 -0.907857 2.77792 2.20158 9.2836 -0.001805 -0.000861248 -0.00218754
91 2 -0.917945 2.22475 14.5145 7.54398 -0.0088236 0.00233193 -0.000714108
92 2 -0.905348 14.802 2.46232 8.00508 -0.00123177 0.000965262 0.00122524
93 2 -0.898764 14.8569 14.7545 9.62192 -0.00830674 -0.000804503 0.00607085
94 2 -0.858374 2.28604 3.84394 11.1451 -0.0056152 0.00865595 0.0071905
95 2 -0.947543 4.09802 2.25123 11.4317 -0.00396762 0.00158077 -0.00468338
96 2 -0.85504 4.4544 4.12384 9.74702 0.000249724 -0.00477416 -0.000114993
97 2 -0.952048 2.65524 5.62175 12.6672 0.00104127 -0.00550357 0.00604724
98 2 -0.953219 14.6094 4.19114 13.0278 -0.00108857 -0.00376032 0.00212066
99 2 -0.884916 14.8831 5.77642 11.0402 0.00102812 0.00157266 0.000833304
100 2 -0.963757 2.33307 7.6656 14.1986 -0.00251485 -5.60927e-05 0.00112326
101 2 -0.933739 4.13928 7.59159 12.4437 0.0076565 -0.00497656 0.000660422
102 2 -0.980802 5.8241 2.68064 13.0411 0.00158538 -0.000738882 0.000709043
103 2 -0.978522 4.52388 14.6567 13.166 -0.00280445 -0.00620877 0.00346613
104 2 -0.986257 6.16505 14.8442 11.4212 0.000399756 0.00414343 0.000729594
105 2 -0.921903 7.45526 2.62471 15.0266 -0.00251398 -0.00115265 0.0089168
106 2 -0.877531 7.90913 4.07493 13.0414 0.00245937 0.00448871 0.000305442
107 2 -0.873012 5.78111 6.0868 9.59744 0.00115064 0.000793955 0.00616133
108 2 -0.83326 6.20952 7.80596 11.3334 0.00548551 -0.00693177 -0.00390189
109 2 -0.887992 7.71204 5.75594 11.1639 -0.00426129 -0.00305132 -0.00648647
110 2 -0.876313 7.85078 7.64932 9.32852 0.00774894 -0.00217094 0.00263095
111 2 -0.865037 2.72842 9.27872 2.06694 0.00100338 0.00337332 -0.000816919
112 2 -0.894318 15.1759 7.28998 2.21089 0.00472244 0.000701663 -0.00599861
113 2 -0.868466 14.7833 9.48915 15.0095 0.00779596 0.00081879 0.00109147
114 2 -0.914349 2.24438 10.9654 4.03719 0.00114288 0.00524939 0.00226317
115 2 -0.942607 3.99386 9.33176 4.32558 -0.00143456 -1.78288e-05 0.00120091
116 2 -0.897393 4.2813 11.1955 2.70968 0.00168801 0.00393121 -0.00307159
117 2 -0.923382 2.79594 12.9775 5.51591 0.00265532 -0.00104729 -0.00513994
118 2 -0.915985 15.1806 11.3127 6.20418 0.000304571 -0.00639043 -0.00290232
119 2 -0.900608 14.6503 12.779 4.26538 0.00358223 0.0038212 -4.76795e-05
120 2 -0.96821 4.34342 13.1272 7.55956 -0.00880459 0.00350114 0.00126979
121 2 -0.912514 5.59703 9.76354 6.12795 -0.00319526 -0.00620897 0.00609997
122 2 -0.968726 6.10197 11.5959 7.78188 -0.00282257 0.00103322 -0.00579984
123 2 -0.942024 7.77728 11.1395 5.9502 0.00450423 -0.00631719 0.00270118
124 2 -0.949643 7.47565 9.56042 7.83867 -0.00326913 -0.00354517 0.00289266
125 2 -0.964961 5.90486 13.2119 2.34791 0.0051829 0.00547535 0.0042885
126 2 -0.974827 4.11428 12.7792 14.8193 0.00667598 0.00235529 -0.004789
127 2 -0.930287 6.13182 11.3022 14.9224 0.001938 -0.0138846 0.00862522
128 2 -0.947669 7.67446 14.8126 2.66191 -0.000917746 -0.00325759 -0.00129013
129 2 -0.954317 7.42363 12.9232 4.23395 -0.00270256 0.00813534 0.00472781
130 2 -0.96198 2.45358 9.43079 9.57296 0.00199788 0.00326191 -0.00398895
131 2 -0.994277 14.7642 7.64334 9.40004 -0.00149661 0.00563974 0.00408627
132 2 -0.939267 14.8287 9.43442 7.71337 -0.00611287 -0.000485203 0.00236263
133 2 -0.944327 2.46576 11.2028 11.3186 -0.00195417 -0.00239456 0.00264107
134 2 -0.926466 4.48338 9.54515 10.962 -0.00475638 -0.00131378 -0.00540653
135 2 -0.88989 4.02168 11.4585 9.33366 -0.00555562 -0.00284224 0.00639207
136 2 -0.914911 2.42148 13.1964 12.8258 0.000448543 -0.00430623 -0.000362062
137 2 -0.90824 14.9662 11.1108 13.1369 0.00465555 0.00026293 -0.000334409
138 2 -0.936174 14.6133 12.92 11.3645 -0.000881078 -0.0021466 0.00951954
139 2 -0.941032 5.70845 9.50593 13.1666 0.00519988 -0.00455989 0.00375782
140 2 -0.920001 7.55464 9.30108 14.7694 -0.00265807 0.00136963 -0.0010622
141 2 -0.99785 7.72231 11.0074 12.9401 0.00423405 -0.00442259 0.00317095
142 2 -1 5.7307 13.188 9.6901 -0.00137648 0.000783343 -0.00476939
143 2 -0.911634 7.94486 14.5493 9.55325 0.00822082 -0.00511892 -0.0005389
144 2 -0.947194 7.64241 12.8475 11.1557 -0.0023179 -0.000692986 -0.00358162
145 2 -0.919065 9.56036 2.30083 2.38267 -0.00243986 0.00323981 -0.00182242
146 2 -0.886222 9.13264 14.7583 14.7068 -0.000292891 0.000200492 -0.00322019
147 2 -0.953822 9.45243 4.39989 4.0413 0.000184039 0.00392451 -0.000589663
148 2 -0.940214 11.1102 2.40937 4.40393 0.00324887 0.00297421 0.00242824
149 2 -0.930969 11.3909 3.93851 2.43286 -0.00575452 -0.00210436 0.00094012
150 2 -0.962276 9.185 5.91752 6.01184 0.00235395 -0.00452734 -0.0078504
151 2 -0.898177 10.989 5.77988 7.85119 0.00310275 -0.00907659 -0.000647078
152 2 -0.84695 11.1287 7.33357 5.87123 2.47638e-05 0.00236854 -0.000773614
153 2 -0.907731 9.34993 7.86725 7.58612 0.00161601 0.00340538 -0.00897349
154 2 -0.914137 12.8827 2.40988 6.14969 0.00238676 -0.00113906 -0.0032797
155 2 -0.901798 11.3783 14.412 5.96028 0.00102506 -0.00220687 0.00273711
156 2 -0.871542 13.0318 14.8752 4.10912 -0.00234717 -0.00328889 -0.000918793
157 2 -0.913289 13.0312 4.30588 7.71591 0.00538239 0.00317016 0.00899043
158 2 -0.935764 13.3113 5.79072 2.11096 -0.00132954 0.00359171 0.00340465
159 2 -0.8902 11.2869 5.63551 14.6721 -0.00397226 0.00123674 -0.00263975
160 2 -0.933435 12.9936 3.81369 14.8204 -0.00795033 0.0053591 -0.00542232
161 2 -0.852217 12.9576 7.60844 3.77733 -0.00418188 0.00205687 -0.00191207
162 2 -0.852459 9.29782 2.71848 9.31708 -0.00666147 -0.00212784 -0.00320992
163 2 -0.902897 9.73043 14.9203 7.73808 -0.00368732 -0.000288314 0.00511189
164 2 -0.891349 9.66429 4.3539 11.3125 0.00318444 -0.00409022 -0.00100934
165 2 -0.875302 10.886 2.06725 11.0087 0.0024348 -0.00601226 0.00815587
166 2 -0.905205 11.4234 4.04557 9.56985 -0.00543826 0.00115556 0.0025007
167 2 -0.913056 9.35893 6.15418 13.1789 0.00244429 -0.000416386 0.00123705
168 2 -0.924646 9.73137 7.79488 14.9074 0.00366092 -0.0062138 0.0053626
169 2 -0.963542 11.4189 7.50781 13.0008 -0.00202003 0.00528972 0.00424973
170 2 -0.889807 12.7995 2.44905 12.7095 0.00106842 -0.000180827 -0.00594067
171 2 -0.938271 11.0509 14.542 12.9096 -0.00301859 0.00252747 0.00358096
172 2 -0.909396 12.8231 14.5412 11.2392 -0.0101422 -0.00252148 -0.00239239
173 2 -0.95941 12.9118 6.08089 9.54022 -0.00277951 -0.00420074 -0.00665705
174 2 -0.939669 13.2878 7.61668 11.4797 -0.00269811 0.000297701 -0.00317941
175 2 -0.897012 9.11014 9.58897 2.54938 0.00391525 0.00254715 -0.00325126
176 2 -0.930223 9.45339 11.4587 4.20772 -0.000905585 0.000117559 -0.00441538
177 2 -0.806683 11.0347 9.25697 4.21758 -0.0021023 0.00381823 0.00668833
178 2 -0.867995 11.184 10.9477 2.41644 -0.00161552 0.00104014 0.00233812
179 2 -0.937766 9.26373 13.2227 5.91469 0.00724789 0.00537734 8.18667e-05
180 2 -0.880072 11.0192 12.788 7.78941 -0.00512234 0.000256674 -0.00829835
181 2 -0.738683 13.4743 9.70906 5.61082 -0.00136536 0.00561683 0.00576442
182 2 -0.873493 12.9176 11.2739 7.48361 0.00215948 0.0030492 -0.00363811
183 2 -0.863923 12.6334 12.9993 2.66624 0.00193181 -0.00161238 -0.00412566
184 2 -0.877284 11.012 12.8634 14.8351 0.00112267 -0.00211535 0.00273912
185 2 -0.907485 13.0868 11.4155 14.8388 0.00827636 0.00296433 -0.00105784
186 2 -0.97693 9.44239 9.43417 9.61137 0.00130504 -0.00331501 0.00188279
187 2 -0.927928 9.64642 11.352 11.3705 0.00213249 0.000932548 -0.00470908
188 2 -0.960193 11.334 9.31213 11.2771 0.00357416 -0.00217038 -0.000915197
189 2 -0.953539 11.3359 11.0053 9.47743 -0.000454157 -0.00123779 -0.000637546
190 2 -0.933142 9.26962 12.8224 13.1853 -0.0015779 0.00231054 -0.000746113
191 2 -0.947416 12.9782 9.52955 13.1899 0.0004603 -0.00192357 0.0019097
192 2 -0.914388 13.0932 13.0219 9.25887 0.00436664 -0.0013845 -0.00383379
193 2 -0.640933 13.9946 10.2731 10.5947 0.00277671 0.000715019 0.0056872
194 2 -0.5878 12.1898 8.54438 8.32983 -0.00374031 -0.00449944 -0.00375123
195 2 -0.671104 1.95121 4.69531 1.72485 -0.00475341 0.00876841 -0.00296396
196 2 -0.655296 11.95 15.3205 15.6143 0.00486466 0.00700918 0.00331075
197 2 -0.556651 15.5589 1.64079 4.91956 0.00500963 -0.00755211 -0.000533208
198 2 -0.625557 12.2575 12.1366 12.3687 -0.00467067 -0.00243855 -0.00560325
199 2 -0.628113 6.70634 6.94538 6.9026 -0.00458753 -0.00183528 0.0133076
200 2 -0.671488 10.7367 6.8352 3.48911 0.0015703 -0.00213611 0.00718844
201 2 -0.668771 12.0169 4.80186 4.91128 -0.00103888 0.00114046 0.00583455
202 2 -0.578293 10.4571 6.8674 10.4833 -0.00373432 -0.00273425 0.00391577
203 3 0.415534 13.824 11.0529 11.1361 -0.0103593 0.0152307 0.00575287
204 3 0.408751 14.9594 10.2152 10.5696 0.00592145 -0.0384823 0.0134746
205 3 0.392519 11.9305 9.09371 9.09488 -0.0493453 0.00147505 -0.00411603
206 3 0.42284 13.1253 8.64331 8.34881 -0.00756037 0.0211967 -0.00881322
207 3 0.44155 15.4202 5.45053 1.59745 0.00933401 0.00301538 0.00280951
208 3 0.39272 15.5425 3.87789 15.652 0.0183896 0.00177206 0.0149128
209 3 0.45493 12.2556 14.8559 2.21926 0.00712713 -0.0264919 0.0100157
210 3 0.45196 11.4703 1.96096 1.82183 -0.0103868 0.021487 -0.0134887
211 3 0.418323 15.3901 15.6849 3.91763 0.000567541 -0.00204069 0.0214873
212 3 0.413307 1.85335 2.59848 5.09342 0.0411302 -0.0222628 0.0171249
213 3 0.435629 11.7781 12.9183 12.0024 0.0115261 -0.0209934 0.00558612
214 3 0.438494 12.0758 12.0753 13.2873 0.00466899 0.00983288 0.00613876
215 3 0.443956 7.60591 6.89046 7.14213 0.00429705 -0.0215141 -0.0106679
216 3 0.412734 6.54995 6.43547 6.10953 -0.00161887 0.00718249 0.0234952
217 3 0.43895 10.7061 5.89323 3.93525 -0.0297264 -0.01043 -0.0072723
218 3 0.491494 13.1172 9.31573 4.78208 -0.0166852 -0.0259102 -0.00110066
219 3 0.419006 12.952 5.12782 5.08219 0.00566001 -0.00161002 0.0302219
220 3 0.436435 11.8748 3.96152 5.37503 -0.00552542 -0.00851442 -0.0164434
221 3 0.419587 10.3043 6.80664 11.4112 -0.0113059 0.0234851 -0.00616303
222 3 0.410917 10.6475 7.80642 10.1989 -0.0231552 -0.00340006 0.00680652
ITEM: TIMESTEP
15000
ITEM: NUMBER OF ATOMS
222
ITEM: BOX BOUNDS pp pp pp
1.5369557377003140e+00 1.5623044262299690e+01
1.5369557377003140e+00 1.5623044262299690e+01
1.5369557377003140e+00 1.5623044262299690e+01
ITEM: ATOMS id type q x y z vx vy vz
1 1 1.68869 15.4025 15.5807 15.447 -0.00480009 -0.00246946 0.00237255
2 1 1.45785 3.30525 3.53486 3.14695 -0.00132961 -0.00163786 0.00137259
3 1 1.77764 15.6031 5.06414 5.14407 0.00469103 0.00144674 -0.00364091
4 1 1.84775 3.39944 6.6805 6.87048 0.00310527 -0.000835192 0.00331192
5 1 1.82848 5.13288 1.73076 5.00496 0.00406566 0.000724463 0.00284219
6 1 1.85208 6.75368 3.28504 7.00475 -0.00177647 0.000980656 0.00554037
7 1 1.82801 5.15678 5.20994 15.5555 -0.00175852 -0.00514333 0.00862945
8 1 1.76607 6.87622 6.89163 3.42008 -0.000778505 -0.00121732 -0.00229316
9 1 1.90036 1.67418 15.6156 8.52776 0.00181916 0.00222997 -3.67746e-05
10 1 1.83177 3.29837 3.17802 10.4305 0.000335261 -0.000586455 0.00135011
11 1 1.78729 1.58104 5.03605 12.0272 0.00368918 -0.000167322 -0.0101728
12 1 1.80003 3.3025 6.88517 13.8348 0.00255001 -0.000674919 -0.00439252
13 1 1.79559 4.99349 15.4579 12.2612 -0.00155112 0.000541232 0.00300904
14 1 1.79612 6.73248 3.26434 13.9072 -0.00474731 -0.00370596 0.000161093
15 1 1.77051 5.06984 5.03697 8.78601 0.00419605 0.00308649 0.00336406
16 1 1.83141 6.83039 6.74961 10.586 0.00211367 0.00305049 -0.000945852
17 1 1.76678 1.66981 8.59067 1.62245 -0.00285384 0.00552226 0.00466724
18 1 1.75189 3.46442 10.2647 3.36977 0.00133773 -0.00249886 -0.00154487
19 1 1.81801 1.77772 12.2249 4.90311 -0.0020426 0.00586254 -0.00343208
20 1 1.96604 3.39418 13.9824 6.69104 -0.00393243 -0.00515175 -0.00402618
21 1 1.82886 5.08721 8.54094 5.19205 -0.000435177 0.00254298 0.00181417
22 1 1.83642 6.83022 10.3511 6.92361 0.00144099 -0.00123186 -0.00285752
23 1 1.70634 5.15387 12.1531 1.59513 -0.00160207 -0.00172633 -0.00413364
24 1 1.88079 6.79755 13.9624 3.32387 0.000660319 -0.000135213 -0.00059489
25 1 1.79303 1.60655 8.54545 8.53565 0.00153368 0.00291685 0.00151206
26 1 1.71549 3.41803 10.2892 10.3401 0.00210023 -0.00465133 0.00344728
27 1 1.68799 1.57569 12.0721 12.194 -0.000732146 -0.0051078 0.00591562
28 1 1.87008 3.26759 13.8058 14.0388 -0.00251245 -0.00362234 0.00134221
29 1 1.79809 5.12638 8.64261 12.1851 0.00383859 -0.00278278 0.00201804
30 1 1.82914 6.90011 10.4451 13.8741 -0.00193052 -0.00209885 0.00293894
31 1 1.83114 5.00166 12.1541 8.56203 -0.00395048 0.000635879 -0.00302049
32 1 1.81543 6.79574 13.795 10.4019 0.00726591 0.00468689 0.00518734
33 1 1.86173 8.51062 15.519 15.5343 0.00492899 -0.000686768 0.0038915
34 1 1.68914 10.2734 3.23888 3.24058 -0.00163247 -0.00134891 -0.00349898
35 1 1.76507 8.41991 4.942 5.1417 0.00324435 0.00544571 0.000347149
36 1 1.70142 10.0642 6.68625 7.04155 -0.00119091 0.00109989 -0.00125544
37 1 1.70043 12.0508 15.5603 4.96206 -0.000624718 -0.00145899 0.00182344
38 1 1.75316 13.8484 3.15178 6.7614 0.00475881 0.00134473 -0.00136146
39 1 1.83127 12.1021 5.07747 1.67268 -0.00133498 0.000297284 0.00516402
40 1 1.64727 13.8583 6.96338 3.44794 0.00100969 0.00598108 0.000376794
41 1 1.84869 8.58661 15.4727 8.57951 0.00152013 -0.000730867 0.00111473
42 1 1.89579 10.3173 3.20803 10.2382 0.0033278 0.00205819 -0.00262529
43 1 1.79716 8.66217 4.85083 12.1681 0.00322573 -0.00331018 0.0011144
44 1 1.84936 10.3182 6.7433 13.9281 -0.00316483 -0.00336002 0.00582652
45 1 1.82063 12.1647 15.5904 11.9616 -0.00514427 0.0049762 0.00414034
46 1 1.73509 13.7567 3.44926 13.7788 -0.000665673 0.00154316 -0.00387851
47 1 1.79277 12.1342 4.9722 8.59021 -0.00017529 0.00206086 -0.005846
48 1 1.80066 13.9533 6.79229 10.3039 -0.00141412 -0.00353444 0.000677499
49 1 1.76812 8.61473 8.64124 15.5337 -0.0027403 -0.00128155 0.00141482
50 1 1.8455 10.2149 10.3764 3.29539 4.16516e-05 0.00344868 -0.0014411
51 1 1.80183 8.49069 12.0816 5.07178 0.0014751 -0.000582645 0.00105032
52 1 1.86278 10.3371 13.7585 6.76608 -0.00298867 -0.000982117 -0.00195569
53 1 1.65462 11.2795 7.82877 4.58372 -0.00279718 0.00464013 0.00311379
54 1 1.75042 14.2423 10.5958 6.75606 -0.000371495 0.00205513 0.00141128
55 1 1.75323 11.9812 12.0122 15.6058 -0.00056977 0.000294028 -0.00393052
56 1 1.69041 13.8297 13.7215 3.25982 0.00273643 -0.000813381 0.00376315
57 1 1.75798 8.50044 8.65749 8.85333 0.00625298 -0.00206901 -0.00480436
58 1 1.77124 10.536 10.2917 10.4926 5.79126e-05 -0.00388705 0.00274188
59 1 1.83022 8.60193 12.0478 12.0109 -0.00173472 0.00235131 0.00187472
60 1 1.73851 10.2926 13.821 13.7557 0.00189185 0.00209163 0.00116837
61 1 1.76986 12.205 8.456 12.2944 0.00323559 0.00234651 -0.000109568
62 1 1.82553 13.9832 10.3124 14.0272 0.00344055 9.01524e-05 0.0016996
63 1 1.75616 12.1888 12.0871 8.52657 0.00445111 0.00274944 0.00294819
64 1 1.80532 13.9779 13.8292 10.2281 0.00167184 0.00290833 0.00253447
65 2 -0.788907 1.98858 2.35326 2.50169 -0.00125736 0.000606322 -0.00186936
66 2 -0.906726 2.53066 14.951 14.7527 -0.00241451 0.00392918 -0.0031443
67 2 -0.955687 14.6558 2.4303 14.5091 -0.00364601 0.000542749 -0.00284746
68 2 -0.926598 14.5313 14.532 2.10705 0.00289648 -0.00125727 -0.00210441
69 2 -0.900102 2.56774 4.26974 4.3455 -0.00478666 -0.000486063 0.00191018
70 2 -0.805973 4.21307 2.50537 4.01642 0.00384121 -0.00237291 -0.00458557
71 2 -0.874587 4.35998 4.14377 2.14416 0.00152609 -0.00121256 -0.0050997
72 2 -0.928658 2.23475 6.0098 6.11797 0.00439268 -0.00804587 0.000292697
73 2 -0.946083 14.6935 4.04167 5.76763 -0.00205058 -0.00245642 0.000760245
74 2 -0.932604 14.6666 5.88362 4.1908 0.00170871 0.00144439 0.00313284
75 2 -0.931307 4.03464 5.73087 7.88151 0.0026487 -0.00445708 0.00171646
76 2 -0.947553 4.20431 7.4716 5.86744 0.000995875 -0.000374331 -0.00660487
77 2 -0.868858 2.67505 7.75169 7.78613 0.000961854 -0.000604458 0.00600726
78 2 -0.934289 5.89834 2.68081 5.88693 0.000215548 0.000190378 0.00518256
79 2 -0.952768 4.20445 15.0631 5.99281 -0.00359777 -0.00843715 -0.0018593
80 2 -0.944455 6.20026 14.9901 4.23457 0.00452165 0.0102933 -0.00078984
81 2 -0.950152 6.02846 3.98926 8.128 -0.00564025 -0.00247927 -0.00185474
82 2 -0.94242 7.78144 4.10023 6.23902 -0.0036144 0.000744843 0.000625714
83 2 -0.886079 7.63412 2.13332 7.66586 -0.00716926 -0.00219794 0.000407512
84 2 -0.85794 5.86667 6.03351 2.57491 -0.00235038 -0.00709963 -0.00178385
85 2 -0.904751 4.4346 6.18272 14.5997 -0.00334682 -0.00325683 -0.00419675
86 2 -0.874505 6.22976 4.5338 14.7015 -0.00320926 0.00031051 0.00142939
87 2 -0.986488 6.12228 7.94465 4.18988 -0.00423364 -0.000622125 0.00256672
88 2 -0.95622 7.47178 5.83607 4.3313 0.000338062 0.00224736 0.00173508
89 2 -0.831825 7.86854 7.56471 2.32425 0.00255378 0.000615888 -0.000825118
90 2 -0.949474 2.58089 2.49984 9.26093 -4.81997e-05 -0.00204114 -0.0087651
91 2 -0.987767 2.40925 14.6802 7.56393 -0.00187125 0.00164255 0.00661859
92 2 -0.883939 14.5767 2.17872 7.82408 -0.00456553 -0.00460604 -0.000885032
93 2 -0.901389 15.0402 14.6463 9.48053 -0.00235794 -0.00515274 0.00259473
94 2 -0.917729 2.24142 3.88476 11.2891 -0.00631116 0.00745569 0.00227615
95 2 -0.867574 4.03894 2.02261 11.2338 0.00522689 -0.00270118 -0.00180355
96 2 -0.878044 4.28258 4.15604 9.81625 -0.00318148 0.00409785 0.00170847
97 2 -0.867455 2.6929 5.85577 12.8148 -0.0013079 0.00113507 -0.00495706
98 2 -0.912171 14.5763 4.42306 12.943 0.00253991 0.00210422 -0.00153735
99 2 -0.919231 15.0121 5.97865 10.9821 -0.00562588 0.000926155 -0.00354014
100 2 -0.916569 2.20119 7.46996 14.7441 9.34578e-05 0.000665935 -0.00493289
101 2 -0.902986 4.05283 7.9696 13.0574 0.00607304 0.00446886 -0.00609254
102 2 -0.909022 5.65398 2.50334 13.1126 -0.00838137 -0.000398525 -0.00363104
103 2 -0.969751 4.26971 14.4257 13.124 0.00424601 0.00238856 -0.00356695
104 2 -0.88004 6.05647 14.7876 11.3098 7.89127e-06 0.00913153 -0.00173633
105 2 -0.890004 7.35235 2.25398 14.9037 0.00110721 -0.00431015 -0.00532191
106 2 -0.888432 7.8163 3.74684 12.9683 -0.00119081 0.00326071 0.000961627
107 2 -0.890119 5.7379 6.12965 9.70328 -0.00889261 0.00475661 -0.00307573
108 2 -0.885271 6.14755 7.54637 11.6696 -0.00129731 0.00431728 -0.00435392
109 2 -0.911644 7.75313 5.7103 11.1972 0.00461453 -0.0012627 0.00421398
110 2 -0.919101 7.55226 7.82346 9.71116 -0.00843425 0.00319174 0.00224664
111 2 -0.909209 2.78525 9.27951 2.38789 -0.0014891 0.00383394 -0.00107993
112 2 -0.861472 14.6846 8.05749 2.70585 0.000848872 -0.00217255 0.00188432
113 2 -0.945239 15.0258 9.59563 14.8516 -0.00215641 -0.00811093 0.00275467
114 2 -0.912447 2.31032 11.1989 3.88492 0.00418013 -0.00326216 -0.00168945
115 2 -0.907953 4.16693 9.49359 4.51043 0.00217696 0.00943132 -0.0020691
116 2 -0.819736 4.59954 11.0615 2.67104 0.00307839 -0.00794297 0.00167199
117 2 -0.946717 2.85016 13.0446 5.60821 0.000453478 -0.00715996 -0.0067617
118 2 -0.88572 15.2642 11.5296 6.15299 0.00463395 -0.00611208 0.00190797
119 2 -0.938297 14.6868 13.0088 4.28366 0.00138406 -0.00176481 -0.0025187
120 2 -0.916563 4.31886 13.1064 7.5383 0.000864773 -0.00131846 0.00611431
121 2 -0.903735 5.70439 9.48794 6.28154 0.00516303 0.00305553 0.00116394
122 2 -0.886751 6.03452 11.3431 7.75118 0.000471129 -0.00360479 0.00445407
123 2 -0.954283 7.78351 11.1259 6.04705 -0.00774369 0.00249328 -0.00207684
124 2 -0.902245 7.72348 9.6678 7.99528 0.00919272 0.00662226 -0.00670182
125 2 -0.919358 5.76695 13.2792 2.36803 0.00093172 0.000116696 0.00034241
126 2 -0.921268 3.8766 12.7785 14.9628 -0.000262639 -0.00366826 0.00276742
127 2 -0.915108 6.26875 11.3514 14.925 -0.00170826 -0.00312325 0.00142598
128 2 -0.959991 7.87991 14.5825 2.44209 0.000400561 0.00162317 -0.00230529
129 2 -0.886846 7.40621 12.8838 4.2384 0.00192421 -0.00241846 -0.00366493
130 2 -0.894841 2.32746 9.38733 9.65473 0.00292648 -0.00349034 0.00348559
131 2 -0.936819 14.6146 7.63807 9.19151 -0.00595508 -0.00128393 0.000121015
132 2 -0.934512 14.829 9.41368 7.63094 -0.00340688 -0.00298551 -0.0016599
133 2 -0.839971 2.71684 11.2858 11.4093 0.000911359 0.000143747 -0.000915555
134 2 -0.877034 4.41832 9.30909 10.9787 -0.00688422 0.00444173 0.00313177
135 2 -0.911811 4.07652 11.1362 9.27021 0.00544628 -0.00510911 0.000119257
136 2 -0.907865 2.21523 13.0772 13.147 -0.00415315 0.000103887 -0.00185773
137 2 -0.941799 14.7954 11.012 12.8956 0.00283326 -0.00509868 0.00090782
138 2 -0.896338 14.8147 12.7736 11.0461 0.00870815 -0.00390773 0.00210401
139 2 -0.89988 5.8191 9.76334 12.9717 -8.12022e-05 0.000972381 -0.00173389
140 2 -0.87461 7.57151 9.25232 14.5159 -0.0015554 -0.00260195 -0.00289046
141 2 -0.91662 8.03382 11.0839 13.0624 0.000978331 0.00578347 -0.00462862
142 2 -0.893676 5.67948 13.1114 9.55147 -0.00514505 -0.00517555 0.000785219
143 2 -0.941034 7.84679 14.5322 9.51438 0.0028844 0.0050519 -0.0032018
144 2 -0.929741 7.42181 12.6599 11.2083 -0.00387828 0.000324339 -0.00275264
145 2 -0.866293 9.45267 2.48451 2.07798 -0.00209404 -0.00107123 -0.00363946
146 2 -0.921126 9.33362 14.7233 14.53 -0.00175367 -0.00476417 -0.00266646
147 2 -0.819251 9.19146 4.0618 4.03736 0.0025634 0.000970024 0.00130482
148 2 -0.943526 10.9409 2.31295 4.2488 -0.00270426 0.00215096 0.00373985
149 2 -0.999595 11.3493 4.18782 2.66633 -0.00705595 -0.000195243 -0.00216669
150 2 -0.906838 9.34465 5.89405 5.92776 0.00429019 0.00373799 0.00239898
151 2 -0.924282 11.1403 5.86883 7.83376 0.00718816 0.00594647 -0.00265791
152 2 -0.815565 10.7563 7.65012 6.01211 -0.00141922 -0.00337329 0.00156906
153 2 -0.929412 9.09835 7.62821 7.86791 0.00128119 -0.00200966 0.00177976
154 2 -0.946362 12.9072 2.38516 5.86863 0.00727304 0.00136012 -0.000156961
155 2 -0.86421 11.3286 14.4546 5.81899 -0.00112937 -0.00911465 -0.00192056
156 2 -0.901339 13.0441 14.8581 3.94909 0.00128433 -0.00241834 0.000621854
157 2 -0.924307 13.1025 4.19002 7.60807 0.000701865 -0.000910615 -0.000641952
158 2 -0.900184 13.0544 6.04581 2.38349 -0.00324277 -0.00259715 0.00158491
159 2 -0.928687 11.1232 5.75001 14.7809 0.00318251 -0.0022366 0.00780118
160 2 -0.972671 13.0279 4.19563 14.9429 0.0042315 -0.00209407 -0.00321394
161 2 -0.891934 12.7924 7.66258 4.34704 0.00158278 0.00119723 0.000565803
162 2 -0.924739 9.26501 2.50746 9.40339 -0.00403811 0.0034047 0.000979018
163 2 -0.907539 9.73511 14.7296 7.78119 -0.00367642 -0.000240271 0.00282339
164 2 -0.91888 9.67603 4.10006 11.3263 -0.00162259 0.00223702 0.00224642
165 2 -0.901971 11.1672 2.18367 10.9912 -0.00150438 -0.00163451 0.00390335
166 2 -0.942715 11.1884 4.02523 9.28434 0.00271777 -0.00416772 0.00143529
167 2 -0.911975 9.39127 5.87418 13.0717 0.00117491 -0.00207442 -0.00524442
168 2 -0.901277 9.72663 7.89033 14.8103 0.00195121 -0.000702 -0.00558417
169 2 -0.926351 11.2586 7.4842 12.9753 0.00329411 -0.00265731 -0.00127108
170 2 -0.877203 12.8568 2.64507 12.6879 -0.000790343 0.00225275 0.00211797
171 2 -0.919184 11.3081 14.5437 12.7625 -0.00071186 -0.00508048 0.000186829
172 2 -0.932177 13.096 14.7571 11.1094 -9.75796e-05 -0.00274346 0.00346483
173 2 -0.938962 13.0022 5.80441 9.57396 0.00244978 0.00165928 -0.00281773
174 2 -0.945608 13.0764 7.58317 11.352 -0.000301257 0.00629479 0.00156582
175 2 -0.924893 9.19117 9.75908 2.32334 0.00692093 -0.000734696 0.00651258
176 2 -0.930983 9.56482 11.4512 4.14997 -0.00349718 -0.00253827 -0.00377913
177 2 -0.876772 10.824 9.26824 4.20363 -0.00469733 0.00522009 0.00399376
178 2 -0.918742 11.276 10.9739 2.40405 0.00567759 0.00275043 -0.00062522
179 2 -0.910454 9.26347 13.1447 5.90556 0.00240178 0.00724522 0.000277739
180 2 -0.888937 11.165 12.7256 7.56898 -0.00113515 0.00461342 -0.00219764
181 2 -0.787088 13.5734 10.0083 5.53525 0.00268061 -0.00101845 0.00317641
182 2 -0.918543 13.2968 11.4116 7.68665 -0.00203948 -0.00112208 0.00683371
183 2 -0.898974 12.644 12.9835 2.47997 -0.00211696 0.00542488 0.00230651
184 2 -0.939524 10.9741 12.6883 14.5911 -0.00185682 0.000976825 0.00200883
185 2 -0.938477 13.1303 11.3099 14.7793 0.00353198 -0.00188222 -0.0034029
186 2 -0.917519 9.44335 9.39834 9.88923 -0.00328559 -0.00270403 -0.00313511
187 2 -0.915647 9.70688 11.3504 11.1996 -0.00294771 0.000412564 -0.00347844
188 2 -0.940019 11.3151 9.48461 11.5316 0.00523764 0.000901658 0.00074633
189 2 -0.918383 11.4116 11.0104 9.34864 -0.00737722 0.00164289 -0.00264725
190 2 -0.891589 9.29003 13.1513 12.782 0.00165789 0.00319063 -0.0051875
191 2 -0.891037 12.9501 9.34567 13.3557 -0.00573708 -0.00128652 0.000523221
192 2 -0.923703 12.8863 13.1672 9.41867 0.00172151 0.00487909 0.000310584
193 2 -0.591022 13.8992 10.1535 10.4516 -0.00237163 -0.00415412 -0.00757411
194 2 -0.609812 12.2679 8.77218 8.07354 -0.00204736 -0.00153519 -0.000345011
195 2 -0.650587 1.92205 4.7568 1.81931 -0.00905611 -0.00952487 -0.00682072
196 2 -0.631826 12.0589 1.54426 15.442 -0.00426844 -0.000977845 -0.00592313
197 2 -0.56938 15.5098 15.5981 4.77163 -0.00429141 0.00520803 -0.000862068
198 2 -0.664561 12.2678 12.1087 12.1311 0.000955192 0.00195607 -0.0026758
199 2 -0.644659 6.52983 6.80564 6.94575 0.00684002 0.00393132 0.00278166
200 2 -0.747841 10.5959 6.78131 3.69995 -0.00476339 -0.00232875 0.00467901
201 2 -0.647107 11.8118 4.861 5.17698 -0.00410566 0.00231059 -0.00270292
202 2 -0.594553 10.4319 6.87598 10.3614 -0.00510613 0.0028053 -0.00254476
203 3 0.418744 13.5309 10.8929 11.0568 0.0108015 -0.0166388 -0.00189179
204 3 0.394757 14.895 10.2243 10.6456 0.0136454 0.0222035 -0.00757228
205 3 0.432134 12.3729 9.68662 8.34305 0.0236953 0.022213 0.0256024
206 3 0.449822 13.1293 8.37303 8.02194 0.0073945 0.00804182 0.0431574
207 3 0.399894 15.374 5.19381 2.39888 -0.00974566 0.0273869 -0.00898541
208 3 0.391446 1.34712 4.05732 15.4733 0.000902046 -0.0182184 -0.00141302
209 3 0.429856 12.2446 15.0513 2.04769 0.00365919 -0.0212384 -0.0151925
210 3 0.389393 12.2162 2.44069 1.69946 0.00997186 -0.00950969 -0.0149424
211 3 0.406008 15.1925 15.5364 3.84049 -0.00691372 -0.00489989 0.0143775
212 3 0.414166 2.01663 2.30003 4.71978 -0.0159774 0.0306419 -0.000411808
213 3 0.435013 11.9819 12.9173 11.7857 -0.00541036 0.00521168 -0.00405462
214 3 0.425322 12.0104 12.1405 13.0452 -0.00418776 -0.0149322 0.0162092
215 3 0.412869 7.15718 7.11417 7.63425 0.00409929 0.0163801 0.0220272
216 3 0.394286 6.84934 6.81336 6.05211 0.0103235 0.0170656 -0.00759089
217 3 0.468483 10.918 5.90001 3.81139 -0.00436822 -0.00771094 -0.00643858
218 3 0.505126 13.3892 9.84268 4.61678 -0.0174408 0.0282033 0.0193189
219 3 0.405965 12.3915 5.02848 5.98772 0.00551923 -0.00173338 0.0314134
220 3 0.419614 11.992 3.96312 4.92534 0.00127955 -0.0223575 -0.00241201
221 3 0.425291 11.3414 6.63821 10.2687 0.0196335 0.0132204 -0.00306109
222 3 0.414783 10.2921 7.77293 10.72 0.0152908 0.00467488 -0.0172499
ITEM: TIMESTEP
16000
ITEM: NUMBER OF ATOMS
222
ITEM: BOX BOUNDS pp pp pp
1.5323506761563124e+00 1.5627649323843695e+01
1.5323506761563124e+00 1.5627649323843695e+01
1.5323506761563124e+00 1.5627649323843695e+01
ITEM: ATOMS id type q x y z vx vy vz
1 1 1.72404 15.5199 15.3988 15.5765 -0.000276562 0.00158593 -0.00319303
2 1 1.49259 3.25904 3.5516 3.21674 -0.00616847 0.00399467 -0.00361541
3 1 1.7144 15.5287 5.12106 5.13732 0.00112359 -0.00379572 -0.00592346
4 1 1.79682 3.25864 6.77825 6.85248 -0.000841795 -0.000287393 0.00242296
5 1 1.76977 5.1182 1.82053 5.01078 0.00352588 -0.00277997 0.000831744
6 1 1.83058 6.85077 3.34917 6.99648 0.00552973 0.00127393 0.000751049
7 1 1.86565 5.04738 5.25445 15.6068 0.00213991 1.20771e-06 -4.22244e-05
8 1 1.89006 6.82643 6.86468 3.33654 0.00279224 -0.00191571 0.00238346
9 1 1.83242 1.62039 15.3827 8.49187 -0.00269951 0.00274471 0.000750506
10 1 1.7926 3.35533 3.08931 10.3261 -0.00355035 -0.00183842 -0.000591589
11 1 1.86017 1.66921 4.96107 12.0227 0.006064 -0.00169818 -0.00126444
12 1 1.87109 3.3116 6.8721 13.7617 -0.00431817 -0.00786494 0.00285571
13 1 1.8039 5.07252 1.53766 12.2328 0.00455104 0.00492113 0.000538108
14 1 1.79628 6.73288 3.46775 13.9355 -0.00155466 0.00201333 0.00335594
15 1 1.75902 4.97473 5.09548 8.6603 -0.00195183 -0.000493084 0.00235841
16 1 1.77022 6.79668 6.78436 10.355 -0.00258907 0.0043587 -0.00326414
17 1 1.68997 1.63793 8.5966 15.5941 0.000500667 0.00282786 0.00313593
18 1 1.84417 3.39028 10.3486 3.31862 -0.00260064 0.00181312 0.00526449
19 1 1.85363 1.67177 12.1441 4.96398 0.0124181 -0.00308704 -0.00118211
20 1 1.80586 3.4749 13.9013 6.6278 0.0007785 -0.00477613 0.00279147
21 1 1.86706 5.04329 8.53298 5.13263 -3.11135e-05 0.00264108 -0.00140387
22 1 1.92396 6.827 10.3207 6.78025 -0.000392316 0.000310105 0.000346974
23 1 1.78795 5.24405 12.1206 1.60813 0.00596707 0.00155642 0.00205219
24 1 1.96443 6.89191 14.0787 3.35841 0.000771744 -0.00213549 0.00204851
25 1 1.78038 1.56262 8.60445 8.67368 0.0038859 0.00142864 -0.00359601
26 1 1.75561 3.35014 10.5016 10.322 -0.00283312 0.000423119 0.000388067
27 1 1.77202 1.72254 12.1725 12.3019 -0.00646387 0.00185263 0.00106571
28 1 1.82039 3.49776 13.8477 14.0553 -0.000436134 -0.00034597 -0.000236011
29 1 1.82043 5.06877 8.63202 12.0483 -0.00577694 -0.00189933 0.00471392
30 1 1.86839 6.81904 10.2121 13.8624 0.000988748 0.00148152 0.0053771
31 1 1.84581 5.10815 12.1579 8.48653 -0.00216522 -0.00209561 0.000240664
32 1 1.88075 6.70615 13.8721 10.4063 -0.000472529 -0.000722122 0.00164199
33 1 1.9167 8.52609 1.62129 15.5857 -0.00291223 0.000352142 0.00113651
34 1 1.74479 10.3209 3.2334 3.26042 -0.000277749 -0.00298699 0.00341328
35 1 1.76566 8.57028 4.95047 5.04635 0.00110526 0.00503697 0.00168274
36 1 1.68483 10.309 6.61242 7.02934 -0.00167612 0.00327547 0.00193181
37 1 1.74809 12.0914 15.4884 5.10851 -0.0028999 -0.00434977 0.00243575
38 1 1.80891 13.9434 3.1024 6.82514 0.000190284 0.00559972 0.00153487
39 1 1.86975 12.2068 4.90937 15.5601 -0.00449528 0.00202575 8.33407e-05
40 1 1.65364 13.8049 6.87226 3.23216 0.00125421 -0.00174623 0.00197197
41 1 1.86474 8.54581 15.5347 8.67565 -0.000881264 -9.74855e-05 0.00126283
42 1 1.95454 10.2987 3.17958 10.3673 8.44464e-05 -0.00558287 -0.000855628
43 1 1.75103 8.63705 5.01774 12.1382 0.00530486 0.00134985 -0.00220366
44 1 1.85422 10.4703 6.73253 13.878 0.000119937 0.00387346 -0.00126486
45 1 1.74785 12.0686 15.5182 12.0684 0.000504663 -0.00335046 -0.00260141
46 1 1.78228 13.9356 3.21034 13.7108 0.00570011 -0.00499423 -0.000309473
47 1 1.75584 12.1939 4.81918 8.69407 0.000475434 -0.00400446 0.00151389
48 1 1.80226 13.9101 6.78517 10.3567 -0.000613183 -0.00097248 -0.00187207
49 1 1.83198 8.65228 8.4532 15.5604 0.00793813 8.9935e-05 0.0015718
50 1 1.8877 10.1639 10.3168 3.26999 0.00466185 0.000920301 -0.00338515
51 1 1.77452 8.48843 12.2011 5.09275 0.00100058 -0.00202821 0.00349149
52 1 1.82607 10.3323 13.8618 6.94393 -0.0105187 -0.00109031 -0.000161113
53 1 1.59765 11.2472 7.85673 4.46297 0.00287001 0.00125822 0.0016254
54 1 1.66317 14.0981 10.5983 6.90709 -0.000284303 0.0015072 -0.00126573
55 1 1.79465 11.9118 11.9777 15.5623 0.00422432 0.00339196 0.0018863
56 1 1.76804 13.7838 13.6915 3.29663 -0.00152664 0.00214936 -0.00228583
57 1 1.77478 8.56139 8.61803 8.62003 0.00320294 -0.00344252 -0.00431406
58 1 1.75232 10.3149 10.356 10.4231 -0.000894224 0.0033235 -0.00164527
59 1 1.8238 8.34693 12.0611 12.0998 -0.00396778 -0.00246526 -6.25574e-05
60 1 1.86619 10.1221 13.8157 13.8215 -0.0020525 -0.00111987 0.00591717
61 1 1.82744 12.1587 8.60052 12.1553 0.0012093 -0.00047222 -0.00666553
62 1 1.81443 13.9444 10.3769 13.9248 0.00322188 0.00385896 -0.00123748
63 1 1.83764 12.0971 12.093 8.67523 -0.00414056 -0.00184425 0.002969
64 1 1.87426 13.9986 13.8063 10.4593 0.000507697 -0.00140007 -0.00246331
65 2 -0.800489 1.77787 2.37144 2.48933 0.00268238 0.00715996 0.00395119
66 2 -0.930503 2.69594 14.7937 14.9998 -0.000904907 -0.00348616 -0.00677529
67 2 -0.94927 14.6615 2.14174 14.5484 0.00712429 -0.0031322 0.00209876
68 2 -0.965599 14.7493 14.3891 2.33849 0.00362672 -0.00184891 0.00665353
69 2 -0.833879 2.56516 4.47012 4.30516 0.00223785 0.0066205 -0.00506036
70 2 -0.835396 4.08345 2.4848 4.02621 -0.00137257 -0.00147018 -0.00890904
71 2 -0.863723 4.31933 4.11757 2.30307 -0.00285931 -0.0010023 -0.00202763
72 2 -0.884697 2.20993 6.12266 5.99557 0.00304217 -0.00467002 -0.00144583
73 2 -0.941163 14.9211 3.90789 5.88755 -0.00422779 0.00175957 -0.00233107
74 2 -0.850149 14.4912 5.96376 4.25525 0.00351323 0.00268733 0.00213091
75 2 -0.925333 4.02894 5.63024 7.63346 -0.00179674 -0.004177 -0.00251264
76 2 -0.890459 4.11786 7.4603 5.80455 -0.00114595 0.000320395 0.00280047
77 2 -0.914555 2.58365 7.81103 7.84356 0.00362435 0.00337968 0.00171663
78 2 -0.876589 5.82656 2.76405 6.01208 -0.00444639 0.00670288 0.00438281
79 2 -0.87078 4.45828 14.9184 6.01566 -0.00453004 -0.010967 0.00140105
80 2 -0.941355 6.12772 15.0934 4.20067 0.000739036 -0.00994443 -0.00723503
81 2 -0.896316 6.20886 4.40063 7.90839 -0.000785382 0.00246744 0.00200184
82 2 -0.877138 7.75863 3.941 5.85709 -0.00394772 -0.0062348 2.24794e-05
83 2 -0.946691 7.58228 2.3217 7.80172 0.00239076 0.00494925 -0.00497124
84 2 -0.946612 5.89423 5.9826 2.57853 -0.00122225 -0.000819506 0.00214375
85 2 -0.944657 4.17452 6.2611 14.8879 0.000554866 0.00411095 -0.0085156
86 2 -0.925527 5.86956 4.63632 14.5047 -0.00351245 0.00163592 0.0010293
87 2 -0.928673 5.93639 7.83923 4.12858 0.00125447 -0.00535872 -0.00606645
88 2 -0.903347 7.64926 6.04198 4.39866 0.00601791 0.00316598 -0.00288
89 2 -0.896256 7.86622 7.4164 2.38232 -0.000474005 0.00215605 -0.00394501
90 2 -0.854325 2.56652 2.3241 9.20532 -0.00321264 0.000666818 -0.000210653
91 2 -0.947663 2.52233 14.5084 7.69238 -0.00228242 0.0015304 -0.00867458
92 2 -0.946089 14.6356 2.00624 7.64338 0.00534024 0.00161712 0.000858051
93 2 -0.920783 15.0445 14.5933 9.64549 -0.00106463 -0.00228367 0.00081592
94 2 -0.93069 2.36974 4.02328 11.0289 -0.00178604 0.00221006 0.00369154
95 2 -0.911716 3.9043 2.16725 11.432 0.00121334 -0.000751912 -0.000534606
96 2 -0.896006 4.37116 3.94396 9.51071 -0.0059942 -0.00631956 0.00274836
97 2 -0.945002 2.58421 5.78529 12.9487 -0.00135286 0.00152694 -0.000938172
98 2 -0.958306 14.9103 4.04627 12.8772 0.0038208 -0.00467804 -0.000931235
99 2 -0.923607 14.8421 5.96854 11.2543 -0.00855514 0.000280598 -0.00321186
100 2 -0.898347 2.25695 7.77925 14.4082 -0.00296564 0.00479974 0.00121117
101 2 -0.95275 4.07624 7.72306 12.7545 0.0067214 0.00523494 0.000535392
102 2 -0.89688 5.8171 2.61692 13.0012 0.0033865 -0.00375929 0.00125276
103 2 -0.886415 4.6385 14.5578 13.292 0.00459047 -0.00125278 0.000352856
104 2 -0.904183 6.03034 15.0226 11.2063 -0.00178735 -0.00211442 0.00488929
105 2 -0.907034 7.42423 2.48175 14.9697 0.00246175 0.00861618 0.000800598
106 2 -0.901094 7.807 4.10924 13.0914 -0.00425596 -0.00152205 -0.00198607
107 2 -0.951841 5.67782 6.22333 9.45372 -0.00107719 -0.00935466 -0.00349488
108 2 -0.891324 6.19171 7.73381 11.3666 -0.00200587 0.00248181 -0.0024795
109 2 -0.845147 7.56406 5.65262 11.1366 0.00531476 -0.00464148 0.00721185
110 2 -0.937649 7.631 7.69305 9.42039 0.00346331 -0.00392207 0.00534396
111 2 -0.865285 2.63146 9.43705 2.32861 -0.0046173 0.000624151 -0.0046105
112 2 -0.830275 14.9914 7.62025 2.53577 0.00428526 0.000176969 -0.00305181
113 2 -0.874838 14.6567 9.60494 14.9802 0.00482892 -0.00146469 0.00259197
114 2 -0.947796 2.30677 11.1204 4.05884 -0.00691623 -0.00229159 -0.00334993
115 2 -0.863451 4.05247 9.29603 4.24187 0.00748504 -0.00639503 0.000539241
116 2 -0.894138 4.47608 11.2421 2.67684 0.000598088 0.00196196 0.002006
117 2 -0.893441 2.8495 12.9158 5.56241 -0.00532334 0.0070325 -0.00811562
118 2 -0.846536 15.3183 11.3763 6.22626 -0.0063514 0.00351293 -0.0050616
119 2 -0.96647 14.6562 12.9695 4.35575 -0.00353507 9.26254e-05 -0.00328241
120 2 -0.884079 4.44004 13.0475 7.44909 0.00671441 0.00165576 0.0036707
121 2 -0.9754 5.80752 9.5926 5.97883 -0.00220981 -0.0083905 0.00311951
122 2 -0.947078 6.12691 11.1651 7.86439 0.00109238 0.00400041 -0.00262386
123 2 -0.914284 7.57479 11.147 5.72075 -0.00339388 0.00224787 0.00055256
124 2 -0.951825 7.78708 9.43885 7.56291 -0.00457128 -0.00423286 -0.000613616
125 2 -0.901063 6.02778 13.2558 2.38116 -0.00138259 -0.00590094 -0.00508615
126 2 -0.940636 4.14923 12.7565 14.8376 -0.00204227 -0.00311169 -0.00245827
127 2 -0.899336 6.18059 11.2335 14.8454 0.0017417 0.00528062 -0.00739077
128 2 -0.991625 7.89332 14.7813 2.50704 0.00402029 0.0041436 0.00015408
129 2 -0.93745 7.51444 13.0424 4.25309 0.00414911 -0.00239233 0.000553713
130 2 -0.925079 2.23267 9.59498 9.69475 0.0017507 0.00182293 0.00232664
131 2 -0.961727 14.6876 7.5965 9.29856 0.00195576 -0.00644786 0.00632232
132 2 -0.903692 14.7081 9.43759 7.78528 0.00280706 -0.00562011 -0.00370674
133 2 -0.927167 2.66594 11.3808 11.3623 0.000777127 -0.00675793 0.000577139
134 2 -0.895381 4.37352 9.51563 10.9888 -0.000550306 -0.00554422 0.00146847
135 2 -0.899394 3.99011 11.3884 9.2148 0.00297442 0.00986579 0.00306483
136 2 -0.914292 2.55732 13.2441 12.9813 0.00320208 -0.00208608 0.000733384
137 2 -0.947516 15.0906 11.1257 13.2026 0.00135418 -0.000799345 -0.00128779
138 2 -0.965877 14.7178 12.9325 11.4755 -0.00106052 3.7669e-05 0.00778542
139 2 -0.935294 5.67914 9.59364 13.0636 -0.00320025 -0.000681417 0.00593926
140 2 -0.901682 7.54799 9.12571 14.7157 -0.00608857 -0.00440811 -0.00217853
141 2 -0.944591 7.79491 10.8812 12.9481 -0.00296271 -0.00156636 -0.00563975
142 2 -0.945354 5.74085 13.1204 9.52051 -0.00535324 0.00199928 0.00351175
143 2 -0.935798 7.84888 14.4881 9.58209 -0.0017816 0.00119442 0.00209414
144 2 -0.96157 7.31107 12.9082 11.4317 -0.00513436 0.00188429 0.000386631
145 2 -0.929543 9.34598 2.67326 2.27312 -0.000576904 -0.00660494 0.000205286
146 2 -0.948018 9.35644 14.8966 14.6066 0.00348326 0.000300457 0.00347098
147 2 -0.974382 9.53015 4.19652 4.18084 0.00477587 0.00578001 0.00357863
148 2 -0.89497 11.1834 2.16172 4.06018 0.00626943 -0.00244702 -0.00498199
149 2 -0.920695 11.4352 4.06051 2.47619 0.00191291 -0.00219046 -0.00115911
150 2 -0.927288 9.31267 5.63879 6.24316 0.00155872 0.0018862 -0.00708399
151 2 -0.90486 11.4286 5.81344 7.74165 -0.00162826 -0.00010363 -0.00210695
152 2 -0.903323 11.0922 7.35908 5.92612 0.00212934 -0.00124147 -0.000809822
153 2 -0.913019 9.51008 7.57962 7.93737 0.00140982 0.00180253 0.00550751
154 2 -0.958364 12.8939 2.43352 5.93321 -0.00231105 0.00137652 -0.00168165
155 2 -0.936616 11.1557 14.5521 5.81161 0.00124057 0.00223232 0.00078867
156 2 -0.912196 13.0629 14.7938 4.08565 0.00599261 -0.00228365 -0.00281579
157 2 -0.936539 13.1283 4.08278 7.68728 0.00582099 0.000747095 0.00651654
158 2 -0.924519 13.1483 5.82793 2.22139 -0.0032498 -0.00145828 0.00383447
159 2 -0.952399 11.1652 5.63194 14.6917 -0.00386636 0.000857493 -0.00565373
160 2 -0.974268 13.2087 4.10121 14.7395 -0.00216388 0.00454265 -0.00617001
161 2 -0.849676 12.7096 7.8037 3.87271 -0.00360379 -0.00319317 0.00241962
162 2 -0.968739 9.25164 2.38634 9.65009 0.00570057 0.00123183 -0.000702783
163 2 -0.939817 9.62109 14.9236 7.78117 -0.00311505 -0.00146751 7.99199e-05
164 2 -0.929445 9.67738 4.20014 11.3112 -0.00698377 0.00219291 -0.00234525
165 2 -0.950329 11.2164 2.22548 11.1147 0.00214304 0.00511721 -0.00378303
166 2 -0.965091 11.2407 3.89748 9.38688 -0.001519 -0.00280118 0.00259543
167 2 -0.867507 9.33073 6.15167 12.9536 0.00343282 0.00198922 0.000758698
168 2 -0.935337 9.71066 7.68244 14.7728 -0.00363414 -0.00201081 -0.00215124
169 2 -0.910857 11.4781 7.57535 13.0938 0.00524863 -0.0037213 0.00420981
170 2 -0.917715 12.797 2.38495 13.0526 0.00169389 0.00121967 0.00257973
171 2 -0.953235 11.0847 14.4909 12.8248 -0.00555982 0.00200658 -0.000493165
172 2 -0.957183 13.2092 14.7305 11.3169 -0.00565028 -0.000565837 0.0021611
173 2 -0.920306 12.9693 5.76659 9.73313 0.00211806 0.0075725 0.000413162
174 2 -0.934784 12.9312 7.72574 11.1667 -0.00275904 -0.00756884 0.0017477
175 2 -0.94305 9.17149 9.53806 2.43058 -0.00249627 0.00141072 0.00395098
176 2 -0.890057 9.51094 11.4415 4.11953 -0.000162155 0.00709168 0.0022456
177 2 -0.942262 10.789 9.27225 4.16442 0.000651967 -0.00130028 -0.000885127
178 2 -0.93504 11.1796 10.8968 2.31617 -0.00557795 0.00500693 0.00235368
179 2 -0.883606 9.20211 13.0207 6.23225 0.00234273 0.000222335 0.00347637
180 2 -0.951336 11.1826 13.0017 7.86367 -0.00746574 0.00910922 -0.00375322
181 2 -0.790801 13.332 9.92961 5.77275 0.00320055 -0.00910069 -0.00229438
182 2 -0.949688 13.0745 11.4332 7.68426 -0.00751822 0.00347549 -0.00253943
183 2 -0.872283 12.6786 12.8864 2.49755 -0.00115413 -0.0040043 0.00445729
184 2 -0.954939 10.9753 12.8654 14.6916 0.00174358 0.000944475 0.00108432
185 2 -0.954717 12.9076 11.328 14.6263 -0.00286678 0.00718516 0.00348833
186 2 -0.923716 9.25231 9.56213 9.63623 -0.00187801 0.00925534 0.00207799
187 2 -0.868204 9.46679 11.4318 11.2072 0.00385826 0.00260999 -0.00452278
188 2 -0.937418 11.0199 9.33075 11.3835 -0.00606026 0.000222107 0.00303991
189 2 -0.971477 11.2496 11.0741 9.40046 0.000328357 0.000242117 0.00161994
190 2 -0.911666 9.04696 13.0162 13.1308 0.00371844 -0.00181981 -0.00490334
191 2 -0.939291 13.0488 9.43093 13.0939 0.0010747 0.00698963 0.00620682
192 2 -0.974236 12.9971 12.9828 9.64563 -0.00122557 -0.000786105 -0.000197985
193 2 -0.625281 13.802 10.4603 10.4845 0.000583083 -0.00756767 -0.0083014
194 2 -0.609677 12.2221 8.5841 8.54418 -0.00324704 0.00168295 -0.0026894
195 2 -0.639779 1.8149 4.75009 1.96683 -0.00252285 0.00412364 0.00107564
196 2 -0.609688 12.0656 15.3199 15.6761 0.00678318 0.00381699 0.00276679
197 2 -0.584576 1.79611 15.718 4.90731 0.00186292 0.00510758 0.00238872
198 2 -0.628874 11.9679 12.2522 12.055 0.00170408 -0.00529487 -0.00340626
199 2 -0.60047 6.86901 7.03894 6.77526 -0.00681018 0.00408874 -0.00239513
200 2 -0.707162 10.5647 6.80496 3.55008 0.00266311 -0.0020946 -0.00448551
201 2 -0.631094 12.2256 4.84574 5.00069 0.000705429 -0.000878753 0.00563487
202 2 -0.57634 10.363 6.85844 10.4307 0.000858442 0.000123164 -0.00866703
203 3 0.410993 13.6174 11.3279 10.8537 0.00167149 0.0167208 0.00695998
204 3 0.40154 14.7523 10.3757 10.6579 0.00222309 0.028427 0.0118249
205 3 0.419203 12.2439 9.53609 8.43138 0.0304001 -0.0176013 -0.00188628
206 3 0.437065 13.0825 8.29256 8.17206 -0.029619 -0.0155837 -0.00407667
207 3 0.422334 15.1508 5.37784 2.08901 -0.00179412 0.00540174 0.023735
208 3 0.407052 15.45 4.03552 15.5823 0.00135601 -0.0161022 -0.0194839
209 3 0.438652 12.2979 15.6777 2.41202 0.00959096 0.0119816 0.00842064
210 3 0.414771 12.6171 1.60593 14.9896 2.38952e-05 0.015832 0.00777616
211 3 0.441527 1.43419 15.6893 3.94339 -0.0202237 -0.0230156 -0.0136021
212 3 0.415604 2.07415 2.56131 5.11545 -0.0227619 0.0196349 -0.0198437
213 3 0.417091 11.9066 13.1366 11.7249 -0.00175912 -0.00703111 -0.0175523
214 3 0.406098 12.0787 12.3529 13.0434 0.00452626 0.0190557 -0.00821024
215 3 0.404471 6.64297 7.01568 7.75848 -0.0136215 0.0199387 0.0220591
216 3 0.426607 7.62218 6.46466 6.64508 -0.0315884 -0.029557 0.00656384
217 3 0.422717 10.7291 5.90635 3.90872 0.0134887 0.0180662 0.0159116
218 3 0.508233 12.9128 9.61947 5.00676 0.0349918 -0.00131377 -0.0139839
219 3 0.413965 12.2527 5.2707 5.90053 -0.0276583 0.00123916 0.000881794
220 3 0.415046 11.8884 3.97432 5.0926 -0.00776853 -0.00533151 -0.0013262
221 3 0.435059 11.3283 6.84253 10.2005 0.00373165 -0.00318908 -0.00937782
222 3 0.424946 10.1628 7.7895 10.4025 0.0246362 0.00888591 0.0100915
ITEM: TIMESTEP
17000
ITEM: NUMBER OF ATOMS
222
ITEM: BOX BOUNDS pp pp pp
1.5386493245285502e+00 1.5621350675471451e+01
1.5386493245285502e+00 1.5621350675471451e+01
1.5386493245285502e+00 1.5621350675471451e+01
ITEM: ATOMS id type q x y z vx vy vz
1 1 1.78817 15.4682 15.3938 15.3334 -0.00373918 0.000299641 0.00285365
2 1 1.47078 3.24173 3.55046 3.15181 -0.00265888 -0.00202526 -0.000783013
3 1 1.72513 1.55061 5.12052 5.17886 -0.00383474 0.00470006 0.00364069
4 1 1.73394 3.42441 6.7633 6.89741 -0.000999917 0.00479667 0.000858117
5 1 1.89097 5.11335 1.78221 4.90106 -0.00341522 -0.00176082 -0.00230389
6 1 1.92502 6.7672 3.23851 6.89271 -0.00426826 -0.000253427 0.00717984
7 1 1.83817 5.11499 5.19157 15.5217 0.00770996 0.00448201 -0.0042222
8 1 1.79352 6.75879 6.89522 3.39906 -0.00332178 -0.00179062 -0.00362339
9 1 1.83572 1.57989 15.4918 8.47286 0.00222778 0.00243409 -0.00175758
10 1 1.90109 3.20946 3.13681 10.291 0.00121268 0.000212198 0.00281034
11 1 1.90703 1.65883 4.95426 12.0395 0.00467574 -0.00118263 -0.000259846
12 1 1.81326 3.30535 6.82379 13.7037 -0.00300326 -0.0041011 0.00228224
13 1 1.79164 5.11574 1.65614 12.1573 -0.00323896 0.00207448 -0.00357105
14 1 1.86579 6.87475 3.32387 13.976 -0.00282967 0.0046882 -0.00383498
15 1 1.77892 5.06594 4.91137 8.71079 0.00248797 0.00563605 -0.00187755
16 1 1.711 6.8674 6.65968 10.4839 -0.00289118 0.00670147 -0.00318982
17 1 1.7947 1.78246 8.5246 1.67367 -0.00177072 0.00318643 0.002753
18 1 1.85684 3.39555 10.3789 3.35452 -0.00200243 0.00195938 -0.00274854
19 1 1.91295 1.59369 12.1262 4.95469 0.000115681 -0.00445864 -0.00176267
20 1 1.80909 3.43645 13.9713 6.58459 0.00179433 0.00204786 0.00240034
21 1 1.7172 5.09222 8.66105 5.2096 0.00505094 0.00303534 0.00157988
22 1 1.86164 6.87794 10.4049 7.05321 0.00353608 0.000460699 0.00533363
23 1 1.82184 5.18429 12.256 1.67538 -0.00171248 0.00447942 3.34197e-05
24 1 1.83024 6.93528 13.9438 3.40595 -0.00176474 -0.00422248 0.00571197
25 1 1.77452 1.58103 8.47659 8.66872 0.0014044 -0.00123314 0.00251535
26 1 1.78158 3.42147 10.2915 10.3104 -0.00116115 7.32435e-05 0.00152231
27 1 1.73815 1.75881 11.9793 12.2473 -2.69582e-05 -0.00290969 -0.00515423
28 1 1.95278 3.4641 13.865 13.895 -0.00277342 -0.00103203 0.0019586
29 1 1.88316 5.19713 8.61663 12.1028 0.000380363 -0.00530522 0.000912975
30 1 1.95515 6.69356 10.41 13.9374 0.00210739 0.00417884 -0.00372475
31 1 1.99266 5.01398 12.2209 8.52021 -0.00284374 0.000157405 -0.00123521
32 1 1.84083 6.69092 13.8594 10.3249 -0.00202011 -0.00565366 -0.000273076
33 1 1.96202 8.53834 15.6023 1.56393 -0.00237203 0.000965554 -0.00332697
34 1 1.74507 10.2526 3.26625 3.29239 -9.45273e-05 -0.000686561 -0.00471567
35 1 1.64858 8.53516 5.05415 5.16549 -0.000117739 -0.00375103 0.00425177
36 1 1.66364 10.3178 6.81268 6.99192 0.00157611 -0.000326209 -0.00430066
37 1 1.73662 12.0935 15.4859 5.00759 -0.00154719 0.000389555 0.00372854
38 1 1.70568 13.811 3.16867 6.80007 0.000412357 -9.157e-05 0.000709972
39 1 1.74963 12.092 5.07796 15.6067 -0.00365121 -0.00194881 0.000723343
40 1 1.74335 13.9275 6.79498 3.25857 0.000955511 -0.000159689 -0.00369597
41 1 1.80369 8.54606 15.6053 8.60222 0.000948598 -0.00237582 -0.000662102
42 1 1.88631 10.343 3.14502 10.3794 -0.00233899 -0.00189569 0.00450826
43 1 1.84583 8.68865 4.91594 12.1941 0.00268569 0.00756767 0.00191539
44 1 1.86885 10.2625 6.85422 13.927 -0.00472849 -0.00033793 -0.000589172
45 1 1.71834 12.1509 15.4651 11.9954 0.00373482 -0.00854627 -0.00123809
46 1 1.68629 13.7702 3.35555 13.7383 0.00389792 0.00169195 0.00678714
47 1 1.73465 12.0744 4.85597 8.63568 0.00146655 -0.000959297 -0.00104495
48 1 1.79457 13.8371 6.72902 10.4585 -0.000189714 -0.00744117 -0.00202383
49 1 1.87257 8.43918 8.62018 15.5935 0.00083036 0.000358622 0.00350923
50 1 1.82443 10.2016 10.3237 3.25454 -0.00453672 -0.00152103 -0.00587822
51 1 1.86727 8.54366 12.0926 5.14279 -0.000219633 0.00257236 0.00116697
52 1 1.96482 10.3115 13.8814 6.81922 -0.000240668 5.56178e-05 0.00429624
53 1 1.61568 11.4051 7.86648 4.42175 0.00313103 0.00135811 -0.00266143
54 1 1.77958 14.1846 10.5874 7.03302 -0.00133317 0.00418313 5.938e-05
55 1 1.78974 11.9848 12.0068 15.5309 -0.00244663 0.00511681 -0.00442501
56 1 1.68855 13.8121 13.6945 3.21232 0.00064387 -0.00390531 0.00362763
57 1 1.70947 8.54542 8.59585 8.82785 -0.00425416 -1.88656e-05 0.00572749
58 1 1.76944 10.3851 10.4061 10.5132 0.00125347 0.00437312 0.00211389
59 1 1.87558 8.38402 12.042 12.0923 0.00312527 -0.0003054 -0.00203529
60 1 1.81506 10.2101 13.8373 13.8079 0.00208377 0.000428329 -0.00281027
61 1 1.75078 12.1887 8.60908 12.25 0.00187252 0.00100473 -0.000505424
62 1 1.80679 14.0122 10.234 13.9935 0.00161205 -0.00159235 -0.00236738
63 1 1.84609 12.0271 12.1425 8.5862 0.000885905 -0.00386173 0.00531963
64 1 1.75159 14.0414 13.7287 10.3019 0.00421677 0.0011204 -0.000495453
65 2 -0.8108 1.96598 2.2703 2.26303 0.00384064 -0.000655692 0.00165484
66 2 -1.02659 2.43557 14.76 14.4755 0.00584844 -0.000206504 -0.00793508
67 2 -0.932625 14.4793 2.26765 14.6019 0.00295184 -0.000632695 0.0022622
68 2 -0.950968 14.6438 14.3647 2.08646 0.0048004 0.00352965 0.00180841
69 2 -0.882168 2.63383 4.39803 4.30921 -0.00209073 0.00466053 0.00127471
70 2 -0.846166 4.09892 2.45074 4.01347 0.000461052 -0.00504916 0.000912822
71 2 -0.851535 4.33135 4.12909 2.23243 0.000930828 -0.00120904 -0.00296229
72 2 -0.844939 2.17607 6.21191 6.10128 0.000849882 0.00280612 0.00264171
73 2 -0.904866 14.8553 4.02274 5.89501 -0.00143422 0.00455941 0.00403454
74 2 -0.906945 14.6942 5.83063 4.21425 0.00369615 -0.00758415 0.00200285
75 2 -0.902075 4.00872 5.64971 7.79203 0.00507398 5.70663e-05 0.00648949
76 2 -0.886712 4.20676 7.59037 5.88009 -0.0031226 -0.00766693 0.00335443
77 2 -0.84983 2.70925 7.79914 7.84429 -0.00332656 -0.00328356 0.00648093
78 2 -0.954617 5.86403 2.86222 5.76954 -0.00480092 0.00989786 -0.00323038
79 2 -0.955511 4.35113 14.9906 5.88408 -0.00337277 -0.00258224 -0.0060705
80 2 -0.940909 6.16976 15.0348 4.24276 0.00548465 -0.00172087 -0.0062274
81 2 -0.953015 6.18888 4.10357 7.95393 -0.00139149 -0.00466013 -0.0039933
82 2 -0.894493 7.83108 4.03033 6.13415 0.00708091 -0.00286195 -0.00201665
83 2 -0.919389 7.49781 2.11711 7.62413 -0.00611841 -0.00672596 0.00014674
84 2 -0.898599 5.83179 6.03528 2.53871 0.00245277 0.0060401 0.00378522
85 2 -0.908998 4.36235 6.21317 14.6592 0.00583741 -0.00391386 -0.00243444
86 2 -0.948248 6.13242 4.44301 14.6709 0.00416602 0.006851 0.00169386
87 2 -0.883377 5.97515 8.06764 4.04384 -0.00167879 -0.00260387 0.000218048
88 2 -0.899757 7.5036 6.01099 4.44895 -4.80198e-06 -0.000482391 0.00204774
89 2 -0.877032 7.79615 7.55351 2.49937 -0.00294161 -0.00360848 0.00285051
90 2 -0.977483 2.61606 2.19626 9.267 -0.0078984 -0.00158633 0.010426
91 2 -0.880934 2.27932 14.6187 7.41123 -0.0071946 -0.00337829 -0.000254941
92 2 -0.913044 14.5489 2.2476 7.7819 -0.00589367 -0.00774561 0.00676892
93 2 -0.926504 15.0227 14.4834 9.43799 0.00378484 -0.00127981 0.0015886
94 2 -1.01518 2.28836 4.09162 10.9641 -0.00338809 -0.00184236 0.00417722
95 2 -0.914608 4.02854 2.41117 11.4342 0.00268217 -0.00131563 -7.86753e-05
96 2 -0.90467 4.30654 3.85398 9.46806 0.00296534 0.00195232 0.000526613
97 2 -0.964546 2.70048 5.72815 12.852 0.000764564 0.00116693 -0.00548213
98 2 -0.933052 14.9604 4.08643 13.0505 -0.00105308 0.00474111 -0.00419689
99 2 -0.945831 14.7194 5.90092 11.4051 0.00194326 0.00474985 -0.00598159
100 2 -0.89465 2.28159 7.63855 14.5713 0.00994267 -0.0021919 0.0042464
101 2 -0.893745 4.10206 7.84195 12.8039 0.00359333 0.00766615 -0.00531002
102 2 -0.872527 5.75532 2.70836 13.1206 -0.00141216 0.00435217 -0.00199685
103 2 -0.916787 4.5032 14.6679 13.1312 -0.0036054 0.00631454 -0.00134002
104 2 -0.910098 6.12436 14.987 11.2216 0.000743928 -0.0012999 -0.00717298
105 2 -0.987219 7.46491 2.26391 14.9126 -0.000942605 0.00404472 -0.00382277
106 2 -0.918755 8.00461 3.78339 13.0018 0.00148751 -0.00522989 0.00227976
107 2 -0.860279 5.6953 5.84247 9.7837 -0.00454615 -0.00184378 -0.00126746
108 2 -0.910714 6.25624 7.71178 11.5262 0.00482386 0.00628946 0.00371432
109 2 -0.904785 7.86804 5.64399 11.1773 0.00523573 -0.00286089 0.0020034
110 2 -0.914926 7.56843 7.5264 9.44538 0.00360125 0.00130972 0.000747886
111 2 -0.941987 2.8317 9.33039 2.41845 -0.000640001 -0.00396312 0.00299164
112 2 -0.926777 15.032 7.69106 2.63135 0.000426304 -0.00121708 -0.00182621
113 2 -0.8583 14.8811 9.59712 15.0665 -0.00431857 -0.00119422 0.00932912
114 2 -1.00199 2.35408 11.2868 3.96831 0.000434429 -0.00588563 -0.000422557
115 2 -0.839189 4.13058 9.73933 4.55622 0.00479075 0.00510479 -0.000346433
116 2 -0.884541 4.50744 11.1087 2.51551 -0.00402134 -0.000499249 5.80994e-05
117 2 -0.858556 2.56998 13.1778 5.54471 -0.00124428 -0.00133886 0.00416682
118 2 -0.888729 15.2658 11.3858 6.24418 0.00321854 0.00868806 -0.00478381
119 2 -0.950274 14.5903 12.9 4.29656 1.69543e-05 0.00681455 -0.00532796
120 2 -0.946563 4.24904 12.954 7.41015 0.00483425 -0.00112223 0.00457417
121 2 -0.87069 5.81667 9.4734 6.32244 0.00110483 0.00423857 -0.00255801
122 2 -0.986431 6.11771 11.4195 7.9124 -0.00651552 0.0108668 -0.00311928
123 2 -0.929583 7.7321 11.0968 5.9967 0.00179337 0.00335411 -0.0101447
124 2 -0.957193 7.75641 9.49025 7.8857 -0.00401581 -0.0100593 -0.00372034
125 2 -0.930389 5.91202 13.3988 2.41593 0.00145607 0.00195025 -0.000471715
126 2 -0.953001 4.10295 13.0024 14.9458 0.00239363 -0.00127047 0.000973488
127 2 -0.959288 6.10043 11.5405 14.7585 -0.00814903 -0.00134325 0.00363759
128 2 -0.958812 8.05329 14.6284 2.6043 -0.00328726 -0.00208518 -0.00249197
129 2 -0.945361 7.50288 12.8109 4.29782 -0.00373843 -0.00166642 0.00420354
130 2 -0.891585 2.37134 9.3396 9.67837 -0.000678488 -0.000585 -0.00413425
131 2 -0.947753 14.6498 7.58871 9.46668 0.00181508 0.00800507 0.00110233
132 2 -0.959525 14.8547 9.50604 7.86776 0.000520006 -0.00399161 -0.00169276
133 2 -0.925844 2.55298 10.9898 11.341 0.0104707 -0.00174223 0.00136849
134 2 -0.904349 4.52034 9.40261 10.9703 -0.00343018 0.00204268 0.00349593
135 2 -0.936973 4.04977 11.2822 9.24311 0.0010956 -0.00364683 -0.00434403
136 2 -0.935491 2.7474 12.9321 12.8571 0.00617985 0.00169905 0.000389926
137 2 -0.92941 15.0176 11.0347 13.2169 -0.00612834 -0.000302072 -0.00287096
138 2 -0.912926 14.8402 12.7377 11.2651 -0.0047663 0.000661695 0.00396877
139 2 -0.938101 5.65239 9.62882 13.1773 0.000140192 -0.00287638 -0.00207685
140 2 -0.962566 7.37506 9.32599 14.8128 0.00316378 0.00127214 -0.00308319
141 2 -0.989774 7.62998 10.9891 12.9242 -0.000498053 0.0047367 0.00204003
142 2 -1.01661 5.66712 13.1866 9.44157 0.0038886 -0.00564855 -0.00550076
143 2 -0.882829 7.8119 14.5247 9.46888 0.000241794 -0.00180729 0.00068727
144 2 -0.933918 7.38728 12.7819 11.2404 0.000409467 -0.0039691 0.00149107
145 2 -0.943759 9.28931 2.58084 2.3653 -0.00444723 -0.00408745 0.0032323
146 2 -0.922803 9.53221 14.8499 14.7553 -0.00198766 0.00290648 0.000125358
147 2 -0.913302 9.55465 4.26127 4.28309 -0.00100497 0.00739523 -0.000587938
148 2 -0.898027 11.0173 2.21573 4.18197 -0.00978981 -0.000616781 0.00566353
149 2 -0.91533 11.3512 3.99791 2.45225 0.00176521 -0.00826687 -0.00153925
150 2 -0.914734 9.29431 6.03953 6.09757 -0.00450584 0.00301457 -0.00116889
151 2 -0.888919 11.1964 5.74486 7.68109 0.00056367 0.00215917 0.00732397
152 2 -0.825839 11.1014 7.70624 5.9488 0.00668026 -0.00353151 -0.00549451
153 2 -0.85054 9.56537 7.86683 7.88051 -0.00599847 -0.00838849 -0.00264991
154 2 -0.953262 12.8211 2.35365 5.9347 0.00637063 -0.00500595 -0.00607563
155 2 -0.923545 11.3722 14.401 5.92059 0.00221831 -0.00209352 0.000584115
156 2 -0.885073 12.9449 14.8399 3.87457 -0.00299402 -0.0064801 -0.004363
157 2 -0.899662 13.024 4.32705 7.55363 0.00268156 -0.00448338 0.00216332
158 2 -0.967602 13.1555 5.87685 2.23684 2.51665e-05 0.00809675 0.00613574
159 2 -0.883432 10.9406 5.76564 14.7721 -0.00187818 0.00717688 -0.00411834
160 2 -0.932612 12.8026 4.26641 14.5437 0.00123237 -0.00513804 6.82097e-05
161 2 -0.915586 12.8775 7.65642 3.96425 -0.00376008 0.000360416 0.00154903
162 2 -0.924607 9.22662 2.51532 9.57939 -0.000462908 0.00583144 -0.00122386
163 2 -0.913491 9.545 14.9966 7.59129 -0.00163982 6.81814e-05 0.00101772
164 2 -0.903158 9.79471 4.12487 11.4063 0.0023415 0.000928009 0.00433513
165 2 -0.893474 11.292 2.05132 10.9243 -0.00714662 -0.00159967 0.00850473
166 2 -0.928252 11.1071 3.89893 9.29913 -0.00232299 0.00415602 -0.00386143
167 2 -0.912247 9.28567 6.00554 13.1155 -0.00165857 -0.00618279 -0.00643388
168 2 -0.956183 9.4418 7.89811 14.6544 -0.00634451 0.00530196 0.00041554
169 2 -0.88687 11.3232 7.53357 13.0567 -0.000104069 -0.00464233 -0.00438895
170 2 -0.849555 12.8211 2.58062 12.7602 0.00255531 -0.00292957 -0.00126016
171 2 -0.942163 11.1239 14.57 12.8304 -0.00247834 0.00238551 0.00455855
172 2 -0.928622 13.2048 14.6608 11.2206 -0.00335166 -0.00188023 -0.00152131
173 2 -0.910703 12.8878 5.73989 9.7211 0.00268062 0.00155493 -0.00104541
174 2 -0.946518 12.9641 7.72878 11.2492 0.00364052 0.00512921 -0.00531709
175 2 -0.943175 9.0869 9.61904 2.46001 -0.00171359 -0.00763551 0.00460651
176 2 -0.888455 9.60718 11.3702 4.21958 0.00124073 0.00179083 0.00227066
177 2 -0.883452 11.0068 9.29673 4.04349 0.00404073 -0.000178353 -0.00251328
178 2 -0.880739 11.168 11.0422 2.26036 -0.00166522 -0.0102079 -0.00334634
179 2 -0.967854 9.3097 12.9856 6.10141 0.0095975 -0.00177668 0.00734192
180 2 -0.951699 11.0081 13.0277 7.82095 -0.00787499 -0.00886164 0.000832162
181 2 -0.788637 13.6053 9.86655 5.8591 0.000520249 -0.0010136 -0.00281578
182 2 -0.945172 12.9892 11.3952 7.63578 -0.00238511 0.00587652 0.00113108
183 2 -0.876795 12.6505 12.8336 2.54454 0.00031002 0.000537653 0.00258737
184 2 -0.929258 10.8756 12.7068 14.6572 -0.00129582 -0.00132789 -0.00199715
185 2 -0.947566 12.9425 11.23 14.6345 -0.00106623 -0.00147127 -0.0042946
186 2 -0.918159 9.41367 9.40048 9.84806 0.000622877 0.000416018 0.000336046
187 2 -0.924438 9.52886 11.3922 11.297 0.00835037 0.011267 0.000504793
188 2 -0.938085 11.1213 9.47153 11.5462 0.00111528 -0.00215094 0.00266963
189 2 -0.974974 11.3074 11.1073 9.44133 0.00533123 0.00145914 -0.00496974
190 2 -0.91443 9.21833 13.0483 12.9426 0.00229344 0.000356642 0.00263334
191 2 -0.929757 13.1571 9.15122 13.3015 -0.00125467 -0.00461539 0.000636706
192 2 -0.952224 12.9707 12.9771 9.46359 0.00114297 -0.00793634 -0.00761135
193 2 -0.621417 13.9149 10.4283 10.2845 -0.0062931 0.00443193 -0.00193646
194 2 -0.586334 12.2503 8.67462 8.37394 -0.000971407 0.00560054 -0.0011124
195 2 -0.672532 1.85991 4.64374 1.7625 -0.00561621 0.00122694 0.00342606
196 2 -0.6067 11.7851 1.59442 15.4184 -0.00104007 0.00193305 0.00427603
197 2 -0.572285 15.4424 1.80653 4.65407 -0.0035093 -0.00306374 -0.00173127
198 2 -0.618452 12.256 12.0992 12.1818 0.00440664 0.00166123 0.00112312
199 2 -0.610278 6.70778 6.73197 7.04874 0.00144186 0.00521792 0.000420598
200 2 -0.72582 10.5457 6.89174 3.60464 0.00630408 0.000712043 -0.00804887
201 2 -0.641765 11.9662 4.84143 4.95752 0.0080093 0.0020192 0.00782254
202 2 -0.562335 10.4724 6.81065 10.4914 0.00114233 -0.00682272 -0.00213135
203 3 0.414044 13.6338 11.3486 10.53 -0.0063118 0.00899595 0.0178211
204 3 0.423844 14.8677 10.4476 10.4808 0.0161514 -0.00322453 -0.00640166
205 3 0.425406 11.9644 9.63145 8.27075 -0.00914943 0.0246525 -0.0358113
206 3 0.434677 13.1812 8.66924 8.64259 0.0152196 -0.00480909 -0.0348347
207 3 0.402534 15.1898 5.17142 2.06742 0.0151262 -0.00438242 0.00137261
208 3 0.417561 15.5823 4.08184 15.1629 -0.00023315 0.0248547 0.00902155
209 3 0.419118 12.3474 15.3913 2.04028 0.00181052 -0.0238764 -0.00652255
210 3 0.428155 11.951 2.50965 15.4036 -0.0126898 0.0197635 -0.00175937
211 3 0.42331 15.5917 1.61737 3.68597 0.00776842 0.0320947 0.00558938
212 3 0.408083 1.71334 2.7122 4.8044 -0.000491172 0.00834047 -0.0213894
213 3 0.38489 12.2132 13.1057 12.0501 -0.0337154 -0.0132336 -0.0147663
214 3 0.406821 11.8523 11.945 13.0625 0.0242369 0.00582747 0.0140723
215 3 0.412802 7.25935 7.4279 7.44822 0.00238607 -0.0103598 -0.0219058
216 3 0.418005 7.32883 6.18333 6.59374 0.0159352 -0.00761645 -0.024729
217 3 0.430247 10.4792 5.97723 4.02191 -0.00436816 -0.027767 -0.0180137
218 3 0.51514 13.4187 9.38396 5.08296 -0.00570467 0.00924039 -0.00247188
219 3 0.426359 12.0248 5.05132 5.91745 -0.0236948 -0.00068456 0.0122397
220 3 0.406639 11.8907 3.86946 4.9101 -0.00573393 -0.0141847 0.0150791
221 3 0.427134 11.4184 6.63639 10.6221 -0.0167341 0.019864 0.00168977
222 3 0.409671 10.4163 7.82777 10.6216 0.0241478 0.014944 0.021563
ITEM: TIMESTEP
18000
ITEM: NUMBER OF ATOMS
222
ITEM: BOX BOUNDS pp pp pp
1.5350357354794246e+00 1.5624964264520630e+01
1.5350357354794246e+00 1.5624964264520630e+01
1.5350357354794246e+00 1.5624964264520630e+01
ITEM: ATOMS id type q x y z vx vy vz
1 1 1.775 15.5665 15.5076 15.445 0.00153117 -0.000539563 0.0019346
2 1 1.48489 3.32876 3.64976 3.35123 -0.0021528 0.0030889 -0.00262122
3 1 1.74062 15.4498 5.12411 5.17202 0.00193881 0.00418359 0.00025417
4 1 1.8845 3.29897 6.73429 6.91031 -0.00496182 -0.00174375 -0.00329393
5 1 1.89251 5.01528 1.6786 4.92881 0.00261141 0.000103226 0.00819217
6 1 1.84763 6.72073 3.16565 6.94874 -0.00322402 -0.0011332 -0.00228709
7 1 1.87304 5.15656 5.21728 15.6259 0.00463847 -0.000328437 0.000739688
8 1 1.71762 6.87364 6.95004 3.48064 -0.0016858 0.00242878 0.00520366
9 1 1.84004 1.69232 15.4501 8.51504 -0.00352018 0.00281305 0.00466441
10 1 1.8438 3.28798 3.14284 10.3348 -0.000854059 0.000416611 -0.00149577
11 1 1.81383 1.6265 5.02869 12.1637 -0.00239476 -0.00295247 0.000181567
12 1 1.94739 3.3586 6.78938 13.8233 -0.00456945 -0.00102712 -0.000987587
13 1 1.83582 5.18346 1.54911 12.1398 -0.00109008 -0.00445062 -0.000947095
14 1 1.87546 6.87219 3.45788 13.8598 -0.00193759 0.000604648 0.000940736
15 1 1.85847 4.9955 4.98825 8.69209 -0.0010871 0.002688 0.00235671
16 1 1.86105 6.75416 6.72259 10.3741 -0.0057493 -0.000483273 -0.00199911
17 1 1.95023 1.57607 8.50075 1.51999 0.00235004 0.00232954 0.00366091
18 1 1.79726 3.30224 10.2197 3.21074 -0.00102253 -0.00512364 0.00127393
19 1 1.84791 1.67788 12.1212 4.96314 0.00380995 0.00308142 0.00153645
20 1 1.95439 3.53686 13.7973 6.70603 0.00060706 -0.00145168 -0.00317492
21 1 1.71192 4.95526 8.50732 5.2139 -0.00347262 -0.0015203 0.00433138
22 1 1.77897 6.85984 10.3066 6.93112 -0.00247138 0.000304983 -0.000878808
23 1 1.84062 5.13226 12.2282 1.69201 -0.00286077 -0.000647025 -0.00328783
24 1 1.89711 6.89572 13.8711 3.48346 -0.00211743 -0.00127309 -0.00498897
25 1 1.76893 15.6589 8.51677 8.5961 0.00299638 0.00361513 0.00328193
26 1 1.75455 3.29832 10.3231 10.2982 0.0024617 0.00254833 0.00226435
27 1 1.68141 1.73489 12.1959 12.2796 -0.00107938 -0.00484142 -0.00217106
28 1 1.86352 3.52169 13.9074 13.9158 0.00432765 0.000806667 -0.00148852
29 1 1.77041 5.13973 8.61072 12.132 -0.00323007 -0.0018727 -0.000991123
30 1 1.81426 6.79226 10.4692 13.9027 -0.00220454 0.0035241 -0.00402425
31 1 1.81405 5.13866 12.0808 8.65649 0.00147531 -0.0026347 8.19156e-05
32 1 1.80336 6.8576 13.9006 10.3871 -0.00648082 0.000523052 -0.00202121
33 1 1.92298 8.42027 15.5773 15.5637 -0.00169271 0.00138619 0.000503519
34 1 1.85195 10.1647 3.14027 3.28311 -0.00166913 -0.00334286 -0.0042429
35 1 1.81449 8.51776 4.85996 5.1616 0.00151285 0.000624002 0.00216252
36 1 1.72951 10.2045 6.70703 6.89575 -0.00316284 0.0023278 -0.00349359
37 1 1.72102 12.0404 15.5507 5.06773 0.00503751 0.00374985 0.00300854
38 1 1.75416 13.842 3.12563 6.89937 -0.000545683 -0.00187989 -0.00163507
39 1 1.73581 11.9165 4.98195 15.5238 -0.00378607 0.00154713 4.89815e-05
40 1 1.75315 13.821 6.68405 3.12186 0.0021589 -0.000286348 0.00278492
41 1 1.80273 8.64427 15.5717 8.60537 -0.00331936 -0.000552629 -0.00856959
42 1 1.89959 10.3199 3.31215 10.3268 -0.00189188 0.000993351 0.00506379
43 1 1.89427 8.66236 5.14323 12.0982 0.00355561 0.00115121 -0.00176747
44 1 1.84642 10.3132 6.94209 13.9411 0.00580155 0.000194446 0.0020009
45 1 1.73945 12.0723 15.6083 11.9281 -0.00152984 0.00130078 -0.000225187
46 1 1.71688 13.8296 3.33722 13.7642 0.00146322 -0.00484932 -0.000878321
47 1 1.72185 12.1463 5.00476 8.61984 -0.00145705 0.00195189 -0.000839741
48 1 1.74768 13.9109 6.7648 10.4592 0.00340581 0.0017591 -0.00134746
49 1 1.81378 8.45133 8.67157 15.6079 0.000568018 0.00165575 0.00436481
50 1 1.89721 10.179 10.3391 3.26778 -0.00388323 0.00238785 0.00315436
51 1 1.94595 8.5741 12.0639 5.20452 0.000323116 -0.000217406 -0.00520964
52 1 1.8017 10.3597 13.7775 6.82488 0.00256875 -0.00379683 0.00712866
53 1 1.64792 11.2786 7.82653 4.35813 -0.000161018 0.0010739 0.00125032
54 1 1.76178 14.0775 10.4841 6.79582 -0.004786 -0.00507053 -0.000290527
55 1 1.76572 11.9931 12.0797 15.6407 -0.00469337 0.00296891 0.000421447
56 1 1.73516 13.883 13.8486 3.27212 -0.00189454 -0.00196113 -0.000137949
57 1 1.7653 8.52719 8.56332 8.75567 0.00184456 0.000956787 0.00247239
58 1 1.78456 10.448 10.4055 10.374 0.00548716 0.00161662 0.00222439
59 1 1.86752 8.59448 12.0724 12.0832 -0.000202254 0.00261085 -0.000114361
60 1 1.81261 10.2783 13.9077 13.835 -0.00057907 0.00237175 -0.000907112
61 1 1.83313 12.1887 8.60397 12.2056 0.00232567 0.001766 -0.00182004
62 1 1.72764 13.9559 10.387 14.0019 -0.00155214 0.000466501 -0.00378148
63 1 1.75531 12.2198 12.1405 8.58524 -0.00128658 -0.00560234 0.00202883
64 1 1.624 14.0408 13.8873 10.435 0.0001859 0.00168616 0.00516064
65 2 -0.79362 2.29857 2.19933 2.32239 0.00539929 -0.00075311 0.00545723
66 2 -0.944145 2.42719 14.8329 14.414 0.000240896 -0.00701404 0.00100845
67 2 -0.93733 14.593 2.44294 14.8178 0.00152461 -0.0038817 0.0027437
68 2 -0.951423 14.8351 14.5466 2.27804 0.00272328 0.00470169 -0.00512807
69 2 -0.897084 2.46313 4.44704 4.37715 -0.00101957 0.0041052 0.0033584
70 2 -0.902867 4.03105 2.52356 4.17936 -0.00361765 0.00721766 -0.00163886
71 2 -0.86742 4.44162 4.22744 2.40759 -0.00374261 0.000227962 0.0011223
72 2 -0.90434 2.14051 6.10754 6.0877 -0.00106399 0.00244848 0.00181945
73 2 -0.897446 14.8015 3.85432 5.83661 0.000268633 0.00100768 -0.00226607
74 2 -0.939802 14.4893 5.74882 4.14208 -0.000182339 0.000965214 0.000886812
75 2 -0.942078 3.89525 5.67801 7.78374 -0.000659299 0.00100703 -0.00317681
76 2 -0.946205 4.28177 7.32195 5.87814 0.00159488 -0.00846242 0.00221591
77 2 -0.940284 2.65495 7.75715 7.82979 0.00279857 -0.00311718 -0.00275835
78 2 -0.936532 5.80456 2.60213 5.86127 0.0028697 -0.00915649 -0.00303277
79 2 -0.984787 4.17661 14.8544 5.90959 0.000945697 -0.00697969 -0.00101213
80 2 -0.955168 6.03239 14.9665 4.15121 -0.00255403 -0.00323329 0.00826998
81 2 -0.942564 5.97621 4.14214 7.92072 -0.000460532 0.00345744 0.00121414
82 2 -0.902061 7.75661 3.85493 6.03395 0.00147855 0.000629391 -0.00589218
83 2 -0.91896 7.54101 2.18798 7.78254 -0.00219296 0.00458094 0.00604573
84 2 -0.8547 5.8311 6.12176 2.58505 0.00738207 0.00669183 -7.33918e-05
85 2 -0.974779 4.22733 6.15096 14.8543 0.00618656 0.000274703 0.00390273
86 2 -0.936517 6.18516 4.54497 14.6862 -0.00442116 0.00277048 -0.00220142
87 2 -0.944358 6.10119 7.90292 4.37782 0.00032161 0.000756532 0.000344776
88 2 -0.920297 7.64639 5.93706 4.40922 0.00594035 0.0083948 0.00578325
89 2 -0.868029 7.89017 7.55072 2.46919 0.00153238 -0.000340053 -0.00186636
90 2 -0.95316 2.65524 2.30881 9.24608 -0.00138969 -0.00134572 0.00309376
91 2 -0.943339 2.5391 14.5527 7.58646 0.000990158 0.00225884 -0.00222952
92 2 -0.922688 14.6759 2.10531 7.71359 -0.00172393 -0.00425179 -0.00335482
93 2 -0.883296 15.171 14.5789 9.59651 -0.00424733 -0.00380013 0.00500857
94 2 -0.89066 2.20022 3.9493 11.1752 -0.0035479 0.00178902 -0.00302976
95 2 -0.899746 4.04613 2.22196 11.3101 0.000419311 -0.00324835 -0.000401919
96 2 -0.943711 4.32405 4.05644 9.71432 -0.00110891 0.000785372 0.00543254
97 2 -0.952572 2.79561 5.78167 12.8241 0.00289198 -0.00095967 0.0100287
98 2 -0.928657 14.8424 4.34375 13.1751 0.00641101 -0.0066117 -0.00389827
99 2 -0.91387 14.7857 6.08661 11.4906 -0.00139535 0.00430988 0.000561182
100 2 -0.957712 2.32914 7.65764 14.5953 -0.00156881 0.00156528 0.00148547
101 2 -0.897473 4.14726 7.84157 13.0577 0.00372462 -0.00141475 -0.00204789
102 2 -0.898976 5.83557 2.71427 12.9696 0.00463334 -0.00227125 -0.00358225
103 2 -0.946098 4.59531 14.5677 13.0438 0.00246895 -0.00553275 -0.00114958
104 2 -0.922991 6.22126 15.0341 11.222 0.00302307 -0.000619328 8.23208e-06
105 2 -0.945622 7.46437 2.4408 14.8373 0.00208731 -0.00318622 -0.00104333
106 2 -0.949299 7.94772 4.15462 13.0143 -0.00165132 -0.00110029 -0.00589478
107 2 -0.92507 5.68028 6.14494 9.43973 -0.00433402 -0.002961 -0.00221836
108 2 -0.881318 6.03004 7.51929 11.4921 -0.00544057 0.00194957 -0.00209626
109 2 -0.950403 7.60413 5.73479 11.1632 0.00476561 0.00416532 0.00435064
110 2 -0.927457 7.56971 7.81297 9.68073 0.00309295 -0.00048869 -0.000922879
111 2 -0.967445 2.55814 9.29066 2.32285 -0.00227068 -0.0019448 -0.00632492
112 2 -0.928169 14.9126 7.6155 2.56357 -0.000731674 0.00491536 -0.00422104
113 2 -0.94981 14.6852 9.43435 14.938 -0.00286996 0.00601003 -0.00119187
114 2 -0.889536 2.26392 11.1745 3.88343 -0.000927001 0.000988972 0.000103848
115 2 -0.865493 3.92877 9.43066 4.41824 -0.000228403 -0.000201185 -0.00233692
116 2 -0.896518 4.25979 11.0852 2.27694 0.00186073 -0.0009413 -0.00113787
117 2 -0.934377 2.71673 12.9891 5.65966 -0.00403189 -0.000580024 -0.000231539
118 2 -0.901727 15.1462 11.292 6.10532 0.000566486 -0.00117078 0.00160215
119 2 -0.897143 14.6694 12.9393 4.28693 -0.0037464 0.00105208 -0.00891003
120 2 -0.952333 4.41009 12.8414 7.47272 0.00377569 -0.00535361 -0.000374034
121 2 -0.843479 5.75269 9.41519 6.26733 -0.000556873 0.00305042 -0.00475559
122 2 -0.913263 6.21936 11.2141 7.98005 0.0060899 -0.00383554 0.00697902
123 2 -0.939873 7.57862 11.0688 5.77937 -0.0028404 -0.0011212 0.00080012
124 2 -0.960847 7.78514 9.29222 7.64523 -0.0038317 -0.0021282 0.00128414
125 2 -0.9641 5.98246 12.9141 2.70303 0.00221918 -0.00633819 0.00128819
126 2 -0.889976 4.20556 13.3031 15.2109 0.00543627 0.0058328 0.00052494
127 2 -0.900551 5.99647 11.5895 14.6363 0.000827521 -0.000787 0.00249373
128 2 -0.946538 7.63547 14.5651 2.36708 -0.000571255 0.00500509 -0.000357095
129 2 -0.970734 7.65701 13.1133 4.59997 0.000584928 -0.0031447 0.000547369
130 2 -0.906085 2.20915 9.6247 9.52137 -0.00427906 0.0029863 -3.45547e-05
131 2 -0.944268 14.7669 7.56326 9.42142 0.0024467 0.00104427 -0.00855097
132 2 -0.919885 14.7613 9.34325 7.61038 -0.00638852 0.00357268 0.00324543
133 2 -0.883621 2.45833 11.3366 11.1779 0.00961864 0.00886147 -0.00109688
134 2 -0.867711 4.18627 9.31676 11.1194 0.000669204 -0.00124339 -0.00397722
135 2 -0.897952 4.14882 11.0626 9.24928 -0.00126823 -0.000665387 0.000776868
136 2 -0.919607 2.88851 12.8354 13.1139 -0.0028644 -0.0027328 0.000399277
137 2 -0.864303 15.0701 11.1653 13.2271 -0.0039976 -0.0036124 0.00709731
138 2 -0.903517 14.7845 13.115 11.61 0.000951054 0.0014083 -0.00141595
139 2 -0.886296 5.9087 9.7782 12.8402 0.00536728 0.00236071 0.000152796
140 2 -0.950063 7.39505 9.40607 14.7803 0.00386157 -0.00260195 0.00789133
141 2 -0.904664 8.00023 11.107 13.1163 0.00493559 0.0001166 0.00198275
142 2 -0.934613 5.7526 13.0714 9.63811 0.00139068 -0.000662778 0.00145055
143 2 -0.916227 7.92917 14.4736 9.46529 -0.00136026 -0.00327266 -0.00439471
144 2 -0.893106 7.52197 12.9407 11.4378 0.00192934 -0.00298685 0.000743988
145 2 -0.990404 9.18499 2.32227 2.46119 0.000528108 0.000331065 0.00476819
146 2 -0.961376 9.33264 14.8781 14.5552 0.00145605 0.00362129 -0.000203302
147 2 -0.970622 9.4737 4.05947 4.30566 0.00306075 0.00367962 -0.00207746
148 2 -0.962756 11.0875 2.21085 4.07506 0.00253344 -0.0022479 -0.00102499
149 2 -0.933781 11.1281 3.98828 2.4405 -0.00422282 0.00653494 0.00168386
150 2 -0.93073 9.4762 5.64115 6.05977 0.00465376 -0.00371117 -0.000634884
151 2 -0.903526 11.3038 5.84908 7.65074 -0.00263536 -0.00199824 0.00660408
152 2 -0.896381 10.9468 7.55691 5.83736 -0.00208096 0.00262088 -0.00468289
153 2 -0.877151 9.27861 7.43779 7.92306 0.00823481 -0.000272613 -0.00108143
154 2 -0.924017 12.7473 2.39498 6.11561 -0.00393887 -4.45137e-05 0.00658582
155 2 -0.886928 11.2832 14.3913 5.76865 0.00404529 -0.000987087 -0.00724001
156 2 -0.893151 12.9901 14.8387 4.06594 0.00733382 0.00419378 0.00152687
157 2 -0.926049 13.1055 4.23934 7.6293 0.00484953 -0.0043088 0.000369547
158 2 -0.904542 13.0838 5.75923 2.09962 0.00381108 0.000135421 -0.00366295
159 2 -0.948126 10.9159 5.95624 14.9531 0.0100098 -0.00450292 -0.000778729
160 2 -0.92304 12.6875 4.03011 14.5571 -0.00329123 0.00554509 0.00680042
161 2 -0.894235 12.6902 7.51833 3.7953 -0.00628466 0.00179551 0.00654807
162 2 -0.914138 9.28702 2.61685 9.46135 0.00945739 -0.00443355 -0.00249255
163 2 -0.875059 9.71675 14.9652 7.69476 -0.000876461 -0.000995373 0.0050338
164 2 -0.93638 9.69455 4.41142 11.1806 -0.00738919 0.000729615 -0.000672438
165 2 -0.934382 10.9875 2.25695 11.2117 -0.00122012 0.00169349 -0.00216199
166 2 -0.892003 11.3934 3.90072 9.42086 -0.00123781 0.00963192 -0.000377075
167 2 -0.925681 9.34321 6.19398 12.9736 -0.00612565 -0.00462274 -0.00494404
168 2 -0.898294 9.46945 8.02223 14.6089 0.00250988 0.00131284 -0.00115089
169 2 -0.945932 11.3613 7.59496 13.028 -0.00355417 -0.000646996 -0.00523665
170 2 -0.873471 13.0965 2.42857 12.6946 -0.0108813 0.00188007 0.000680649
171 2 -0.880626 11.383 14.5396 12.8988 0.000439643 -0.00306084 -0.00793223
172 2 -0.844756 12.9006 14.9214 10.8223 -0.000776592 -0.00236915 -0.00889792
173 2 -0.915671 12.947 5.72252 9.76354 0.00212499 -0.00353017 -0.000260044
174 2 -0.951931 13.0277 7.80873 11.1847 -0.00442304 0.00562888 -0.00330777
175 2 -0.954392 9.12536 9.72114 2.39893 0.00111465 -0.00522361 -0.000413804
176 2 -0.983192 9.41776 11.36 4.1364 -0.00261655 0.000327702 0.00584912
177 2 -0.951359 10.9731 9.27622 3.98641 0.00189143 0.000510898 0.00535242
178 2 -0.907872 11.2123 10.9614 2.29367 0.00594481 -0.00378347 0.000253289
179 2 -1.00043 9.40495 12.7292 6.24306 0.000567585 0.00648908 0.000945117
180 2 -0.872406 11.2656 13.0945 7.85523 0.00348972 0.0057197 -0.00206022
181 2 -0.745757 13.4519 9.84642 5.54482 0.00765572 -0.000129568 0.00364838
182 2 -0.950776 12.9882 11.2889 7.53639 -0.00444528 -0.00427759 0.00123703
183 2 -0.892418 12.8043 13.0181 2.45793 -0.00192356 -0.00591167 0.0056117
184 2 -0.927675 11.001 12.9818 14.7878 -0.00241797 0.00405413 0.00397594
185 2 -0.92709 12.9876 11.4438 14.6636 0.00112277 -0.00515463 0.00368374
186 2 -0.917828 9.50789 9.37149 9.66951 0.00387854 0.00673695 -0.0039783
187 2 -0.918373 9.45859 11.3555 11.0482 -0.00495505 0.00101741 0.000357854
188 2 -0.947873 11.1967 9.52765 11.4492 0.00253598 -0.00332068 -0.00446481
189 2 -0.963565 11.3013 11.182 9.3548 -0.00313151 0.00401129 -0.00255534
190 2 -0.900671 9.47157 13.1079 12.751 0.00132124 -0.000336935 0.00425533
191 2 -0.926698 12.9698 9.47314 13.1535 -6.93546e-05 -0.00132929 -0.00116707
192 2 -0.884005 13.2676 12.804 9.56644 0.00455685 0.000235568 0.00140441
193 2 -0.631498 13.8607 10.3015 10.6089 8.70458e-06 -0.00233977 0.00585995
194 2 -0.598328 12.2625 8.61846 8.27308 0.00129022 0.00382496 -0.00762142
195 2 -0.634284 2.02193 4.64872 1.87308 -0.00438996 -0.00385348 -0.00250533
196 2 -0.615419 11.8752 1.46109 15.5127 -0.00255173 -0.00396915 -0.00744597
197 2 -0.595524 1.45308 1.64244 4.72893 0.00147028 0.00332062 0.00225074
198 2 -0.647886 12.1889 12.0697 12.0062 0.00450304 -0.000178776 -0.00256029
199 2 -0.611432 6.86245 6.54489 6.9311 -0.00136836 -0.00626156 -0.00718843
200 2 -0.686858 10.2689 6.86135 3.65534 -0.0038703 -0.00479709 -0.00347298
201 2 -0.622583 12.0893 4.81874 5.07705 0.000370112 -2.0872e-06 -0.00818049
202 2 -0.616514 10.5832 6.96474 10.3105 0.000863713 0.00292228 0.00347627
203 3 0.426836 13.3332 11.105 10.5283 -0.0121273 0.00222538 -0.0141838
204 3 0.434242 14.7921 10.5343 10.6478 -0.0085886 -0.00388753 0.0129637
205 3 0.410104 12.1775 9.58403 8.37575 0.0162715 -0.0166979 -0.00217951
206 3 0.408324 13.208 8.35124 8.40918 -0.00693912 0.000956932 -0.0159469
207 3 0.386051 15.4404 5.04472 2.47889 -0.00773374 -0.0301194 0.00943554
208 3 0.399068 15.7108 3.75045 15.897 -0.0193173 0.003376 -0.0236871
209 3 0.434887 12.0753 15.2239 2.27571 0.00562255 -0.00276847 0.0170464
210 3 0.420006 12.0617 2.42455 1.41122 -0.00933153 -0.0197593 -0.0227241
211 3 0.446491 16.1012 1.41348 3.97344 0.00196015 0.000185717 -0.0215829
212 3 0.44714 1.83195 2.37933 5.21882 0.000943022 -0.0185414 0.00711518
213 3 0.425515 12.3783 12.8994 12.3812 0.0101877 -0.0132559 0.018565
214 3 0.412982 12.1688 11.483 12.7601 0.0302925 -0.00739988 -0.0115255
215 3 0.426399 7.31416 7.3805 6.96151 -0.0113879 -0.00079495 0.0140325
216 3 0.424286 6.57903 6.47047 6.06098 0.00687564 0.000651799 -0.0106252
217 3 0.427842 10.3527 5.96067 4.07878 -0.00706377 0.0306719 0.0106422
218 3 0.496562 13.1202 9.54126 4.67199 0.0262833 -0.00228306 0.020778
219 3 0.440889 12.1697 4.97898 6.02538 -0.0089392 -0.00941606 0.00197696
220 3 0.412021 11.8993 3.88273 4.9653 -0.00429537 0.00909739 -0.024111
221 3 0.439172 11.4745 6.81577 10.4115 -0.00390986 0.00691163 0.0252167
222 3 0.438013 10.2826 7.80343 10.6374 -0.0181569 -0.00394113 -0.0230004
ITEM: TIMESTEP
19000
ITEM: NUMBER OF ATOMS
222
ITEM: BOX BOUNDS pp pp pp
1.5359535774963691e+00 1.5624046422503678e+01
1.5359535774963691e+00 1.5624046422503678e+01
1.5359535774963691e+00 1.5624046422503678e+01
ITEM: ATOMS id type q x y z vx vy vz
1 1 1.84188 15.4429 15.4563 15.654 0.00140143 0.00382993 -0.00338932
2 1 1.46183 3.05114 3.52654 3.02321 -9.69777e-06 0.00218924 0.0050364
3 1 1.77197 15.6195 5.03834 5.25343 0.000206137 0.00031831 -0.00182432
4 1 1.81195 3.39378 6.8132 6.83253 -0.00315498 0.000613416 0.00264593
5 1 1.80985 5.12334 1.71078 4.95078 -0.00360207 -7.12322e-05 5.36257e-05
6 1 1.72054 6.82438 3.26231 6.90632 0.0037115 -0.00189784 0.00353869
7 1 1.84169 5.1242 5.18797 15.509 -0.00328249 -0.000468884 0.00396474
8 1 1.69287 6.78101 6.79229 3.33816 -0.00337803 0.00302558 0.00126158
9 1 1.80637 1.60798 15.5243 8.49884 -0.001037 0.00401701 0.00154524
10 1 1.84245 3.27332 3.3105 10.2927 0.000466512 -0.000584731 -0.00145881
11 1 1.8217 1.53733 4.99689 12.0751 -0.00347141 0.00100141 0.000872125
12 1 1.90128 3.31639 6.88115 13.7597 -0.000682176 -0.00118238 -0.00346624
13 1 1.89224 4.90713 15.6389 12.1347 0.00410508 0.00637879 -0.00384357
14 1 1.92651 6.68558 3.2001 13.87 0.00130054 0.00093191 0.0019545
15 1 1.77579 5.12077 5.12095 8.64612 0.00480834 -0.00135423 0.00201124
16 1 1.79153 6.8148 6.83287 10.5575 0.000546773 -0.00560865 -0.0016189
17 1 1.83509 15.8283 8.57692 1.58709 0.000890522 -7.74204e-05 0.00173071
18 1 1.88346 3.44885 10.4817 3.1954 -0.00175234 0.00136174 0.000205478
19 1 1.83585 1.68465 12.2629 4.90256 0.000642021 0.00181733 -0.00124337
20 1 1.92635 3.42905 13.9698 6.59132 0.00734109 0.00105152 1.41888e-06
21 1 1.79865 5.02624 8.66278 5.06553 -0.00135643 -0.00311796 -0.00119463
22 1 1.8662 6.84343 10.307 6.85642 -0.00112497 -0.00269791 -0.000325042
23 1 1.92777 5.3854 12.2374 1.6031 0.00162606 0.000396375 0.00254515
24 1 1.83013 6.9999 14.0048 3.46074 -0.00148609 -0.000679674 -0.00222816
25 1 1.82378 1.66494 8.47077 8.6867 -0.00366031 0.00392212 0.000641261
26 1 1.77086 3.37746 10.3763 10.2912 -0.00176457 0.0019501 -0.00105734
27 1 1.7174 1.61351 11.9377 12.271 0.00381567 0.002415 0.00641352
28 1 1.7796 3.33315 13.795 13.9771 -0.000943749 0.00149272 0.00221839
29 1 1.85363 5.11208 8.74819 12.2578 0.000664412 -0.00465299 -0.00138897
30 1 1.85716 6.98071 10.3818 13.9671 0.00128602 -0.00366779 -0.00175521
31 1 1.85166 5.0483 12.1446 8.44841 -0.000549211 0.000728961 -0.00333039
32 1 1.8754 6.64424 13.7959 10.3996 5.44038e-05 -0.00395786 0.000346928
33 1 1.7861 8.52703 1.53578 15.5445 0.00291025 0.0014387 0.00300105
34 1 1.68729 10.3552 3.31731 3.26348 -0.000717263 -0.000120113 -9.44041e-06
35 1 1.62124 8.54391 4.96208 5.09184 0.000666341 -0.00144349 0.00637679
36 1 1.65173 10.1973 6.65384 6.9879 0.00124111 0.00182217 -0.000337107
37 1 1.70813 12.0433 15.6027 5.04498 -0.00751003 -0.00599485 -0.00315358
38 1 1.74077 13.8128 3.17454 6.96101 0.000147136 0.000193765 -0.00323434
39 1 1.69951 12.2506 5.06573 15.6421 0.0018165 -0.00096463 -0.00360346
40 1 1.63428 13.9967 6.82554 3.31629 -0.00284189 0.000191753 0.00272294
41 1 1.81194 8.42282 1.27602 8.57999 -0.0044659 -0.00300456 -0.00609907
42 1 1.83424 10.125 3.17117 10.2984 -0.0040137 -0.0010491 0.000992542
43 1 1.83061 8.5539 4.89602 12.1363 0.00303042 0.00701327 0.00196844
44 1 1.83646 10.2693 6.68168 14.0038 0.0022153 0.000121408 -0.00375066
45 1 1.76649 12.1432 15.5883 11.7885 -0.000268747 0.00157968 -0.001484
46 1 1.79919 13.8443 3.16538 13.7924 -0.00208858 -0.0030046 0.00251246
47 1 1.77806 12.0694 4.89818 8.76176 -0.001298 0.00539002 0.000678207
48 1 1.7496 13.8366 6.80953 10.4287 -0.00156164 -0.00340629 0.000489229
49 1 1.87639 8.5382 8.47776 1.47445 -0.00260821 -0.00110079 -0.00295744
50 1 1.76702 10.0902 10.3403 3.27333 -0.000475167 0.00497117 0.00371608
51 1 1.72959 8.62967 12.1393 5.1871 0.000506752 0.00296471 -0.00213503
52 1 1.83368 10.4908 13.7803 6.91537 0.00131882 0.00161371 -0.00123826
53 1 1.52663 11.3787 7.94532 4.49444 -0.00214109 -0.00316054 0.00142327
54 1 1.69651 14.3099 10.4885 6.77211 6.42767e-05 -0.00283958 -0.00183983
55 1 1.71956 11.8587 12.0299 15.5344 0.000955337 0.00412252 0.0010391
56 1 1.75246 13.6691 13.6789 3.28058 -0.00503655 -0.00354193 0.00315722
57 1 1.778 8.55144 8.64617 8.73758 -0.000896245 -0.00429177 -0.000142812
58 1 1.84806 10.4166 10.3756 10.3874 0.00291612 0.000855807 0.00185555
59 1 1.8721 8.51665 12.115 12.0245 -0.00228335 0.00403691 0.000710519
60 1 1.76016 10.271 13.933 13.6175 0.00075987 -8.82519e-05 0.00126413
61 1 1.72347 12.0075 8.44161 12.2811 0.00131746 0.00524581 0.00482591
62 1 1.70228 13.822 10.1876 14.0353 0.00303369 -0.000486836 0.00251341
63 1 1.74823 12.3054 12.0522 8.56272 0.000848666 -0.00435402 0.00292838
64 1 1.75742 14.1424 13.7459 10.3741 -0.000749419 -0.000356846 0.00478785
65 2 -0.880813 2.04377 2.27848 2.50986 0.0101654 -0.00445677 -0.00340358
66 2 -0.917009 2.46732 14.6966 14.9056 0.0010222 0.00110126 -0.00282419
67 2 -0.978335 14.5348 2.21698 14.7686 -0.00173953 -0.00232987 0.00581862
68 2 -0.973227 14.6934 14.4751 2.50411 0.00644621 -0.00377626 0.00598289
69 2 -0.866201 2.47655 4.30865 4.29008 0.0040518 -0.00345615 0.00112726
70 2 -0.718158 4.07529 2.52455 4.08424 -0.00342292 0.00560692 -0.00215763
71 2 -0.84738 4.20342 4.16923 2.10394 -0.00207805 0.0081031 -0.00385787
72 2 -0.887036 2.24892 6.10574 6.06698 -0.00313022 -0.0031323 -0.000899149
73 2 -0.932639 14.9219 3.98765 6.11709 -3.17007e-05 -0.00203817 -0.00125534
74 2 -0.867644 14.6925 5.91782 4.39809 0.0125538 -0.00263135 -0.00336293
75 2 -0.90585 3.99593 5.80466 7.84285 -0.00133609 -0.00529401 0.00365685
76 2 -0.926925 4.29086 7.53421 5.80564 -0.00342542 -0.000562067 -0.0109913
77 2 -0.911663 2.66343 7.81717 7.76078 -9.32814e-05 0.0034954 0.000125897
78 2 -0.850884 5.7386 2.69207 5.87681 0.00585438 0.00118483 0.0120413
79 2 -0.968678 4.41471 14.8945 5.98854 0.00206445 -0.00383577 0.00600153
80 2 -0.935362 6.22785 15.1264 4.16308 0.00128402 0.000321393 -0.00116646
81 2 -0.889809 6.19115 4.22988 7.97744 4.77755e-05 -0.000329947 0.00382771
82 2 -0.872019 7.84642 3.86782 5.96983 -0.00906589 -0.00366069 0.000993282
83 2 -0.864841 7.43241 2.01289 7.63656 -0.00384707 -0.00265131 -0.00138019
84 2 -0.905088 5.75263 5.94425 2.54557 0.00051728 -0.00863571 -0.00371624
85 2 -0.958685 4.30743 6.27225 14.7044 -0.0018335 0.00263809 -0.00471138
86 2 -0.961909 6.05455 4.36721 14.6123 -0.00519315 -0.00113652 0.00194688
87 2 -0.862664 6.08568 7.99354 4.12155 -0.0026542 -0.00427866 -0.00632088
88 2 -0.867567 7.44543 5.88337 4.46722 0.00317321 -0.00369049 -0.000623222
89 2 -0.884656 7.76311 7.40328 2.31131 -0.00411104 0.00596631 -0.00476009
90 2 -0.8763 2.48047 2.54793 9.16393 -0.00205823 -0.00537368 0.000399022
91 2 -0.937965 2.39659 14.635 7.53321 -0.00143866 -0.00250235 -0.00131422
92 2 -0.893761 14.4714 2.19536 7.9155 -0.000810952 -0.00220421 0.00420568
93 2 -0.891929 15.172 14.5836 9.58471 0.00272449 0.00073601 -0.00398906
94 2 -0.927815 2.33618 4.25034 10.9631 0.000709175 0.00209854 0.00547174
95 2 -0.944975 3.89089 2.48723 11.4271 0.0036191 0.00152065 0.00232342
96 2 -0.859795 4.36603 4.07857 9.50934 -0.00556431 0.00543536 0.00403783
97 2 -0.947359 2.5622 5.78304 12.9724 -0.00759503 -0.00265442 -0.00332815
98 2 -0.933123 14.8614 4.04018 13.0375 0.00448675 -0.00166169 -0.000331653
99 2 -0.911377 14.7104 5.99112 11.4124 0.000668777 0.00439238 -0.000405473
100 2 -0.969286 2.25183 7.62343 14.6189 0.00169509 0.000626818 0.00133949
101 2 -0.96968 4.06315 7.8096 12.8658 -0.00131627 -0.00378933 -0.00488642
102 2 -1.02574 5.77022 2.26341 13.1272 -0.00044871 -0.00288041 0.00324701
103 2 -0.935144 4.09596 14.6441 12.906 0.00212607 0.000915581 -0.00265746
104 2 -0.922211 5.8188 14.9151 11.0517 -0.000526365 -0.00422652 -0.000840129
105 2 -0.9577 7.5326 2.50229 14.9301 0.00100489 -0.00453178 0.0072605
106 2 -0.916111 7.65041 3.85574 12.8411 0.00118925 -0.00291092 0.00188642
107 2 -0.880717 5.79469 6.06405 9.71699 -0.00605172 -0.00282396 -0.000704044
108 2 -0.901718 6.09825 7.79171 11.556 0.00324248 0.00577206 0.00409054
109 2 -0.929467 7.78168 5.78549 11.1764 -1.70052e-06 -0.000334195 -0.00222204
110 2 -0.891552 7.52335 7.84534 9.61898 -0.00111078 0.0033495 -0.00336392
111 2 -0.913884 2.77448 9.53453 2.16818 0.00607261 0.00121431 -0.003271
112 2 -0.889451 15.1462 7.67005 2.62652 0.00427986 -0.00168561 0.00168121
113 2 -0.866493 14.6318 9.37736 15.1248 0.00213803 0.000378917 -0.00212679
114 2 -0.953807 2.37598 11.3012 3.88693 -0.00616982 -0.00180544 -0.00416039
115 2 -0.93245 4.07285 9.47204 4.15275 -0.00548857 0.00660678 -0.00451238
116 2 -0.942086 4.40783 11.3044 2.32667 -0.00128344 0.00186766 0.00246295
117 2 -0.956802 2.65968 13.2944 5.46429 0.000885149 -0.000925112 0.00125253
118 2 -0.871661 15.334 11.4521 6.18065 0.00638734 0.00263202 0.00581643
119 2 -0.917697 14.5445 12.8239 4.26003 -0.00659508 0.00262773 -0.000631591
120 2 -0.905945 4.14302 12.8674 7.39234 -0.00678584 0.00761749 -0.000310115
121 2 -0.944911 5.75217 9.55897 6.08769 -0.00526412 0.00173126 0.00339745
122 2 -0.90453 6.18042 11.4791 7.62273 0.00495185 0.0040149 0.00141855
123 2 -0.859775 7.61289 11.0711 5.78871 -0.00301961 0.00590752 0.00396152
124 2 -0.956567 7.81973 9.48514 7.65842 0.00302175 0.00639886 0.00808116
125 2 -0.946861 6.02022 13.0203 2.71938 -0.00061458 -0.00580179 0.000293539
126 2 -0.916687 4.49097 13.1217 14.8351 -0.00288751 -0.00450907 0.00280333
127 2 -0.975498 6.44622 11.4252 14.9813 -0.0031618 0.00240905 -0.00370714
128 2 -0.96009 7.91722 14.6053 2.39848 -0.000992693 -0.00172938 0.00198405
129 2 -0.877325 7.7353 13.3007 4.60738 -0.00510223 0.0055083 -0.00329432
130 2 -0.938639 2.37503 9.33083 9.75243 -0.00552444 -8.40755e-05 0.00455061
131 2 -0.935024 14.7855 7.5088 9.38452 -0.00498806 0.00296659 -0.00675371
132 2 -0.906853 14.885 9.40929 7.75964 0.000304181 0.00330772 8.79079e-05
133 2 -0.911273 2.49729 11.3644 11.1557 -0.00740624 0.000989924 -5.40056e-05
134 2 -0.883874 4.40246 9.64352 11.2031 -0.00064686 0.000275799 0.00247256
135 2 -0.927635 4.13229 11.1627 9.21651 -0.00323389 0.00639903 -0.00510904
136 2 -0.890172 2.40853 12.7406 13.3795 0.00373741 -0.00284867 -0.00124074
137 2 -0.884605 14.7934 10.832 12.9912 0.000684066 -0.00171662 -0.00376318
138 2 -0.915219 14.9575 12.9571 11.4781 0.0015134 0.000739539 -0.00387737
139 2 -0.918479 5.75898 9.75339 13.2071 -0.00482969 0.000339988 0.00434302
140 2 -0.970431 7.63325 9.19052 14.5518 0.00171389 -0.00522978 -5.01403e-05
141 2 -0.942269 8.00917 11.1043 13.0329 0.00416927 -0.00325666 0.00704869
142 2 -0.947087 5.67801 13.0734 9.42746 -0.00501785 0.00446447 -0.000891653
143 2 -0.931775 7.75933 14.4272 9.57698 -0.00314212 -0.000278409 0.00626589
144 2 -0.938644 7.29765 12.7333 11.2872 -0.00479935 0.00118951 -0.00133255
145 2 -0.898779 9.60018 2.38738 2.29441 -0.0068643 -0.00286397 -0.00309524
146 2 -0.918944 9.54502 14.9272 14.5536 -0.00869893 0.00544469 -0.000881097
147 2 -0.877209 9.53051 4.43529 3.93762 0.00120108 -0.000721001 0.005475
148 2 -0.908557 10.9689 2.48617 4.40091 -0.00167658 0.00753607 -0.00236828
149 2 -0.880363 11.5479 4.11043 2.63778 0.00899638 0.00618093 0.00480318
150 2 -0.919173 9.11951 5.857 6.25295 -0.00199644 -1.20435e-05 -0.00254745
151 2 -0.885725 11.2775 5.78352 7.78818 -0.00491655 -0.00424557 -0.00248016
152 2 -0.802527 11.0555 7.53968 6.03081 0.00239734 -0.00734648 -0.0101608
153 2 -0.892587 9.38916 7.60102 7.96184 0.0036091 0.00204056 -0.00662197
154 2 -0.928063 12.8298 2.51223 5.95168 0.0061499 0.00400375 0.000313828
155 2 -0.930468 11.2557 14.5466 5.9011 0.000353867 -0.00428397 -0.00522637
156 2 -0.912131 12.9859 14.8625 4.06844 0.00350367 0.000724566 -0.00356121
157 2 -0.914476 13.1077 4.20449 7.87163 0.00352556 0.00607468 -0.000119207
158 2 -0.929547 13.3292 5.93751 2.28737 0.0032216 0.00159281 0.00591583
159 2 -0.912677 11.1527 5.76411 14.854 0.011469 -0.00103087 -0.00118851
160 2 -0.855057 12.8759 4.17079 14.4997 -0.000320901 0.00233325 -0.00799759
161 2 -0.832483 12.8995 7.76005 4.10559 -0.0029531 0.00108432 -0.00723477
162 2 -0.86515 8.98357 2.42673 9.46638 -0.00418665 0.00304846 -1.0338e-05
163 2 -0.87 9.6215 14.7477 7.85916 0.00583187 0.00452976 0.0019272
164 2 -0.934713 9.61818 4.08187 11.4191 -0.00163802 -0.00938029 -0.00194973
165 2 -0.882832 10.9741 2.08785 10.9855 0.00310802 0.00103245 -0.00576762
166 2 -0.947807 11.1375 3.87748 9.46401 -0.0031983 -0.00187848 -0.00610417
167 2 -0.871404 9.13948 5.9041 13.2229 0.000374534 0.00173573 0.0029615
168 2 -0.94276 9.67047 7.83555 14.8258 -0.00297992 -3.98277e-05 -0.00345045
169 2 -0.944123 11.1599 7.42315 13.0157 0.00605701 -0.00859432 -0.000586196
170 2 -0.880958 13.0598 2.39797 12.6556 0.00219577 -0.000375877 -0.0050554
171 2 -0.906458 11.3259 14.6346 12.75 0.00351874 -0.00468612 0.00280203
172 2 -0.931319 13.0431 14.6607 10.9518 0.0026457 -0.00585134 -0.00249682
173 2 -0.906249 12.836 5.81386 9.80459 0.00454908 0.00428996 0.00215825
174 2 -0.905113 12.9286 7.80386 11.2175 -0.00386484 -0.00368638 -0.00218152
175 2 -0.922066 9.04648 9.49756 2.50091 0.000957118 -1.71351e-06 0.00144227
176 2 -0.904963 9.57736 11.4896 4.1832 0.000657322 0.00650211 0.00343878
177 2 -0.863408 10.8459 9.33649 4.17599 0.00315229 -3.91593e-06 0.00611596
178 2 -0.881605 10.9462 11.035 2.16668 -0.00114238 -0.000464988 -0.000511474
179 2 -0.870543 9.46145 12.7522 6.3484 0.00417637 -0.00761051 -0.00125222
180 2 -0.910644 11.3937 13.0652 7.90359 -0.00711656 -0.00492939 -0.0043323
181 2 -0.79024 13.7181 9.85995 5.5545 0.00281714 -0.001621 0.000456344
182 2 -0.889944 13.1398 11.3175 7.48793 0.00381345 0.00198889 0.00568898
183 2 -0.898472 12.5392 12.8841 2.58606 0.00506507 0.000735442 0.00266501
184 2 -0.918115 11.0583 12.845 14.4579 0.00250655 -0.00337774 -0.0105485
185 2 -0.931973 12.9634 11.2951 14.7224 0.00237744 -0.00486747 -0.0033109
186 2 -0.947373 9.37029 9.52345 9.6662 -0.00392246 -0.0012147 0.00349333
187 2 -0.926022 9.52666 11.3964 11.0586 0.0040179 -0.000805944 -0.00169607
188 2 -0.930541 11.0598 9.36138 11.3505 -0.000541577 -0.0023191 0.000738723
189 2 -0.936182 11.433 10.9902 9.37643 0.00849665 0.00072356 -0.00139613
190 2 -0.958927 9.25865 13.2247 12.6905 0.00551375 0.00610005 -0.00051809
191 2 -0.869673 13.0171 9.11661 13.2641 -0.00345423 -0.00145063 -8.32395e-05
192 2 -0.93149 13.3221 12.7609 9.48382 -0.0028285 0.000888781 -0.0017297
193 2 -0.619272 13.991 10.2119 10.1804 0.00689924 0.000319637 -0.000912808
194 2 -0.572814 12.272 8.7588 8.54488 -0.000679956 0.00349688 -0.000767537
195 2 -0.657626 1.72421 4.79192 1.60893 0.00176265 -0.000351785 0.00204807
196 2 -0.630421 12.1287 15.4243 15.4191 0.0104602 -0.00403663 -0.000186123
197 2 -0.615594 15.5432 1.69452 5.07284 -0.00374489 -0.00338272 -0.00095413
198 2 -0.638402 12.3853 12.1641 12.0587 0.00374659 -0.00209355 0.00643974
199 2 -0.59238 6.55645 6.93052 7.09523 0.00368277 0.00328069 0.00779508
200 2 -0.693927 10.6455 6.83917 3.66271 -0.0017448 -0.00104339 -0.00748559
201 2 -0.67742 12.0481 5.05473 5.15494 0.00150332 -0.000963929 0.00140574
202 2 -0.593898 10.3043 6.85199 10.5032 -0.00371864 0.00111402 -0.00674646
203 3 0.417748 13.4604 10.9876 10.4067 -0.0165252 0.023167 -0.00230836
204 3 0.418026 14.8552 10.4346 10.5196 -0.0365174 0.00352125 -0.00323439
205 3 0.42857 12.2759 9.67538 8.1749 0.00567269 -0.0122953 0.00824961
206 3 0.42907 13.1957 8.557 8.76976 0.00280218 7.08446e-05 -0.00978931
207 3 0.431453 1.25791 5.64569 1.64492 -0.0228407 -0.000973039 -0.00585529
208 3 0.394418 2.15286 4.6996 14.7884 0.0301444 -0.0205828 0.00293507
209 3 0.399402 12.6444 15.4739 2.13077 -0.0169917 -0.00669502 -0.00961326
210 3 0.445355 11.2171 1.49199 1.43297 0.0199669 0.0115993 0.00635052
211 3 0.464522 15.6934 1.3664 4.21542 0.00644657 0.00902805 -0.0112942
212 3 0.436625 1.82145 2.55529 5.17103 0.0268938 -0.0192542 0.00957105
213 3 0.42263 12.2163 13.0899 11.8834 -0.0134297 0.00796315 0.0173199
214 3 0.406019 12.3243 12.1506 13.0856 0.0134495 0.0289541 -0.0117245
215 3 0.390328 7.52043 6.82038 7.45404 0.0137133 0.000885631 0.022281
216 3 0.412045 6.84053 6.82979 6.16781 -0.020521 -0.0255945 -0.00183703
217 3 0.462374 10.8672 5.90668 3.95434 -0.000394711 0.00382003 -0.00471949
218 3 0.513499 13.7162 9.38472 4.74049 -0.0130184 0.0284681 -2.82455e-05
219 3 0.41857 12.5524 5.32292 5.93697 -0.00927645 -0.00642904 -0.0113644
220 3 0.436675 12.0403 4.08723 5.04885 0.00122975 0.00585658 -0.0261256
221 3 0.426174 11.2569 6.79213 10.6555 0.0206265 -0.000717442 0.00347393
222 3 0.430708 10.133 7.76994 10.6124 -0.00610487 -0.0247173 -0.0211072
ITEM: TIMESTEP
20000
ITEM: NUMBER OF ATOMS
222
ITEM: BOX BOUNDS pp pp pp
1.5368348853047031e+00 1.5623165114695357e+01
1.5368348853047031e+00 1.5623165114695357e+01
1.5368348853047031e+00 1.5623165114695357e+01
ITEM: ATOMS id type q x y z vx vy vz
1 1 1.68103 15.5521 15.6876 15.6219 -0.0028456 0.00352824 -0.0014662
2 1 1.75115 3.38356 3.31204 3.30108 -0.000914785 0.000289754 0.00013653
3 1 1.71494 1.58496 5.05738 5.09105 -0.00167911 0.00374749 -0.00253805
4 1 1.73834 3.31462 6.70073 6.91249 0.000534883 0.00142049 0.000592404
5 1 1.8748 5.07929 1.56883 5.05591 0.00305184 0.00185542 0.00326498
6 1 1.7188 6.83284 3.19629 6.85083 -0.000827906 -0.000964544 0.00191827
7 1 1.79002 5.00263 5.1464 15.5582 -0.000944117 0.000430796 0.00569426
8 1 1.7507 6.78729 6.80275 3.29445 0.00403148 -0.00117647 -0.00157822
9 1 1.87823 1.71765 15.4961 8.44554 -0.00104429 0.00172854 -0.00109581
10 1 1.80332 3.31871 3.08818 10.2773 0.00346195 0.00578562 0.000871547
11 1 1.82964 1.5952 4.90896 11.951 0.00040946 0.00146479 0.00225547
12 1 1.75694 3.1974 6.82134 13.687 0.000743165 -0.00191371 0.000897316
13 1 1.80088 5.1356 15.714 12.1857 -0.00650522 0.000915505 -2.29732e-05
14 1 1.8191 6.81051 3.4127 13.8903 0.0019213 0.00137181 -0.000640542
15 1 1.77036 5.17159 4.97663 8.75149 -0.00601802 0.00174534 0.00362198
16 1 1.85481 6.88146 6.82354 10.5129 0.00220263 0.00293488 -0.00408043
17 1 1.74189 1.55261 8.49904 15.6935 -0.00299418 -0.00319062 0.00116799
18 1 1.80696 3.33009 10.1608 3.36987 0.00111046 -0.000172265 0.00224166
19 1 1.86596 1.69521 12.0921 4.94517 0.00123681 0.00105911 -0.00135694
20 1 1.85191 3.38423 13.7616 6.73771 0.00198924 -0.00141741 0.0025228
21 1 1.72035 5.13452 8.46799 5.22952 0.00433647 0.00120136 -0.00194136
22 1 1.87309 6.98385 10.3452 6.88618 -0.00173715 -0.00439059 -0.00097612
23 1 1.84239 4.98294 12.057 1.67979 -0.0019688 0.000940823 -0.00130643
24 1 1.91178 6.78741 13.7694 3.35895 0.00119388 -0.00335045 -0.00139611
25 1 1.77487 15.6504 8.55993 8.57325 0.00021932 -0.00437135 -0.00291017
26 1 1.83431 3.3847 10.3046 10.293 -0.00076293 -0.00491466 0.000883599
27 1 1.77001 1.76944 12.0432 12.2836 0.00234132 -0.0019104 -0.00376414
28 1 1.74805 3.37268 13.9607 14.0037 -0.00170393 -0.00188111 0.0012996
29 1 1.80858 5.09671 8.65128 12.1382 -0.000963715 -0.00149984 -0.00364386
30 1 1.67556 6.84704 10.4694 13.9239 0.005424 -0.00121462 0.00362812
31 1 1.86288 5.14882 12.0423 8.56633 0.00202565 0.00355412 -0.00165982
32 1 1.7902 6.74035 13.8761 10.3277 0.000582708 0.00181894 0.0049398
33 1 1.75411 8.42292 1.43241 15.6381 0.00139784 -0.00208379 -0.000786786
34 1 1.72799 10.3484 3.15353 3.1784 -0.00370791 0.00463753 0.00105511
35 1 1.73713 8.55756 4.89248 4.9458 0.00220755 9.00525e-05 -0.00512178
36 1 1.69792 10.0965 6.61961 6.99448 0.00191321 -0.00355138 0.000318683
37 1 1.8077 12.1633 15.5561 5.00364 -0.00836245 0.00228395 9.9975e-05
38 1 1.7972 13.91 3.17971 6.81183 1.18503e-05 -0.00274151 3.05688e-05
39 1 1.70797 12.0635 5.00413 1.40425 0.000900363 -0.00390752 -0.00670875
40 1 1.7297 13.7576 6.78406 3.37586 -0.00215632 0.00187386 0.00151472
41 1 1.90951 8.57584 15.488 8.53979 0.00425687 0.000473996 0.00676405
42 1 1.82234 10.2462 3.26866 10.1978 0.000390624 0.00354279 -0.000185698
43 1 1.86164 8.67325 5.01555 12.1963 -0.0041884 -0.00459062 -0.000188028
44 1 1.84384 10.328 6.88782 13.8907 0.000690059 0.00286859 -0.00390752
45 1 1.66597 12.1041 15.6568 11.9491 0.00166297 0.00170954 0.00512889
46 1 1.70944 13.8972 3.27428 13.7511 -0.00272741 -0.00489522 0.000759188
47 1 1.78601 12.1777 4.97232 8.56785 0.00463805 -0.00230892 -0.00120713
48 1 1.73271 13.9063 6.8016 10.361 0.00358088 -0.00106701 -0.00879204
49 1 1.95902 8.52036 8.61808 15.6445 0.000531275 0.0043998 0.00307419
50 1 1.79852 10.1918 10.3892 3.28617 7.19988e-05 -0.00190892 -0.00379314
51 1 1.94023 8.57068 12.1296 5.06007 0.0036367 0.00100536 0.00100053
52 1 1.78506 10.3751 13.8274 6.80241 0.00425861 -0.000855578 0.00371484
53 1 1.58693 11.3189 7.95057 4.53605 0.000302921 -0.00167241 0.00300552
54 1 1.76553 14.113 10.6444 6.93945 -0.000475788 -0.00300407 -0.000851993
55 1 1.77571 11.9521 12.0649 15.6041 0.00479266 -0.00343488 0.000982482
56 1 1.77962 13.8705 13.6832 3.22507 -0.00195449 0.0065359 -0.00490224
57 1 1.82917 8.63408 8.58464 8.78356 -0.00173797 -0.00476731 -0.000895367
58 1 1.80933 10.4273 10.4281 10.4499 -0.00356417 0.000427011 0.00512407
59 1 1.9016 8.53013 12.1421 12.0681 -0.0025005 0.000590779 0.00153571
60 1 1.72311 10.2646 13.9303 13.7676 0.000162386 0.00378649 -0.00281653
61 1 1.81524 12.2314 8.61586 12.2264 0.00562775 0.00377963 -0.00248049
62 1 1.74774 13.9175 10.4036 14.0289 0.000261075 0.0017362 0.00175615
63 1 1.86214 12.1626 12.2749 8.7086 -0.00293223 -0.000437233 -0.00232679
64 1 1.82969 14.1104 13.829 10.4935 -0.00121065 -0.00258134 0.000163367
65 2 -0.897791 2.22012 2.46663 2.6488 -0.00448689 -0.000203691 -0.00389054
66 2 -0.89085 2.4137 15.0527 14.5994 -0.000458673 -0.00640399 -7.5841e-05
67 2 -0.929142 14.4407 2.41432 14.914 0.00696974 0.000337765 -0.00322942
68 2 -0.902037 14.8171 14.5249 2.34549 0.000403046 0.00638214 -0.00657389
69 2 -0.914754 2.69796 4.27814 4.3065 -0.0028518 0.00239518 0.00484101
70 2 -0.935517 4.06142 2.19042 4.12475 -0.0070719 -0.00183101 0.000800367
71 2 -0.940636 4.30227 4.07513 2.3434 -0.00914635 0.000545803 -0.00476599
72 2 -0.871863 2.18321 6.06464 6.08768 -0.00274503 -0.00123041 -0.00446425
73 2 -0.898554 14.9443 3.92777 5.93853 0.00149814 0.00161699 -0.00151689
74 2 -0.897567 14.6203 5.83631 4.25199 0.00393222 -0.0115965 0.00131996
75 2 -0.824913 4.05378 5.62162 7.84711 0.00253034 0.000117729 0.00300838
76 2 -0.864014 4.22921 7.33867 5.87626 -0.000206692 0.00469126 0.00376464
77 2 -0.880711 2.70568 7.74755 7.89056 -0.00235273 0.00156136 0.00864349
78 2 -0.909976 5.71285 2.62113 5.9489 0.00361108 -0.00154564 0.00248085
79 2 -0.911423 4.37584 14.7376 6.08846 -0.00368303 -0.00301807 0.0011546
80 2 -0.923151 6.05439 14.8535 4.16411 -0.00121285 -0.00451434 -0.000439862
81 2 -0.880651 6.21077 4.15801 7.92679 -0.00533252 0.000752709 0.00322938
82 2 -0.872353 7.93897 3.85806 5.8456 -0.00564358 -0.00105346 -0.00137431
83 2 -0.88315 7.50111 2.09565 7.67697 -0.00269138 0.000534891 0.00630948
84 2 -0.847673 5.71059 6.18743 2.33168 -0.00294636 -0.00671283 0.00164936
85 2 -0.886024 4.05708 6.00861 14.7679 -0.0013675 0.00390384 -0.00456399
86 2 -0.864015 6.18981 4.63495 14.6449 -0.000657713 0.00317918 0.00349062
87 2 -0.886937 6.06862 7.85469 4.16373 0.00276581 0.00402262 -0.00281395
88 2 -0.884283 7.46175 5.68877 4.2062 -0.000260568 0.00191944 0.000478045
89 2 -0.910182 7.77392 7.54494 2.36928 0.0019484 -0.00782554 0.000880251
90 2 -0.950352 2.76401 2.25985 9.0976 -0.00201694 -0.00480892 -0.000479145
91 2 -0.972867 2.34809 14.4156 7.68396 0.00288896 -0.00493192 0.00198639
92 2 -0.91347 14.6576 2.20176 7.72409 0.00215539 0.00266123 0.000369546
93 2 -0.861378 14.9442 14.6946 9.54029 -0.00229616 0.000688916 -0.00914565
94 2 -0.923806 2.21456 3.95665 10.8733 0.00431326 0.0037646 0.00111055
95 2 -0.938065 4.00361 2.24443 11.3828 0.00242102 -0.00116697 0.00250036
96 2 -0.883613 4.43583 4.00298 9.63743 -0.0027082 0.000697233 -0.00104758
97 2 -0.931373 2.54116 5.91303 12.6091 0.00103388 -0.000278384 0.000202063
98 2 -0.924685 14.9537 4.09965 13.0417 -0.000110184 0.00223723 0.00245412
99 2 -0.883478 14.6212 5.76058 11.2932 0.000149865 0.00101754 -0.00503256
100 2 -0.911385 2.17238 7.59402 14.5658 0.00312811 0.000160324 0.00022506
101 2 -0.904178 4.14527 7.80977 12.9739 0.000728808 -0.00244687 -0.00152666
102 2 -0.950024 5.71009 2.52495 13.2885 -0.00180389 -0.00232996 0.00204585
103 2 -0.846372 4.42337 14.5696 12.9949 -0.000465692 0.000217174 0.0039753
104 2 -0.887975 6.15972 14.9933 11.2936 -0.00393764 0.00670463 -0.0061394
105 2 -0.872188 7.55275 2.52965 14.9074 -0.00150143 -0.00383966 -0.00419749
106 2 -0.936701 7.82519 4.0007 12.9485 0.000723116 3.96226e-05 -0.00296926
107 2 -0.881633 5.73613 6.08995 9.66241 -0.00352958 -0.00381739 -0.000596194
108 2 -0.890863 6.18873 7.77897 11.4552 0.00046572 0.00139619 0.0111174
109 2 -0.94611 7.63085 5.81926 11.3401 -0.00766908 -0.00900988 0.00870572
110 2 -0.955167 7.59619 7.80163 9.61617 0.00136713 0.00204894 0.00694051
111 2 -0.883915 2.68007 9.12707 2.44326 -0.00579813 -0.000991604 -0.00193755
112 2 -0.900476 14.7367 7.68935 2.56704 -0.00691031 -0.00638406 -0.00267194
113 2 -0.869991 14.8072 9.63851 15.0191 0.00470589 0.000555201 0.00611818
114 2 -0.933463 2.21263 10.9572 4.05457 -0.00185682 -0.00132606 -0.00221563
115 2 -0.852119 4.1208 9.38984 4.51404 -0.00308129 0.00525398 0.00276128
116 2 -0.953638 4.27883 10.9694 2.47272 -0.000779525 -0.00427581 0.00101727
117 2 -0.910335 2.80311 13.0266 5.5106 -0.000683931 2.42886e-05 -0.0036234
118 2 -0.910539 15.1542 11.4632 6.20767 -0.00150897 -0.00039733 0.0035564
119 2 -0.943611 14.7238 12.8321 4.19622 -0.00208633 -0.00139952 -0.000317294
120 2 -0.887989 4.10643 12.691 7.56553 -0.00249986 -0.00236267 0.00387543
121 2 -0.945249 5.98979 9.33318 6.25879 0.000918954 0.00576989 -0.000938753
122 2 -0.937544 6.27956 11.3695 7.77799 -0.000492097 0.0049138 -0.00225634
123 2 -0.973651 7.7425 11.1294 5.82362 -0.001966 0.00142764 -0.00266075
124 2 -0.939157 7.92683 9.58582 7.81464 -0.000169119 -0.00713468 -0.00145194
125 2 -0.931301 5.71555 12.8925 2.76194 0.00194513 -0.00026819 5.69051e-05
126 2 -0.885062 4.11871 13.157 15.127 -0.00451388 0.00320492 -0.00129304
127 2 -0.894693 5.97081 11.5383 14.7348 -0.000615494 -0.00306156 -0.0091484
128 2 -0.967215 7.64676 14.3894 2.27068 -0.00397068 0.00488527 -0.000699691
129 2 -0.985767 7.58048 13.0994 4.47573 -0.0052752 1.71971e-05 -0.00312374
130 2 -0.941148 2.27386 9.605 9.48106 7.47616e-05 0.00487827 0.000403062
131 2 -0.940389 14.639 7.61686 9.24704 0.00317594 0.00372482 -0.00179412
132 2 -0.937389 14.7345 9.45647 7.70005 0.00819758 -0.00108616 -0.00439744
133 2 -0.918059 2.70928 11.3191 11.2661 0.00434779 0.00281654 0.000824652
134 2 -0.918386 4.07607 9.2602 11.1709 0.00417848 0.00495458 0.0111476
135 2 -0.952322 4.36821 11.0535 9.40487 0.000657721 0.000246779 0.00694645
136 2 -0.906359 2.47704 12.944 13.3606 -0.00468775 0.00534827 -0.00801032
137 2 -0.920475 14.9832 11.0676 13.0461 0.00461206 0.00518981 -0.0033988
138 2 -0.983354 14.9755 12.8484 11.3243 -0.00578999 0.00157287 -0.00418745
139 2 -0.843128 5.96086 9.78209 12.789 -0.00263302 -0.00523155 -0.00397538
140 2 -0.915484 7.52494 9.31615 14.7722 0.00682719 0.00559877 0.00491788
141 2 -0.910403 7.93498 11.3372 13.1797 -0.00165466 0.00186153 -0.00157832
142 2 -0.917113 5.65383 13.1615 9.46388 0.000517005 -0.00489733 -0.00232912
143 2 -0.94206 7.80745 14.5949 9.47283 0.00450098 -0.00539785 0.00276551
144 2 -0.90781 7.4982 12.79 11.1529 0.00311896 0.00590083 -0.00115065
145 2 -0.919379 9.34014 2.28292 2.46595 0.00317707 0.00521665 0.00288329
146 2 -0.917487 9.487 14.9414 14.6331 -0.00755465 -0.00260597 0.00082763
147 2 -0.929125 9.56166 4.24202 3.93772 0.000364291 0.000785855 0.00137994
148 2 -0.93807 11.0952 2.30677 4.24224 0.00116532 -0.00212754 0.00243264
149 2 -0.946153 11.3967 3.83361 2.16244 -0.00108939 0.000675078 -0.00137288
150 2 -0.943416 9.18646 5.87685 5.9913 -0.000547782 0.00105492 0.0036403
151 2 -0.9447 11.2573 5.73497 7.62772 0.00409024 -0.00524891 -0.00306179
152 2 -0.839167 10.8657 7.53051 5.94376 0.00109321 0.00442965 -0.0047599
153 2 -0.971417 9.16631 7.46075 7.86612 0.000714175 -0.00534039 0.00379215
154 2 -0.971693 12.8808 2.53543 5.84367 0.00077755 0.00427207 -0.0016164
155 2 -0.876271 11.4056 14.4779 5.82193 -0.00402786 -0.00721608 0.00239702
156 2 -0.887267 13.1036 14.7725 4.12173 0.000456704 -0.00213378 -0.0022041
157 2 -0.920731 13.1676 4.2756 7.62932 0.00444299 0.00148903 0.000249117
158 2 -0.886197 13.0305 5.97393 2.17062 0.000777751 -0.00517178 0.0028
159 2 -0.879002 10.9477 5.81348 14.7823 0.00237971 0.00219728 0.000300732
160 2 -0.860956 12.9172 4.36231 14.382 -0.00862038 -0.0021087 0.00267414
161 2 -0.914758 12.7619 7.68567 4.08284 -0.00171251 0.00341962 0.00227228
162 2 -0.932713 9.16676 2.5408 9.33523 -0.00127166 -0.00268019 0.00626286
163 2 -0.938678 9.58213 14.9376 7.54129 -0.00137841 0.00530174 -0.000659005
164 2 -0.884223 9.55814 4.06101 11.3552 -0.0024259 0.00205968 0.000727492
165 2 -0.865228 11.0037 2.2923 11.0954 -0.00381244 -0.000585249 -0.000897894
166 2 -0.941377 11.2444 3.9422 9.29079 -0.00314628 -0.00180438 0.00347163
167 2 -0.953571 9.41332 6.12572 12.9763 -0.00301744 -0.00582201 0.000942554
168 2 -0.93789 9.50879 7.94773 14.6997 0.00171306 0.00246895 -0.00900162
169 2 -0.900245 11.4806 7.59091 13.0885 -0.0029128 -0.00229145 -0.00650531
170 2 -0.856301 12.84 2.60559 12.8376 0.00184726 0.00174906 0.00154254
171 2 -0.887265 11.3866 14.5937 12.9123 0.00528661 0.00410918 -0.00307356
172 2 -0.923196 13.2384 14.851 11.177 0.00540485 0.00509003 -0.00342726
173 2 -0.899268 12.9961 5.8391 9.59176 0.000745474 0.000956394 0.000859883
174 2 -0.948246 12.9761 7.74142 11.2159 0.00377317 -0.000889033 0.0034692
175 2 -0.986836 9.10808 9.62673 2.48841 -0.00261242 4.42387e-05 0.000943137
176 2 -0.963251 9.55867 11.5629 4.03843 0.00296605 0.0056341 -0.0014854
177 2 -0.877824 10.8835 9.43939 4.32721 0.00759674 0.000351682 -0.000791153
178 2 -0.887208 11.2398 10.8608 2.28695 0.00197555 -0.0017208 0.00412768
179 2 -0.92786 9.46399 12.7828 6.12005 0.00283822 0.0036383 -0.00357604
180 2 -0.913423 11.264 13.2133 7.9511 -0.00777195 -0.000616503 -0.000912339
181 2 -0.755646 13.272 10.0744 5.78084 -0.00199092 0.00411045 0.000660233
182 2 -0.947396 13.0875 11.482 7.77339 0.00195252 0.00467763 0.00166765
183 2 -0.909326 12.7638 12.858 2.54364 -0.00175167 0.00112095 -0.000832131
184 2 -0.925771 10.9972 12.8293 14.6935 -9.46302e-05 -0.000257281 0.00223654
185 2 -0.933529 12.9876 11.4758 14.6278 -0.00167034 0.00224516 3.03647e-05
186 2 -0.93874 9.50066 9.42143 9.68601 0.00604156 -0.00411373 -0.00411599
187 2 -0.937693 9.42916 11.3378 11.1287 0.00167746 0.0038439 -0.00572606
188 2 -0.937899 11.122 9.43419 11.466 0.00113547 -0.00593927 0.00236111
189 2 -0.973882 11.3207 11.2312 9.46581 0.00436089 -0.00110236 -0.00171183
190 2 -0.935866 9.38649 13.2229 12.7457 -0.00151898 -4.69814e-05 0.00473093
191 2 -0.930405 13.0189 9.36922 13.2526 0.00377658 0.0021328 0.00139308
192 2 -0.958045 13.0788 13.0114 9.72536 0.001486 -0.00567477 0.00361846
193 2 -0.621235 13.8783 10.409 10.6693 0.00744047 -0.000279233 -0.0025354
194 2 -0.593539 12.0422 8.75912 8.28835 0.00120971 0.00404584 0.000409204
195 2 -0.595291 1.51146 5.11878 1.56398 -0.00383577 -0.000324558 0.00234227
196 2 -0.599217 12.0196 15.5829 15.5906 0.0112736 -0.000885926 0.00243117
197 2 -0.578686 1.62843 1.57269 4.97795 0.0015662 0.00115411 -0.00353186
198 2 -0.670293 12.0639 12.2167 12.0804 -0.000307299 0.000586886 0.000632439
199 2 -0.589947 6.57823 6.78495 7.00665 0.00283858 -0.00347856 -0.00461124
200 2 -0.71131 10.5445 6.95862 3.63689 0.00134834 0.00195779 -0.00461361
201 2 -0.656549 12.1124 5.01416 4.97907 -0.00515476 -0.00136618 0.0021302
202 2 -0.622242 10.4276 6.83437 10.5253 -0.00339283 0.00168099 -0.00155381
203 3 0.429 13.5337 11.2133 11.1027 0.00911547 0.0145667 -0.00543969
204 3 0.407888 14.8537 10.4963 10.6822 0.00887512 -0.0243773 -0.00640215
205 3 0.409457 11.8154 9.7263 8.18699 -0.0267751 0.0102983 -0.00298689
206 3 0.434939 13.021 8.68482 8.46246 -0.0249076 0.0149892 0.0145561
207 3 0.411159 14.6562 5.13792 1.30161 0.0247884 -0.00299283 0.0336122
208 3 0.40258 1.72163 6.05269 15.8345 -0.00119001 -0.00904282 -0.00527965
209 3 0.432145 12.4064 2.3618 15.4797 -0.0240238 0.00951014 -0.0056381
210 3 0.421937 11.1006 15.7425 15.464 0.0177611 0.00885599 0.0202738
211 3 0.420954 15.6588 15.2746 4.01551 -0.00301554 -0.0440153 -0.00911497
212 3 0.437213 1.83278 2.47729 4.91063 -0.00571389 -0.0139103 0.0417878
213 3 0.411595 12.167 13.1644 11.845 0.0388598 -0.0166245 -0.0109264
214 3 0.441191 11.8565 12.2113 12.9692 -0.0177516 -0.0349502 0.0226791
215 3 0.405613 6.71995 7.74307 7.12554 0.00642209 -0.00375719 -0.0144083
216 3 0.415187 7.52871 6.41818 7.05173 -0.0234652 -0.00880884 -0.012295
217 3 0.43193 10.4897 6.08495 4.0513 -0.00196972 -0.00969387 0.0111936
218 3 0.50501 12.8249 9.64105 5.05435 -0.00955587 0.0083988 0.0121934
219 3 0.438471 12.1281 5.10508 5.92111 0.00951944 -0.00560844 0.00821577
220 3 0.404863 11.9498 4.03438 4.84201 -0.00821628 0.000323646 0.00582894
221 3 0.430872 11.3851 6.78931 10.4789 -0.0370542 -0.012295 -0.0103818
222 3 0.422647 10.2041 7.6555 11.0049 0.0163955 -0.0158254 0.00449468
