ITEM: TIMESTEP
0
ITEM: NUMBER OF ATOMS
216
ITEM: BOX BOUNDS pp pp pp
0.0000000000000000e+00 1.7160000000000000e+01
0.0000000000000000e+00 1.7160000000000000e+01
0.0000000000000000e+00 1.7160000000000000e+01
ITEM: ATOMS id type q x y z vx vy vz
1 1 0.861273 0.014624 0.00326537 17.1593 0.000299126 7.12215e-05 -0.00170197
2 1 0.88106 2.10956 2.1728 2.09335 0.00146252 -0.00570669 0.000527331
3 1 0.870048 0.0142918 4.29537 4.23959 -0.00293392 0.00495068 0.000405832
4 1 0.921877 2.10337 6.45109 6.39724 -0.00158123 -0.00570125 -0.00165894
5 1 0.819275 4.23161 0.0783014 4.13004 -0.00138502 0.00425199 -0.00355123
6 1 0.861463 6.46172 2.19969 6.42691 -0.00154626 0.00232611 -0.00394298
7 1 0.963835 4.28859 4.26846 17.1396 0.0003012 6.14649e-05 0.0028677
8 1 0.889572 6.46966 6.39348 2.16536 0.00328214 0.000642639 0.000567406
9 1 0.926978 17.1009 17.0938 8.55378 0.00235158 0.00581345 0.00337273
10 1 0.856281 2.19226 2.16108 10.7218 0.000950606 -0.00428345 0.00300005
11 1 0.931282 0.025875 4.27996 12.898 0.00241477 0.00141518 -0.00427397
12 1 0.890754 2.16256 6.4192 15.0178 0.00560316 0.00213942 0.00449409
13 1 0.866632 4.34553 0.101815 12.8213 -0.00143227 0.000929056 0.0041597
14 1 0.932511 6.43821 2.17046 14.9835 0.00106461 -0.00305405 0.00147874
15 1 0.926769 4.32177 4.2747 8.60714 0.00210696 -0.000970916 -0.000269628
16 1 0.835054 6.41989 6.44822 10.7221 -0.000133302 -0.00294205 0.00208377
17 1 0.830733 0.050088 8.53219 0.0120044 0.00736376 -0.00381629 0.000376183
18 1 0.922525 2.14914 10.6882 2.14826 0.000265932 -0.00238465 -0.000805962
19 1 0.877173 17.1598 12.8384 4.23481 0.00456845 0.0027077 0.000159171
20 1 0.839244 1.98718 14.977 6.39077 0.000907683 -0.00323381 0.00119983
21 1 0.900499 4.26757 8.57903 4.30877 0.00174591 -0.00177983 0.0033522
22 1 0.921745 6.43601 10.7021 6.41307 -0.00129707 0.00282384 -0.00102492
23 1 0.947262 4.32551 12.8244 0.0346168 -0.00277365 0.0030707 -5.2338e-05
24 1 0.891197 6.39488 14.9949 2.12882 0.00130484 0.00198438 0.0022717
25 1 0.892715 17.1331 8.58619 8.5277 -0.00453684 -0.00518144 -0.00129876
26 1 0.92294 2.13595 10.7098 10.7035 -0.0016579 -0.00183563 1.38327e-05
27 1 0.92226 17.1293 12.8265 12.8449 -0.00270772 -0.00188383 -0.00185729
28 1 0.847413 2.16336 15.0762 15.0057 0.000197858 -0.00175155 0.00410568
29 1 0.870186 4.30395 8.54679 12.845 -0.00334049 0.00521237 -0.000783113
30 1 0.998073 6.45164 10.6999 15.0434 0.00311517 0.00296128 0.00123842
31 1 0.926289 4.34513 12.8406 8.49984 -0.00191768 0.000550046 0.000674868
32 1 0.71139 6.46852 14.9793 10.6463 0.000312933 0.00101037 -0.00262728
33 1 0.917729 8.60754 0.0396564 17.0993 0.000299805 -0.000860045 0.000334216
34 1 0.902974 10.7524 2.15452 2.12772 -0.00152526 -0.00270882 0.00048484
35 1 0.843796 8.57033 4.26288 4.26349 -0.0031392 0.0049699 -0.00630584
36 1 0.955243 10.7208 6.46679 6.4143 -0.00224016 -0.000275259 0.0024552
37 1 0.948406 12.8661 0.0248431 4.29641 0.00713404 -0.00121252 -0.0102914
38 1 0.864575 15.0063 2.11631 6.46241 -0.00257913 0.00418843 -0.000835512
39 1 0.935031 12.8801 4.30731 0.0278108 -0.00128361 -0.00182764 0.00211723
40 1 0.937607 15.0481 6.42147 2.11925 0.00270242 -0.00126556 0.00655399
41 1 0.912411 8.56786 0.0315363 8.53575 -0.00144552 -0.00263364 -0.00475978
42 1 0.93653 10.7644 2.14505 10.7505 -0.000345979 -0.0018127 0.0083616
43 1 0.915464 8.57624 4.27882 12.8813 0.00226127 -0.00185288 -0.000714826
44 1 0.93206 10.5902 6.3024 15.1582 0.00142283 -0.00193343 0.00792925
45 1 0.854203 12.8487 0.0322748 12.8961 0.00054825 0.00353643 0.0027554
46 1 0.961612 15.0022 2.15912 15.001 0.00410379 -0.00141271 -0.00139632
47 1 0.879938 12.8993 4.29042 8.58578 -0.000878979 0.00372819 -0.000314133
48 1 0.901054 14.9269 6.4537 10.7179 0.000482966 -0.00168391 0.0016103
49 1 0.818648 8.59666 8.60117 17.159 0.000863856 -0.00105036 -0.00480494
50 1 0.875404 10.7656 10.7752 2.16153 -0.000226967 -0.00425486 0.00391124
51 1 0.862291 8.59411 12.8672 4.27552 -0.0011469 0.00255738 0.00393162
52 1 0.935781 10.737 14.9979 6.42362 0.00124397 -0.00308571 0.00857825
53 1 0.966776 12.8772 8.6127 4.2768 -0.00314682 0.00405083 -0.000941096
54 1 0.911928 15.0152 10.7332 6.421 0.000921407 -0.00135214 0.00291456
55 1 0.944761 12.9183 12.846 0.0217616 -0.00137869 -0.000664835 0.000638328
56 1 0.941854 15.0483 14.9785 2.11633 0.00389768 0.0034008 -0.00257696
57 1 0.947281 8.52958 8.56196 8.56781 0.00239072 -0.00353053 -0.00355655
58 1 0.892991 10.7361 10.6888 10.7489 0.00126963 0.0020476 0.00102117
59 1 0.942748 8.69128 12.8282 12.9002 0.00361988 -0.000881378 -0.00614015
60 1 0.890223 10.7566 15.042 14.9865 0.0015171 0.000565968 -0.00156573
61 1 0.882105 12.8247 8.52891 12.8654 0.0049239 -0.00183947 0.00137409
62 1 0.898646 15.0447 10.7389 15.0317 0.000810882 0.000485971 -0.00148665
63 1 0.894268 12.8662 12.8631 8.55103 -0.00182252 -0.00259847 0.00250261
64 1 0.837093 14.9952 14.9363 10.6653 -0.00161981 -0.00213821 0.00115976
65 2 -0.455591 1.22788 1.12401 1.12445 -0.00252242 0.00506607 -0.00222327
66 2 -0.443451 0.994722 16.2705 16.1168 0.000728639 0.004394 0.000279862
67 2 -0.441877 15.9798 1.08923 16.0036 -0.00664815 0.000618944 -0.000944964
68 2 -0.455202 16.1063 15.9162 1.14845 0.00396704 -0.0011904 -0.00209733
69 2 -0.461083 1.00855 3.2921 3.34303 -0.000901172 -0.00149036 -0.00199436
70 2 -0.464995 3.32146 1.13409 3.2309 0.00169379 -0.000561339 0.00437361
71 2 -0.467953 3.23327 3.33931 0.96312 -0.00238577 -0.00383153 -0.000525251
72 2 -0.463993 1.05703 5.44968 5.46807 0.00867415 0.00103644 -0.00528443
73 2 -0.444333 16.045 3.23385 5.39347 -0.000416823 0.00147864 0.00263048
74 2 -0.467417 16.1005 5.49628 3.06652 -0.000527773 0.000204398 0.00881466
75 2 -0.437873 3.14747 5.28562 7.46223 2.73534e-05 -0.00368349 -0.00357868
76 2 -0.469296 3.35897 7.55956 5.2794 -0.00427063 -0.00667644 0.000414814
77 2 -0.469361 1.12154 7.36099 7.45368 -0.000314533 0.001236 0.00298123
78 2 -0.466173 5.37832 1.06918 5.32898 0.000484096 -0.00370565 -0.00367235
79 2 -0.490927 3.00799 16.1517 5.19569 0.00275859 -0.00879612 -0.000556002
80 2 -0.499225 5.39089 15.9653 3.09672 -0.00201149 -0.00238732 -0.00344332
81 2 -0.463939 5.38031 3.37573 7.6345 -0.00286703 0.00350397 -0.00411454
82 2 -0.463711 7.40565 3.08115 5.36665 0.00730201 0.00189614 0.00468704
83 2 -0.465056 7.56948 0.980618 7.54908 0.00150662 -0.000351224 -0.00487168
84 2 -0.469124 5.34941 5.316 0.970936 -0.00682069 0.00286412 0.000335785
85 2 -0.458925 3.22257 5.49889 16.0297 0.0030326 -0.00348952 0.00405829
86 2 -0.486241 5.28278 3.35948 16.0957 -0.000442697 0.000998849 8.43198e-05
87 2 -0.436575 5.3398 7.57769 3.21436 -0.00107847 0.00297881 0.00159502
88 2 -0.481568 7.49464 5.44875 3.09685 0.00284547 -0.00419131 0.00569009
89 2 -0.464628 7.58953 7.38298 1.11961 0.000251238 -0.002226 0.00276555
90 2 -0.45139 1.13328 1.01249 9.57199 0.000913249 0.00428445 0.000104246
91 2 -0.469261 0.929886 16.0805 7.6522 -0.0021304 0.000609932 0.00377505
92 2 -0.492163 16.0291 1.18344 7.39814 -0.00385476 -0.000707074 0.00286335
93 2 -0.491587 16.2097 16.1153 9.60978 -0.00363969 -0.00238719 0.000444281
94 2 -0.452743 1.04901 3.23674 11.942 0.00323276 0.00303091 0.00202519
95 2 -0.4647 3.38389 0.985484 11.7859 -0.000726293 0.0022033 -0.0031267
96 2 -0.474674 3.08891 3.1718 9.7397 -0.00514207 -0.00132972 0.000743573
97 2 -0.46003 0.992691 5.20608 13.9294 0.000556247 0.00392111 0.00456013
98 2 -0.459278 16.0714 3.11121 14.0389 -0.00378142 0.00332403 0.00398297
99 2 -0.4202 16.0891 5.46035 11.8252 0.000890188 -0.000356232 -0.00652845
100 2 -0.502546 1.02469 7.65291 16.1055 -0.00117405 0.000374185 0.000175274
101 2 -0.493347 3.09603 7.47165 14.0523 -0.00201899 -0.00519174 0.00348161
102 2 -0.462372 5.42804 1.21046 14.0543 -0.00319956 -0.00229644 -0.00416306
103 2 -0.439556 3.19869 16.0097 13.9098 0.00219382 0.00219552 -0.00397466
104 2 -0.449109 5.59195 16.4005 11.6592 0.00216788 -0.000466506 -0.00208713
105 2 -0.485786 7.58008 1.06292 16.1841 0.0079602 0.000109696 0.00144461
106 2 -0.479413 7.42281 3.05673 13.9596 0.00137164 -0.000140517 -0.000814076
107 2 -0.452944 5.22812 5.35067 9.57775 0.00201887 0.000709771 -0.00309589
108 2 -0.454598 5.35793 7.6079 11.9449 -0.0009058 0.00160035 -0.00776377
109 2 -0.431464 7.45676 5.3348 11.7189 -0.0034905 -0.00106844 0.00229461
110 2 -0.457615 7.50741 7.55927 9.48009 -0.00505296 -0.000174678 -0.00110463
111 2 -0.486739 1.24021 9.71124 1.09564 0.00324464 -0.000783951 0.00160135
112 2 -0.459116 15.9835 7.38139 1.09941 0.000141417 0.00158561 -0.00203471
113 2 -0.459867 16.0616 9.70794 16.1078 -0.000540161 -0.000158777 0.00385321
114 2 -0.466942 0.998222 11.9146 3.24687 -0.00321854 -0.00305069 0.00152978
115 2 -0.466136 3.11577 9.75637 3.17749 -0.0006493 -0.00134922 -0.00300437
116 2 -0.460281 3.27112 11.8916 1.02943 -0.00371805 -0.00726648 0.000745053
117 2 -0.455282 1.02679 14.0594 5.39841 -0.00506834 -0.00405802 0.00142288
118 2 -0.453284 16.1013 11.7124 5.45223 -0.00667244 -5.54554e-06 -0.0045881
119 2 -0.464604 15.9427 13.9813 3.15523 -0.00117574 0.0032472 -0.00304976
120 2 -0.43765 3.10011 13.7985 7.44544 -0.00233828 0.00319855 0.00200764
121 2 -0.457045 5.39352 9.78495 5.43526 -0.00333678 -0.00400367 0.000314202
122 2 -0.462117 5.24449 11.7942 7.55251 0.000619007 0.00221403 -0.00683606
123 2 -0.444066 7.39127 11.7695 5.40965 -0.00020611 -0.000334545 -0.0025994
124 2 -0.465887 7.62555 9.60246 7.59119 0.00245814 0.0057275 0.00256685
125 2 -0.465957 5.29181 13.7628 1.05268 0.00605785 -0.0013834 -0.00624329
126 2 -0.429448 3.20863 13.924 16.1774 -0.000693795 -0.00883479 -0.00193771
127 2 -0.475618 5.45247 11.7142 15.9742 -0.00517491 -0.00115508 0.00230102
128 2 -0.468588 7.54556 16.0721 0.95655 -0.00150485 0.000579795 0.00294774
129 2 -0.448894 7.34934 13.9756 3.17637 0.00580352 0.00304073 -0.00616
130 2 -0.451641 1.18183 9.72049 9.61713 0.0044738 -9.31685e-05 -0.000623062
131 2 -0.439365 16.1034 7.57801 9.64906 -0.00258927 0.00516293 0.00548896
132 2 -0.461282 16.1331 9.50642 7.53041 -0.000323325 -0.00165331 -0.00384235
133 2 -0.463771 1.02326 11.9073 11.8795 0.0030753 -0.000474766 -0.00335488
134 2 -0.435132 3.22744 9.65601 11.6035 -0.00380795 -0.00198875 0.0014145
135 2 -0.422965 3.20197 11.8161 9.70945 -0.000586807 0.00493825 0.00135718
136 2 -0.434117 1.0319 14.0218 13.9104 0.00157736 0.00347068 0.00114899
137 2 -0.482609 16.0766 11.6712 14.0935 0.00074197 -0.00392717 0.00155662
138 2 -0.500019 16.1068 13.8316 11.9179 -0.000455701 0.00303353 -0.00626741
139 2 -0.436366 5.39526 9.73458 13.9359 -0.00312039 -0.00913282 -0.00520684
140 2 -0.473496 7.37978 9.65733 15.9993 0.0103786 0.00771353 -0.000329642
141 2 -0.467872 7.48718 11.7692 13.9162 -0.0016014 0.00230819 0.00607673
142 2 -0.432847 5.51896 13.964 9.3567 0.00087097 -0.00223458 -0.0020004
143 2 -0.430434 7.4844 16.264 9.59121 -0.00195999 0.000905501 0.00436156
144 2 -0.508182 7.63417 13.9616 11.8405 0.000837439 0.00360193 0.00225706
145 2 -0.490277 9.66732 1.21565 1.13124 -0.00383496 -0.00716741 0.00435026
146 2 -0.459717 9.64694 16.2761 16.092 0.00738084 0.00274624 -0.00319856
147 2 -0.463067 9.5383 3.26494 3.21175 -0.00532443 -0.000413564 -0.00121745
148 2 -0.460722 11.8589 0.981911 3.33286 -0.000223751 0.0019962 0.00346405
149 2 -0.486152 11.6432 3.21064 1.16211 -0.00139589 0.00181444 0.00126864
150 2 -0.444269 9.63924 5.39766 5.43749 -9.3865e-05 -0.00245752 0.00661084
151 2 -0.437393 11.7482 5.2897 7.52587 -0.00578959 -0.00270165 -0.00699589
152 2 -0.468749 11.7707 7.46758 5.47079 0.00166962 0.00595952 -0.00202519
153 2 -0.459716 9.76227 7.50239 7.44163 0.0113247 -0.00583415 0.00026296
154 2 -0.456691 13.8011 1.0567 5.28468 0.00109106 -0.00529112 0.00259688
155 2 -0.455419 11.7097 16.0872 5.4614 -0.00103704 0.00203411 -0.0025399
156 2 -0.441905 14.039 16.129 3.22548 0.00159176 0.000618867 0.00563745
157 2 -0.514724 13.9833 3.35279 7.6668 0.00338073 0.0039032 -0.00217827
158 2 -0.465898 13.9436 5.22934 0.965542 0.000775286 0.00598783 -0.00304213
159 2 -0.460732 11.9736 5.32212 16.1941 0.000875382 -0.000647452 0.00452263
160 2 -0.455427 14.0024 3.12443 16.0798 -0.00458899 -0.00204351 -0.00266708
161 2 -0.453418 13.8774 7.51165 3.29557 -0.00731452 0.00650636 -0.000322969
162 2 -0.440945 9.72309 1.08163 9.56137 -0.00107583 0.00996811 -0.0123768
163 2 -0.484342 9.67561 15.9353 7.4733 -0.000514379 -0.00142607 0.00222866
164 2 -0.440118 9.61122 3.29755 11.7728 -0.005559 3.42436e-05 -0.00275435
165 2 -0.467754 11.6414 1.15958 11.7986 9.99093e-05 0.00435415 -0.00314764
166 2 -0.448065 11.8744 3.16007 9.77873 0.0129619 0.00177803 -0.00798893
167 2 -0.465391 9.55341 5.30122 13.7791 0.0087913 0.0012406 0.00245351
168 2 -0.474285 9.76306 7.51107 16.0115 -0.00164631 -0.00536065 0.00084586
169 2 -0.396213 11.7535 7.3341 14.0391 -0.00253324 0.00214148 -0.00466246
170 2 -0.454339 13.741 1.05757 13.9027 -0.00368479 -0.00620837 -0.00171833
171 2 -0.460238 11.7937 15.942 14.0222 0.00508959 0.00302452 -0.000153204
172 2 -0.468221 13.9044 15.9884 11.7062 0.000607431 -0.00473344 -0.000764756
173 2 -0.475032 13.9091 5.52976 9.74515 -0.000381933 -0.000753912 -0.00196231
174 2 -0.453416 13.8489 7.57104 11.9498 0.000704944 0.00201079 -0.000563013
175 2 -0.427722 9.59224 9.69634 1.0766 -0.00424529 0.00291869 -0.00125511
176 2 -0.458748 9.53652 11.8492 3.33182 -0.00106711 0.00169466 0.00377336
177 2 -0.472285 11.989 9.66121 3.2555 -0.00690867 0.00102581 0.00196153
178 2 -0.469415 11.6899 11.6913 1.1173 0.00212818 -9.64132e-05 -0.00229116
179 2 -0.473536 9.72891 13.9739 5.494 -0.00387595 -0.00506584 0.000841035
180 2 -0.492217 11.7978 13.8087 7.62485 0.00979964 0.00374574 0.00769229
181 2 -0.464844 13.8806 9.53965 5.30129 0.00249096 0.00536162 -0.00262522
182 2 -0.460835 13.9713 11.6917 7.37475 -0.00850377 -0.00272075 0.000842215
183 2 -0.4798 13.8529 13.8976 0.943768 -0.00129061 -0.00169785 -0.00158768
184 2 -0.432479 11.7565 13.919 16.0874 0.00208186 -0.00368313 7.22611e-05
185 2 -0.47192 13.9381 11.96 16.1618 -0.00534321 0.00110173 -0.00524167
186 2 -0.431362 9.58775 9.64194 9.76485 -0.00119529 0.00204809 -0.00285781
187 2 -0.486678 9.67056 11.8165 11.9836 0.00286783 -0.000277144 0.000486717
188 2 -0.455706 11.6644 9.62878 11.6565 -0.00445737 0.00150389 -0.00276223
189 2 -0.456325 11.9361 11.7882 9.6021 -0.00665456 -0.00499335 0.00587085
190 2 -0.477023 9.61835 13.9097 13.8206 -0.00644868 0.00490676 -0.00124966
191 2 -0.42711 14.0137 9.60919 13.8707 0.00384953 0.00492052 -0.0039068
192 2 -0.466969 13.9544 14.0608 9.70117 -0.000593615 0.00165169 0.00553449
193 2 -0.581336 8.55111 16.7987 3.80297 0.0111946 -0.00171648 -0.00682915
194 2 -0.575946 16.1685 16.6968 12.9639 -0.0104672 -0.00360102 0.00346901
195 2 -0.592491 16.3418 4.08301 9.25742 0.000748694 0.00992124 -0.000449303
196 2 -0.626963 9.29091 4.99362 16.4299 -0.00942469 -0.00395667 -0.00878428
197 2 -0.58684 2.21293 10.1686 14.8904 0.00297164 -0.00533314 -0.00362035
198 2 -0.56555 5.0136 15.4747 6.38498 0.00867018 0.0102405 0.00187486
199 2 -0.537116 5.18083 13.8479 11.9823 -0.0138824 -0.00193271 0.000833338
200 2 -0.583893 8.89998 13.1257 9.17194 -0.00315601 0.00433043 0.00706885
201 3 0.382539 8.21955 0.0705529 3.0209 -0.0146112 -0.013184 0.00756806
202 3 0.384421 7.76672 16.6412 4.31353 0.00111627 0.00791388 0.00510412
203 3 0.395121 15.5489 15.9633 12.8022 0.00467829 -0.0135896 0.0278388
204 3 0.382168 16.8353 16.582 12.2978 0.00414056 0.00101912 -0.00624723
205 3 0.403151 15.6172 3.85233 8.65656 -0.0110325 -0.0259743 -0.013561
206 3 0.382604 17.1501 3.99154 8.77582 -0.0265217 -0.00282568 -0.0185444
207 3 0.370526 9.08245 4.09081 16.7642 0.00723974 0.00901702 0.00449361
208 3 0.375948 8.71284 5.56304 17.0004 0.00448414 0.0113856 -0.0123093
209 3 0.405487 2.165 9.20636 14.9531 -0.0156178 0.000822113 -0.0207083
210 3 0.387973 1.51064 10.4723 15.4523 -0.0232706 0.00164637 -0.00457761
211 3 0.382574 4.67643 16.34 6.65571 0.00960755 0.0103587 0.00564275
212 3 0.38796 4.31536 15.2007 5.68371 0.0111405 -0.0128003 0.000899251
213 3 0.336464 5.12318 14.803 11.4905 0.0104637 -0.00306102 -0.017287
214 3 0.409619 6.13635 13.658 12.3863 -0.0220214 0.030462 0.0243534
215 3 0.382915 9.30187 13.6294 9.87404 -0.00814632 0.00226762 0.0228171
216 3 0.391453 9.19899 13.5696 8.38974 0.0190526 0.00560842 0.0103395
ITEM: TIMESTEP
1000
ITEM: NUMBER OF ATOMS
216
ITEM: BOX BOUNDS pp pp pp
1.5509253761508752e+00 1.5609074623849169e+01
1.5509253761508752e+00 1.5609074623849169e+01
1.5509253761508752e+00 1.5609074623849169e+01
ITEM: ATOMS id type q x y z vx vy vz
1 1 1.86893 15.5555 1.66105 1.54763 0.00120925 0.00094265 -0.00338712
2 1 1.79225 3.26178 3.39012 3.35651 -0.00335581 -6.74763e-06 0.00315481
3 1 1.75032 15.3654 5.15807 4.93298 0.00362399 0.00357021 0.000846139
4 1 1.6916 3.11571 6.88231 6.88666 -0.00448364 -0.00293452 0.000945048
5 1 1.72366 5.04323 15.5695 5.04511 0.00179007 -0.00420197 -0.00279727
6 1 1.81813 6.71622 3.24948 6.82847 -0.00127358 0.00474704 -0.00143298
7 1 1.78851 5.1043 5.08516 1.57517 -0.00387641 0.000353025 -0.00928725
8 1 1.7324 6.8615 6.89929 3.30571 0.0012648 0.00276865 -0.00709977
9 1 1.83026 15.6216 15.5942 8.62237 0.00568736 -0.00111511 -0.0055275
10 1 1.79909 3.46531 3.25456 10.3315 0.00589418 0.00402486 -0.00309285
11 1 1.79779 1.57237 5.03392 12.0026 0.00188878 -0.00599219 -0.000863828
12 1 1.80396 3.22336 6.68492 13.9771 -0.00291116 -0.000167938 -0.000562158
13 1 1.7866 5.10147 1.5831 12.1714 -0.00457116 -0.0038105 -0.00683807
14 1 1.88629 6.89392 3.23317 13.9063 0.00354497 -0.00607633 0.00246161
15 1 1.78609 5.07803 5.12194 8.46707 -0.00844728 0.00531735 0.00392727
16 1 1.91694 6.70945 6.69803 10.3922 -0.00544399 0.00421854 0.00521494
17 1 1.8579 1.60186 8.5967 1.63798 0.000489174 -0.00257102 0.00851962
18 1 1.69627 3.35466 10.4951 3.22537 0.00139235 0.000797459 0.000532199
19 1 1.7781 15.4514 12.1939 5.00594 -0.00161464 -0.00227196 -0.00252455
20 1 1.85139 3.2258 13.9049 6.79159 0.000598404 -0.00266689 0.00122406
21 1 1.80005 4.92885 8.56651 5.00537 -0.00320484 0.00275423 -4.7321e-05
22 1 1.69357 6.68611 10.4229 6.69629 -0.00309691 -0.00299041 -0.000994062
23 1 1.83161 5.23708 12.1689 15.5215 -0.000564116 -0.00232596 -0.0076779
24 1 1.83858 6.97937 13.8959 3.27118 -0.000388883 0.00987473 -0.00211697
25 1 1.76732 1.58061 8.71976 8.65901 -0.00142463 0.00406815 -0.00333274
26 1 1.80322 3.36925 10.3982 10.4576 0.000509479 -0.00980104 -0.001763
27 1 1.77004 15.6334 12.2061 12.1256 0.00994093 -0.00445438 0.00149083
28 1 1.62566 3.3179 13.9657 14.0156 0.00476516 -0.00339319 0.00756519
29 1 1.77076 5.00769 8.5006 12.1713 4.29561e-05 0.00413924 0.000338437
30 1 1.69956 6.93303 10.2506 13.8292 0.000187164 -0.00523763 0.00364863
31 1 1.74616 5.0001 12.1225 8.55415 -0.00668865 0.00272119 0.00127769
32 1 1.64231 6.8789 13.7674 10.4796 0.00583694 -0.000666853 -0.000999319
33 1 1.80693 8.81355 15.6181 15.5398 0.000122871 0.00629788 -0.0046721
34 1 1.80485 10.3848 3.33683 3.46696 0.00961169 -0.00404759 0.00359998
35 1 1.70151 8.53128 5.12359 5.1599 -0.00108678 -0.00181463 0.00754016
36 1 1.81006 10.2076 6.95697 6.90833 0.00662645 0.00376082 0.00243238
37 1 1.79752 12.0855 1.59012 5.17717 -0.00215809 -0.00451308 -0.00624414
38 1 1.81029 13.8034 3.37805 6.9524 -0.00404299 -0.000980706 0.00029519
39 1 1.65523 12.0398 5.06163 15.5689 0.00622943 -0.0101236 0.00269607
40 1 1.80665 13.6872 6.91098 3.20391 -0.00248045 0.00801135 -0.00346196
41 1 1.68549 8.59816 1.55845 8.54832 0.00362255 -0.00161686 -0.00372721
42 1 1.82081 10.3867 3.30112 10.2904 -0.000339826 0.00457873 -0.0012386
43 1 1.74828 8.47178 4.93035 11.9987 -0.0113649 -0.00335333 -0.00450919
44 1 1.76804 10.348 6.75602 13.6575 -0.0031156 -0.00442557 -0.00335641
45 1 1.80262 12.0066 15.5155 12.0132 -0.00191198 -0.000161947 -0.00933866
46 1 1.71328 13.7979 3.2556 13.6608 -0.00621239 -0.0021589 0.000871664
47 1 1.77677 11.9847 5.16464 8.59146 -0.00302043 0.00543295 0.00350571
48 1 1.64141 13.926 6.92574 10.3456 -0.00189087 -0.000122886 0.00197341
49 1 1.79305 8.63162 8.46809 15.504 -0.00442511 0.00161441 0.00691403
50 1 1.93753 10.2979 10.2689 3.21638 -0.00222003 -0.00197722 -0.000684914
51 1 1.67775 8.6182 11.9484 4.97833 -0.00229949 0.00378849 0.0098125
52 1 1.79994 10.3803 13.7835 6.82797 -0.00258605 -0.00617019 0.00504787
53 1 1.92137 11.9198 8.53256 5.06916 0.00812447 0.00274115 -0.0049603
54 1 1.69667 13.7161 10.2515 6.6435 -0.00311273 -0.000620712 0.00359318
55 1 1.79103 12.1486 11.9871 15.587 0.000610592 0.00316854 0.0104365
56 1 1.76879 13.7147 14.0083 3.23344 0.00897252 0.0156069 -0.00509328
57 1 1.76455 8.36936 8.63349 8.66387 -0.00197856 0.00146561 -0.00422196
58 1 1.84507 10.3642 10.1504 10.3661 0.00483319 -0.00251536 0.00420752
59 1 1.85738 8.76766 12.0299 12.024 -0.00579486 -0.0048838 -0.00132577
60 1 1.71569 10.4408 13.7997 13.8632 0.0053844 -0.00418538 0.00500907
61 1 1.77436 12.1894 8.58471 12.1669 0.00165767 0.00321889 -0.00304657
62 1 1.7896 14.0207 10.3259 13.9352 -0.00190615 -0.00504933 -0.00288456
63 1 1.74851 12.0762 11.986 8.52529 -0.0059781 0.000718809 0.00144111
64 1 1.73624 13.859 13.7615 10.2431 -0.00510953 -0.00132283 -9.57741e-05
65 2 -0.880184 2.10319 2.70274 2.46238 -0.0040923 -0.00198051 0.00688044
66 2 -0.922959 2.65627 15.0068 15.0138 0.00454858 -0.00181758 -0.00339827
67 2 -0.943069 14.6223 2.28018 14.5179 0.00593035 -0.00369351 0.000859866
68 2 -0.894613 14.7527 14.7622 2.4399 0.00863747 -0.00463957 0.0031502
69 2 -0.865938 2.44342 4.42407 4.18755 0.00456359 -0.00779624 0.00360245
70 2 -0.858092 4.02841 2.33749 4.14151 0.00674911 0.00294474 -0.00708975
71 2 -0.909067 4.28272 4.2121 2.60697 -0.00123926 0.0033033 -0.0074939
72 2 -0.84147 2.03844 6.14692 5.86583 -0.00582365 -0.000609135 -0.0119082
73 2 -0.896135 14.6512 4.12301 5.90739 0.00457096 0.00573169 0.00331464
74 2 -0.921405 14.2833 5.80479 4.07474 0.00779567 -0.00444122 0.00346366
75 2 -0.836377 4.08525 5.84812 7.46961 0.0118035 0.0123216 -0.000244273
76 2 -0.817095 4.12896 7.51308 5.89258 -0.00207767 -0.00193465 -0.000607813
77 2 -0.893325 2.65365 8.09093 7.77867 0.0104549 -0.0033286 -0.00284979
78 2 -0.898234 5.98947 2.62772 5.63421 0.0015633 0.00725444 -0.00424711
79 2 -0.906262 4.21594 14.9083 6.16496 0.00153373 0.00229858 0.00624667
80 2 -0.899892 5.89129 14.6328 4.11273 -0.00119045 0.000775381 0.00183663
81 2 -0.913512 5.73832 3.98886 7.75028 -0.00324042 0.00536536 0.001463
82 2 -0.884106 7.80972 4.11244 6.23649 -0.00445128 -0.0116883 -0.0051597
83 2 -0.878238 7.43522 2.33672 7.82965 0.000388498 0.00494296 0.00670633
84 2 -0.916107 5.97667 6.10871 2.32214 0.00790906 -0.00667306 0.00743756
85 2 -0.937401 4.10921 5.60274 14.5982 0.00391988 -0.014657 0.0041116
86 2 -0.888425 6.14683 4.29093 14.7869 -0.00314643 0.00432514 -0.00331142
87 2 -0.877817 5.97916 7.914 4.13182 -0.00381998 0.0111834 0.00180111
88 2 -0.897646 7.4231 5.8535 4.31522 0.00226675 -0.00128096 -0.00707037
89 2 -0.925373 8.03938 7.58876 2.53895 -0.00451305 5.2844e-05 0.00394325
90 2 -0.895887 2.64622 2.18399 9.54432 -0.0102887 -0.00723754 -0.00756087
91 2 -0.920116 2.18806 14.791 7.51415 0.00855858 0.00134866 0.00082134
92 2 -0.894983 14.7655 2.6756 7.95087 -0.00895454 -0.0130415 0.00320697
93 2 -0.953952 14.8289 14.6584 9.53461 0.00465263 0.00974285 0.000558541
94 2 -0.92279 2.48553 3.98304 11.3035 -0.00159228 0.00714762 0.00872165
95 2 -0.929069 4.47948 2.64045 11.2842 -0.00492008 -0.00305181 -0.00366646
96 2 -0.849455 4.03381 4.38313 9.45953 -0.00142523 -0.00218307 -0.00205893
97 2 -0.923393 2.34382 5.99774 12.8297 0.00829921 -0.00248148 0.00386297
98 2 -0.930868 14.6724 4.29444 12.9414 -0.00499523 -0.00151298 0.0072023
99 2 -0.909452 14.6919 5.71707 10.9418 0.00172283 0.00452115 0.00237485
100 2 -0.985801 2.49055 7.53545 14.9305 -0.000190648 -0.00197367 0.00186892
101 2 -0.873119 4.09699 7.78379 13.2419 0.00358543 0.000293138 -0.00230887
102 2 -0.909279 5.92939 2.25866 13.3179 -0.00562078 -0.00213936 -0.00701659
103 2 -0.886371 4.19394 14.5897 12.8607 0.00105356 0.00390838 -0.000744881
104 2 -0.849259 6.11733 14.8785 11.2685 -0.00472828 0.00305867 0.000967969
105 2 -0.934271 8.01916 2.42886 14.5893 8.23662e-05 -0.000392269 -0.00148784
106 2 -0.902232 7.55641 3.84946 12.6963 0.000336287 0.00141336 0.000274714
107 2 -0.981578 6.08624 5.89408 9.31498 -0.00932943 0.00449595 0.0018915
108 2 -0.927243 5.73109 7.33321 11.3728 0.00377762 0.00357292 -0.00582723
109 2 -0.952018 7.76293 5.9708 11.1712 -0.00404299 0.000218577 -0.00969125
110 2 -0.881469 7.34745 7.85401 9.51637 0.0114713 0.0102002 0.00174479
111 2 -0.920662 2.37689 9.73304 2.27605 -0.00270845 -0.00119724 -0.00505427
112 2 -0.940767 14.7794 7.91626 2.69249 -0.00162908 -0.00190777 -0.0109365
113 2 -0.986923 14.8315 9.25083 14.6481 -0.00259509 -0.00955827 0.00232372
114 2 -0.833462 2.32612 11.269 4.2568 0.00450376 0.00349494 -0.00618568
115 2 -0.904048 4.16327 9.4709 4.05518 -0.00405383 0.000632111 1.23576e-05
116 2 -0.850899 4.29532 11.5668 2.54907 -0.000199144 -0.000522267 -0.00351204
117 2 -0.856644 2.52605 13.0297 5.77902 -0.00107575 -0.00925843 0.00733065
118 2 -0.859972 14.7272 11.368 6.08131 0.00262021 -0.00729366 -0.00756284
119 2 -0.912082 14.5952 13.2097 4.28378 -0.000271686 -0.000692437 -0.00132993
120 2 -0.878797 3.86817 13.0232 7.85238 0.0021341 0.00728675 0.00213931
121 2 -0.832026 5.60441 9.39859 6.09668 0.00219839 0.00762372 -0.000142495
122 2 -0.972436 5.95836 11.4826 7.57147 0.00089893 -0.00958774 -0.00698789
123 2 -0.85918 7.42581 10.952 5.4736 0.00265418 0.00136589 0.003488
124 2 -0.903407 7.68098 9.659 7.62559 -0.00588175 0.003433 -0.00232788
125 2 -0.856224 6.14369 12.9937 2.35056 0.000906138 0.00887145 -0.00273934
126 2 -0.921097 4.56247 13.1843 14.6677 -1.24812e-05 0.00760254 0.00101566
127 2 -0.898164 6.15727 11.1049 14.8942 -0.00120657 -0.00420094 0.00643715
128 2 -0.901227 7.74412 14.7835 2.30137 0.00231942 -0.00783206 0.000699461
129 2 -0.912201 7.75782 12.9336 4.16386 -0.00549241 0.00684077 -0.00411411
130 2 -0.858643 2.17748 9.80449 9.56672 -0.00123736 -0.00394223 -0.00375916
131 2 -0.953138 14.9207 7.65424 9.41709 -0.00487891 0.000891535 0.00777773
132 2 -0.788068 14.6073 9.23965 7.52343 0.00725643 0.00266373 0.00596083
133 2 -0.940989 2.65562 11.5534 11.2313 -0.00741053 -0.00437431 0.00918038
134 2 -0.944454 4.03491 9.2401 11.2497 0.00131842 0.00198054 -0.00629476
135 2 -0.914871 4.26198 11.1135 9.55792 0.00182031 0.0014217 -0.0120586
136 2 -0.906424 2.34894 12.9404 13.2511 0.00547322 0.00465139 0.000675737
137 2 -0.890454 14.9922 11.015 12.9008 -0.00317481 -0.00569442 0.000635114
138 2 -0.917214 14.6381 13.061 11.4327 0.000478865 0.00387168 -0.00615282
139 2 -0.885442 5.88658 9.50717 12.854 -0.00373418 -0.000863813 -0.00460417
140 2 -0.937419 7.63139 9.12605 14.6363 -0.00170736 0.00120451 0.00613478
141 2 -0.879734 7.85671 11.1118 12.8715 -0.0012688 -0.00407361 0.000298193
142 2 -0.888706 5.84502 13.0537 9.4058 -0.0032842 0.012 0.00425556
143 2 -0.840547 7.84183 14.5752 9.56261 -0.00178475 -0.00152702 0.000409932
144 2 -0.934715 7.76142 12.6485 11.1357 -0.00713548 0.012907 -0.00113829
145 2 -0.895091 9.76817 2.43827 2.34469 -0.00241154 -0.00365001 0.00390784
146 2 -0.909601 9.78289 14.5453 15.0078 0.000514352 -0.00056343 -0.00489381
147 2 -0.931664 9.3809 4.32166 4.16875 -0.00359802 0.00145477 -0.00557142
148 2 -0.952413 11.1307 2.62882 4.56356 0.00414681 0.00113522 4.00508e-06
149 2 -0.84741 11.3504 4.2633 2.7647 -0.0031079 -0.000429893 0.00220871
150 2 -0.876812 9.39693 6.18955 5.80911 -0.00798279 -0.00850672 -0.00107178
151 2 -0.915274 11.0023 5.75571 7.62796 0.00236052 -0.00473461 -0.00593207
152 2 -0.977939 11.153 7.89451 6.24039 -0.00242016 0.00246956 0.0090726
153 2 -0.913194 9.18165 7.69125 7.7847 -0.0132103 0.00270769 0.00870703
154 2 -0.912102 12.9468 2.36942 6.202 0.00608545 0.000831129 0.00161516
155 2 -0.945499 11.4013 14.4896 5.91554 0.00299355 0.00348704 -0.000575866
156 2 -0.873871 13.0219 15.1205 4.03641 0.00528008 -0.00544603 -0.00479759
157 2 -0.938463 13.1149 4.40807 7.83617 0.00200599 0.000181338 0.00703624
158 2 -0.88261 12.9669 6.17399 2.02444 0.00179362 0.00605239 0.00456782
159 2 -0.837282 11.0696 5.66592 14.5246 0.0112733 0.00663345 -0.00280608
160 2 -0.779738 12.7024 3.99622 14.6318 -0.000459523 0.00662894 0.00257727
161 2 -0.934531 12.633 7.54092 4.06921 0.00452879 0.00169285 -0.00373539
162 2 -0.873365 9.27739 2.61575 9.43579 -0.00931117 -0.00340663 0.00554324
163 2 -0.950197 9.49499 14.8914 7.56307 0.000697014 0.00590532 0.00686677
164 2 -0.869913 9.65698 4.29955 11.1538 -0.00374485 -0.000546065 -0.00581592
165 2 -0.926533 10.9368 2.25134 11.2653 0.0110356 -0.00415954 0.000217069
166 2 -0.939603 11.4371 4.10182 9.46882 0.000468973 -0.00280269 0.00257504
167 2 -0.83061 9.16453 5.95125 13.0231 5.00396e-05 0.00619678 0.00138306
168 2 -0.920749 9.77247 7.63504 14.7346 -0.00185691 -0.00266083 -0.000210368
169 2 -0.943301 11.4003 7.40192 12.7651 -0.000704802 0.00230722 0.00170631
170 2 -0.914882 13.0536 2.47262 12.5827 -0.0049523 -0.00946721 -0.00282613
171 2 -0.894857 11.5791 14.6686 13.169 -0.000864263 -0.000296655 -0.000412554
172 2 -0.885554 12.7595 14.642 10.9615 -0.00390582 0.00740437 0.00866754
173 2 -0.793865 12.6741 6.32672 9.57017 0.00336317 -0.00322163 7.89135e-05
174 2 -0.799812 13.3844 8.03929 11.3784 0.00217871 0.000916676 -0.000554233
175 2 -0.941343 9.40507 9.63518 2.21795 0.00172032 0.00765608 0.0105723
176 2 -0.910992 9.62681 11.381 3.99271 0.00439882 0.00394543 -0.00738379
177 2 -0.984594 10.9266 9.35214 4.2704 -0.00653005 -0.00315653 -0.00964194
178 2 -0.950743 11.3777 11.0986 2.52694 0.00438503 -0.00402469 -0.00121747
179 2 -0.901043 9.39962 12.8306 6.00441 -0.00678131 -0.00242436 -0.00514677
180 2 -0.949033 11.1933 13.0344 7.7955 0.00534316 -0.00583442 0.0117017
181 2 -0.963071 12.9885 9.4243 5.55295 -0.00160465 -0.00684363 -0.000649794
182 2 -0.886343 12.7495 10.9482 7.59647 -0.00450087 0.00114078 0.0068104
183 2 -0.890059 12.87 13.1911 2.17855 -0.00410165 -0.00379271 0.00341704
184 2 -0.824175 11.1681 12.55 14.4362 -0.00866111 0.00542195 -0.00084278
185 2 -0.936974 13.2593 11.3623 14.8357 0.00460466 -0.00892734 0.00280603
186 2 -0.960285 9.34332 9.22089 9.67255 -0.00128161 0.0086152 -0.00320796
187 2 -0.97833 9.70724 11.0319 11.4404 0.00611839 -0.00858545 -0.00255347
188 2 -0.899203 11.4193 9.28294 11.0516 0.000662377 -0.00231216 -0.00566559
189 2 -0.873868 11.056 11.0742 9.38125 0.0112097 0.00129164 -0.00502074
190 2 -0.887175 9.46965 13.2554 12.7616 0.0100207 0.00621488 0.00826573
191 2 -0.866264 12.946 9.62428 13.0877 0.00774064 0.00691748 -0.00394372
192 2 -0.863105 13.1601 12.5614 9.45961 0.00176333 -0.00162381 -0.0024256
193 2 -0.656402 8.17428 1.61023 4.86119 -0.00483777 -0.00197708 0.00507654
194 2 -0.598351 1.64112 15.4832 12.2126 0.00187695 -0.00538058 0.0134956
195 2 -0.63619 1.81466 5.45042 8.17274 -0.000460251 0.0012729 -0.00306463
196 2 -0.587424 8.27359 4.78434 1.8888 0.00118926 0.000789787 -0.00435652
197 2 -0.616747 3.41911 10.3454 14.022 0.00366335 -0.000185634 0.00157862
198 2 -0.64886 6.84824 13.8907 6.96461 0.000315834 -0.0080202 0.00265184
199 2 -0.580217 5.2177 12.4526 11.8892 0.00114749 0.00173533 -0.00377961
200 2 -0.604791 8.55418 12.0006 8.37701 -0.00603352 -0.00215787 -0.000410831
201 3 0.396811 7.5455 15.0501 5.26963 -0.0014742 -0.011424 -0.0138985
202 3 0.418865 8.75608 1.97325 5.43179 -0.00998278 0.0269107 0.00247042
203 3 0.403887 15.485 2.36572 12.1956 0.00626637 -0.00652967 0.0402834
204 3 0.41293 14.8603 15.0597 12.3564 -0.0039428 0.00441681 0.0140902
205 3 0.43905 15.2506 5.14178 7.52007 -0.000598768 0.00547188 0.0135108
206 3 0.43431 15.6345 5.76186 9.09287 0.0255981 0.0241162 0.0195218
207 3 0.419293 7.9086 4.81493 2.74227 -0.0299132 0.00948283 0.00269031
208 3 0.403876 9.02909 5.39685 1.95272 0.0149872 -0.00392024 0.00164098
209 3 0.425193 3.04663 9.46213 13.9357 0.01249 -0.0134938 -0.0201504
210 3 0.404278 2.99941 10.8068 13.325 -0.00862065 -0.0107743 0.0127862
211 3 0.396314 7.19693 13.1188 6.54214 0.0350476 -0.00968292 0.0338814
212 3 0.41123 6.95818 13.9239 7.93214 0.00934209 0.0364294 0.00020369
213 3 0.400894 5.35558 12.5672 12.8598 -0.0255618 -0.0159931 0.0474842
214 3 0.413192 4.26408 12.8546 11.732 0.0302077 0.00210223 -0.0147447
215 3 0.373378 7.67493 12.3595 8.70068 -0.00579112 0.015841 0.0299059
216 3 0.392621 8.66207 11.0634 8.59362 -0.000110219 0.00496723 0.0240109
ITEM: TIMESTEP
2000
ITEM: NUMBER OF ATOMS
216
ITEM: BOX BOUNDS pp pp pp
1.5543057471768877e+00 1.5605694252823191e+01
1.5543057471768877e+00 1.5605694252823191e+01
1.5543057471768877e+00 1.5605694252823191e+01
ITEM: ATOMS id type q x y z vx vy vz
1 1 1.92238 1.65946 15.5169 15.6054 -0.00421967 -0.000485718 0.00284809
2 1 1.87202 3.2337 3.31683 3.36586 -0.00719107 0.00173541 0.0052891
3 1 1.76695 15.4111 5.09378 5.00368 -0.00506836 -0.00543424 -0.00139414
4 1 1.61641 3.26401 6.68829 6.87488 0.00323199 -0.000542904 0.00123933
5 1 1.76878 5.02507 1.46093 4.97851 2.4553e-05 -0.0039331 -0.00190657
6 1 1.74153 6.71806 3.25676 6.75966 0.0002715 -0.00174853 0.00313575
7 1 1.77132 5.01662 5.07187 1.66891 -0.00172841 0.00575173 -0.000712398
8 1 1.83123 6.6383 6.97925 3.36869 -0.00337183 -0.00449848 0.00251217
9 1 1.90087 1.60772 1.56002 8.55844 0.00342813 0.00077661 0.00025232
10 1 1.75416 3.32995 3.29874 10.3794 -0.00116887 -0.00197226 0.00418354
11 1 1.7733 15.5355 4.98228 12.1252 0.00397739 0.00497419 0.00466056
12 1 1.82286 3.31482 6.68059 13.8184 0.00220111 0.00282886 0.00135539
13 1 1.79709 5.08457 15.4851 12.1594 -0.0102329 0.000217181 -0.00128678
14 1 1.8186 6.72227 3.31582 13.8603 0.00265251 -0.00583486 0.00170895
15 1 1.7796 5.20673 5.0604 8.69026 -0.00281647 -8.15075e-06 0.00327806
16 1 1.9146 6.88301 6.86033 10.3087 -0.00478927 -0.000262337 0.00134583
17 1 1.76689 15.5517 8.48361 1.56716 0.00367104 0.000692287 -0.00369652
18 1 1.67539 3.18578 10.3635 3.33589 -0.00676177 0.0009537 -0.00495926
19 1 1.82937 15.4971 12.1931 5.07534 -0.000980473 0.00331062 -0.00418394
20 1 1.88863 3.26865 13.8017 6.77516 0.00284499 0.00277894 0.00660302
21 1 1.82975 4.91105 8.65923 5.1702 0.00265201 -0.00271876 0.00172383
22 1 1.85995 6.83011 10.3842 6.79217 0.00256738 -0.00233507 0.000404133
23 1 1.8034 5.20614 11.8247 15.5959 0.00331203 -0.00515938 0.00189503
24 1 1.68948 6.74969 13.8506 3.08284 -0.00304051 0.00306948 -0.00552923
25 1 1.66787 15.4993 8.55925 8.66239 -0.000723994 0.00322114 -0.00112687
26 1 1.87895 3.3246 10.2458 10.2809 0.00136831 0.00228976 0.00416179
27 1 1.7654 15.6474 12.0703 12.005 -0.000536855 0.00287769 -0.00287185
28 1 1.74809 3.40691 13.6461 13.9048 0.000602472 0.00258991 -0.000462582
29 1 1.82672 5.03716 8.50814 12.064 -0.00317687 -0.00134277 -0.00233264
30 1 1.77675 6.98711 10.238 13.7411 0.00166122 -0.000493336 0.00081934
31 1 1.72626 5.0676 12.1095 8.59989 0.00162617 -0.00437491 0.00243807
32 1 1.7704 6.89891 13.8459 10.3212 -0.0036403 -0.00580656 0.000478611
33 1 1.75411 8.6623 15.6841 15.5014 -0.00189946 0.000250529 -0.000190633
34 1 1.74601 10.3076 3.51899 3.22964 -0.00106921 0.00240511 -0.000590808
35 1 1.72762 8.44007 5.19198 5.08054 0.00557636 0.000260501 -0.000641741
36 1 1.74117 10.2226 6.76257 6.94169 0.00835548 0.001024 -0.00463971
37 1 1.90606 12.041 1.75268 4.97761 -0.00192474 -0.0032236 0.00456689
38 1 1.88637 13.7611 3.30718 6.89987 0.000988277 0.00177479 -0.00171148
39 1 1.78679 12.0043 5.16 15.3848 0.00263841 -0.00137907 0.00166364
40 1 1.85121 13.5954 6.84452 3.26826 -0.00499156 -0.00170328 0.0014283
41 1 1.70301 8.61084 1.79752 8.60062 -0.00439462 -0.0028891 -0.00289862
42 1 1.92071 10.2778 3.35783 10.5404 -0.000801674 -0.00178719 0.00270755
43 1 1.81263 8.44726 5.09447 12.1047 -0.000528549 0.00724287 0.000721347
44 1 1.83209 10.2391 6.96455 13.8424 0.0024063 -0.00347599 -0.0019923
45 1 1.82264 12.0482 15.505 12.0872 0.00165613 -0.00311947 0.000298072
46 1 1.80764 13.7995 3.18069 13.8789 -0.00255628 -0.00116315 0.00490698
47 1 1.70012 12.0348 4.98021 8.71271 0.000206574 0.000564718 0.00283272
48 1 1.7767 13.7434 6.80345 10.5185 0.00113143 -0.00222002 -0.00159067
49 1 1.94115 8.57545 8.61913 1.6465 -0.000823351 -0.00529479 -0.000122538
50 1 1.83302 10.3542 10.3925 3.34553 0.00130418 0.00200752 -0.000562306
51 1 1.83964 8.52437 12.2085 5.01823 -0.00190439 -0.000155946 0.000577582
52 1 1.68579 10.3971 13.9769 6.73168 -0.00309888 -0.00393968 -0.00238655
53 1 1.83229 11.9297 8.52941 5.1394 -0.00715814 0.00434754 -0.0065496
54 1 1.77175 13.8235 10.2641 6.79142 -0.00324535 0.00352092 -0.00192838
55 1 1.7941 12.221 12.0688 1.62007 0.000220538 -0.0012324 0.00102211
56 1 1.85706 13.7939 13.9838 3.4105 -0.00160222 0.00566684 -0.00169307
57 1 1.85068 8.58388 8.67375 8.62338 0.00462371 0.000283261 0.00226913
58 1 1.81308 10.5431 10.4783 10.2011 -0.00286649 -0.000154523 0.00436962
59 1 1.93314 8.70514 12.0733 12.0298 -0.000898762 0.00169934 6.99177e-05
60 1 1.82552 10.3886 13.7504 13.9236 -0.00175086 -0.00549513 -0.000520827
61 1 1.84962 12.0223 8.69181 12.1363 0.000239055 -0.000861881 -0.00254246
62 1 1.85038 13.9075 10.3011 13.8381 0.00195624 0.00217295 -0.00104811
63 1 1.81699 12.254 12.2476 8.40529 -0.00203723 0.00349732 0.0043926
64 1 1.87579 13.9094 13.8573 10.2852 -0.00428511 -0.00113328 0.000760193
65 2 -0.952329 2.45481 2.42314 2.35006 -0.00363656 0.00198414 -0.00282538
66 2 -0.954542 2.61348 14.7032 14.69 -0.00587394 0.00707368 -1.30626e-05
67 2 -0.934947 14.7067 2.22786 14.6893 0.0040319 -0.00424766 0.00577255
68 2 -0.930608 14.9084 14.629 2.45734 0.00104421 0.00604307 -0.00185008
69 2 -0.888991 2.16552 4.24042 4.04213 0.00230719 0.00315884 0.0013646
70 2 -0.89746 3.9704 2.38004 4.28004 -0.00879166 0.00287972 0.0045208
71 2 -0.90578 4.27551 4.21553 2.6679 0.00253803 0.00120131 -0.000919254
72 2 -0.817415 2.45756 5.98299 5.65582 0.00517188 0.00547669 0.00112826
73 2 -0.935599 14.7499 4.13334 6.02932 -0.0016138 0.0053558 0.00213958
74 2 -0.905557 14.3165 5.96686 4.27785 0.00366478 0.00470196 -0.000875427
75 2 -0.796327 4.34385 5.83884 7.64582 -0.00165706 0.00372218 0.00359586
76 2 -0.798003 4.31535 7.51714 6.04726 -0.00011684 0.00355589 0.0014367
77 2 -0.813705 2.48883 7.88663 7.57568 0.00292816 -0.00098246 -0.00182574
78 2 -0.909001 6.08194 2.41152 5.63964 0.00594704 0.00058815 -0.00164173
79 2 -0.940372 4.25068 14.6858 6.00415 0.00564715 -0.000772528 0.00383401
80 2 -0.856621 5.61753 14.688 3.77403 0.00344299 0.0016965 5.65193e-06
81 2 -0.890199 5.78083 3.95293 7.79443 0.00163331 -0.000233274 -0.00326821
82 2 -0.922667 7.72221 4.18251 5.99115 -0.00149502 0.00487188 -0.0020891
83 2 -0.927107 7.56257 2.26184 7.58123 -0.00164749 -0.00136872 -0.00436711
84 2 -0.902233 5.71222 6.2839 2.35885 -0.000536404 0.00213549 -0.00262566
85 2 -0.900388 3.89428 5.67072 14.7402 -0.00415409 9.78195e-05 -0.00101683
86 2 -0.895838 5.96595 4.0571 14.9678 0.00155703 -0.00708828 -0.000258778
87 2 -0.917386 5.89078 7.96378 4.26881 -0.00403917 4.37067e-05 0.0101545
88 2 -0.913955 7.42322 5.81587 4.08724 0.00278844 0.00637609 0.000169181
89 2 -0.919516 7.7117 7.81996 2.64807 0.00404255 -0.000743738 -0.00354407
90 2 -0.919335 2.53684 2.49587 9.30038 -5.96545e-05 -0.00120017 -0.000954252
91 2 -0.898069 2.46197 14.9135 7.53326 -0.00670117 0.0030945 0.000424546
92 2 -0.936557 14.5959 2.29214 7.72653 -0.00560391 0.0031256 0.00580082
93 2 -0.917866 15.0393 14.5812 9.51313 -0.00266033 -0.00662124 -0.00204459
94 2 -0.94851 2.40135 4.01343 11.4222 -0.000840042 -0.000515116 0.00402813
95 2 -0.87053 4.29335 2.30909 11.1445 0.000403434 -0.00377384 0.00859352
96 2 -0.883944 4.23902 4.36279 9.67787 -0.00418266 -0.00387927 0.00328519
97 2 -0.917217 2.39759 6.08235 12.7674 -0.00559633 -0.000656886 -0.0036944
98 2 -0.952308 14.7787 4.08271 13.1551 0.0043784 0.00166199 0.000137913
99 2 -0.9401 14.534 5.67925 11.1284 0.00348501 0.00157959 0.000358909
100 2 -0.88255 2.36706 7.44788 14.853 -0.00161159 -0.00102665 -0.00387724
101 2 -0.973014 4.23754 7.68877 13.1327 -0.000856132 0.00140987 0.000440153
102 2 -0.930013 5.72624 2.37938 13.2037 -0.00515056 0.00187919 -0.000325444
103 2 -0.974191 4.23722 14.4243 12.8193 0.00292208 -0.000454521 0.00192038
104 2 -0.937307 6.18368 14.7317 11.3345 0.00282045 0.00173494 -0.00264067
105 2 -0.924548 7.90163 2.49565 14.4441 0.000819377 -0.00189808 0.00473027
106 2 -0.933012 7.38959 4.33428 12.8971 -0.00506512 0.00515846 0.00399909
107 2 -0.938233 6.19851 6.11984 9.1867 -0.00204748 0.00138519 -0.000901279
108 2 -0.920269 5.75909 7.46315 11.1314 0.000924538 0.00389276 -0.00768935
109 2 -0.958252 7.75006 5.7791 10.9631 0.0109944 0.00106789 -0.0140219
110 2 -0.945297 7.78075 7.94449 9.71407 0.00133907 -0.00371893 -0.000656502
111 2 -0.865012 2.49263 9.46927 2.24745 -0.00397473 -0.00108855 0.00055629
112 2 -0.905399 14.5845 7.85229 2.62787 -0.000301599 -0.000204742 -0.000423187
113 2 -0.984589 14.7993 9.38895 14.6633 0.00186861 0.00302446 0.00267643
114 2 -0.895648 2.19396 11.4658 3.95573 -0.000413483 -0.00691575 8.04268e-05
115 2 -0.871617 3.80017 9.33406 4.32311 0.0053692 0.00340524 -0.00129162
116 2 -0.827357 4.43985 10.9542 2.62964 -0.00188394 -0.00139846 0.000310587
117 2 -1.0047 2.43127 13.0502 5.81474 -0.00515437 0.00149241 -0.00497538
118 2 -0.87468 14.949 11.1277 6.12711 -0.00320306 0.00726414 -0.00232476
119 2 -0.938831 14.3527 13.0129 4.45211 0.00980506 -0.00134373 -0.000476479
120 2 -0.95174 4.03358 12.9412 7.82345 -0.000823133 0.0012621 -0.00259999
121 2 -0.929871 5.80295 9.65455 5.93732 0.00608897 -0.00561289 0.00228307
122 2 -0.968929 6.16088 11.4419 7.64057 0.00160267 -0.00377388 0.000667507
123 2 -0.915704 7.69775 11.1611 5.76597 0.00325219 -0.00179395 0.0015849
124 2 -0.936393 7.82281 9.46817 7.55759 0.00156178 0.00144072 0.00496662
125 2 -0.880486 6.18558 12.5952 2.3991 0.00116994 0.00399489 -0.00318724
126 2 -0.947799 4.38029 12.8648 14.8657 -0.00129784 0.00151308 0.00869487
127 2 -0.900132 6.05434 10.8151 14.7765 0.0011752 0.00236584 0.00089166
128 2 -0.856545 7.56279 14.8885 2.20415 -0.0054873 -0.00438651 -0.00179994
129 2 -0.877774 7.67595 13.1812 4.20578 0.000560654 0.00153441 0.00165417
130 2 -0.922567 2.28944 9.58436 9.38546 0.00166841 -0.0041508 -0.000889908
131 2 -0.921027 14.8275 7.58756 9.69308 -0.000822964 -0.00128393 0.00671806
132 2 -0.86652 14.399 9.34194 7.87385 0.00129187 -0.00469796 -0.00237675
133 2 -0.979913 2.66585 11.2586 11.1746 0.000363464 -0.000477542 -0.00353696
134 2 -0.971791 4.10284 9.28356 11.1261 0.00846558 -0.00301789 0.0030253
135 2 -0.880891 4.40362 10.9489 9.339 -0.00164527 -0.000133535 0.00542798
136 2 -0.945665 2.36434 12.8054 13.1687 -0.00180045 0.00111915 0.00376663
137 2 -0.93012 14.8354 11.0459 12.8719 -0.00665908 -0.00351437 -0.00503674
138 2 -0.925249 14.645 12.8535 11.1789 0.00185522 -0.00762261 -0.000891987
139 2 -0.855829 6.19751 9.2728 12.6453 0.00250917 0.000548639 -0.00681183
140 2 -0.909533 7.68515 9.19771 14.661 0.00367656 0.000832397 -0.00349312
141 2 -0.952876 7.98672 11.1428 12.9503 -0.00987263 -0.00354109 -0.00131274
142 2 -0.927794 5.79128 13.118 9.56732 -0.00384082 0.00759383 -0.0027889
143 2 -0.902383 7.89936 14.739 9.40451 -0.00316327 0.00506353 -0.00504781
144 2 -0.919615 7.68015 12.7971 11.0563 0.00446349 -0.0038837 -0.0058763
145 2 -0.937218 9.34366 2.63145 2.4141 -0.002736 -0.00571156 0.00502952
146 2 -0.936507 9.68884 14.6969 14.8445 -0.00298693 0.00602052 -0.00265603
147 2 -0.928276 9.3732 4.22778 4.24025 0.00629603 0.00513688 0.00512436
148 2 -0.918708 11.4134 2.71746 3.97698 0.00388681 -0.00384965 -0.00370329
149 2 -0.961406 10.9693 4.5238 2.2283 0.0029037 0.00421776 0.00425142
150 2 -0.898565 9.30883 6.25988 5.7692 0.00668865 -0.000823567 0.00535697
151 2 -0.854017 10.9457 5.64373 7.72278 0.00461722 0.000117751 -0.00180689
152 2 -0.881054 11.2878 7.7465 6.29813 -0.00365653 -0.00385586 0.0123614
153 2 -0.8865 9.34008 7.51682 7.91842 0.00111932 0.000395013 -0.004612
154 2 -0.964721 12.7274 2.55557 6.08703 -0.00839517 -0.00262447 -0.00542601
155 2 -0.907412 11.28 14.6791 5.67512 0.00563181 0.00130516 0.00105585
156 2 -0.936815 13.069 15.1137 4.11303 0.00309431 -0.00197431 -0.00857165
157 2 -0.970188 13.1314 4.29366 7.82478 0.000983534 0.00355218 -0.000641803
158 2 -0.926004 13.0481 5.96231 2.15955 0.00508302 -0.00162578 0.00502444
159 2 -0.927069 11.4237 6.09642 14.2776 -0.00142771 -0.00237968 -0.00445287
160 2 -0.895911 12.8059 3.97587 14.7273 -0.0043826 0.00476756 0.00166423
161 2 -0.943553 12.5215 7.5344 4.12095 0.00198664 0.000934471 0.00116678
162 2 -0.93943 9.22638 2.82124 9.5515 -0.00248132 -0.00728206 -0.00495392
163 2 -0.830125 9.67791 15.1167 7.59563 0.00253611 -0.000750348 0.00201731
164 2 -0.959538 9.56847 4.17007 11.5996 0.00371025 -0.00251633 0.00033292
165 2 -0.949615 10.9507 2.29274 11.3198 0.00127392 -0.00280625 -0.00668914
166 2 -0.938349 11.3837 3.96959 9.67214 -0.00322072 0.000658272 -0.000683728
167 2 -0.860591 9.16258 6.21422 13.0603 0.00323719 0.00129247 -0.0045524
168 2 -0.988843 9.57814 7.80614 14.969 0.0090964 0.00653058 -0.00834003
169 2 -0.87373 10.8578 7.84127 12.7551 -0.00372012 -0.00598779 -0.00136742
170 2 -0.928668 13.0923 2.26718 12.7944 0.00226651 0.00734128 -0.000872259
171 2 -0.8998 11.4899 14.5014 13.1336 0.00530182 0.00570889 -0.00187985
172 2 -0.926253 12.8496 14.682 11.0313 -0.00193842 -0.00207764 -0.00150855
173 2 -0.869415 12.7288 6.16333 9.51244 0.00129672 0.00144988 -0.00256335
174 2 -0.926343 13.0096 7.66062 11.5541 0.00328331 -0.00251846 0.00774435
175 2 -0.901172 9.30193 9.76382 2.41056 -0.000387073 -0.00170284 0.00225432
176 2 -0.872999 9.40145 11.4045 4.06313 0.00207526 -0.00422682 0.00101696
177 2 -0.938934 10.9531 9.50749 4.42728 0.0110612 -0.00317289 0.000402175
178 2 -0.916584 11.4567 11.0452 2.4852 0.00450879 0.000518172 -0.00601722
179 2 -0.96208 9.41854 12.9612 6.0368 -2.87807e-05 -0.00672242 -0.00148767
180 2 -0.934583 11.3435 13.2391 7.72612 0.00241375 0.0024898 -0.000808076
181 2 -0.897979 13.0303 9.37674 5.73562 0.000821809 -0.00765703 -0.000831045
182 2 -0.930287 12.817 11.194 7.45159 0.00567808 -0.00502172 -0.00036511
183 2 -0.921673 12.872 13.1784 2.49275 -0.0038627 -0.00101848 0.00410176
184 2 -0.878418 11.1406 12.6473 14.7636 -0.00622971 0.00496105 -0.00411005
185 2 -0.897223 13.2922 11.359 14.7346 0.00688552 -0.00696965 -0.00356195
186 2 -0.887693 9.66642 9.62086 9.15181 0.00408162 0.00311454 0.00328401
187 2 -0.939337 9.67547 11.2873 11.2005 -0.00451589 0.000525985 0.00249148
188 2 -0.935693 11.4309 9.53024 11.02 0.00134415 -0.000878132 -0.00213722
189 2 -0.927347 11.3736 11.5426 9.49811 -0.00170569 -8.85524e-05 0.0022896
190 2 -0.949348 9.44615 13.0947 12.8646 -0.00112343 0.00457733 -0.00424661
191 2 -0.946306 12.7262 9.49339 13.2233 0.00152544 0.00759498 -0.00464352
192 2 -0.89876 13.3897 13.0113 9.14034 0.0037811 -0.00460255 0.00722531
193 2 -0.606753 8.76419 1.59104 4.94082 0.00103152 0.00420297 -0.00404371
194 2 -0.607866 1.62338 1.46404 12.0557 -0.0040043 -0.00200768 -0.00554818
195 2 -0.662629 1.88496 5.33833 8.1958 0.00163994 0.00354426 -0.00495968
196 2 -0.598632 8.51976 5.16575 1.53606 0.00146358 -0.0012944 0.00011328
197 2 -0.625468 3.4322 10.2425 13.859 0.000574959 -0.00017745 -0.00145333
198 2 -0.656549 6.85943 13.9129 6.86624 -0.00340111 0.000734589 0.00245777
199 2 -0.608123 5.26188 11.9908 12.2057 0.00422841 2.37511e-05 0.00189793
200 2 -0.615943 8.75599 12.1681 8.49555 0.00375891 -0.00337181 0.0028257
201 3 0.432367 8.30297 15.2021 5.63844 0.00646295 -0.00227697 0.00345197
202 3 0.439919 8.44816 2.4993 4.98871 -0.0107241 -0.0276777 0.0106127
203 3 0.423406 1.49189 2.37148 12.3264 -0.00774583 0.00998893 0.00157735
204 3 0.419132 15.8752 15.1583 12.8729 -0.000484102 -0.000911861 -0.00919744
205 3 0.415532 15.0943 5.10447 7.84152 -0.0252133 0.00353732 0.0103146
206 3 0.391281 15.6856 5.87455 8.97788 -0.0131104 0.0129554 0.0108631
207 3 0.419211 8.69955 5.2093 2.44136 -0.0175198 -0.0245387 -0.0327391
208 3 0.400026 8.7492 4.23083 15.3217 -0.00620085 -0.0052465 0.0117784
209 3 0.411033 3.46941 9.29386 14.134 -0.00579579 0.00379025 0.00786991
210 3 0.425352 2.48361 10.4577 13.8371 -0.0187506 -0.00178429 0.0139087
211 3 0.417186 6.94025 14.2468 7.7504 -0.00771731 -0.00089964 -0.0156244
212 3 0.395761 6.129 13.2659 6.81398 -0.00274206 0.0184526 -0.0228239
213 3 0.417663 4.33492 11.869 12.2982 0.0173581 0.0479001 -0.00903814
214 3 0.41572 5.3838 12.9537 12.0076 -0.0311276 -0.000464771 0.0144886
215 3 0.414901 9.68254 12.1327 8.37743 0.0108808 0.00405378 -0.00674597
216 3 0.417281 8.40759 12.4624 7.69886 -0.0183597 0.00434209 0.000707119
