LAMMPS (29 Aug 2024)
OMP_NUM_THREADS environment is not set. Defaulting to 1 thread. (src/comm.cpp:98)
  using 1 OpenMP thread(s) per MPI task
Reading data file ...
  orthogonal box = (0 0 0) to (14.3 14.3 14.3)
  2 by 2 by 2 MPI processor grid
  reading atoms ...
  192 atoms
  read_data CPU = 0.003 seconds
WARNING: Changed valency_val to valency_boc for X (src/REAXFF/reaxff_ffield.cpp:294)

CITE-CITE-CITE-CITE-CITE-CITE-CITE-CITE-CITE-CITE-CITE-CITE-CITE

Your simulation uses code contributions which should be cited:
- Type Label Framework: https://doi.org/10.1021/acs.jpcb.3c08419
- pair reaxff command: doi:10.1016/j.parco.2011.08.005
- fix qeq/reaxff command: doi:10.1016/j.parco.2011.08.005
The log file lists these citations in BibTeX format.

CITE-CITE-CITE-CITE-CITE-CITE-CITE-CITE-CITE-CITE-CITE-CITE-CITE

Switching to 'neigh_modify every 1 delay 0 check yes' setting during minimization
Neighbor list info ...
  update: every = 1 steps, delay = 0 steps, check = yes
  max neighbors/atom: 2000, page size: 100000
  master list distance cutoff = 12
  ghost atom cutoff = 12
  binsize = 6, bins = 3 3 3
  2 neighbor lists, perpetual/occasional/extra = 2 0 0
  (1) pair reaxff, perpetual
      attributes: half, newton off, ghost
      pair build: half/bin/ghost/newtoff
      stencil: full/ghost/bin/3d
      bin: standard
  (2) fix qeq/reaxff, perpetual, copy from (1)
      attributes: half, newton off
      pair build: copy
      stencil: none
      bin: none
Setting up cg style minimization ...
  Unit style    : real
  Current step  : 0
Per MPI rank memory allocation (min/avg/max) = 47.33 | 47.33 | 47.33 Mbytes
   Step          Temp          PotEng         TotEng         Press          Volume        Density        Atoms   
         0   0             -28623.083     -28623.083     -130957.88      2924.207       2.1836445            192 
         1   0             -28623.083     -28623.083     -130957.88      2924.207       2.1836445            192 
Loop time of 0.0717192 on 8 procs for 1 steps with 192 atoms

99.2% CPU use with 8 MPI tasks x 1 OpenMP threads

Minimization stats:
  Stopping criterion = energy tolerance
  Energy initial, next-to-last, final = 
     -28623.0828467027  -28623.0828467027  -28623.0828675115
  Force two-norm initial, final = 2.4660314e-07 0.6252373
  Force max component initial, final = 7.9532418e-08 0.12991865
  Final line search alpha, max atom move = 1 0.12991865
  Iterations, force evaluations = 1 1

MPI task timing breakdown:
Section |  min time  |  avg time  |  max time  |%varavg| %total
---------------------------------------------------------------
Pair    | 0.065717   | 0.06716    | 0.068449   |   0.3 | 93.64
Neigh   | 0          | 0          | 0          |   0.0 |  0.00
Comm    | 0.00049734 | 0.0017746  | 0.0032089  |   1.9 |  2.47
Output  | 0          | 0          | 0          |   0.0 |  0.00
Modify  | 0.0025788  | 0.002587   | 0.0025934  |   0.0 |  3.61
Other   |            | 0.0001979  |            |       |  0.28

Nlocal:             24 ave          24 max          24 min
Histogram: 8 0 0 0 0 0 0 0 0 0
Nghost:           2052 ave        2052 max        2052 min
Histogram: 8 0 0 0 0 0 0 0 0 0
Neighs:          11196 ave       11196 max       11196 min
Histogram: 8 0 0 0 0 0 0 0 0 0

Total # of neighbors = 89568
Ave neighs/atom = 466.5
Neighbor list builds = 0
Dangerous builds = 0
System init for write_data ...
System init for write_restart ...
Total wall time: 0:00:00
