LAMMPS (29 Aug 2024)
OMP_NUM_THREADS environment is not set. Defaulting to 1 thread. (src/comm.cpp:98)
  using 1 OpenMP thread(s) per MPI task
Reading data file ...
  orthogonal box = (-0.13298298 -0.13298298 -0.13298298) to (14.432983 14.432983 14.432983)
  2 by 2 by 2 MPI processor grid
  reading atoms ...
  192 atoms
  reading velocities ...
  192 velocities
  read_data CPU = 0.004 seconds
WARNING: Changed valency_val to valency_boc for X (src/REAXFF/reaxff_ffield.cpp:294)

CITE-CITE-CITE-CITE-CITE-CITE-CITE-CITE-CITE-CITE-CITE-CITE-CITE

Your simulation uses code contributions which should be cited:
- Type Label Framework: https://doi.org/10.1021/acs.jpcb.3c08419
- pair reaxff command: doi:10.1016/j.parco.2011.08.005
- fix qeq/reaxff command: doi:10.1016/j.parco.2011.08.005
The log file lists these citations in BibTeX format.

CITE-CITE-CITE-CITE-CITE-CITE-CITE-CITE-CITE-CITE-CITE-CITE-CITE

Neighbor list info ...
  update: every = 10 steps, delay = 0 steps, check = yes
  max neighbors/atom: 2000, page size: 100000
  master list distance cutoff = 12
  ghost atom cutoff = 12
  binsize = 6, bins = 3 3 3
  2 neighbor lists, perpetual/occasional/extra = 2 0 0
  (1) pair reaxff, perpetual
      attributes: half, newton off, ghost
      pair build: half/bin/ghost/newtoff
      stencil: full/ghost/bin/3d
      bin: standard
  (2) fix qeq/reaxff, perpetual, copy from (1)
      attributes: half, newton off
      pair build: copy
      stencil: none
      bin: none
Setting up Verlet run ...
  Unit style    : real
  Current step  : 0
  Time step     : 0.25
Per MPI rank memory allocation (min/avg/max) = 42.6 | 42.86 | 43.16 Mbytes
   Step          Time           Temp          PotEng         KinEng         TotEng         Press          Volume        Density    
         0   0              4516.5605     -26358.594      2571.4347     -23787.159      463.13046      3090.4226      2.0661991    
       100   25             3984.024      -26175.237      2268.2432     -23906.994     -6418.4227      3090.4551      2.0661774    
       200   50             3963.9066     -26358.622      2256.7897     -24101.832     -48821.799      3090.4894      2.0661545    
       300   75             3525.8862     -26274.583      2007.4094     -24267.173     -23875.066      3090.4454      2.0661838    
       400   100            3504.3069     -26432.364      1995.1236     -24437.24      -24224.639      3090.318       2.0662691    
       500   125            3484.0313     -26619.053      1983.58       -24635.474     -32684.802      3090.1069      2.0664102    
       600   150            3212.4635     -26652.513      1828.967      -24823.546     -36145.633      3089.8027      2.0666137    
       700   175            3158.158      -26786.176      1798.049      -24988.127     -22473.526      3089.3969      2.0668851    
       800   200            3195.1623     -26977.167      1819.1168     -25158.051     -39080.817      3088.9026      2.0672158    
       900   225            2993.9766     -27028.367      1704.5748     -25323.793     -45365.521      3088.3144      2.0676095    
      1000   250            2710.1766     -27001.41       1542.9977     -25458.412     -32749.175      3087.6093      2.0680818    
      1100   275            2560.176      -27042.666      1457.5971     -25585.068      842.51737      3086.794       2.068628     
      1200   300            2565.2284     -27162.017      1460.4736     -25701.544     -31802.772      3085.8883      2.0692351    
      1300   325            2525.5124     -27242.44       1437.8619     -25804.578     -40238.243      3084.8964      2.0699004    
      1400   350            2341.6668     -27219.226      1333.1922     -25886.034     -54248.206      3083.7957      2.0706392    
      1500   375            2365.3613     -27304.348      1346.6823     -25957.665     -35358.601      3082.5681      2.0714639    
      1600   400            2457.7964     -27417.859      1399.3088     -26018.55      -42701.409      3081.2459      2.0723527    
      1700   425            2199.9316     -27326.303      1252.4974     -26073.806     -48511.256      3079.8189      2.0733129    
      1800   450            2232.2919     -27383.894      1270.9213     -26112.972     -50102.94       3078.2617      2.0743617    
      1900   475            2264.6517     -27427.217      1289.3448     -26137.872     -45410.704      3076.5887      2.0754898    
      2000   500            2104.4255     -27344.769      1198.1225     -26146.646     -32387.092      3074.8014      2.0766962    
      2100   525            2390.99       -27507.412      1361.2736     -26146.139     -52169.701      3072.9012      2.0779804    
      2200   550            2223.3759     -27401.652      1265.8451     -26135.807     -50028.121      3070.8694      2.0793552    
      2300   575            2259.1421     -27400.769      1286.208      -26114.561     -32834.828      3068.7205      2.0808113    
      2400   600            2083.323      -27266.001      1186.1081     -26079.893     -32263.868      3066.4729      2.0823365    
      2500   625            2437.6844     -27425.672      1387.8584     -26037.814     -44552.816      3064.1198      2.0839356    
      2600   650            2393.8414     -27353.999      1362.897      -25991.102     -49539.942      3061.6623      2.0856083    
      2700   675            2494.4019     -27365.499      1420.1496     -25945.35      -52167.541      3059.0919      2.0873607    
      2800   700            2573.295      -27366.121      1465.0662     -25901.055     -37949.235      3056.4225      2.0891838    
      2900   725            2463.2226     -27267.915      1402.3981     -25865.516     -25576.865      3053.6637      2.0910712    
      3000   750            2526.6098     -27269.84       1438.4867     -25831.353     -24467.046      3050.8464      2.0930023    
      3100   775            2522.7686     -27243.509      1436.2997     -25807.209     -37548.369      3047.9785      2.0949716    
      3200   800            2526.8125     -27236.349      1438.6021     -25797.747     -27557.26       3045.0422      2.0969918    
      3300   825            2342.6641     -27131.162      1333.76       -25797.402     -40244.824      3042.034       2.0990654    
      3400   850            2448.7224     -27198.671      1394.1427     -25804.528     -15919.052      3038.9402      2.1012024    
      3500   875            2570.611      -27275.082      1463.5381     -25811.544     -34939.035      3035.7768      2.1033919    
      3600   900            2613.5407     -27318.651      1487.9795     -25830.672     -30604.293      3032.5446      2.1056338    
      3700   925            2639.9907     -27367.1        1503.0384     -25864.061     -21303.865      3029.2472      2.1079258    
      3800   950            2612.1593     -27396.011      1487.193      -25908.818     -18490.56       3025.9044      2.1102545    
      3900   975            2310.8832     -27272.589      1315.666      -25956.923     -24082.358      3022.495       2.1126349    
      4000   1000           2541.821      -27454.506      1447.1469     -26007.359     -11339.905      3019.0253      2.1150629    
      4100   1025           2269.6579     -27345.426      1292.1951     -26053.231      37708.802      3015.5395      2.1175078    
      4200   1050           2221.1959     -27360.207      1264.6039     -26095.603     -47250.781      3012.0035      2.1199937    
      4300   1075           2328.9967     -27451.177      1325.9787     -26125.198     -33570.462      3008.371       2.1225535    
      4400   1100           2262.7357     -27436.408      1288.254      -26148.154     -8442.6412      3004.6486      2.1251831    
      4500   1125           2226.9529     -27432.659      1267.8816     -26164.777     -10868.069      3000.873       2.1278569    
      4600   1150           2169.7958     -27406.337      1235.3401     -26170.997     -28137.208      2997.0409      2.1305776    
      4700   1175           2419.69       -27549.015      1377.6135     -26171.402     -2366.3557      2993.1427      2.1333525    
      4800   1200           2430.5943     -27551.212      1383.8217     -26167.39      -32454.219      2989.2002      2.1361662    
      4900   1225           2390.0212     -27521.454      1360.7221     -26160.732     -33989.601      2985.2049      2.1390251    
      5000   1250           2349.8441     -27488.623      1337.8478     -26150.776     -32710.401      2981.1597      2.1419276    
      5100   1275           2407.0269     -27503.245      1370.404      -26132.841      13141.215      2977.0846      2.1448596    
      5200   1300           2252.4753     -27392.443      1282.4124     -26110.031     -24486.352      2972.9865      2.1478162    
      5300   1325           2358.415      -27426.627      1342.7275     -26083.899     -32245.623      2968.8459      2.1508116    
      5400   1350           2444.2755     -27445.132      1391.6109     -26053.521     -16856.093      2964.6538      2.153853     
      5500   1375           2306.1005     -27338.335      1312.9431     -26025.392     -38811.539      2960.4285      2.1569271    
      5600   1400           2643.4048     -27502.484      1504.9821     -25997.502     -11948.912      2956.1723      2.1600325    
      5700   1425           2388.1096     -27333.509      1359.6337     -25973.875     -31790.804      2951.9137      2.1631488    
      5800   1450           2532.7266     -27399.668      1441.9692     -25957.699     -18321.711      2947.628       2.1662939    
      5900   1475           2449.3108     -27342.732      1394.4776     -25948.254     -6159.1361      2943.3087      2.1694729    
      6000   1500           2524.8946     -27377.997      1437.5101     -25940.487     -21431.559      2938.9802      2.1726681    
      6100   1525           2647.9148     -27446.769      1507.5498     -25939.219     -9413.8916      2934.6575      2.1758683    
      6200   1550           2605.5278     -27433.739      1483.4174     -25950.321      10040.351      2930.3617      2.1790581    
      6300   1575           2275.3441     -27275.796      1295.4324     -25980.363      16207.875      2926.1208      2.1822163    
      6400   1600           2474.6466     -27430.998      1408.9022     -26022.096     -7337.5721      2921.9303      2.1853459    
      6500   1625           2422.0937     -27454.145      1378.982      -26075.163      31698.989      2917.7549      2.1884732    
      6600   1650           2650.5003     -27638.036      1509.0219     -26129.014     -13744.193      2913.6251      2.1915752    
      6700   1675           2257.5927     -27461.626      1285.3259     -26176.3       -11735.638      2909.5219      2.1946658    
      6800   1700           2452.3373     -27604.467      1396.2008     -26208.266     -4573.5654      2905.4179      2.1977659    
      6900   1725           2249.3405     -27506.798      1280.6276     -26226.171      15374.741      2901.3302      2.2008623    
      7000   1750           2241.3562     -27507.555      1276.0819     -26231.473      13983.356      2897.2537      2.203959     
      7100   1775           2402.5776     -27597.765      1367.8708     -26229.894     -15183.155      2893.1849      2.2070585    
      7200   1800           2393.0824     -27588.092      1362.4649     -26225.627     -8803.2757      2889.14        2.2101485    
      7300   1825           2544.8731     -27665.988      1448.8846     -26217.103     -7483.1094      2885.1273      2.2132224    
      7400   1850           2390.9045     -27577.934      1361.2249     -26216.709      7983.3689      2881.1661      2.2162653    
      7500   1875           2392.0548     -27577.612      1361.8798     -26215.733      32185.715      2877.2325      2.2192952    
      7600   1900           2448.4385     -27606.271      1393.981      -26212.29      -20792.836      2873.385       2.2222669    
      7700   1925           2464.3762     -27613.844      1403.0549     -26210.789     -1543.9742      2869.5579      2.2252308    
      7800   1950           2381.6313     -27564.597      1355.9454     -26208.652      314.45091      2865.7605      2.2281794    
      7900   1975           2423.9001     -27587.867      1380.0105     -26207.856      26249.806      2861.9756      2.2311261    
      8000   2000           2554.8979     -27661.291      1454.5921     -26206.699     -9437.4296      2858.2418      2.2340407    
      8100   2025           2340.6644     -27535.725      1332.6215     -26203.104      21090.742      2854.5616      2.2369208    
      8200   2050           2626.2135     -27695.882      1495.1946     -26200.688      10902.066      2850.9591      2.2397475    
      8300   2075           2308.2683     -27515.769      1314.1773     -26201.592     -31946.206      2847.4352      2.2425193    
      8400   2100           2213.1015     -27465.008      1259.9955     -26205.012      21159.652      2843.9231      2.2452887    
      8500   2125           2399.037      -27569.93       1365.8551     -26204.075      8318.4462      2840.4467      2.2480367    
      8600   2150           2561.1431     -27659.766      1458.1477     -26201.618      24288.221      2837.0257      2.2507474    
      8700   2175           2446.611      -27598          1392.9406     -26205.059      50694.253      2833.6746      2.2534092    
      8800   2200           2528.773      -27655.671      1439.7183     -26215.953     -2214.5693      2830.3937      2.2560213    
      8900   2225           2670.6821     -27755.303      1520.512      -26234.791      4791.7653      2827.1904      2.2585774    
      9000   2250           2356.9367     -27608.532      1341.8859     -26266.647      33671.478      2824.0717      2.2610716    
      9100   2275           2220.4464     -27562.92       1264.1772     -26298.742      33662.969      2821.0146      2.2635219    
      9200   2300           2466.707      -27728.887      1404.3819     -26324.505      10767.313      2818.0309      2.2659186    
      9300   2325           2312.7415     -27665.412      1316.724      -26348.688      12993.629      2815.1294      2.2682539    
      9400   2350           2445.8547     -27762.976      1392.51       -26370.466      12373.392      2812.2914      2.270543     
      9500   2375           2417.7223     -27769.472      1376.4932     -26392.979      49351.303      2809.5282      2.2727761    
      9600   2400           2349.9666     -27750.069      1337.9176     -26412.151      14298.62       2806.8591      2.2749373    
      9700   2425           2316.8608     -27743.038      1319.0693     -26423.969     -35110.802      2804.2585      2.277047     
      9800   2450           2349.9192     -27772.237      1337.8906     -26434.346      93131.604      2801.6683      2.2791521    
      9900   2475           2356.3522     -27778.262      1341.5531     -26436.709     -2888.8903      2799.1836      2.2811753    
     10000   2500           2181.9682     -27677.735      1242.2702     -26435.464      7528.2517      2796.7779      2.2831374    
     10100   2525           2334.5261     -27748.152      1329.1268     -26419.025      11333.393      2794.444       2.2850443    
     10200   2550           2372.0895     -27734.996      1350.5129     -26384.483      65302.34       2792.1923      2.286887     
     10300   2575           2256.2174     -27623.375      1284.5429     -26338.832     -11146.88       2790.078       2.28862      
     10400   2600           2364.6282     -27634.114      1346.2649     -26287.849      55213.961      2788.0469      2.2902873    
     10500   2625           2497.3348     -27655.042      1421.8194     -26233.223      27646.365      2786.1276      2.2918651    
     10600   2650           2553.3459     -27640.401      1453.7085     -26186.692      11152.029      2784.3275      2.2933467    
     10700   2675           2267.8761     -27444.974      1291.1806     -26153.793      13467.041      2782.6142      2.2947588    
     10800   2700           2650.3488     -27637.336      1508.9356     -26128.4        39175.468      2780.9712      2.2961145    
     10900   2725           2557.848      -27570.431      1456.2717     -26114.159      35647.541      2779.4345      2.297384     
     11000   2750           2690.5208     -27649.366      1531.8069     -26117.56       16497.15       2777.9769      2.2985895    
     11100   2775           2563.4034     -27595.092      1459.4346     -26135.657      14565.763      2776.5997      2.2997295    
     11200   2800           2668.8569     -27684.256      1519.4729     -26164.784      24870.266      2775.3189      2.3007908    
     11300   2825           2471.7034     -27613.082      1407.2265     -26205.855      37829.138      2774.1486      2.3017615    
     11400   2850           2371.4621     -27601.46       1350.1557     -26251.305      32418.472      2773.0473      2.3026756    
     11500   2875           2333.5178     -27619.518      1328.5527     -26290.966      27979.208      2771.9942      2.3035504    
     11600   2900           2551.1458     -27770.649      1452.4559     -26318.194      39119.651      2771.0285      2.3043532    
     11700   2925           2504.8992     -27765.275      1426.1261     -26339.149      33209          2770.1605      2.3050753    
     11800   2950           2310.764      -27668.629      1315.5982     -26353.031      9034.3767      2769.3749      2.3057291    
     11900   2975           2359.1527     -27707.452      1343.1476     -26364.305      59818.902      2768.6617      2.3063231    
     12000   3000           2269.1346     -27662.873      1291.8971     -26370.976      35810.323      2768.0479      2.3068345    
     12100   3025           2391.9941     -27740.288      1361.8453     -26378.443      13072.355      2767.5288      2.3072672    
     12200   3050           2180.3476     -27622.103      1241.3476     -26380.755      81259.023      2767.1054      2.3076202    
     12300   3075           2468.821      -27785.293      1405.5855     -26379.707     -7118.663       2766.7714      2.3078988    
     12400   3100           2263.6139     -27665.554      1288.754      -26376.8        49229.126      2766.504       2.3081219    
     12500   3125           2657.5607     -27886.226      1513.0415     -26373.185      13735.693      2766.307       2.3082863    
     12600   3150           2294.0821     -27672.732      1306.1006     -26366.631      17220.524      2766.2074      2.3083694    
     12700   3175           2396.042      -27724.25       1364.1499     -26360.1        62189.907      2766.1971      2.3083779    
     12800   3200           2395.1891     -27716.023      1363.6643     -26352.359      37855.147      2766.2747      2.3083132    
     12900   3225           2472.2224     -27755.923      1407.5221     -26348.401      12821.367      2766.4183      2.3081933    
     13000   3250           2344.7548     -27678.041      1334.9503     -26343.09      -10486.924      2766.6179      2.3080268    
     13100   3275           2558.4931     -27794.984      1456.639      -26338.345      9125.4506      2766.8509      2.3078325    
     13200   3300           2412.8779     -27704.077      1373.7352     -26330.342      21104.064      2767.1566      2.3075776    
     13300   3325           2612.0342     -27804.472      1487.1218     -26317.351     -17726.151      2767.5263      2.3072693    
     13400   3350           2414.5576     -27677.538      1374.6914     -26302.846      57193.573      2767.9516      2.3069148    
     13500   3375           2373.9239     -27638.989      1351.5573     -26287.432      48434.221      2768.4705      2.3064824    
     13600   3400           2537.4423     -27713.872      1444.654      -26269.218      39922.898      2769.0761      2.305978     
     13700   3425           2464.6039     -27659.246      1403.1846     -26256.061      16028.011      2769.7825      2.3053898    
     13800   3450           2393.2249     -27611.87       1362.546      -26249.324      48417.368      2770.5868      2.3047206    
     13900   3475           2455.2077     -27642.907      1397.835      -26245.072      46894.262      2771.4927      2.3039672    
     14000   3500           2185.0902     -27482          1244.0477     -26237.952      49842.16       2772.4753      2.3031507    
     14100   3525           2550.9912     -27680.043      1452.3678     -26227.675      56559.231      2773.491       2.3023072    
     14200   3550           2316.16       -27536.807      1318.6703     -26218.137      49309.54       2774.5633      2.3014174    
     14300   3575           2594.4564     -27684.03       1477.1141     -26206.916      20847.015      2775.6883      2.3004846    
     14400   3600           2598.5517     -27678.757      1479.4457     -26199.311     -9793.166       2776.8693      2.2995062    
     14500   3625           2436.0958     -27589.799      1386.9539     -26202.845      11656.777      2778.0772      2.2985065    
     14600   3650           2608.0034     -27699.244      1484.8269     -26214.417      67272.64       2779.324       2.2974754    
     14700   3675           2509.1253     -27663.911      1428.5322     -26235.379      18101.291      2780.6636      2.2963685    
     14800   3700           2337.1662     -27598.993      1330.6299     -26268.363     -14256.753      2782.0629      2.2952135    
     14900   3725           2512.1958     -27741.334      1430.2803     -26311.053      32827.452      2783.4813      2.2940439    
     15000   3750           2519.1746     -27794.37       1434.2536     -26360.117      8896.0363      2784.9788      2.2928104    
     15100   3775           2209.2161     -27666.394      1257.7834     -26408.61       24694.791      2786.5517      2.2915162    
     15200   3800           2186.2894     -27688.415      1244.7304     -26443.684      12984.031      2788.1699      2.2901863    
     15300   3825           2289.875      -27770.014      1303.7053     -26466.308     -14360.539      2789.8061      2.2888431    
     15400   3850           2389.0442     -27837.402      1360.1658     -26477.236     -769.26153      2791.4598      2.2874871    
     15500   3875           2142.8448     -27701.799      1219.996      -26481.803      2020.4299      2793.1357      2.2861147    
     15600   3900           2260.4955     -27760.465      1286.9786     -26473.486     -23256.984      2794.8229      2.2847345    
     15700   3925           2353.0729     -27794.207      1339.6861     -26454.521     -14817.751      2796.4857      2.283376     
     15800   3950           2178.868      -27668.528      1240.5052     -26428.022      19096.561      2798.1477      2.2820198    
     15900   3975           2331.9186     -27720.923      1327.6422     -26393.28       25679.886      2799.8239      2.2806536    
     16000   4000           2404.7035     -27724.741      1369.0812     -26355.66       12772.153      2801.5138      2.2792779    
     16100   4025           2289.811      -27623.036      1303.6689     -26319.367     -16559.657      2803.2467      2.2778689    
     16200   4050           2488.4689     -27708.772      1416.7718     -26292          57095.523      2804.9974      2.2764472    
     16300   4075           2243.1764     -27552.581      1277.1182     -26275.463      34356.782      2806.8087      2.2749782    
     16400   4100           2618.2474     -27756.538      1490.6591     -26265.879     -19080.056      2808.6559      2.2734819    
     16500   4125           2397.8822     -27630.635      1365.1976     -26265.437      20174.571      2810.5369      2.2719604    
     16600   4150           2323.6523     -27586.444      1322.9359     -26263.508      19015.045      2812.4618      2.2704054    
     16700   4175           2452.1156     -27656.79       1396.0745     -26260.716      14285.446      2814.4054      2.2688375    
     16800   4200           2210.8199     -27518.452      1258.6965     -26259.756      26611.703      2816.3689      2.2672557    
     16900   4225           2499.9247     -27681.563      1423.2939     -26258.269      32211.921      2818.3575      2.2656559    
     17000   4250           2330.7167     -27582.825      1326.9579     -26255.867      31687.698      2820.3584      2.2640486    
     17100   4275           2589.9793     -27734.192      1474.5651     -26259.626      4311.9494      2822.3802      2.2624267    
     17200   4300           2397.8501     -27635.663      1365.1793     -26270.483     -4548.0171      2824.4045      2.2608052    
     17300   4325           2332.477      -27613.657      1327.9601     -26285.697      15119.636      2826.4329      2.2591827    
     17400   4350           2401.9392     -27667.623      1367.5074     -26300.115     -8235.4687      2828.4619      2.2575621    
     17500   4375           2294.5184     -27622.125      1306.349      -26315.776      25804.433      2830.496       2.2559398    
     17600   4400           2251.7692     -27614.452      1282.0104     -26332.441     -5813.0066      2832.5371      2.2543142    
     17700   4425           2297.2848     -27659.088      1307.924      -26351.164     -3343.5458      2834.5729      2.2526951    
     17800   4450           2215.2316     -27629.093      1261.2083     -26367.884     -28077.095      2836.6112      2.2510764    
     17900   4475           2416.6848     -27759.795      1375.9026     -26383.892     -16836.326      2838.6219      2.2494818    
     18000   4500           2142.7833     -27620.353      1219.9609     -26400.392     -14482.958      2840.5758      2.2479345    
     18100   4525           2208.4985     -27668.733      1257.3749     -26411.358     -13499.926      2842.4906      2.2464202    
     18200   4550           2264.4264     -27705.574      1289.2165     -26416.358      25593.948      2844.3902      2.24492      
     18300   4575           2255.0643     -27698.095      1283.8864     -26414.209     -27111.546      2846.2801      2.2434294    
     18400   4600           2531.439      -27841.31       1441.2361     -26400.074     -15098.241      2848.1498      2.2419566    
     18500   4625           2348.1212     -27714.877      1336.8669     -26378.01       9244.6677      2850.0433      2.2404672    
     18600   4650           2341.0171     -27678.933      1332.8223     -26346.111     -17650.589      2851.9484      2.2389705    
     18700   4675           2102.2637     -27502.28       1196.8917     -26305.389     -14910.545      2853.8302      2.2374942    
     18800   4700           2359.3577     -27595.15       1343.2643     -26251.885     -22600.109      2855.6757      2.2360482    
     18900   4725           2304.7158     -27508.717      1312.1547     -26196.562     -23622.506      2857.4812      2.2346353    
     19000   4750           2482.6402     -27561.641      1413.4533     -26148.188     -18588.05       2859.2392      2.2332614    
     19100   4775           2575.7993     -27582.967      1466.492      -26116.475     -13479.024      2860.9932      2.2318922    
     19200   4800           2422.5388     -27479.512      1379.2355     -26100.276      302.8511       2862.7458      2.2305258    
     19300   4825           2724.5649     -27648.097      1551.1894     -26096.908     -16270.284      2864.5046      2.2291563    
     19400   4850           2374.261      -27457.81       1351.7492     -26106.061      70316.598      2866.2755      2.227779     
     19500   4875           2751.4783     -27690.446      1566.5121     -26123.934     -26141.655      2868.0585      2.226394     
     19600   4900           2304.6325     -27464.606      1312.1073     -26152.499     -2799.4999      2869.8215      2.2250263    
     19700   4925           2380.313      -27538.304      1355.1948     -26183.109     -18835.675      2871.5714      2.2236704    
     19800   4950           2260.8806     -27496.93       1287.1978     -26209.732     -18964.854      2873.284       2.222345     
     19900   4975           2164.3351     -27462.252      1232.2311     -26230.02      -7818.6471      2874.9638      2.2210466    
     20000   5000           2511.228      -27671.093      1429.7293     -26241.364     -6778.8797      2876.5996      2.2197835    
     20100   5025           2350.0583     -27591.273      1337.9698     -26253.303      20684.443      2878.2027      2.2185471    
     20200   5050           2301.5752     -27574.033      1310.3667     -26263.666     -18139.973      2879.7727      2.2173376    
     20300   5075           2346.8308     -27607.879      1336.1323     -26271.747     -7788.6567      2881.3094      2.2161551    
     20400   5100           2355.0271     -27618.249      1340.7987     -26277.45      -25991.417      2882.8336      2.2149833    
     20500   5125           2441.9986     -27668.258      1390.3146     -26277.943     -28299.596      2884.3306      2.2138338    
     20600   5150           2272.9446     -27566.536      1294.0663     -26272.47      -27437.508      2885.7884      2.2127154    
     20700   5175           2432.7302     -27645.435      1385.0378     -26260.397      13104.416      2887.2201      2.2116181    
     20800   5200           2471.5309     -27651.971      1407.1283     -26244.842      24750.564      2888.6453      2.210527     
     20900   5225           2336.7562     -27558.789      1330.3964     -26228.392      14596.584      2890.0867      2.2094245    
     21000   5250           2205.4176     -27463.984      1255.6208     -26208.363     -21716.33       2891.5319      2.2083202    
     21100   5275           2463.3558     -27582.957      1402.474      -26180.483     -11653.667      2892.9439      2.2072424    
     21200   5300           2254.6021     -27430.82       1283.6233     -26147.196     -30345.893      2894.3148      2.2061969    
     21300   5325           2605.086      -27595.707      1483.1659     -26112.541      13123.749      2895.6401      2.2051872    
     21400   5350           2496.5581     -27503.138      1421.3772     -26081.761      21104.588      2896.9769      2.2041696    
     21500   5375           2417.1529     -27436.499      1376.1691     -26060.33      -1882.7213      2898.3549      2.2031216    
     21600   5400           2524.594      -27482.298      1437.339      -26044.959     -4432.2308      2899.7198      2.2020846    
     21700   5425           2754.9644     -27606.568      1568.4969     -26038.071      1151.8541      2901.0938      2.2010417    
     21800   5450           2448.6152     -27437.595      1394.0816     -26043.513      14715.647      2902.4817      2.1999892    
     21900   5475           2384.3716     -27416.438      1357.5055     -26058.933     -8875.8151      2903.87        2.1989374    
     22000   5500           2503.6828     -27512.541      1425.4336     -26087.107      18912.761      2905.2259      2.1979111    
     22100   5525           2564.9374     -27594.095      1460.3079     -26133.787      21130.162      2906.5733      2.1968923    
     22200   5550           2268.8818     -27485.216      1291.7532     -26193.463      130.6109       2907.9288      2.1958682    
     22300   5575           2380.4583     -27601.198      1355.2776     -26245.92       22863.348      2909.2712      2.194855     
     22400   5600           2267.3885     -27576.216      1290.903      -26285.313     -27861.533      2910.5868      2.1938629    
     22500   5625           2321.5701     -27628.44       1321.7505     -26306.689     -16244.956      2911.8574      2.1929056    
     22600   5650           2261.5273     -27604.296      1287.566      -26316.73      -6713.1697      2913.0957      2.1919734    
     22700   5675           2413.2064     -27690.723      1373.9222     -26316.801     -8361.6924      2914.31        2.1910601    
     22800   5700           2177.0318     -27551.754      1239.4598     -26312.294     -19762.401      2915.507       2.1901605    
     22900   5725           2242.9683     -27579.969      1276.9997     -26302.969      7333.979       2916.6641      2.1892917    
     23000   5750           2260.5435     -27573.481      1287.0059     -26286.475     -20390.126      2917.8008      2.1884387    
     23100   5775           2161.2602     -27489.746      1230.4805     -26259.265     -25644.349      2918.9065      2.1876098    
     23200   5800           2390.7677     -27589.185      1361.1471     -26228.038     -21496.631      2919.969       2.1868138    
     23300   5825           2431.1742     -27579.438      1384.1519     -26195.286      15402.083      2921.0189      2.1860278    
     23400   5850           2494.8488     -27588.104      1420.4041     -26167.7       -1863.2808      2922.077       2.1852362    
     23500   5875           2401.6444     -27513.372      1367.3395     -26146.033     -15296.207      2923.1408      2.1844409    
     23600   5900           2429.685      -27516.44       1383.304      -26133.136      33065.716      2924.1818      2.1836633    
     23700   5925           2414.679      -27504.04       1374.7606     -26129.279     -27124.531      2925.229       2.1828816    
     23800   5950           2370.6491     -27478.088      1349.6928     -26128.395      9778.0532      2926.2678      2.1821066    
     23900   5975           2400.5447     -27495.898      1366.7135     -26129.185     -13226.119      2927.2937      2.1813419    
     24000   6000           2391.7271     -27487.88       1361.6933     -26126.187     -32079.168      2928.2843      2.180604     
     24100   6025           2445.0842     -27514.261      1392.0713     -26122.189     -26758.646      2929.2423      2.1798908    
     24200   6050           2421.4742     -27498.442      1378.6293     -26119.812     -16840.211      2930.1931      2.1791835    
     24300   6075           2390.0148     -27482.419      1360.7184     -26121.7       -5819.3411      2931.1182      2.1784957    
     24400   6100           2349.2543     -27462.244      1337.512      -26124.732      3358.1159      2932.0244      2.1778224    
     24500   6125           2512.4967     -27559.5        1430.4516     -26129.049     -36654.913      2932.9128      2.1771627    
     24600   6150           2331.7062     -27464.199      1327.5213     -26136.678      6276.1649      2933.7592      2.1765346    
     24700   6175           2375.2833     -27500.95       1352.3312     -26148.619     -15792.477      2934.5762      2.1759286    
     24800   6200           2333.5872     -27489.746      1328.5922     -26161.153     -9578.5708      2935.3589      2.1753484    
     24900   6225           2223.6834     -27445.075      1266.0202     -26179.055      11694.146      2936.1335      2.1747745    
     25000   6250           2407.0674     -27574.436      1370.4271     -26204.009     -2869.6947      2936.8862      2.1742172    
     25100   6275           2346.4567     -27581.016      1335.9193     -26245.097      10383.952      2937.6213      2.1736731    
     25200   6300           2263.4252     -27583.799      1288.6466     -26295.153     -9182.164       2938.3618      2.1731253    
     25300   6325           2301.9938     -27655.526      1310.605      -26344.921     -20181.224      2939.0929      2.1725847    
     25400   6350           2156.3324     -27611.875      1227.6749     -26384.2       -31228.591      2939.7816      2.1720758    
     25500   6375           2086.6161     -27596.011      1187.983      -26408.028     -9272.1103      2940.3856      2.1716296    
     25600   6400           2077.7491     -27597.221      1182.9347     -26414.286     -6787.3949      2940.92        2.171235     
     25700   6425           2137.5806     -27617.232      1216.9989     -26400.234     -23078.282      2941.3844      2.1708922    
     25800   6450           2362.236      -27717.18       1344.903      -26372.277     -39115.44       2941.7774      2.1706021    
     25900   6475           2305.1389     -27644.683      1312.3956     -26332.287      5573.1852      2942.1243      2.1703462    
     26000   6500           2178.4881     -27529.668      1240.2889     -26289.38      -9365.0171      2942.4436      2.1701107    
     26100   6525           2299.8166     -27554.066      1309.3654     -26244.701     -33257.473      2942.7225      2.1699051    
     26200   6550           2273.1791     -27495.053      1294.1998     -26200.853     -30385.014      2942.9461      2.1697402    
     26300   6575           2527.8066     -27604.992      1439.1681     -26165.824     -31583.793      2943.1224      2.1696102    
     26400   6600           2199.8544     -27393.436      1252.4535     -26140.982     -5845.385       2943.2422      2.1695219    
     26500   6625           2473.37       -27528.037      1408.1754     -26119.861     -23272.713      2943.3266      2.1694597    
     26600   6650           2375.7515     -27453.496      1352.5978     -26100.898     -24082.144      2943.3684      2.1694289    
     26700   6675           2400.9897     -27451.664      1366.9668     -26084.697     -19786.978      2943.3778      2.1694219    
     26800   6700           2672.0834     -27593.839      1521.3099     -26072.529     -23289.918      2943.3509      2.1694418    
     26900   6725           2367.1868     -27414.914      1347.7216     -26067.192     -8132.7108      2943.287       2.1694889    
     27000   6750           2489.4615     -27487.202      1417.3368     -26069.865     -17336.348      2943.1957      2.1695561    
     27100   6775           2244.5624     -27351.779      1277.9073     -26073.872     -16569.984      2943.0767      2.1696439    
     27200   6800           2574.2831     -27541.24       1465.6288     -26075.611     -33250.128      2942.9116      2.1697656    
     27300   6825           2375.2755     -27429.985      1352.3268     -26077.658     -10320.098      2942.6937      2.1699263    
     27400   6850           2508.287      -27511.854      1428.0549     -26083.799     -33447.849      2942.4621      2.1700971    
     27500   6875           2460.226      -27497.327      1400.6921     -26096.635     -31110.241      2942.1991      2.1702911    
     27600   6900           2393.1547     -27478.973      1362.5061     -26116.467     -45851.057      2941.8909      2.1705184    
     27700   6925           2344.9133     -27485.628      1335.0406     -26150.587      18440.462      2941.4978      2.1708085    
     27800   6950           2354.0936     -27536.031      1340.2672     -26195.764     -12145.16       2941.0623      2.1711299    
     27900   6975           2386.063      -27605.191      1358.4685     -26246.723     -21414.652      2940.5902      2.1714785    
     28000   7000           2168.3137     -27522.956      1234.4963     -26288.459     -28205.556      2940.0712      2.1718618    
     28100   7025           2065.4997     -27487.065      1175.9607     -26311.104     -15011.663      2939.5025      2.172282     
     28200   7050           2449.2576     -27713.866      1394.4474     -26319.419     -38219.913      2938.8831      2.1727398    
     28300   7075           2261.0841     -27606.142      1287.3137     -26318.828     -8883.7435      2938.2093      2.1732381    
     28400   7100           2197.8255     -27560.032      1251.2983     -26308.733     -25007.716      2937.5212      2.1737472    
     28500   7125           2493.2968     -27707.182      1419.5204     -26287.661     -34008.227      2936.7856      2.1742916    
     28600   7150           2426.7986     -27639.048      1381.6607     -26257.387     -28206.889      2936.0043      2.1748702    
     28700   7175           2563.9609     -27677.763      1459.752      -26218.011     -32142.742      2935.2013      2.1754652    
     28800   7200           2259.9649     -27461.169      1286.6765     -26174.492     -12336.085      2934.3744      2.1760783    
     28900   7225           2376.6776     -27475.949      1353.1251     -26122.824     -14774.372      2933.4939      2.1767315    
     29000   7250           2544.3876     -27517.267      1448.6082     -26068.659     -19647.802      2932.5803      2.1774096    
     29100   7275           2362.824      -27377.627      1345.2377     -26032.389      1288.8244      2931.6357      2.1781112    
     29200   7300           2573.1419     -27471.938      1464.979      -26006.959     -33483.688      2930.6645      2.178833     
     29300   7325           2824.0573     -27608.05       1607.8339     -26000.216     -24315.111      2929.6745      2.1795692    
     29400   7350           2371.2902     -27358.972      1350.0578     -26008.914      22827.609      2928.696       2.1802974    
     29500   7375           2551.004      -27474.519      1452.3751     -26022.144     -3067.0406      2927.7574      2.1809964    
     29600   7400           2485.0854     -27453.159      1414.8454     -26038.313      9897.0116      2926.8451      2.1816762    
     29700   7425           2588.8922     -27532.297      1473.9462     -26058.35       12651.96       2925.949       2.1823444    
     29800   7450           2315.6619     -27400.494      1318.3867     -26082.107     -39028.515      2925.0563      2.1830104    
     29900   7475           2312.4401     -27417.63       1316.5525     -26101.078     -12722.225      2924.1304      2.1837017    
     30000   7500           2582.4534     -27586.293      1470.2804     -26116.012     -19012.028      2923.1762      2.1844145    
     30100   7525           2175.0091     -27371.288      1238.3082     -26132.98      -12064.583      2922.2086      2.1851378    
     30200   7550           2640.8928     -27657.605      1503.552      -26154.053      10553.861      2921.2022      2.1858906    
     30300   7575           2322.6387     -27500.428      1322.3589     -26178.069     -13562.027      2920.207       2.1866355    
     30400   7600           2357.2879     -27547.957      1342.0859     -26205.871     -10300.03       2919.1961      2.1873927    
     30500   7625           2377.985      -27593.171      1353.8694     -26239.302      9610.6016      2918.1782      2.1881558    
     30600   7650           2109.8989     -27470.269      1201.2387     -26269.03      -25309.885      2917.1574      2.1889215    
     30700   7675           2406.5044     -27668.564      1370.1065     -26298.458     -9811.7313      2916.0904      2.1897224    
     30800   7700           2403.3243     -27694.821      1368.2959     -26326.525     -18647.847      2914.9869      2.1905513    
     30900   7725           2149.3934     -27579.778      1223.7243     -26356.054     -25942.037      2913.8426      2.1914116    
     31000   7750           2167.359      -27624.147      1233.9527     -26390.194      7367.0029      2912.6475      2.1923108    
     31100   7775           2199.7822     -27677.2        1252.4124     -26424.788     -19204.495      2911.4368      2.1932224    
     31200   7800           2183.6041     -27702.349      1243.2016     -26459.148      31991.646      2910.1949      2.1941583    
     31300   7825           2099.6875     -27685.405      1195.425      -26489.98       30695.051      2908.9447      2.1951013    
     31400   7850           2054.6294     -27680.522      1169.7718     -26510.751     -20455.386      2907.6628      2.1960691    
     31500   7875           2117.2407     -27717.853      1205.4187     -26512.434     -3856.9309      2906.3511      2.1970602    
     31600   7900           2151.209      -27718.22       1224.758      -26493.462     -1774.9593      2905.0201      2.1980669    
     31700   7925           2119.2818     -27661.184      1206.5807     -26454.603      1557.044       2903.6599      2.1990965    
     31800   7950           2263.0344     -27683.603      1288.424      -26395.179     -16757.347      2902.2733      2.2001472    
     31900   7975           2233.025      -27604.222      1271.3387     -26332.883     -13097.659      2900.856       2.2012221    
     32000   8000           2446.9557     -27670.547      1393.1369     -26277.411     -32022.709      2899.4252      2.2023084    
     32100   8025           2308.4989     -27556.186      1314.3085     -26241.877     -26472.577      2897.9532      2.203427     
     32200   8050           2425.4086     -27592.842      1380.8693     -26211.973     -4777.6701      2896.4424      2.2045763    
     32300   8075           2349.1567     -27525.903      1337.4565     -26188.447     -4372.5974      2894.9235      2.2057331    
     32400   8100           2304.0938     -27480.939      1311.8006     -26169.139      10239.233      2893.405       2.2068906    
     32500   8125           2433.3742     -27537.65       1385.4044     -26152.246      13841.352      2891.8893      2.2080473    
     32600   8150           2440.1348     -27524.373      1389.2535     -26135.12      -22294.654      2890.3869      2.209195     
     32700   8175           2403.9693     -27489.434      1368.6632     -26120.771     -22555.243      2888.8721      2.2103534    
     32800   8200           2572.5136     -27577.678      1464.6213     -26113.056      589.07261      2887.3369      2.2115287    
     32900   8225           2565.9712     -27573.329      1460.8965     -26112.433      6908.0157      2885.8158      2.2126944    
     33000   8250           2522.9631     -27555.067      1436.4105     -26118.657     -2733.6623      2884.3574      2.2138132    
     33100   8275           2195.8984     -27387.89       1250.2012     -26137.689     -14717.856      2882.9238      2.214914     
     33200   8300           2544.3365     -27609.198      1448.5791     -26160.619      4448.9698      2881.4814      2.2160227    
     33300   8325           2332.389      -27516.444      1327.91       -26188.534      7105.6525      2880.0605      2.2171161    
     33400   8350           2313.1743     -27536.917      1316.9704     -26219.946     -13362.435      2878.6726      2.218185     
     33500   8375           2224.3346     -27521.967      1266.3909     -26255.576      2581.5877      2877.2821      2.219257     
     33600   8400           2453.7107     -27688.869      1396.9827     -26291.886      14622.137      2875.875       2.2203428    
     33700   8425           2284.4172     -27635.714      1300.598      -26335.116      38934.668      2874.4873      2.2214147    
     33800   8450           2251.2089     -27658.107      1281.6914     -26376.415     -8532.9807      2873.1338      2.2224612    
     33900   8475           2130.9595     -27619.5        1213.2292     -26406.27      -2881.8179      2871.7793      2.2235094    
     34000   8500           2184.4217     -27667.138      1243.6671     -26423.471     -18199.523      2870.4115      2.224569     
     34100   8525           2204.6608     -27685.829      1255.1899     -26430.639      74165.927      2869.0452      2.2256283    
     34200   8550           2267.7271     -27722.798      1291.0958     -26431.702     -1645.7153      2867.719       2.2266576    
     34300   8575           2116.7898     -27627.761      1205.1619     -26422.599     -2234.9345      2866.3975      2.2276842    
     34400   8600           2234.1571     -27667.333      1271.9832     -26395.35       48820.647      2865.0614      2.2287231    
     34500   8625           2436.1866     -27723.301      1387.0056     -26336.296      18583.424      2863.7594      2.2297363    
     34600   8650           2383.2101     -27611.791      1356.8443     -26254.947     -24352.31       2862.5017      2.2307161    
     34700   8675           2357.8315     -27520.647      1342.3954     -26178.251      13393.099      2861.2486      2.231693     
     34800   8700           2438.3439     -27516.503      1388.2338     -26128.27       28865.892      2859.9916      2.2326738    
     34900   8725           2647.214      -27612.666      1507.1509     -26105.515      30799.936      2858.7552      2.2336394    
     35000   8750           2536.2258     -27545.665      1443.9614     -26101.704      25656.699      2857.5487      2.2345825    
     35100   8775           2382.8523     -27465.344      1356.6406     -26108.704     -3209.0435      2856.3763      2.2354997    
     35200   8800           2353.7356     -27460.029      1340.0634     -26119.966      8727.6497      2855.2188      2.236406     
     35300   8825           2771.0961     -27711.714      1577.6812     -26134.033      7143.5969      2854.0997      2.2372829    
     35400   8850           2404.0985     -27535.04       1368.7368     -26166.304      31108.824      2853.0507      2.2381055    
     35500   8875           2444.3022     -27592.699      1391.6261     -26201.073      13147.043      2852.1011      2.2388507    
     35600   8900           2208.2894     -27487.015      1257.2559     -26229.759     -18522.544      2851.2238      2.2395395    
     35700   8925           2474.5989     -27658.347      1408.8751     -26249.472     -11784.783      2850.3467      2.2402286    
     35800   8950           2509.8534     -27702.548      1428.9467     -26273.601      25637.075      2849.4671      2.2409202    
     35900   8975           2298.0549     -27603.999      1308.3624     -26295.636     -20859.287      2848.6221      2.2415849    
     36000   9000           2423.8736     -27694.728      1379.9954     -26314.733      19902.493      2847.7936      2.2422371    
     36100   9025           2394.2953     -27692.916      1363.1554     -26329.76       19667.717      2847.0168      2.2428489    
     36200   9050           2407.9619     -27717.787      1370.9363     -26346.851      26178.814      2846.2631      2.2434428    
     36300   9075           2174.6411     -27597.198      1238.0987     -26359.099     -4959.4841      2845.5319      2.2440193    
     36400   9100           2287.1132     -27670.263      1302.1329     -26368.13       20192.527      2844.8044      2.2445931    
     36500   9125           2415.9033     -27745.702      1375.4576     -26370.244     -21438.537      2844.1059      2.2451444    
     36600   9150           2252.9166     -27649.495      1282.6636     -26366.831      21312.655      2843.3988      2.2457027    
     36700   9175           2397.159      -27718.73       1364.7858     -26353.944      10538.702      2842.7109      2.2462461    
     36800   9200           2380.4865     -27684.188      1355.2936     -26328.894      2086.4935      2842.0605      2.2467602    
     36900   9225           2503.3045     -27717.447      1425.2182     -26292.229     -11392.443      2841.4424      2.247249     
     37000   9250           2376.5666     -27600.534      1353.0619     -26247.473      3443.6263      2840.845       2.2477215    
     37100   9275           2505.0268     -27626.34       1426.1987     -26200.141      11834.292      2840.2821      2.2481669    
     37200   9300           2521.9491     -27595.783      1435.8332     -26159.95       15783.693      2839.7482      2.2485897    
     37300   9325           2252.0831     -27414.548      1282.1891     -26132.359      66128.932      2839.2707      2.2489678    
     37400   9350           2490.3857     -27531.511      1417.863      -26113.648     -6597.263       2838.825       2.2493209    
     37500   9375           2660.6301     -27613.488      1514.7891     -26098.699     -8982.8398      2838.4368      2.2496285    
     37600   9400           2502.616      -27518.248      1424.8262     -26093.422      27954.579      2838.0878      2.2499051    
     37700   9425           2406.0494     -27461.591      1369.8475     -26091.744      39525.837      2837.7735      2.2501544    
     37800   9450           2510.7119     -27530.355      1429.4355     -26100.92      -4701.4555      2837.5104      2.250363     
     37900   9475           2624.3049     -27613.746      1494.1079     -26119.639      41920.452      2837.272       2.250552     
     38000   9500           2472.8085     -27565.242      1407.8557     -26157.386      43507.455      2837.0793      2.250705     
     38100   9525           2593.8683     -27689.833      1476.7793     -26213.054      2133.8413      2836.9767      2.2507864    
     38200   9550           2313.4006     -27594.622      1317.0993     -26277.523     -9725.4034      2836.9232      2.2508288    
     38300   9575           2320.0201     -27653.092      1320.868      -26332.224      8183.9516      2836.8937      2.2508522    
     38400   9600           2394.3781     -27728.597      1363.2026     -26365.395      5864.3726      2836.9044      2.2508437    
     38500   9625           2041.0255     -27539.656      1162.0267     -26377.629     -5648.8198      2836.9571      2.2508019    
     38600   9650           2213.9346     -27639.946      1260.4699     -26379.476      31217.9        2836.9979      2.2507695    
     38700   9675           2341.4042     -27704.695      1333.0427     -26371.652      19040.456      2837.0414      2.250735     
     38800   9700           2465.0139     -27762.156      1403.418      -26358.738     -17769.136      2837.1034      2.2506858    
     38900   9725           2402.3988     -27719.326      1367.7691     -26351.556      8555.5117      2837.1897      2.2506174    
     39000   9750           2334.9446     -27671.041      1329.365      -26341.676      15923.796      2837.2952      2.2505337    
     39100   9775           2393.589      -27689.185      1362.7533     -26326.432      17897.808      2837.4303      2.2504265    
     39200   9800           2277.6949     -27609.14       1296.7708     -26312.369      3573.3316      2837.5796      2.2503081    
     39300   9825           2440.7634     -27688.162      1389.6113     -26298.551      3229.6182      2837.7126      2.2502027    
     39400   9850           2170.6279     -27510.181      1235.8138     -26274.367     -14020.357      2837.8502      2.2500936    
     39500   9875           2282.6895     -27537.379      1299.6144     -26237.764     -225.79289      2837.9568      2.250009     
     39600   9900           2631.282      -27680.805      1498.0802     -26182.725      27009.71       2838.0467      2.2499377    
     39700   9925           2406.6866     -27506.039      1370.2103     -26135.829      4897.884       2838.1612      2.249847     
     39800   9950           2501.2037     -27526.087      1424.0221     -26102.065      38787.923      2838.2729      2.2497585    
     39900   9975           2532.5712     -27516.692      1441.8807     -26074.811      14170.813      2838.4211      2.249641     
     40000   10000          2772.8011     -27637.705      1578.652      -26059.053      6176.4227      2838.5952      2.249503     
     40100   10025          2620.5204     -27554.561      1491.9532     -26062.607     -11425.897      2838.7836      2.2493537    
     40200   10050          2468.2065     -27492.97       1405.2357     -26087.734      2715.4204      2838.9937      2.2491872    
     40300   10075          2598.4254     -27622.407      1479.3738     -26143.034      35762.914      2839.2437      2.2489892    
     40400   10100          2394.7755     -27605.257      1363.4288     -26241.828     -25288.295      2839.5258      2.2487658    
     40500   10125          2512.8397     -27765.633      1430.6469     -26334.986     -17238.537      2839.791       2.2485557    
     40600   10150          2443.653      -27768.004      1391.2565     -26376.748     -37243.745      2840.0764      2.2483298    
     40700   10175          2248.8857     -27678.077      1280.3687     -26397.708     -12878.053      2840.3542      2.2481099    
     40800   10200          2257.4633     -27689.437      1285.2522     -26404.184     -17931.633      2840.6181      2.247901     
     40900   10225          2320.4375     -27721.824      1321.1056     -26400.718      18840.224      2840.876       2.247697     
     41000   10250          2309.9095     -27702.77       1315.1117     -26387.658      22917.598      2841.1654      2.247468     
     41100   10275          2238.0636     -27642.218      1274.2073     -26368.01      -7652.6877      2841.4776      2.2472211    
     41200   10300          2256.1737     -27629.476      1284.518      -26344.958      35365.22       2841.8078      2.2469599    
     41300   10325          2350.1735     -27652.096      1338.0354     -26314.061      14991.911      2842.2018      2.2466485    
     41400   10350          2502.8972     -27704.883      1424.9863     -26279.897     -4627.4921      2842.6398      2.2463023    
     41500   10375          2273.9986     -27546.309      1294.6663     -26251.642      18276.032      2843.0865      2.2459494    
     41600   10400          2545.2229     -27672.536      1449.0838     -26223.453      22090.782      2843.5749      2.2455637    
     41700   10425          2440.8176     -27584.437      1389.6422     -26194.795     -15897.768      2844.1352      2.2451212    
     41800   10450          2336.6188     -27494.281      1330.3182     -26163.963      8438.7397      2844.728       2.2446534    
     41900   10475          2636.4761     -27633.339      1501.0374     -26132.302      21771.203      2845.3512      2.2441618    
     42000   10500          2451.3845     -27502.704      1395.6583     -26107.046     -6662.64        2846.0395      2.2436191    
     42100   10525          2478.6758     -27501.113      1411.1962     -26089.917      23514.971      2846.7768      2.243038     
     42200   10550          2394.4176     -27439.732      1363.2251     -26076.507      9094.8957      2847.5449      2.2424329    
     42300   10575          2488.9769     -27485.359      1417.061      -26068.298      15913.108      2848.3543      2.2417957    
     42400   10600          2563.746      -27527.142      1459.6296     -26067.512     -903.72021      2849.184       2.2411428    
     42500   10625          2366.8103     -27427.951      1347.5073     -26080.444      13707.049      2850.0133      2.2404908    
     42600   10650          2528.8223     -27550.213      1439.7463     -26110.466      9497.2794      2850.8732      2.2398149    
     42700   10675          2371.3333     -27519.238      1350.0824     -26169.156      39296.383      2851.7818      2.2391013    
     42800   10700          2383.027      -27603.607      1356.74       -26246.867      31368.323      2852.7368      2.2383518    
     42900   10725          2399.5012     -27682.561      1366.1193     -26316.442      41786.799      2853.7182      2.237582     
     43000   10750          2457.2078     -27768.728      1398.9737     -26369.755      15951.012      2854.7446      2.2367775    
     43100   10775          2326.7085     -27727.065      1324.6759     -26402.389     -4596.4528      2855.8012      2.2359499    
     43200   10800          2316.8873     -27740.098      1319.0844     -26421.014      3293.2172      2856.8498      2.2351292    
     43300   10825          2220.201      -27691.722      1264.0375     -26427.684     -14114.78       2857.9         2.2343078    
     43400   10850          2249.2974     -27702.03       1280.6031     -26421.427     -39315.697      2858.9353      2.2334988    
     43500   10875          2213.5924     -27665.942      1260.275      -26405.667     -11053.803      2859.9573      2.2327006    
     43600   10900          2425.3154     -27759.807      1380.8163     -26378.991     -19739.314      2860.9588      2.231919     
     43700   10925          2342.5135     -27679.158      1333.6742     -26345.484      70644.702      2861.9496      2.2311463    
     43800   10950          2331.9209     -27635.233      1327.6435     -26307.59      -36358.194      2862.9808      2.2303428    
     43900   10975          2255.6338     -27554.404      1284.2107     -26270.193      25485.108      2863.9851      2.2295606    
     44000   11000          2505.6049     -27656.326      1426.5279     -26229.798      18382.282      2865.0055      2.2287666    
     44100   11025          2533.895      -27641.458      1442.6344     -26198.823     -29249.14       2866.066       2.2279418    
     44200   11050          2370.2084     -27528.062      1349.4419     -26178.62       4292.1629      2867.1152      2.2271266    
     44300   11075          2664.0198     -27683.023      1516.719      -26166.304      22857.624      2868.1799      2.2262998    
     44400   11100          2287.632      -27461.82       1302.4283     -26159.392      10211.335      2869.2916      2.2254372    
     44500   11125          2472.361      -27561.64       1407.601      -26154.039     -19232.907      2870.418       2.2245639    
     44600   11150          2490.6658     -27567.837      1418.0225     -26149.814      40305.367      2871.5311      2.2237017    
     44700   11175          2467.6434     -27555.966      1404.915      -26151.051      41562.776      2872.6846      2.2228087    
     44800   11200          2263.5256     -27443.368      1288.7037     -26154.664      30141.279      2873.8708      2.2218912    
     44900   11225          2472.3048     -27565.077      1407.569      -26157.508      16874.413      2875.0924      2.2209472    
     45000   11250          2448.5526     -27556.358      1394.046      -26162.312      5708.5065      2876.3291      2.2199923    
     45100   11275          2347.712      -27503.667      1336.634      -26167.033     -17991.19       2877.5671      2.2190372    
     45200   11300          2446.1977     -27573.582      1392.7053     -26180.877     -16575.155      2878.7879      2.2180962    
     45300   11325          2325.2223     -27526.459      1323.8298     -26202.629      9786.1787      2880.0206      2.2171468    
     45400   11350          2305.7973     -27546.632      1312.7704     -26233.861     -20310.035      2881.2756      2.2161811    
     45500   11375          2489.1142     -27693.322      1417.1391     -26276.182      2941.2328      2882.5318      2.2152152    
     45600   11400          2383.1678     -27682.255      1356.8201     -26325.435      30260.432      2883.7897      2.214249     
     45700   11425          2079.7101     -27556.17       1184.0512     -26372.119      1045.2405      2885.0602      2.2132739    
     45800   11450          2406.1513     -27774.439      1369.9055     -26404.533     -35962.499      2886.3253      2.2123038    
     45900   11475          2310.239      -27741.453      1315.2993     -26426.154     -5486.0816      2887.5754      2.211346     
     46000   11500          2310.2833     -27754.352      1315.3245     -26439.028     -37426.613      2888.815       2.2103972    
     46100   11525          2138.4841     -27657.512      1217.5133     -26439.999     -44433.589      2890.0071      2.2094854    
     46200   11550          2233.6903     -27697.268      1271.7174     -26425.551     -55398.494      2891.139       2.2086203    
     46300   11575          2144.4957     -27616.565      1220.9358     -26395.63      -42865.632      2892.1953      2.2078137    
     46400   11600          2314.2846     -27668.703      1317.6026     -26351.101     -22489.132      2893.207       2.2070417    
     46500   11625          2337.2737     -27627.558      1330.691      -26296.867     -7701.3773      2894.1882      2.2062934    
     46600   11650          2366.9203     -27598.428      1347.5699     -26250.858     -8970.4074      2895.1506      2.20556      
     46700   11675          2359.1994     -27555.927      1343.1741     -26212.752     -16636.416      2896.098       2.2048385    
     46800   11700          2394.366      -27544.868      1363.1957     -26181.672     -24357.951      2896.9972      2.2041542    
     46900   11725          2594.766      -27637.064      1477.2904     -26159.773      2369.6124      2897.8454      2.203509     
     47000   11750          2379.494      -27503.979      1354.7285     -26149.251     -2363.598       2898.7133      2.2028493    
     47100   11775          2224.7457     -27408.305      1266.625      -26141.68       15234.437      2899.5875      2.2021851    
     47200   11800          2403.8421     -27498.874      1368.5908     -26130.283     -23389.631      2900.4604      2.2015224    
     47300   11825          2277.5615     -27417.408      1296.6948     -26120.713     -11991.093      2901.3012      2.2008844    
     47400   11850          2512.4939     -27539.524      1430.45       -26109.074     -3068.8376      2902.112       2.2002695    
     47500   11875          2511.8441     -27532.396      1430.0801     -26102.316      6673.7749      2902.9219      2.1996556    
     47600   11900          2571.179      -27567.477      1463.8615     -26103.615     -13741.443      2903.7682      2.1990145    
     47700   11925          2309.1091     -27430.233      1314.656      -26115.577      33861.549      2904.6029      2.1983826    
     47800   11950          2479.1981     -27551.239      1411.4935     -26139.745     -16525.633      2905.3843      2.1977913    
     47900   11975          2390.9465     -27540.078      1361.2488     -26178.829      4477.3789      2906.1414      2.1972187    
     48000   12000          2296.6502     -27530.893      1307.5627     -26223.331     -12763.402      2906.8885      2.196654     
     48100   12025          2319.5438     -27596.72       1320.5968     -26276.123     -23122.453      2907.616       2.1961044    
     48200   12050          2186.9788     -27566.842      1245.1229     -26321.719     -28618.206      2908.3079      2.195582     
     48300   12075          2333.328      -27681.181      1328.4447     -26352.737     -28975.422      2908.9638      2.195087     
     48400   12100          2269.1877     -27664.066      1291.9273     -26372.139     -22630.794      2909.5948      2.1946109    
     48500   12125          2290.2019     -27684.617      1303.8915     -26380.725      8201.0876      2910.1907      2.1941615    
     48600   12150          2307.4183     -27693.323      1313.6934     -26379.63       11328.468      2910.7459      2.193743     
     48700   12175          2236.4286     -27640.817      1273.2765     -26367.54      -5501.4907      2911.2957      2.1933287    
     48800   12200          2181.8482     -27585.73       1242.202      -26343.528     -31110.954      2911.8286      2.1929273    
     48900   12225          2280.3501     -27601.449      1298.2825     -26303.166      11914.53       2912.3174      2.1925592    
     49000   12250          2278.5014     -27549.252      1297.2299     -26252.022      21613.853      2912.7988      2.1921969    
     49100   12275          2338.5314     -27528.195      1331.4071     -26196.788     -19266.26       2913.2709      2.1918416    
     49200   12300          2420.4885     -27539.003      1378.0682     -26160.935      19366.675      2913.7281      2.1914977    
     49300   12325          2406.91       -27515.764      1370.3374     -26145.427      14944.27       2914.2109      2.1911346    
     49400   12350          2506.1841     -27565.778      1426.8576     -26138.92       8361.1542      2914.7032      2.1907646    
     49500   12375          2554.6445     -27593.247      1454.4478     -26138.8        30987.003      2915.2041      2.1903881    
     49600   12400          2285.9475     -27444.858      1301.4693     -26143.389      59175.092      2915.7483      2.1899793    
     49700   12425          2288.714      -27454.135      1303.0443     -26151.091      6824.407       2916.3162      2.1895528    
     49800   12450          2535.3592     -27601.677      1443.468      -26158.209     -21254.114      2916.8682      2.1891385    
     49900   12475          2323.0596     -27485.404      1322.5985     -26162.806      15859.146      2917.4079      2.1887335    
     50000   12500          2483.9622     -27581.963      1414.2059     -26167.757     -6203.1074      2917.956       2.1883224    
     50100   12525          2415.6987     -27548.305      1375.3411     -26172.964      316.82789      2918.5158      2.1879027    
     50200   12550          2317.9094     -27495.282      1319.6663     -26175.616     -22881.694      2919.0868      2.1874747    
     50300   12575          2575.5217     -27643.33       1466.3339     -26176.996     -132.24126      2919.6499      2.1870527    
     50400   12600          2319.9221     -27498.032      1320.8122     -26177.22       1597.4747      2920.2461      2.1866063    
     50500   12625          2223.0294     -27445.834      1265.6478     -26180.186     -4950.1248      2920.8396      2.1861619    
     50600   12650          2404.2611     -27542.706      1368.8293     -26173.877     -11609.466      2921.4246      2.1857242    
     50700   12675          2259.0539     -27445.812      1286.1578     -26159.654      19014.663      2921.9965      2.1852964    
     50800   12700          2655.4218     -27649.635      1511.8238     -26137.812      24424.771      2922.5659      2.1848706    
     50900   12725          2468.0302     -27525.929      1405.1353     -26120.793      12302.904      2923.1745      2.1844158    
     51000   12750          2481.7774     -27520.616      1412.962      -26107.654      7504.0401      2923.8277      2.1839277    
     51100   12775          2435.4832     -27488.28       1386.6052     -26101.675     -16405.978      2924.4879      2.1834347    
     51200   12800          2467.0822     -27504.47       1404.5956     -26099.875     -41475.482      2925.1005      2.1829775    
     51300   12825          2438.4435     -27488.742      1388.2906     -26100.452      17986.468      2925.6581      2.1825614    
     51400   12850          2376.0945     -27453.987      1352.7931     -26101.194     -8619.2671      2926.197       2.1821594    
     51500   12875          2413.6769     -27473.91       1374.1901     -26099.72      -25715.258      2926.6906      2.1817914    
     51600   12900          2579.1173     -27563.277      1468.381      -26094.896     -19603.51       2927.1403      2.1814562    
     51700   12925          2505.4635     -27519.515      1426.4474     -26093.068      16866.647      2927.5588      2.1811444    
     51800   12950          2476.3393     -27508.57       1409.8659     -26098.704     -34216.198      2927.9477      2.1808547    
     51900   12975          2400.3674     -27481.223      1366.6125     -26114.61      -11921.731      2928.3159      2.1805805    
     52000   13000          2463.833      -27537.928      1402.7457     -26135.183     -23939.224      2928.6823      2.1803077    
     52100   13025          2119.6115     -27366.451      1206.7684     -26159.683     -19135.612      2929.0084      2.1800649    
     52200   13050          2552.4979     -27640.084      1453.2257     -26186.858     -40088.999      2929.3041      2.1798449    
     52300   13075          2211.3029     -27475.609      1258.9715     -26216.637     -1027.4934      2929.5622      2.1796528    
     52400   13100          2339.7073     -27577.671      1332.0766     -26245.594     -10243.707      2929.7924      2.1794815    
     52500   13125          2379.0436     -27627.773      1354.4721     -26273.3       -27757.021      2929.9875      2.1793364    
     52600   13150          2051.0304     -27464.201      1167.7228     -26296.478     -20748.857      2930.1363      2.1792258    
     52700   13175          2296.8948     -27618.188      1307.7019     -26310.486     -7758.1101      2930.225       2.1791598    
     52800   13200          2264.7204     -27604.223      1289.384      -26314.839     -42604.724      2930.2805      2.1791185    
     52900   13225          2381.2477     -27664.079      1355.727      -26308.352     -32722.593      2930.2722      2.1791246    
     53000   13250          2147.3416     -27509.946      1222.5561     -26287.39      -47993.605      2930.1911      2.179185     
     53100   13275          2364.8957     -27595.55       1346.4172     -26249.133     -15022.643      2930.033       2.1793025    
     53200   13300          2456.2319     -27589.695      1398.4181     -26191.276      1706.2052      2929.838       2.1794476    
     53300   13325          2401.4151     -27495.496      1367.209      -26128.287      3041.8737      2929.6404      2.1795946    
     53400   13350          2446.7995     -27470.728      1393.0479     -26077.681     -22617.582      2929.4372      2.1797458    
     53500   13375          2564.4624     -27502.321      1460.0375     -26042.284     -4448.7462      2929.1931      2.1799275    
     53600   13400          2314.9591     -27337.205      1317.9866     -26019.219      14498.879      2928.9281      2.1801246    
     53700   13425          2431.9293     -27391.587      1384.5818     -26007.005     -5573.2375      2928.6516      2.1803305    
     53800   13450          2624.9633     -27497.484      1494.4827     -26003.002      2722.8536      2928.3475      2.1805569    
     53900   13475          2539.883      -27453.847      1446.0435     -26007.804     -29260.171      2928.0448      2.1807824    
     54000   13500          2561.3636     -27479.36       1458.2732     -26021.087     -25962.563      2927.7049      2.1810355    
     54100   13525          2567.5659     -27503.087      1461.8044     -26041.283      3801.5933      2927.3464      2.1813026    
     54200   13550          2539.0558     -27510.25       1445.5726     -26064.677      12369.669      2926.9821      2.1815741    
     54300   13575          2305.3628     -27404.486      1312.5231     -26091.963     -2859.2838      2926.623       2.1818418    
     54400   13600          2521.6541     -27555.401      1435.6653     -26119.736     -3331.8091      2926.2454      2.1821234    
     54500   13625          2404.897      -27519.415      1369.1914     -26150.224     -25033.792      2925.8478      2.1824198    
     54600   13650          2383.2021     -27534.477      1356.8397     -26177.637     -36519.816      2925.4224      2.1827372    
     54700   13675          2303.3675     -27509.204      1311.3871     -26197.817     -4408.248       2924.9826      2.1830655    
     54800   13700          2338.9266     -27544.864      1331.6321     -26213.232     -10633.577      2924.5367      2.1833983    
     54900   13725          2293.2451     -27527.228      1305.624      -26221.604      64188.651      2924.0677      2.1837484    
     55000   13750          2349.1478     -27567.388      1337.4514     -26229.937      19052.695      2923.6035      2.1840952    
     55100   13775          2310.1386     -27550.5        1315.2421     -26235.257      5115.2778      2923.1367      2.184444     
     55200   13800          2263.122      -27524.595      1288.4739     -26236.121     -20539.275      2922.665       2.1847966    
     55300   13825          2103.0941     -27424.159      1197.3645     -26226.795     -8392.7477      2922.1511      2.1851808    
     55400   13850          2594.292      -27693.617      1477.0205     -26216.597     -8070.5309      2921.5933      2.1855979    
     55500   13875          2302.8507     -27518.847      1311.0929     -26207.754     -1630.9653      2921.0101      2.1860343    
     55600   13900          2245.551      -27479.227      1278.4702     -26200.757     -7008.5737      2920.398       2.1864925    
     55700   13925          2417.4518     -27568.199      1376.3392     -26191.86       2284.642       2919.7756      2.1869586    
     55800   13950          2585.0346     -27659.134      1471.7499     -26187.384      28086.897      2919.1671      2.1874145    
     55900   13975          2370.4309     -27536.53       1349.5686     -26186.961     -16347.444      2918.5841      2.1878514    
     56000   14000          2326.3057     -27514.318      1324.4466     -26189.872     -10222.597      2917.9858      2.1883       
     56100   14025          2363.4009     -27535.656      1345.5662     -26190.09      -31389.689      2917.3482      2.1887782    
     56200   14050          2355.0852     -27527.865      1340.8317     -26187.033      2925.7791      2916.665       2.189291     
     56300   14075          2360.9892     -27525.961      1344.1931     -26181.768     -8040.8376      2915.9575      2.1898222    
     56400   14100          2333.9622     -27501.758      1328.8057     -26172.952      50989.593      2915.2434      2.1903586    
     56500   14125          2510.6845     -27587.666      1429.4199     -26158.246     -8551.9946      2914.5664      2.1908673    
     56600   14150          2640.3238     -27647.575      1503.228      -26144.347     -28101.406      2913.9171      2.1913556    
     56700   14175          2262.8855     -27416.508      1288.3393     -26128.169     -13853.674      2913.2665      2.1918449    
     56800   14200          2387.1541     -27469.457      1359.0897     -26110.368     -23672.524      2912.5707      2.1923686    
     56900   14225          2465.1932     -27489.679      1403.5201     -26086.159     -1242.8321      2911.8339      2.1929233    
     57000   14250          2412.2028     -27428.685      1373.3508     -26055.334     -32215.749      2911.0819      2.1934898    
     57100   14275          2525.5213     -27460.986      1437.867      -26023.119     -12567.676      2910.286       2.1940897    
     57200   14300          2753.9273     -27560.81       1567.9064     -25992.903     -15780.198      2909.494       2.1946869    
     57300   14325          2507.6817     -27399.366      1427.7102     -25971.656      915.39666      2908.7206      2.1952704    
     57400   14350          2559.9483     -27418.689      1457.4674     -25961.222     -14989.43       2907.9681      2.1958385    
     57500   14375          2538.3195     -27409.427      1445.1534     -25964.273      17288.579      2907.2289      2.1963969    
     57600   14400          2489.8508     -27400.092      1417.5585     -25982.533      23060.506      2906.5262      2.1969279    
     57700   14425          2629.6309     -27514.226      1497.1402     -26017.086     -25012.139      2905.8747      2.1974205    
     57800   14450          2407.579      -27440.341      1370.7183     -26069.622      16476.368      2905.207       2.1979254    
     57900   14475          2460.2756     -27528.775      1400.7203     -26128.055     -11551.685      2904.5274      2.1984397    
     58000   14500          2447.815      -27577.973      1393.6261     -26184.347     -8231.9829      2903.8215      2.1989741    
     58100   14525          2384.7263     -27582.076      1357.7075     -26224.368      16798.925      2903.1255      2.1995013    
     58200   14550          2466.244      -27657.015      1404.1183     -26252.896     -21966.332      2902.4178      2.2000377    
     58300   14575          2366.258      -27619.742      1347.1929     -26272.549      17627.143      2901.712       2.2005728    
     58400   14600          2247.8077     -27560.068      1279.755      -26280.313     -12769.46       2901.014       2.2011022    
     58500   14625          2189.4197     -27524.932      1246.5127     -26278.42       9509.6873      2900.2933      2.2016492    
     58600   14650          2409.8217     -27643.304      1371.9952     -26271.309      26109.875      2899.576       2.2021939    
     58700   14675          2299.8449     -27568.819      1309.3815     -26259.437      18218.022      2898.8992      2.202708     
     58800   14700          2267.46       -27536.103      1290.9437     -26245.159      1831.9984      2898.2351      2.2032127    
     58900   14725          2294.4902     -27527.917      1306.3329     -26221.584      13047.814      2897.5746      2.203715     
     59000   14750          2565.7175     -27653.489      1460.752      -26192.737      11492.935      2896.9174      2.2042149    
     59100   14775          2341.7921     -27500.316      1333.2636     -26167.052      15909.621      2896.2646      2.2047117    
     59200   14800          2532.7811     -27582.196      1442.0002     -26140.196      8156.9101      2895.6122      2.2052084    
     59300   14825          2395.0917     -27473.557      1363.6089     -26109.948     -26835.446      2894.9822      2.2056883    
     59400   14850          2597.0094     -27556.414      1478.5676     -26077.846      13241.844      2894.3407      2.2061772    
     59500   14875          2510.3087     -27464.833      1429.2059     -26035.628     -12006.145      2893.7196      2.2066507    
     59600   14900          2594.933      -27468.283      1477.3855     -25990.897      13242.837      2893.1326      2.2070985    
     59700   14925          2622.6948     -27433.902      1493.1912     -25940.711      31981.586      2892.5779      2.2075217    
     59800   14950          2603.7503     -27374.767      1482.4054     -25892.361     -8842.0107      2892.0431      2.2079299    
     59900   14975          2702.5857     -27382.444      1538.6759     -25843.768      44007.826      2891.5215      2.2083282    
     60000   15000          2724.5412     -27355.904      1551.1759     -25804.728      38522.045      2891.0818      2.2086641    
     60100   15025          2698.8814     -27324.647      1536.5669     -25788.08       21355.939      2890.7446      2.2089217    
     60200   15050          2786.961      -27385.945      1586.7137     -25799.232     -18782.888      2890.4779      2.2091255    
     60300   15075          2658.7772     -27367.616      1513.7341     -25853.882     -574.8405       2890.2104      2.2093299    
     60400   15100          2566.1624     -27402.761      1461.0054     -25941.755      23607.179      2889.9453      2.2095326    
     60500   15125          2409.3932     -27392.609      1371.7512     -26020.858      3246.2474      2889.7054      2.2097161    
     60600   15150          2490.6291     -27490.109      1418.0016     -26072.108      3617.783       2889.4562      2.2099066    
     60700   15175          2438.5802     -27497.372      1388.3684     -26109.004     -2599.4821      2889.2282      2.210081     
     60800   15200          2526.4823     -27578.282      1438.4141     -26139.868      30673.918      2889.0144      2.2102446    
     60900   15225          2400.2122     -27537.879      1366.5241     -26171.354     -25521.287      2888.8241      2.2103901    
     61000   15250          2585.4346     -27673.769      1471.9777     -26201.791     -12665.448      2888.65        2.2105234    
     61100   15275          2204.1669     -27484.307      1254.9087     -26229.398      11880.184      2888.4972      2.2106403    
     61200   15300          2456.3503     -27652.449      1398.4855     -26253.963     -13465.582      2888.3543      2.2107497    
     61300   15325          2369.7516     -27624.677      1349.1819     -26275.495      339.71912      2888.2         2.2108678    
     61400   15350          2246.5947     -27572.36       1279.0644     -26293.295      28185.37       2888.0253      2.2110016    
     61500   15375          2343.7754     -27637.946      1334.3927     -26303.553      56510.298      2887.8366      2.211146     
     61600   15400          2411.47       -27683.218      1372.9336     -26310.284     -5920.0239      2887.6781      2.2112674    
     61700   15425          2232.7779     -27582.466      1271.198      -26311.268      15223.367      2887.5369      2.2113755    
     61800   15450          2354.4327     -27646.73       1340.4603     -26306.269     -4707.5788      2887.4028      2.2114782    
     61900   15475          2395.9506     -27655.642      1364.0978     -26291.544     -14028.681      2887.2845      2.2115688    
     62000   15500          2495.201      -27684.966      1420.6046     -26264.362     -28168.396      2887.1696      2.2116568    
     62100   15525          2344.6851     -27557.571      1334.9106     -26222.661     -14359.26       2887.0485      2.2117496    
     62200   15550          2308.8495     -27484.976      1314.5082     -26170.468     -13411.775      2886.9213      2.211847     
     62300   15575          2489.673      -27531.999      1417.4573     -26114.542      15896.724      2886.7927      2.2119456    
     62400   15600          2503.9219     -27489.437      1425.5697     -26063.867      24570.987      2886.668       2.2120411    
     62500   15625          2490.5897     -27449.608      1417.9792     -26031.629      20611.219      2886.5987      2.2120943    
     62600   15650          2705.6693     -27556.599      1540.4315     -26016.168      30991.938      2886.5882      2.2121023    
     62700   15675          2522.0016     -27451.925      1435.8631     -26016.062     -2772.8427      2886.6206      2.2120775    
     62800   15700          2592.7214     -27503.187      1476.1263     -26027.061     -15608.311      2886.6727      2.2120375    
     62900   15725          2466.8223     -27450.64       1404.4476     -26046.193     -8810.3523      2886.7298      2.2119938    
     63000   15750          2496.2312     -27493.79       1421.1911     -26072.599      519.09921      2886.7938      2.2119447    
     63100   15775          2553.0909     -27556.269      1453.5633     -26102.706     -18989.431      2886.8705      2.211886     
     63200   15800          2222.5566     -27397.497      1265.3787     -26132.119     -14160.963      2886.9407      2.2118322    
     63300   15825          2379.1855     -27511.21       1354.5529     -26156.657      16007.121      2886.9938      2.2117916    
     63400   15850          2281.0358     -27471.724      1298.6729     -26173.051     -9216.2717      2887.0552      2.2117445    
     63500   15875          2499.1437     -27610.81       1422.8493     -26187.961      45576.672      2887.1071      2.2117047    
     63600   15900          2453.1408     -27599.493      1396.6582     -26202.835      6122.6892      2887.2029      2.2116313    
     63700   15925          2517.958      -27651.648      1433.5609     -26218.087     -2691.0841      2887.3805      2.2114953    
     63800   15950          2245.6353     -27513.329      1278.5181     -26234.811      11229.945      2887.6025      2.2113253    
     63900   15975          2403.6982     -27616.147      1368.5088     -26247.638     -4434.0995      2887.8396      2.2111437    
     64000   16000          2394.6727     -27623.108      1363.3703     -26259.738      9240.4575      2888.0866      2.2109546    
     64100   16025          2419.6477     -27645.217      1377.5895     -26267.628     -6685.0903      2888.3259      2.2107714    
     64200   16050          2283.6901     -27570.069      1300.1841     -26269.885     -11365.882      2888.5858      2.2105725    
     64300   16075          2170.5421     -27498.759      1235.765      -26262.994     -13919.121      2888.8457      2.2103737    
     64400   16100          2185.8375     -27493.871      1244.4732     -26249.397     -5024.2186      2889.0772      2.2101965    
     64500   16125          2438.4544     -27624.046      1388.2967     -26235.75      -15483.061      2889.284       2.2100384    
     64600   16150          2329.6711     -27549.826      1326.3626     -26223.463      10118.512      2889.4922      2.2098791    
     64700   16175          2454.1796     -27609.077      1397.2496     -26211.827      41780.657      2889.7258      2.2097004    
     64800   16200          2341.2621     -27534.646      1332.9618     -26201.684      17715.781      2889.9856      2.2095018    
     64900   16225          2692.5503     -27728.774      1532.9624     -26195.812     -7887.4806      2890.2574      2.209294     
     65000   16250          2471.8829     -27602.518      1407.3288     -26195.189     -11884.266      2890.5494      2.2090708    
     65100   16275          2334.8426     -27528.19       1329.3069     -26198.883     -4841.17        2890.8638      2.2088306    
     65200   16300          2261.2338     -27484.234      1287.3989     -26196.835     -9389.92        2891.1735      2.208594     
     65300   16325          2317.2591     -27512.427      1319.2961     -26193.131      14482.982      2891.4532      2.2083803    
     65400   16350          2424.7871     -27565.633      1380.5155     -26185.118      8221.5805      2891.7357      2.2081646    
     65500   16375          2320.8841     -27498.469      1321.3599     -26177.109      46659.27       2892.0136      2.2079524    
     65600   16400          2271.1101     -27460.336      1293.0219     -26167.314     -20915.156      2892.297       2.2077361    
     65700   16425          2640.4192     -27646.683      1503.2823     -26143.401      10684.234      2892.5666      2.2075303    
     65800   16450          2597.4337     -27585.744      1478.8092     -26106.935      4957.936       2892.8389      2.2073225    
     65900   16475          2405.2359     -27427.554      1369.3843     -26058.17      -32866.435      2893.0994      2.2071237    
     66000   16500          2535.9394     -27451.406      1443.7984     -26007.608      6640.2246      2893.3196      2.2069558    
     66100   16525          2434.2353     -27345.999      1385.8946     -25960.105      1141.7938      2893.5476      2.2067819    
     66200   16550          2693.7532     -27457.628      1533.6472     -25923.981     -1027.5773      2893.8062      2.2065847    
     66300   16575          2604.2367     -27385.555      1482.6824     -25902.873     -14024.606      2894.0392      2.206407     
     66400   16600          2612.7376     -27391.478      1487.5222     -25903.956      14244.407      2894.258       2.2062402    
     66500   16625          2716.3075     -27472.448      1546.4882     -25925.959     -8658.9216      2894.5038      2.2060528    
     66600   16650          2473.5434     -27374.698      1408.2741     -25966.424     -465.5499       2894.7487      2.2058662    
     66700   16675          2633.6889     -27523.863      1499.4505     -26024.412     -25893.851      2894.9942      2.2056792    
     66800   16700          2477.0691     -27492.45       1410.2814     -26082.168     -8799.7985      2895.2148      2.2055111    
     66900   16725          2381.2423     -27483.596      1355.7239     -26127.872     -23474.522      2895.3937      2.2053748    
     67000   16750          2320.5168     -27476.506      1321.1508     -26155.355      23088.145      2895.5413      2.2052624    
     67100   16775          2479.8382     -27581.549      1411.858      -26169.691      10414.07       2895.6674      2.2051664    
     67200   16800          2253.3096     -27465.356      1282.8874     -26182.469      9140.0646      2895.7963      2.2050682    
     67300   16825          2349.6947     -27528.293      1337.7628     -26190.53      -16747.776      2895.9038      2.2049864    
     67400   16850          2484.1756     -27611.274      1414.3274     -26196.946     -13725.499      2895.9845      2.2049249    
     67500   16875          2386.5713     -27561.784      1358.7579     -26203.026     -20818.156      2896.0392      2.2048833    
     67600   16900          2305.5413     -27519.675      1312.6247     -26207.05      -16488.893      2896.0538      2.2048721    
     67700   16925          2331.177      -27535.214      1327.22       -26207.994      3186.8743      2896.0468      2.2048775    
     67800   16950          2522.9997     -27644.541      1436.4313     -26208.11      -22515.902      2896.0383      2.2048839    
     67900   16975          2429.511      -27596.313      1383.205      -26213.108      17873.512      2896.0328      2.2048882    
     68000   17000          2301.8424     -27532.978      1310.5188     -26222.459      2115.966       2896.0617      2.2048661    
     68100   17025          2189.1211     -27475.794      1246.3427     -26229.452      5927.3384      2896.0934      2.204842     
     68200   17050          2399.9354     -27596.598      1366.3666     -26230.232      15357.483      2896.0969      2.2048393    
     68300   17075          2190.7566     -27468.756      1247.2738     -26221.482     -12362.944      2896.0728      2.2048577    
     68400   17100          2396.1594     -27563.197      1364.2168     -26198.98      -12459.404      2896.008       2.204907     
     68500   17125          2465.8842     -27564.685      1403.9135     -26160.771     -2654.2965      2895.9415      2.2049577    
     68600   17150          2476.6521     -27523.993      1410.044      -26113.949      52959.263      2895.9002      2.2049891    
     68700   17175          2414.9372     -27446.338      1374.9076     -26071.43      -1525.1234      2895.8553      2.2050233    
     68800   17200          2541.6759     -27483.938      1447.0643     -26036.873      9942.0777      2895.8058      2.205061     
     68900   17225          2514.6741     -27440.611      1431.6913     -26008.919      20972.044      2895.79        2.205073     
     69000   17250          2423.4661     -27375.396      1379.7634     -25995.633     -18995.338      2895.8091      2.2050585    
     69100   17275          2486.9658     -27409.698      1415.916      -25993.782     -229.98161      2895.8103      2.2050576    
     69200   17300          2449.6235     -27389.749      1394.6557     -25995.094     -12213.28       2895.81        2.2050578    
     69300   17325          2584.1551     -27477.651      1471.2492     -26006.402      27273.683      2895.8026      2.2050634    
     69400   17350          2593.2846     -27514.736      1476.4469     -26038.289     -2210.2736      2895.8197      2.2050504    
     69500   17375          2371.71       -27441.242      1350.2969     -26090.945      3814.4011      2895.8581      2.2050212    
     69600   17400          2448.2828     -27547.29       1393.8924     -26153.398     -13672.912      2895.8965      2.2049919    
     69700   17425          2341.0064     -27542.851      1332.8162     -26210.034      25061.27       2895.9338      2.2049636    
     69800   17450          2297.2993     -27557.236      1307.9322     -26249.304     -12337.868      2895.96        2.2049436    
     69900   17475          2227.9395     -27543.582      1268.4433     -26275.138     -19197.682      2895.9703      2.2049357    
     70000   17500          2354.7051     -27624.14       1340.6154     -26283.525     -33804.283      2895.9849      2.2049246    
     70100   17525          2410.6759     -27657.057      1372.4815     -26284.576     -8401.9175      2896.0063      2.2049083    
     70200   17550          2465.8688     -27687.424      1403.9047     -26283.519     -23902.058      2896.0439      2.2048797    
     70300   17575          2234.2834     -27551.245      1272.0551     -26279.19       23712.121      2896.0704      2.2048596    
     70400   17600          2455.8815     -27665.435      1398.2186     -26267.217      11761.065      2896.1054      2.2048328    
     70500   17625          2339.351      -27583.308      1331.8737     -26251.435     -13018.244      2896.1633      2.2047888    
     70600   17650          2261.2071     -27519.024      1287.3837     -26231.64      -3833.067       2896.2242      2.2047424    
     70700   17675          2422.3162     -27584.461      1379.1087     -26205.352      29983.186      2896.2911      2.2046915    
     70800   17700          2431.8939     -27557.772      1384.5616     -26173.211      25056.153      2896.3862      2.2046191    
     70900   17725          2403.25       -27508.476      1368.2537     -26140.223      376.74087      2896.5144      2.2045215    
     71000   17750          2389.1343     -27468.591      1360.2171     -26108.374     -23062.522      2896.6572      2.2044129    
     71100   17775          2587.5716     -27547.02       1473.1943     -26073.825      17401.664      2896.7894      2.2043123    
     71200   17800          2539.9494     -27484.494      1446.0814     -26038.413      21940.767      2896.9321      2.2042037    
     71300   17825          2345.8873     -27341.459      1335.5951     -26005.864      3489.2211      2897.1184      2.204062     
     71400   17850          2723.4737     -27534.308      1550.5682     -25983.74      -18699.333      2897.3162      2.2039114    
     71500   17875          2524.907      -27413.175      1437.5172     -25975.658      7949.693       2897.538       2.2037427    
     71600   17900          2459.9352     -27382.051      1400.5265     -25981.524      17277.354      2897.806       2.203539     
     71700   17925          2676.84       -27534.044      1524.0179     -26010.026     -6704.2775      2898.1161      2.2033031    
     71800   17950          2454.8544     -27470.657      1397.6338     -26073.023      2979.8257      2898.4427      2.2030549    
     71900   17975          2448.9831     -27573.998      1394.2911     -26179.707      4824.5001      2898.8078      2.2027775    
     72000   18000          2131.9667     -27469.714      1213.8027     -26255.911      6830.0879      2899.1865      2.2024897    
     72100   18025          2354.0675     -27640.263      1340.2524     -26300.011      13461.374      2899.5716      2.2021972    
     72200   18050          2212.623      -27580.814      1259.7231     -26321.091      7472.2371      2899.9618      2.2019008    
     72300   18075          2028.9015     -27489.575      1155.1241     -26334.451      43210.979      2900.3326      2.2016194    
     72400   18100          2316.1832     -27650.224      1318.6835     -26331.541     -8058.0325      2900.7186      2.2013264    
     72500   18125          2167.1835     -27553.358      1233.8528     -26319.505     -9633.4667      2901.1005      2.2010366    
     72600   18150          2410.6252     -27670.925      1372.4526     -26298.472     -1574.1955      2901.437       2.2007813    
     72700   18175          2288.5744     -27573.967      1302.9649     -26271.002      59076.326      2901.7597      2.2005366    
     72800   18200          2437.6818     -27626.917      1387.8569     -26239.06      -11174.127      2902.1136      2.2002683    
     72900   18225          2450.5327     -27602.843      1395.1733     -26207.67      -8419.3224      2902.4587      2.2000066    
     73000   18250          2516.5968     -27601.913      1432.786      -26169.127     -3829.5306      2902.8101      2.1997403    
     73100   18275          2504.7279     -27562.534      1426.0285     -26136.506      47154.658      2903.2026      2.1994429    
     73200   18300          2384.2381     -27467.092      1357.4295     -26109.663     -14690.053      2903.6258      2.1991224    
     73300   18325          2521.8393     -27526.575      1435.7707     -26090.805     -6323.0082      2904.0393      2.1988092    
     73400   18350          2401.8678     -27442.791      1367.4667     -26075.324     -10331.831      2904.4686      2.1984842    
     73500   18375          2390.1596     -27426.147      1360.8008     -26065.346      51959.384      2904.8965      2.1981604    
     73600   18400          2606.0029     -27548.113      1483.6879     -26064.425      21464.145      2905.3441      2.1978217    
     73700   18425          2514.7796     -27508.114      1431.7513     -26076.363     -5125.1224      2905.8126      2.1974674    
     73800   18450          2239.6301     -27376.391      1275.0992     -26101.292      29253.655      2906.2756      2.1971173    
     73900   18475          2457.7457     -27541.077      1399.28       -26141.797      31852.674      2906.7373      2.1967683    
     74000   18500          2221.9428     -27467.595      1265.0292     -26202.566     -17402.673      2907.2014      2.1964176    
     74100   18525          2331.6635     -27590.357      1327.497      -26262.86      -28801.652      2907.6332      2.1960914    
     74200   18550          2111.3881     -27511.653      1202.0866     -26309.566     -10653.041      2908.0212      2.1957984    
     74300   18575          2312.2011     -27651.174      1316.4164     -26334.757     -13647.13       2908.3832      2.1955251    
     74400   18600          2163.7392     -27578.047      1231.8918     -26346.155      4208.3831      2908.7222      2.1952692    
     74500   18625          2295.3784     -27653.478      1306.8386     -26346.639      5200.2294      2909.0515      2.1950207    
     74600   18650          2125.2098     -27547.042      1209.9557     -26337.086     -21149.287      2909.3849      2.1947692    
     74700   18675          2352.1345     -27660.429      1339.1519     -26321.277     -8056.7461      2909.6988      2.1945324    
     74800   18700          2460.7061     -27698.564      1400.9654     -26297.599     -4592.2582      2909.9894      2.1943133    
     74900   18725          2241.1669     -27552.933      1275.9741     -26276.959      15571.177      2910.2436      2.1941216    
     75000   18750          2231.0688     -27525.962      1270.2249     -26255.737      17494.909      2910.4837      2.1939406    
     75100   18775          2196.1591     -27480.612      1250.3496     -26230.262     -24583.058      2910.7012      2.1937766    
     75200   18800          2497.1568     -27627.625      1421.7181     -26205.907      615.87214      2910.8778      2.1936435    
     75300   18825          2515.7368     -27618.99       1432.2963     -26186.694      7916.5731      2911.0633      2.1935038    
     75400   18850          2193.8073     -27422.137      1249.0107     -26173.126      2361.3615      2911.2481      2.1933645    
     75500   18875          2503.854      -27590.444      1425.531      -26164.913     -5600.3341      2911.4394      2.1932204    
     75600   18900          2384.6076     -27516.898      1357.6399     -26159.259     -22059.681      2911.6433      2.1930668    
     75700   18925          2527.0916     -27594.854      1438.761      -26156.093     -12690.592      2911.8424      2.1929169    
     75800   18950          2398.5493     -27519.76       1365.5774     -26154.182     -30898.123      2912.0652      2.1927491    
     75900   18975          2495.2055     -27576.169      1420.6071     -26155.562      975.34713      2912.2833      2.1925849    
     76000   19000          2580.7457     -27626.089      1469.3081     -26156.781     -1374.7007      2912.5351      2.1923953    
     76100   19025          2401.8269     -27527.298      1367.4434     -26159.855     -12896.687      2912.8047      2.1921924    
     76200   19050          2273.4024     -27455.356      1294.3269     -26161.029      3109.6331      2913.0741      2.1919897    
     76300   19075          2362.0061     -27503.494      1344.7721     -26158.722      1778.2826      2913.3438      2.1917868    
     76400   19100          2510.5394     -27581.371      1429.3372     -26152.033      4878.798       2913.6052      2.1915901    
     76500   19125          2575.0741     -27607.441      1466.0791     -26141.362     -31155.303      2913.8757      2.1913867    
     76600   19150          2421.3193     -27507.814      1378.5411     -26129.273      521.9257       2914.1704      2.1911651    
     76700   19175          2376.5821     -27456.424      1353.0707     -26103.353     -8423.1312      2914.4552      2.190951     
     76800   19200          2551.6071     -27518.179      1452.7185     -26065.46      -44292.141      2914.717       2.1907542    
     76900   19225          2639.6431     -27524.39       1502.8405     -26021.549     -5838.1985      2914.9623      2.1905698    
     77000   19250          2495.7776     -27407.983      1420.9328     -25987.05       51097.189      2915.181       2.1904055    
     77100   19275          2563.8959     -27420.757      1459.715      -25961.042     -14076.399      2915.4225      2.190224     
     77200   19300          2424.2439     -27327.855      1380.2062     -25947.649      9673.577       2915.6908      2.1900225    
     77300   19325          2624.9028     -27437.563      1494.4483     -25943.114     -4433.1069      2915.9621      2.1898187    
     77400   19350          2779.2317     -27535.467      1582.3131     -25953.154     -13408.693      2916.2423      2.1896083    
     77500   19375          2300.1899     -27287.749      1309.578      -25978.171      7269.8835      2916.5203      2.1893996    
     77600   19400          2445.2227     -27406.809      1392.1502     -26014.659      32192.711      2916.8102      2.189182     
     77700   19425          2415.4712     -27427.895      1375.2116     -26052.683     -25408.681      2917.1304      2.1889417    
     77800   19450          2505.1909     -27526.103      1426.2922     -26099.811     -10241.784      2917.4328      2.1887148    
     77900   19475          2471.7009     -27558.318      1407.2251     -26151.093     -34414.918      2917.7148      2.1885032    
     78000   19500          2255.0549     -27479.499      1283.8811     -26195.618     -11543.968      2917.9685      2.188313     
     78100   19525          2212.1913     -27482.708      1259.4773     -26223.23       2045.2868      2918.1996      2.1881397    
     78200   19550          2318.9893     -27554.44       1320.2811     -26234.159     -10541.012      2918.4089      2.1879827    
     78300   19575          2251.5979     -27522.042      1281.9128     -26240.129      7533.2691      2918.5933      2.1878445    
     78400   19600          2426.0582     -27624.234      1381.2391     -26242.995     -31880.644      2918.7738      2.1877092    
     78500   19625          2306.1834     -27554.032      1312.9903     -26241.041     -12520.348      2918.947       2.1875794    
     78600   19650          2349.131      -27570.513      1337.4418     -26233.071      12426.553      2919.1122      2.1874556    
     78700   19675          2345.8134     -27553.67       1335.553      -26218.117     -21323.097      2919.2702      2.1873372    
     78800   19700          2468.1807     -27607.664      1405.221      -26202.443      5486.9088      2919.3897      2.1872477    
     78900   19725          2286.1025     -27483.833      1301.5575     -26182.276      14309.902      2919.5015      2.187164     
     79000   19750          2307.4469     -27469.873      1313.7096     -26156.163      14595.247      2919.6016      2.187089     
     79100   19775          2469.226      -27528.672      1405.8161     -26122.856     -30361.625      2919.6897      2.187023     
     79200   19800          2520.22       -27520.917      1434.8487     -26086.069     -2563.0224      2919.7494      2.1869782    
     79300   19825          2321.1154     -27370.739      1321.4916     -26049.248     -34233.96       2919.8035      2.1869377    
     79400   19850          2546.0412     -27449.952      1449.5497     -26000.403     -15131.461      2919.8227      2.1869233    
     79500   19875          2419.9436     -27311.104      1377.7579     -25933.347     -22169.382      2919.8229      2.1869232    
     79600   19900          2649.1074     -27370.289      1508.2288     -25862.06      -2056.5674      2919.795       2.1869441    
     79700   19925          2709.1421     -27345.606      1542.4086     -25803.197      6685.1627      2919.7527      2.1869758    
     79800   19950          2773.6462     -27361.011      1579.1331     -25781.878     -4366.9774      2919.7203      2.1870001    
     79900   19975          2453.5905     -27181.525      1396.9142     -25784.611     -6183.0047      2919.6931      2.1870204    
     80000   20000          2863.483      -27436.625      1630.2803     -25806.345      30233.498      2919.6513      2.1870517    
Loop time of 1935.15 on 8 procs for 80000 steps with 192 atoms

Performance: 0.893 ns/day, 26.877 hours/ns, 41.340 timesteps/s, 7.937 katom-step/s
99.6% CPU use with 8 MPI tasks x 1 OpenMP threads

MPI task timing breakdown:
Section |  min time  |  avg time  |  max time  |%varavg| %total
---------------------------------------------------------------
Pair    | 1695.7     | 1725.4     | 1759.1     |  47.1 | 89.16
Neigh   | 8.4331     | 8.464      | 8.5085     |   0.8 |  0.44
Comm    | 30.074     | 63.808     | 93.381     | 244.8 |  3.30
Output  | 0.050363   | 0.054452   | 0.062398   |   1.8 |  0.00
Modify  | 136.22     | 136.32     | 136.39     |   0.5 |  7.04
Other   |            | 1.145      |            |       |  0.06

Nlocal:             24 ave          26 max          21 min
Histogram: 2 0 0 0 1 0 1 0 1 3
Nghost:           1990 ave        1997 max        1982 min
Histogram: 1 0 1 0 3 0 0 0 2 1
Neighs:          10943 ave       11834 max        9594 min
Histogram: 2 0 0 0 1 0 1 0 1 3

Total # of neighbors = 87544
Ave neighs/atom = 455.95833
Neighbor list builds = 607
Dangerous builds = 0
System init for write_data ...
System init for write_restart ...
Total wall time: 0:32:15
