# pH-conditioned hydrated silica precursor for ReaxFF (atom_style charge)

1728 atoms
3 atom types

0.0 33.7480000000 xlo xhi
0.0 33.7480000000 ylo yhi
0.0 33.7480000000 zlo zhi

Masses

1 28.085500 # Si
2 15.999400 # O
3 1.008000 # H

Atoms # charge

       1  1  0.00000000       0.00659304       0.04687703      33.74452141 # Si
       2  1  0.00000000       2.08109228       2.15367036       2.15832489 # Si
       3  1  0.00000000       0.02485551       4.24635829       4.26573121 # Si
       4  1  0.00000000       2.10740209       6.34361122       6.36209953 # Si
       5  1  0.00000000       4.18173841       0.05652998       4.21804448 # Si
       6  1  0.00000000       6.34461776       2.16861092       6.37212728 # Si
       7  1  0.00000000       4.18324345       4.25048032       0.02496824 # Si
       8  1  0.00000000       6.36157316       6.34261353       2.06275983 # Si
       9  1  0.00000000       0.03488949      33.72586697       8.42185188 # Si
      10  1  0.00000000       2.16385789       2.11389276      10.48701597 # Si
      11  1  0.00000000      33.73999790       4.22848294      12.61238569 # Si
      12  1  0.00000000       2.13799823       6.33608279      14.77826058 # Si
      13  1  0.00000000       4.24201462       0.01615985      12.71040315 # Si
      14  1  0.00000000       6.33536706       2.08990580      14.78845971 # Si
      15  1  0.00000000       4.19511208       4.21814925       8.42444553 # Si
      16  1  0.00000000       6.35653559       6.34423896      10.53618188 # Si
      17  1  0.00000000      33.69051123      33.71559813      16.85090902 # Si
      18  1  0.00000000       2.16016052       2.07843738      18.97736015 # Si
      19  1  0.00000000      33.71625162       4.23006787      21.09894258 # Si
      20  1  0.00000000       2.08718083       6.35790245      23.23535761 # Si
      21  1  0.00000000       4.27848264      33.73556212      21.13268759 # Si
      22  1  0.00000000       6.29651695       2.16661048      23.15350224 # Si
      23  1  0.00000000       4.22234308       4.25622857      16.87199947 # Si
      24  1  0.00000000       6.30807686       6.31844474      19.00294121 # Si
      25  1  0.00000000      33.69818693       0.02133381      25.25308765 # Si
      26  1  0.00000000       2.15493997       2.16087183      27.47493500 # Si
      27  1  0.00000000      33.73494763       4.21482700      29.55221954 # Si
      28  1  0.00000000       2.04990869       6.36103371      31.67123940 # Si
      29  1  0.00000000       4.19562292      33.71934774      29.47672100 # Si
      30  1  0.00000000       6.26941545       2.11981956      31.69826022 # Si
      31  1  0.00000000       4.19447765       4.24358097      25.32788588 # Si
      32  1  0.00000000       6.33348982       6.32704424      27.37972307 # Si
      33  1  0.00000000      33.74193627       8.45862031      33.71214871 # Si
      34  1  0.00000000       2.06423001      10.58885730       2.15030449 # Si
      35  1  0.00000000      33.69293149      12.71363549       4.25595836 # Si
      36  1  0.00000000       2.08082549      14.78433275       6.28919988 # Si
      37  1  0.00000000       4.22877459       8.44370664       4.21596569 # Si
      38  1  0.00000000       6.31290772      10.59361645       6.27797912 # Si
      39  1  0.00000000       4.23013067      12.63590190      33.69149246 # Si
      40  1  0.00000000       6.27394038      14.73967291       2.11834599 # Si
      41  1  0.00000000       0.04692123       8.43656419       8.43704118 # Si
      42  1  0.00000000       2.06836798      10.52516148      10.59947392 # Si
      43  1  0.00000000       0.02141423      12.71106454      12.63259223 # Si
      44  1  0.00000000       2.14019062      14.80889087      14.81914982 # Si
      45  1  0.00000000       4.22695899       8.37821900      12.67535252 # Si
      46  1  0.00000000       6.36326054      10.49273510      14.71578843 # Si
      47  1  0.00000000       4.25264922      12.69026964       8.37984839 # Si
      48  1  0.00000000       6.29244068      14.74186996      10.50371780 # Si
      49  1  0.00000000       0.05132854       8.48995808      16.91981518 # Si
      50  1  0.00000000       2.06096787      10.53852723      18.97534784 # Si
      51  1  0.00000000      33.70747122      12.70967073      21.10457365 # Si
      52  1  0.00000000       2.12566106      14.70585637      23.18424206 # Si
      53  1  0.00000000       4.16152673       8.42454324      21.11383247 # Si
      54  1  0.00000000       6.32211323      10.56813441      23.17925663 # Si
      55  1  0.00000000       4.17663504      12.67217372      16.81599485 # Si
      56  1  0.00000000       6.33166006      14.72304761      18.96179970 # Si
      57  1  0.00000000       0.00754103       8.40777329      25.27929007 # Si
      58  1  0.00000000       2.05183894      10.48746154      27.37580741 # Si
      59  1  0.00000000      33.71105332      12.70271819      29.55285288 # Si
      60  1  0.00000000       2.06769998      14.81682123      31.62272155 # Si
      61  1  0.00000000       4.19864479       8.41711689      29.55571352 # Si
      62  1  0.00000000       6.33458123      10.54592866      31.62619577 # Si
      63  1  0.00000000       4.22589749      12.62195951      25.25824489 # Si
      64  1  0.00000000       6.37346201      14.72472945      27.46854613 # Si
      65  1  0.00000000       0.02467125      16.81497360      33.71163378 # Si
      66  1  0.00000000       2.11627610      19.02884341       2.11073650 # Si
      67  1  0.00000000       0.04682310      21.09109539       4.16144056 # Si
      68  1  0.00000000       2.15596024      23.19230136       6.29708013 # Si
      69  1  0.00000000       4.18713798      16.85413214       4.24089194 # Si
      70  1  0.00000000       6.31670310      19.00374101       6.32077325 # Si
      71  1  0.00000000       4.26313504      21.08257396       0.01941754 # Si
      72  1  0.00000000       6.38220041      23.15792921       2.12788372 # Si
      73  1  0.00000000      33.74168780      16.92448129       8.49273421 # Si
      74  1  0.00000000       2.10569836      18.97071231      10.59028823 # Si
      75  1  0.00000000       0.05800494      21.13592813      12.62965995 # Si
      76  1  0.00000000       2.16627161      23.18601238      14.79415890 # Si
      77  1  0.00000000       4.26051038      16.86530554      12.62862157 # Si
      78  1  0.00000000       6.38655439      18.94556298      14.75203281 # Si
      79  1  0.00000000       4.20062847      21.11672523       8.41741526 # Si
      80  1  0.00000000       6.34883392      23.21812509      10.49578514 # Si
      81  1  0.00000000      33.73929009      16.81466835      16.88775601 # Si
      82  1  0.00000000       2.13827264      18.96585482      18.97351222 # Si
      83  1  0.00000000      33.72950345      21.11686066      21.14801079 # Si
      84  1  0.00000000       2.09184197      23.20032621      23.16206910 # Si
      85  1  0.00000000       4.21169647      16.89091846      21.11869127 # Si
      86  1  0.00000000       6.37069122      19.01566173      23.24859471 # Si
      87  1  0.00000000       4.23790500      21.10597319      16.85616217 # Si
      88  1  0.00000000       6.35491593      23.20016462      19.03481986 # Si
      89  1  0.00000000       0.05513367      16.90240313      25.29893272 # Si
      90  1  0.00000000       2.15606879      19.00808374      27.46468350 # Si
      91  1  0.00000000      33.69454916      21.05255495      29.54270552 # Si
      92  1  0.00000000       2.14069729      23.16730906      31.63377498 # Si
      93  1  0.00000000       4.20099533      16.83959713      29.55338253 # Si
      94  1  0.00000000       6.36601762      19.02696515      31.69433798 # Si
      95  1  0.00000000       4.24770392      21.10043967      25.28185419 # Si
      96  1  0.00000000       6.37639468      23.22188766      27.39826444 # Si
      97  1  0.00000000       0.03767387      25.32115615      33.70349959 # Si
      98  1  0.00000000       2.07081130      27.46632636       2.16281068 # Si
      99  1  0.00000000      33.68955098      29.50932496       4.17129609 # Si
     100  1  0.00000000       2.10135663      31.60547232       6.36527765 # Si
     101  1  0.00000000       4.22826439      25.28498317       4.16936702 # Si
     102  1  0.00000000       6.35484397      27.40632585       6.36539312 # Si
     103  1  0.00000000       4.17125986      29.53619125      33.70762400 # Si
     104  1  0.00000000       6.31881389      31.69778726       2.06690498 # Si
     105  1  0.00000000      33.71538833      25.26143444       8.38300564 # Si
     106  1  0.00000000       2.06481661      27.42191071      10.58152784 # Si
     107  1  0.00000000       0.03691669      29.48517848      12.61476606 # Si
     108  1  0.00000000       2.14134508      31.69860570      14.82252250 # Si
     109  1  0.00000000       4.24768611      25.30616751      12.69088985 # Si
     110  1  0.00000000       6.32416387      27.41663861      14.78362084 # Si
     111  1  0.00000000       4.16984780      29.52459114       8.40367378 # Si
     112  1  0.00000000       6.31280550      31.61747545      10.54122682 # Si
     113  1  0.00000000      33.70516522      25.27746592      16.91458670 # Si
     114  1  0.00000000       2.09448892      27.47531055      18.98667508 # Si
     115  1  0.00000000      33.70601769      29.58088940      21.12983846 # Si
     116  1  0.00000000       2.14809537      31.59460493      23.17729062 # Si
     117  1  0.00000000       4.21428584      25.31752205      21.06250730 # Si
     118  1  0.00000000       6.38143436      27.43433003      23.17392674 # Si
     119  1  0.00000000       4.22511267      29.58785501      16.93157425 # Si
     120  1  0.00000000       6.36311309      31.64929182      18.99761544 # Si
     121  1  0.00000000      33.74598354      25.27761747      25.25694455 # Si
     122  1  0.00000000       2.14140309      27.44467874      27.46878245 # Si
     123  1  0.00000000       0.01990316      29.51814564      29.53526629 # Si
     124  1  0.00000000       2.16039399      31.65408487      31.60731565 # Si
     125  1  0.00000000       4.16340054      25.32596074      29.58153734 # Si
     126  1  0.00000000       6.31246190      27.44977314      31.58461754 # Si
     127  1  0.00000000       4.25596192      29.49725092      25.35464386 # Si
     128  1  0.00000000       6.28702772      31.62442104      27.37202426 # Si
     129  1  0.00000000       8.48145563      33.69613459      33.71474064 # Si
     130  1  0.00000000      10.58991559       2.10678505       2.08112796 # Si
     131  1  0.00000000       8.40525501       4.16938040       4.22044467 # Si
     132  1  0.00000000      10.49739508       6.33320974       6.31319590 # Si
     133  1  0.00000000      12.69895288       0.01152581       4.17018379 # Si
     134  1  0.00000000      14.77852951       2.06817484       6.28849994 # Si
     135  1  0.00000000      12.63937807       4.23135908       0.05791298 # Si
     136  1  0.00000000      14.73360326       6.27198373       2.14081451 # Si
     137  1  0.00000000       8.42288902       0.05518978       8.49309357 # Si
     138  1  0.00000000      10.58340714       2.11224200      10.53127279 # Si
     139  1  0.00000000       8.43518540       4.20609412      12.68738596 # Si
     140  1  0.00000000      10.55689062       6.34907120      14.73637809 # Si
     141  1  0.00000000      12.65244144       0.01472931      12.59665607 # Si
     142  1  0.00000000      14.73883825       2.16451656      14.80911718 # Si
     143  1  0.00000000      12.65168947       4.27333810       8.47247318 # Si
     144  1  0.00000000      14.73619342       6.37233500      10.49423938 # Si
     145  1  0.00000000       8.40939920       0.00286700      16.81954231 # Si
     146  1  0.00000000      10.49967542       2.13698154      19.03384055 # Si
     147  1  0.00000000       8.42767767       4.23531630      21.14035284 # Si
     148  1  0.00000000      10.49840468       6.29015025      23.14418890 # Si
     149  1  0.00000000      12.61642975       0.01894563      21.08225602 # Si
     150  1  0.00000000      14.81023240       2.10124142      23.18371076 # Si
     151  1  0.00000000      12.62590291       4.27685175      16.89606609 # Si
     152  1  0.00000000      14.73955705       6.32517531      19.03381018 # Si
     153  1  0.00000000       8.39419362      33.70900348      25.28922343 # Si
     154  1  0.00000000      10.55974576       2.08979079      27.45391584 # Si
     155  1  0.00000000       8.45962670       4.23787517      29.50122985 # Si
     156  1  0.00000000      10.51154140       6.28754993      31.58922932 # Si
     157  1  0.00000000      12.64068133      33.71026953      29.57797805 # Si
     158  1  0.00000000      14.80732220       2.12357403      31.67921860 # Si
     159  1  0.00000000      12.66112963       4.16147766      25.35055519 # Si
     160  1  0.00000000      14.79762587       6.32559167      27.47767150 # Si
     161  1  0.00000000       8.47613702       8.47396527       0.02179194 # Si
     162  1  0.00000000      10.55936805      10.59354977       2.07534186 # Si
     163  1  0.00000000       8.40077779      12.65431459       4.17485970 # Si
     164  1  0.00000000      10.54591726      14.80961955       6.38531535 # Si
     165  1  0.00000000      12.66535353       8.43048075       4.21128138 # Si
     166  1  0.00000000      14.77055544      10.52446037       6.37624697 # Si
     167  1  0.00000000      12.69931517      12.70893604       0.00090970 # Si
     168  1  0.00000000      14.82307622      14.72042666       2.05268637 # Si
     169  1  0.00000000       8.40591823       8.44519910       8.46370315 # Si
     170  1  0.00000000      10.58989104      10.50776724      10.59513137 # Si
     171  1  0.00000000       8.44840056      12.71007756      12.69812126 # Si
     172  1  0.00000000      10.60244207      14.71861379      14.82111318 # Si
     173  1  0.00000000      12.59573974       8.43868829      12.62808930 # Si
     174  1  0.00000000      14.76773108      10.57512146      14.72578106 # Si
     175  1  0.00000000      12.70912671      12.62197505       8.42298948 # Si
     176  1  0.00000000      14.75517498      14.79689057      10.49999846 # Si
     177  1  0.00000000       8.48002138       8.45870649      16.89667735 # Si
     178  1  0.00000000      10.59729385      10.49623837      19.03931343 # Si
     179  1  0.00000000       8.46387666      12.68627572      21.14919522 # Si
     180  1  0.00000000      10.57820188      14.75296711      23.21732985 # Si
     181  1  0.00000000      12.62884644       8.44055079      21.07417578 # Si
     182  1  0.00000000      14.74805133      10.60425042      23.18438355 # Si
     183  1  0.00000000      12.63659394      12.69387689      16.87126508 # Si
     184  1  0.00000000      14.80156067      14.75221111      18.94133521 # Si
     185  1  0.00000000       8.48500652       8.41838145      25.34736812 # Si
     186  1  0.00000000      10.48892992      10.58206723      27.47153780 # Si
     187  1  0.00000000       8.39377319      12.60793599      29.54038667 # Si
     188  1  0.00000000      10.56482575      14.80204851      31.65474608 # Si
     189  1  0.00000000      12.59709866       8.39525484      29.57668096 # Si
     190  1  0.00000000      14.74068728      10.55464961      31.66565167 # Si
     191  1  0.00000000      12.62665088      12.66470462      25.30298944 # Si
     192  1  0.00000000      14.71921108      14.77701320      27.40007569 # Si
     193  1  0.00000000       8.44743359      16.91570496       0.02798018 # Si
     194  1  0.00000000      10.60228029      18.92908833       2.15536915 # Si
     195  1  0.00000000       8.40502281      21.04148665       4.16619322 # Si
     196  1  0.00000000      10.59710795      23.15497724       6.32612421 # Si
     197  1  0.00000000      12.62483490      16.87038720       4.18673078 # Si
     198  1  0.00000000      14.76728593      18.98647036       6.30903768 # Si
     199  1  0.00000000      12.69952156      21.04503939       0.03900400 # Si
     200  1  0.00000000      14.77283058      23.24662701       2.14615578 # Si
     201  1  0.00000000       8.38778322      16.90582734       8.43584986 # Si
     202  1  0.00000000      10.57839765      19.03400097      10.48659548 # Si
     203  1  0.00000000       8.45165327      21.12808923      12.70795196 # Si
     204  1  0.00000000      10.56731124      23.15640318      14.74279691 # Si
     205  1  0.00000000      12.61352947      16.83849680      12.64434698 # Si
     206  1  0.00000000      14.79866960      18.93366472      14.76442456 # Si
     207  1  0.00000000      12.71300149      21.12368908       8.41427948 # Si
     208  1  0.00000000      14.79192151      23.17089296      10.56534685 # Si
     209  1  0.00000000       8.43053503      16.85645481      16.85459176 # Si
     210  1  0.00000000      10.58887892      19.03262323      19.04309649 # Si
     211  1  0.00000000       8.40831631      21.10956408      21.10527297 # Si
     212  1  0.00000000      10.58639641      23.17472058      23.16169113 # Si
     213  1  0.00000000      12.71519531      16.86523289      21.07247278 # Si
     214  1  0.00000000      14.77835106      18.92550410      23.25984847 # Si
     215  1  0.00000000      12.68395862      21.06785990      16.89493271 # Si
     216  1  0.00000000      14.82240344      23.25565460      18.98479519 # Si
     217  1  0.00000000       8.46176078      16.92591670      25.36011576 # Si
     218  1  0.00000000      10.59149363      18.99533993      27.45102719 # Si
     219  1  0.00000000       8.43066557      21.12114263      29.58040005 # Si
     220  1  0.00000000      10.52430492      23.24060146      31.62286667 # Si
     221  1  0.00000000      12.66918998      16.85146904      29.58554906 # Si
     222  1  0.00000000      14.72976540      18.92631058      31.61436194 # Si
     223  1  0.00000000      12.61128283      21.09155350      25.26724037 # Si
     224  1  0.00000000      14.73906409      23.19066595      27.41064225 # Si
     225  1  0.00000000       8.47539228      25.32903743       0.05424787 # Si
     226  1  0.00000000      10.59550635      27.45433072       2.12879141 # Si
     227  1  0.00000000       8.49227306      29.55766969       4.23854115 # Si
     228  1  0.00000000      10.58834441      31.61501067       6.38164125 # Si
     229  1  0.00000000      12.61228372      25.34666027       4.18346764 # Si
     230  1  0.00000000      14.74415236      27.47897239       6.29273558 # Si
     231  1  0.00000000      12.63773639      29.58761142      33.74148527 # Si
     232  1  0.00000000      14.70926622      31.68669749       2.08179563 # Si
     233  1  0.00000000       8.46110009      25.34405271       8.45852220 # Si
     234  1  0.00000000      10.55040287      27.42018826      10.49598399 # Si
     235  1  0.00000000       8.43453767      29.58729915      12.61870592 # Si
     236  1  0.00000000      10.54899737      31.64789928      14.78219552 # Si
     237  1  0.00000000      12.63572342      25.34004919      12.63477931 # Si
     238  1  0.00000000      14.75783696      27.40629326      14.73173046 # Si
     239  1  0.00000000      12.69032406      29.51599634       8.44293316 # Si
     240  1  0.00000000      14.77730039      31.65375086      10.51132067 # Si
     241  1  0.00000000       8.43487628      25.35858783      16.82951754 # Si
     242  1  0.00000000      10.59970354      27.44868539      19.00556593 # Si
     243  1  0.00000000       8.41401750      29.52349949      21.08651705 # Si
     244  1  0.00000000      10.56344545      31.63899132      23.14753838 # Si
     245  1  0.00000000      12.62335145      25.33286519      21.06552376 # Si
     246  1  0.00000000      14.72785564      27.43210730      23.17661171 # Si
     247  1  0.00000000      12.66819915      29.48110161      16.82474427 # Si
     248  1  0.00000000      14.74880906      31.65257581      19.01760712 # Si
     249  1  0.00000000       8.41400388      25.35859445      25.33267860 # Si
     250  1  0.00000000      10.49936290      27.46647524      27.47892252 # Si
     251  1  0.00000000       8.46833878      29.58003685      29.58854341 # Si
     252  1  0.00000000      10.57391805      31.62707751      31.65684044 # Si
     253  1  0.00000000      12.64275951      25.35377959      29.54895755 # Si
     254  1  0.00000000      14.71543576      27.36419720      31.68087376 # Si
     255  1  0.00000000      12.59755789      29.50784961      25.29785809 # Si
     256  1  0.00000000      14.76837521      31.59234323      27.37612298 # Si
     257  1  0.00000000      16.87676799       0.04045751       0.03115699 # Si
     258  1  0.00000000      19.01173518       2.10557479       2.09512149 # Si
     259  1  0.00000000      16.91633659       4.20706949       4.23415642 # Si
     260  1  0.00000000      18.94479202       6.37253450       6.36962780 # Si
     261  1  0.00000000      21.12840480       0.00081951       4.16447222 # Si
     262  1  0.00000000      23.17765324       2.13496414       6.32706553 # Si
     263  1  0.00000000      21.05026801       4.27664212      33.70944247 # Si
     264  1  0.00000000      23.20582010       6.32647426       2.10932259 # Si
     265  1  0.00000000      16.82713850      33.74096312       8.42361763 # Si
     266  1  0.00000000      19.01277470       2.06979875      10.49039282 # Si
     267  1  0.00000000      16.85585664       4.21057248      12.60880671 # Si
     268  1  0.00000000      18.95638035       6.28693787      14.78682920 # Si
     269  1  0.00000000      21.08204193      33.69131840      12.61623231 # Si
     270  1  0.00000000      23.25937293       2.14873732      14.78481339 # Si
     271  1  0.00000000      21.03475765       4.26675127       8.45864831 # Si
     272  1  0.00000000      23.18011307       6.35444711      10.50836542 # Si
     273  1  0.00000000      16.91093048      33.69409670      16.85989643 # Si
     274  1  0.00000000      18.93902284       2.11207676      18.96118120 # Si
     275  1  0.00000000      16.86467278       4.26832407      21.08435081 # Si
     276  1  0.00000000      18.95947433       6.33396729      23.21949637 # Si
     277  1  0.00000000      21.07763451      33.74453518      21.07957395 # Si
     278  1  0.00000000      23.18450753       2.16328442      23.23855019 # Si
     279  1  0.00000000      21.13219614       4.16138986      16.90920975 # Si
     280  1  0.00000000      23.22856334       6.29953792      18.96188583 # Si
     281  1  0.00000000      16.82910431       0.00185627      25.28546736 # Si
     282  1  0.00000000      19.01030477       2.13592850      27.45923452 # Si
     283  1  0.00000000      16.84212021       4.27482570      29.48204937 # Si
     284  1  0.00000000      18.95823635       6.29210170      31.68685545 # Si
     285  1  0.00000000      21.14325354       0.05134288      29.49469515 # Si
     286  1  0.00000000      23.23542341       2.08219825      31.58577581 # Si
     287  1  0.00000000      21.05490331       4.24491700      25.27100034 # Si
     288  1  0.00000000      23.23345931       6.38658852      27.47815596 # Si
     289  1  0.00000000      16.83817249       8.39231194      33.71163486 # Si
     290  1  0.00000000      18.99793931      10.50637332       2.08556736 # Si
     291  1  0.00000000      16.82646561      12.60807646       4.17598969 # Si
     292  1  0.00000000      18.99990260      14.73407379       6.34393999 # Si
     293  1  0.00000000      21.05944054       8.46328332       4.17330976 # Si
     294  1  0.00000000      23.17681071      10.55649193       6.36023891 # Si
     295  1  0.00000000      21.10454812      12.68597409       0.00179203 # Si
     296  1  0.00000000      23.17791003      14.76940722       2.08959574 # Si
     297  1  0.00000000      16.85083347       8.44780172       8.48396075 # Si
     298  1  0.00000000      18.95825529      10.58132569      10.57644917 # Si
     299  1  0.00000000      16.83931018      12.62414701      12.59953994 # Si
     300  1  0.00000000      19.00925356      14.74621077      14.77646471 # Si
     301  1  0.00000000      21.04774430       8.38514541      12.67291883 # Si
     302  1  0.00000000      23.16194009      10.54759753      14.80441469 # Si
     303  1  0.00000000      21.04420059      12.67082429       8.39615607 # Si
     304  1  0.00000000      23.17483413      14.80429420      10.58062334 # Si
     305  1  0.00000000      16.92479071       8.43224402      16.91161586 # Si
     306  1  0.00000000      19.00203419      10.49747613      18.93769468 # Si
     307  1  0.00000000      16.87293848      12.70324749      21.04432892 # Si
     308  1  0.00000000      18.99371412      14.71119458      23.19312633 # Si
     309  1  0.00000000      21.09897532       8.38305983      21.05312643 # Si
     310  1  0.00000000      23.20588016      10.59472102      23.16112917 # Si
     311  1  0.00000000      21.05838049      12.60161594      16.90204816 # Si
     312  1  0.00000000      23.23639947      14.75377880      18.92889046 # Si
     313  1  0.00000000      16.84335172       8.45157469      25.27895198 # Si
     314  1  0.00000000      18.93568918      10.55886517      27.36984284 # Si
     315  1  0.00000000      16.90233218      12.71134435      29.48009467 # Si
     316  1  0.00000000      19.04307638      14.80141015      31.63240505 # Si
     317  1  0.00000000      21.14064008       8.42415199      29.49067090 # Si
     318  1  0.00000000      23.22359990      10.59748450      31.69465040 # Si
     319  1  0.00000000      21.04334981      12.64942880      25.32909099 # Si
     320  1  0.00000000      23.19346291      14.77446960      27.40080884 # Si
     321  1  0.00000000      16.87594080      16.83988983       0.05011823 # Si
     322  1  0.00000000      18.97777071      19.02010402       2.05686048 # Si
     323  1  0.00000000      16.90531098      21.05700725       4.26988556 # Si
     324  1  0.00000000      19.04216291      23.19186328       6.29484088 # Si
     325  1  0.00000000      21.13340313      16.83922348       4.20268213 # Si
     326  1  0.00000000      23.24665172      18.93086222       6.34503328 # Si
     327  1  0.00000000      21.12225828      21.11403296       0.00020828 # Si
     328  1  0.00000000      23.23408629      23.20779859       2.15782492 # Si
     329  1  0.00000000      16.89217440      16.88726103       8.38739476 # Si
     330  1  0.00000000      19.03977057      18.95280463      10.53646999 # Si
     331  1  0.00000000      16.90573278      21.09012017      12.60180684 # Si
     332  1  0.00000000      18.97930108      23.18648657      14.79094186 # Si
     333  1  0.00000000      21.14487275      16.86081755      12.64223341 # Si
     334  1  0.00000000      23.18727855      18.96080074      14.75275669 # Si
     335  1  0.00000000      21.11677505      21.09457583       8.44453707 # Si
     336  1  0.00000000      23.22828078      23.20997301      10.54914566 # Si
     337  1  0.00000000      16.83545089      16.86143813      16.82466722 # Si
     338  1  0.00000000      19.01797586      19.01852504      18.96596881 # Si
     339  1  0.00000000      16.89889696      21.07567106      21.13351087 # Si
     340  1  0.00000000      19.01515585      23.15396128      23.26031208 # Si
     341  1  0.00000000      21.12305689      16.84963189      21.14187751 # Si
     342  1  0.00000000      23.21205882      18.92500610      23.17071088 # Si
     343  1  0.00000000      21.13625638      21.14612218      16.92951987 # Si
     344  1  0.00000000      23.17875001      23.14423489      18.95989622 # Si
     345  1  0.00000000      16.87122264      16.86605498      25.33896602 # Si
     346  1  0.00000000      18.99784628      19.00504014      27.46684601 # Si
     347  1  0.00000000      16.83627270      21.07923497      29.57454668 # Si
     348  1  0.00000000      18.93402220      23.15286805      31.60365508 # Si
     349  1  0.00000000      21.05308802      16.91240160      29.53505730 # Si
     350  1  0.00000000      23.14331851      18.98745377      31.62751673 # Si
     351  1  0.00000000      21.09173291      21.09345589      25.33692906 # Si
     352  1  0.00000000      23.19893891      23.16081462      27.40206392 # Si
     353  1  0.00000000      16.89699480      25.28938278       0.01044100 # Si
     354  1  0.00000000      18.92714293      27.41225464       2.07207856 # Si
     355  1  0.00000000      16.81976264      29.47178299       4.18797190 # Si
     356  1  0.00000000      18.97481023      31.69484167       6.29645268 # Si
     357  1  0.00000000      21.15137982      25.25132065       4.25699355 # Si
     358  1  0.00000000      23.21923039      27.46305685       6.32788243 # Si
     359  1  0.00000000      21.14908594      29.49642554      33.72754830 # Si
     360  1  0.00000000      23.20061638      31.61185756       2.10521180 # Si
     361  1  0.00000000      16.87728331      25.31409410       8.48593020 # Si
     362  1  0.00000000      19.01216776      27.44149139      10.55284641 # Si
     363  1  0.00000000      16.82618905      29.48044868      12.61377423 # Si
     364  1  0.00000000      19.02682588      31.62712264      14.74113474 # Si
     365  1  0.00000000      21.06866517      25.35860950      12.70463781 # Si
     366  1  0.00000000      23.20283694      27.36456628      14.75727343 # Si
     367  1  0.00000000      21.13438051      29.57424741       8.44510375 # Si
     368  1  0.00000000      23.17399833      31.61603388      10.57222826 # Si
     369  1  0.00000000      16.88100213      25.31884227      16.87845525 # Si
     370  1  0.00000000      19.03728039      27.36495182      19.01143784 # Si
     371  1  0.00000000      16.92901747      29.47941864      21.05026793 # Si
     372  1  0.00000000      19.04110630      31.62459172      23.20051107 # Si
     373  1  0.00000000      21.13069510      25.31854429      21.12080280 # Si
     374  1  0.00000000      23.25772474      27.38325915      23.21955050 # Si
     375  1  0.00000000      21.12789600      29.49145472      16.90802621 # Si
     376  1  0.00000000      23.16671081      31.66060170      18.99511394 # Si
     377  1  0.00000000      16.86955285      25.31180067      25.33290287 # Si
     378  1  0.00000000      18.98090000      27.42050555      27.43951451 # Si
     379  1  0.00000000      16.88869502      29.47249311      29.49182011 # Si
     380  1  0.00000000      18.99046706      31.58676618      31.69236620 # Si
     381  1  0.00000000      21.05391426      25.28410220      29.52099633 # Si
     382  1  0.00000000      23.23194220      27.43758352      31.62531021 # Si
     383  1  0.00000000      21.03563145      29.56199269      25.25909114 # Si
     384  1  0.00000000      23.20294875      31.62675221      27.46459719 # Si
     385  1  0.00000000      25.34316841      33.72645609      33.70121991 # Si
     386  1  0.00000000      27.45462960       2.12453775       2.11031403 # Si
     387  1  0.00000000      25.26856200       4.23757092       4.20010561 # Si
     388  1  0.00000000      27.46639580       6.38708108       6.33000484 # Si
     389  1  0.00000000      29.50303717       0.04704175       4.18013940 # Si
     390  1  0.00000000      31.59263133       2.05836134       6.29745045 # Si
     391  1  0.00000000      29.50015773       4.18862199       0.00117018 # Si
     392  1  0.00000000      31.66217061       6.37770396       2.13776059 # Si
     393  1  0.00000000      25.29082802       0.02888807       8.45254574 # Si
     394  1  0.00000000      27.40428009       2.07919529      10.58295006 # Si
     395  1  0.00000000      25.33817623       4.20011873      12.68846387 # Si
     396  1  0.00000000      27.43292877       6.27870270      14.73941528 # Si
     397  1  0.00000000      29.54911575      33.69219773      12.66455009 # Si
     398  1  0.00000000      31.67768494       2.06974488      14.75543215 # Si
     399  1  0.00000000      29.49702900       4.24433868       8.49568054 # Si
     400  1  0.00000000      31.65125776       6.29983738      10.58664185 # Si
     401  1  0.00000000      25.29598150       0.03425639      16.85035919 # Si
     402  1  0.00000000      27.44775579       2.12424310      18.94064425 # Si
     403  1  0.00000000      25.30099393       4.25141456      21.03804863 # Si
     404  1  0.00000000      27.42414507       6.28978832      23.21476303 # Si
     405  1  0.00000000      29.49878274      33.70124913      21.09951885 # Si
     406  1  0.00000000      31.63181754       2.09913421      23.22618305 # Si
     407  1  0.00000000      29.53796942       4.15904012      16.81793508 # Si
     408  1  0.00000000      31.69255356       6.35248200      19.03610401 # Si
     409  1  0.00000000      25.26887951      33.73601260      25.30603017 # Si
     410  1  0.00000000      27.46442044       2.12632653      27.45744074 # Si
     411  1  0.00000000      25.36054549       4.27492496      29.47752686 # Si
     412  1  0.00000000      27.40512423       6.32353258      31.63424199 # Si
     413  1  0.00000000      29.57124918       0.02295316      29.56115270 # Si
     414  1  0.00000000      31.59531762       2.14555131      31.59376634 # Si
     415  1  0.00000000      29.47157028       4.17725253      25.33568450 # Si
     416  1  0.00000000      31.68995864       6.30825724      27.38445667 # Si
     417  1  0.00000000      25.26448055       8.39162497      33.70220761 # Si
     418  1  0.00000000      27.36773549      10.49469774       2.16195322 # Si
     419  1  0.00000000      25.30494727      12.68606531       4.23316144 # Si
     420  1  0.00000000      27.39585730      14.74379457       6.28791870 # Si
     421  1  0.00000000      29.57981094       8.43183061       4.19217136 # Si
     422  1  0.00000000      31.67465154      10.50388387       6.31688411 # Si
     423  1  0.00000000      29.49002252      12.63737083       0.04865154 # Si
     424  1  0.00000000      31.63046030      14.80064178       2.15735648 # Si
     425  1  0.00000000      25.26296470       8.47188324       8.39942786 # Si
     426  1  0.00000000      27.41272636      10.48628285      10.52243161 # Si
     427  1  0.00000000      25.26803580      12.67001649      12.60868462 # Si
     428  1  0.00000000      27.45418536      14.81659472      14.75495096 # Si
     429  1  0.00000000      29.58494008       8.37740619      12.65850220 # Si
     430  1  0.00000000      31.65604394      10.53044539      14.77932885 # Si
     431  1  0.00000000      29.56039215      12.60461777       8.37976306 # Si
     432  1  0.00000000      31.69793196      14.72283446      10.60618534 # Si
     433  1  0.00000000      25.35566043       8.46764946      16.84440656 # Si
     434  1  0.00000000      27.36439865      10.59943763      19.00459444 # Si
     435  1  0.00000000      25.30390415      12.63302692      21.05051751 # Si
     436  1  0.00000000      27.40788706      14.75208620      23.21217039 # Si
     437  1  0.00000000      29.58763987       8.48197317      21.04642632 # Si
     438  1  0.00000000      31.59944838      10.55625547      23.24831570 # Si
     439  1  0.00000000      29.54563151      12.59709295      16.85652443 # Si
     440  1  0.00000000      31.58402121      14.70788088      19.02895643 # Si
     441  1  0.00000000      25.32802645       8.42699790      25.31821536 # Si
     442  1  0.00000000      27.44727768      10.58044567      27.36028791 # Si
     443  1  0.00000000      25.30465080      12.67556746      29.56463983 # Si
     444  1  0.00000000      27.37557325      14.76141435      31.60203541 # Si
     445  1  0.00000000      29.48945656       8.38939063      29.57311785 # Si
     446  1  0.00000000      31.66133756      10.60163141      31.63015616 # Si
     447  1  0.00000000      29.57004481      12.62291442      25.34773983 # Si
     448  1  0.00000000      31.58904598      14.79957652      27.40516942 # Si
     449  1  0.00000000      25.26228946      16.92314815      33.71805437 # Si
     450  1  0.00000000      27.44598138      18.97345313       2.07622528 # Si
     451  1  0.00000000      25.36321469      21.05107289       4.26196700 # Si
     452  1  0.00000000      27.47890104      23.20087190       6.38641658 # Si
     453  1  0.00000000      29.56772487      16.82897213       4.26712824 # Si
     454  1  0.00000000      31.69839008      19.03954210       6.30336320 # Si
     455  1  0.00000000      29.50122482      21.10456908      33.71301771 # Si
     456  1  0.00000000      31.67136193      23.16766951       2.16301697 # Si
     457  1  0.00000000      25.35368919      16.86044031       8.40145890 # Si
     458  1  0.00000000      27.38244298      19.01577668      10.52541613 # Si
     459  1  0.00000000      25.34601055      21.04694275      12.61874533 # Si
     460  1  0.00000000      27.40864295      23.20238455      14.80852558 # Si
     461  1  0.00000000      29.49604279      16.91290389      12.71278580 # Si
     462  1  0.00000000      31.66787486      18.95172241      14.73779617 # Si
     463  1  0.00000000      29.57856076      21.05990816       8.38571639 # Si
     464  1  0.00000000      31.64872347      23.18423674      10.53378647 # Si
     465  1  0.00000000      25.33750747      16.87522888      16.85632462 # Si
     466  1  0.00000000      27.44225478      19.00208311      19.03126670 # Si
     467  1  0.00000000      25.28145334      21.12910700      21.04823023 # Si
     468  1  0.00000000      27.46487052      23.26121340      23.24891196 # Si
     469  1  0.00000000      29.57944385      16.90431536      21.12535650 # Si
     470  1  0.00000000      31.65651700      18.96816573      23.21216595 # Si
     471  1  0.00000000      29.48107822      21.07322508      16.85518470 # Si
     472  1  0.00000000      31.69810182      23.16108438      18.97361850 # Si
     473  1  0.00000000      25.25734952      16.87051309      25.31374469 # Si
     474  1  0.00000000      27.40008720      19.02495022      27.40109123 # Si
     475  1  0.00000000      25.26260022      21.14663824      29.55870359 # Si
     476  1  0.00000000      27.39622085      23.15541550      31.59055136 # Si
     477  1  0.00000000      29.58382157      16.82177561      29.54154784 # Si
     478  1  0.00000000      31.65350588      18.99193769      31.60200514 # Si
     479  1  0.00000000      29.49023344      21.03300159      25.29396042 # Si
     480  1  0.00000000      31.64282434      23.17271502      27.40440978 # Si
     481  1  0.00000000      25.35548598      25.29548533       0.04688062 # Si
     482  1  0.00000000      27.42335495      27.36041134       2.07823390 # Si
     483  1  0.00000000      25.29124986      29.47817421       4.24952031 # Si
     484  1  0.00000000      27.45078677      31.68695934       6.27780222 # Si
     485  1  0.00000000      29.47536709      25.31468421       4.24442341 # Si
     486  1  0.00000000      31.63346016      27.47693982       6.34795915 # Si
     487  1  0.00000000      29.54727183      29.55816202       0.04638309 # Si
     488  1  0.00000000      31.58791019      31.68482011       2.12697588 # Si
     489  1  0.00000000      25.35696692      25.33255147       8.45098411 # Si
     490  1  0.00000000      27.39541890      27.45131655      10.56321620 # Si
     491  1  0.00000000      25.30085764      29.52806686      12.61314090 # Si
     492  1  0.00000000      27.37569647      31.65230086      14.77296475 # Si
     493  1  0.00000000      29.50355572      25.27067598      12.63725923 # Si
     494  1  0.00000000      31.69710742      27.41604007      14.73391589 # Si
     495  1  0.00000000      29.54449383      29.50512419       8.43585858 # Si
     496  1  0.00000000      31.66666125      31.67617351      10.49065294 # Si
     497  1  0.00000000      25.35593863      25.29039914      16.83189392 # Si
     498  1  0.00000000      27.48022349      27.40975964      18.98021446 # Si
     499  1  0.00000000      25.34835624      29.49333479      21.07327262 # Si
     500  1  0.00000000      27.37002169      31.59798177      23.21166467 # Si
     501  1  0.00000000      29.52405692      25.29045017      21.14950184 # Si
     502  1  0.00000000      31.64799700      27.38402381      23.20977704 # Si
     503  1  0.00000000      29.54161164      29.58363246      16.85346766 # Si
     504  1  0.00000000      31.65093650      31.58342420      18.95254303 # Si
     505  1  0.00000000      25.26313813      25.27170834      25.32551961 # Si
     506  1  0.00000000      27.41709327      27.38020429      27.38467260 # Si
     507  1  0.00000000      25.29702515      29.47245304      29.52300847 # Si
     508  1  0.00000000      27.39211589      31.63826420      31.67320179 # Si
     509  1  0.00000000      29.54516507      25.33003040      29.57392650 # Si
     510  1  0.00000000      31.66921351      27.46740915      31.69398113 # Si
     511  1  0.00000000      29.54170367      29.52461955      25.34513700 # Si
     512  1  0.00000000      31.69235192      31.69788615      27.46260287 # Si
     513  2  0.00000000       1.11404116       1.11099090       1.04256646 # O
     514  2  0.00000000       1.05919924      32.71181956      32.74289477 # O
     515  2  0.00000000      32.75228297       1.09176924      32.71287545 # O
     516  2  0.00000000      32.71334304      32.74277615       1.01691083 # O
     517  2  0.00000000       1.03427065       3.10663169       3.13793351 # O
     518  2  0.00000000       3.20032903       1.08864305       3.13346064 # O
     519  2  0.00000000       3.21829172       3.17729618       1.08194559 # O
     520  2  0.00000000       1.03030271       5.32904729       5.22707689 # O
     521  2  0.00000000      32.69080572       3.17913183       5.23664117 # O
     522  2  0.00000000      32.66468958       5.30574894       3.15017673 # O
     523  2  0.00000000       3.16266968       5.28429676       7.35519604 # O
     524  2  0.00000000       3.16042637       7.32644200       5.23289253 # O
     525  2  0.00000000       1.03543658       7.34156668       7.42752966 # O
     526  2  0.00000000       5.22725836       1.08780549       5.28492227 # O
     527  2  0.00000000       3.16338446      32.73011894       5.26134066 # O
     528  2  0.00000000       5.23878661      32.63453323       3.20129073 # O
     529  2  0.00000000       5.28938744       3.18908191       7.40195276 # O
     530  2  0.00000000       7.35560841       3.14502304       5.26415200 # O
     531  2  0.00000000       7.42095917       1.09273773       7.41933886 # O
     532  2  0.00000000       5.21760641       5.23633373       1.09319033 # O
     533  2  0.00000000       3.14119066       5.21791979      32.64596589 # O
     534  2  0.00000000       5.23244186       3.10869022      32.65807812 # O
     535  2  0.00000000       5.22063203       7.37545854       3.13235472 # O
     536  2  0.00000000       7.32953793       5.31001493       3.21066330 # O
     537  2  0.00000000       7.40986595       7.42761903       1.03867719 # O
     538  2  0.00000000       1.04539108       0.99957834       9.43247480 # O
     539  2  0.00000000       1.03823029      32.68625861       7.34563375 # O
     540  2  0.00000000      32.73279999       1.00624055       7.44196106 # O
     541  2  0.00000000      32.68725047      32.70251599       9.45762251 # O
     542  2  0.00000000       1.02620328       3.15115179      11.64805525 # O
     543  2  0.00000000       3.19629743       1.09663010      11.57443024 # O
     544  2  0.00000000       3.19018000       3.18357062       9.46554566 # O
     545  2  0.00000000       1.10443581       5.21712692      13.72898274 # O
     546  2  0.00000000      32.68167700       3.15202671      13.68906349 # O
     547  2  0.00000000      32.74788711       5.29121339      11.54400892 # O
     548  2  0.00000000       3.13669531       5.32690854      15.83688735 # O
     549  2  0.00000000       3.17696226       7.38474046      13.73424710 # O
     550  2  0.00000000       1.03133462       7.33109629      15.83323887 # O
     551  2  0.00000000       5.32454760       1.10727013      13.75346958 # O
     552  2  0.00000000       3.21592137      32.68686777      13.76332280 # O
     553  2  0.00000000       5.33268559      32.67444608      11.61985767 # O
     554  2  0.00000000       5.27469994       3.17728884      15.85619006 # O
     555  2  0.00000000       7.37281743       3.12024878      13.70335293 # O
     556  2  0.00000000       7.36997456       1.09811360      15.86202847 # O
     557  2  0.00000000       5.31668542       5.21809669       9.46721966 # O
     558  2  0.00000000       5.25079194       7.38632641      11.56369415 # O
     559  2  0.00000000       7.38319806       5.33301839      11.56410904 # O
     560  2  0.00000000       7.35532329       7.41883688       9.47337852 # O
     561  2  0.00000000       1.04602253       1.08669860      17.90320453 # O
     562  2  0.00000000       1.08100159      32.71889379      15.85009065 # O
     563  2  0.00000000      32.66983695       1.04187087      15.83593082 # O
     564  2  0.00000000      32.67958805      32.72567885      17.88302250 # O
     565  2  0.00000000       1.02037209       3.18786142      20.02255779 # O
     566  2  0.00000000       3.12407583       1.06842205      19.99533408 # O
     567  2  0.00000000       3.19013296       3.13441095      17.95237991 # O
     568  2  0.00000000       0.99926789       5.33248316      22.17997935 # O
     569  2  0.00000000      32.71203338       3.21963776      22.14846317 # O
     570  2  0.00000000      32.70497722       5.28566072      20.08829651 # O
     571  2  0.00000000       3.17535828       5.31815632      24.24389128 # O
     572  2  0.00000000       3.11020895       7.38114889      22.18698018 # O
     573  2  0.00000000       1.02052145       7.39197003      24.25325227 # O
     574  2  0.00000000       5.25251511       1.06754847      22.15222167 # O
     575  2  0.00000000       3.13153249      32.65768532      22.19439350 # O
     576  2  0.00000000       5.28986955      32.65762494      20.02777448 # O
     577  2  0.00000000       5.28770809       3.13675374      24.19797215 # O
     578  2  0.00000000       7.43848063       3.13645525      22.12647620 # O
     579  2  0.00000000       7.43861843       1.08697120      24.20715359 # O
     580  2  0.00000000       5.27014687       5.31431477      17.96729650 # O
     581  2  0.00000000       5.23819867       7.35009869      20.06800599 # O
     582  2  0.00000000       7.37419694       5.25792251      20.03882122 # O
     583  2  0.00000000       7.42369406       7.37619222      17.87282668 # O
     584  2  0.00000000       1.07981647       1.08942790      26.35519538 # O
     585  2  0.00000000       1.03626830      32.68882953      24.24432663 # O
     586  2  0.00000000      32.74182662       1.09831567      24.25804864 # O
     587  2  0.00000000      32.64266893      32.72442966      26.36289342 # O
     588  2  0.00000000       1.11318763       3.12580605      28.50601618 # O
     589  2  0.00000000       3.10558244       1.03852963      28.52364617 # O
     590  2  0.00000000       3.12140068       3.20627565      26.40231309 # O
     591  2  0.00000000       0.99780425       5.24042396      30.53910465 # O
     592  2  0.00000000      32.66691370       3.15992238      30.60192681 # O
     593  2  0.00000000      32.69368665       5.25597002      28.51761073 # O
     594  2  0.00000000       1.07933494       7.33620082      32.69385215 # O
     595  2  0.00000000       3.20728753       7.43590583      30.57382468 # O
     596  2  0.00000000       5.29572416       1.10999184      30.61999812 # O
     597  2  0.00000000       3.18947514      32.66592943      30.53640887 # O
     598  2  0.00000000       5.25997840      32.63445929      28.43758811 # O
     599  2  0.00000000       7.41900653       1.08464445      32.74852747 # O
     600  2  0.00000000       7.33602402       3.11591805      30.56555092 # O
     601  2  0.00000000       5.33061901       5.33029370      26.40323130 # O
     602  2  0.00000000       5.32394808       7.41559260      28.53149363 # O
     603  2  0.00000000       7.37950611       5.24316483      28.45040366 # O
     604  2  0.00000000       7.39338068       7.38995426      26.33598750 # O
     605  2  0.00000000       1.04651540       9.50610751       1.05650553 # O
     606  2  0.00000000      32.74267768       7.38097673       1.08987033 # O
     607  2  0.00000000      32.65849948       9.46506013      32.67215181 # O
     608  2  0.00000000       1.08175047      11.64670505       3.10830422 # O
     609  2  0.00000000       3.17919703       9.50072132       3.11146372 # O
     610  2  0.00000000       3.21958555      11.56189663       1.00216354 # O
     611  2  0.00000000       1.07295384      13.71605538       5.21439738 # O
     612  2  0.00000000      32.72958776      11.64047533       5.26065650 # O
     613  2  0.00000000      32.73655435      13.74764694       3.14669604 # O
     614  2  0.00000000       3.13839445      13.69950471       7.35470284 # O
     615  2  0.00000000       3.18098085      15.84703880       5.30175075 # O
     616  2  0.00000000       1.08499468      15.85350573       7.41871262 # O
     617  2  0.00000000       5.30033708       9.53601398       5.24895202 # O
     618  2  0.00000000       5.22228839      11.65951677       7.34294876 # O
     619  2  0.00000000       7.42314757      11.55016403       5.25274518 # O
     620  2  0.00000000       7.35225212       9.43890562       7.35666839 # O
     621  2  0.00000000       5.22246359      13.66127130       1.09829143 # O
     622  2  0.00000000       3.17538212      13.65557185      32.69294423 # O
     623  2  0.00000000       5.31654240      11.63298006      32.73780805 # O
     624  2  0.00000000       5.31196192      15.86478626       3.21735168 # O
     625  2  0.00000000       7.38861804      13.75450013       3.17279443 # O
     626  2  0.00000000       7.39928137      15.81797937       1.02512649 # O
     627  2  0.00000000       1.08449345       9.45183711       9.48785520 # O
     628  2  0.00000000      32.73912416       7.33897869       9.48510768 # O
     629  2  0.00000000      32.69625070       9.51357166       7.41283809 # O
     630  2  0.00000000       1.02276562      11.63010461      11.59251828 # O
     631  2  0.00000000       3.19639857       9.55093788      11.65233404 # O
     632  2  0.00000000       3.20584353      11.65308205       9.43273725 # O
     633  2  0.00000000       1.08082762      13.74816631      13.73219978 # O
     634  2  0.00000000      32.64604112      11.57684081      13.70908474 # O
     635  2  0.00000000      32.72164316      13.75988333      11.65337059 # O
     636  2  0.00000000       3.18623101      13.65255927      15.87618281 # O
     637  2  0.00000000       3.10831668      15.86013941      13.71018828 # O
     638  2  0.00000000       1.00281282      15.86707886      15.78395972 # O
     639  2  0.00000000       5.30518785       9.46895626      13.69980454 # O
     640  2  0.00000000       5.30125434      11.62773141      15.84476045 # O
     641  2  0.00000000       7.33472335      11.62008622      13.76941594 # O
     642  2  0.00000000       7.38497825       9.50537705      15.78020938 # O
     643  2  0.00000000       5.32994249      13.72711345       9.48962089 # O
     644  2  0.00000000       5.29325575      15.87082989      11.58372550 # O
     645  2  0.00000000       7.40935602      13.74256073      11.59677779 # O
     646  2  0.00000000       7.42415184      15.77122685       9.44075783 # O
     647  2  0.00000000       1.02695472       9.51383526      17.92961223 # O
     648  2  0.00000000      32.64787247       7.40836241      17.89051758 # O
     649  2  0.00000000      32.68718458       9.44390382      15.83441956 # O
     650  2  0.00000000       1.07163685      11.62864662      20.06487536 # O
     651  2  0.00000000       3.18606455       9.43394272      19.99919782 # O
     652  2  0.00000000       3.10694978      11.56123530      17.89077456 # O
     653  2  0.00000000       1.01680322      13.71821941      22.15686500 # O
     654  2  0.00000000      32.67031121      11.58357328      22.14218197 # O
     655  2  0.00000000      32.74271624      13.70473424      20.07514248 # O
     656  2  0.00000000       3.12242196      13.71170564      24.26124797 # O
     657  2  0.00000000       3.18205763      15.85662394      22.15841784 # O
     658  2  0.00000000       1.00898202      15.86699407      24.22472954 # O
     659  2  0.00000000       5.22253194       9.51771555      22.09120102 # O
     660  2  0.00000000       5.21527912      11.62053738      24.30634644 # O
     661  2  0.00000000       7.33053959      11.62176364      22.10081380 # O
     662  2  0.00000000       7.34400608       9.53430270      24.30854402 # O
     663  2  0.00000000       5.22938707      13.69519634      17.96573336 # O
     664  2  0.00000000       5.31751958      15.82500111      20.02069423 # O
     665  2  0.00000000       7.35939339      13.66240230      20.03967346 # O
     666  2  0.00000000       7.40878437      15.81304526      17.98172546 # O
     667  2  0.00000000       1.05471198       9.50665538      26.35642679 # O
     668  2  0.00000000      32.67599595       7.35317289      26.36969002 # O
     669  2  0.00000000      32.68686221       9.43960052      24.21558932 # O
     670  2  0.00000000       1.04620491      11.63014832      28.43912616 # O
     671  2  0.00000000       3.18407261       9.45905640      28.41685978 # O
     672  2  0.00000000       3.14020409      11.63927872      26.34360308 # O
     673  2  0.00000000       0.99731719      13.72342101      30.61274830 # O
     674  2  0.00000000      32.69626455      11.64567034      30.58834467 # O
     675  2  0.00000000      32.74983068      13.73855969      28.52477469 # O
     676  2  0.00000000       1.03001919      15.79822304      32.64287417 # O
     677  2  0.00000000       3.18630400      15.85948755      30.58376754 # O
     678  2  0.00000000       5.32175289       9.53873172      30.59476583 # O
     679  2  0.00000000       7.38539801       9.54023509      32.65208646 # O
     680  2  0.00000000       7.42951830      11.55139948      30.62898589 # O
     681  2  0.00000000       5.28140290      13.69452418      26.39518467 # O
     682  2  0.00000000       5.31068194      15.86846299      28.41886679 # O
     683  2  0.00000000       7.36391149      13.70232171      28.44209923 # O
     684  2  0.00000000       7.38189141      15.86962434      26.31174454 # O
     685  2  0.00000000       1.07860210      17.88461209       1.04921274 # O
     686  2  0.00000000      32.70484937      15.85686246       1.04847652 # O
     687  2  0.00000000      32.74932265      17.89712302      32.64041468 # O
     688  2  0.00000000       1.09239018      20.06221595       3.13163713 # O
     689  2  0.00000000       3.12945116      17.93727650       3.10915547 # O
     690  2  0.00000000       3.11508462      20.03268538       1.09027004 # O
     691  2  0.00000000       1.01803390      22.13931025       5.31187041 # O
     692  2  0.00000000      32.70736482      20.04044143       5.33008442 # O
     693  2  0.00000000      32.74142234      22.09946892       3.11526949 # O
     694  2  0.00000000       3.19887172      22.14406428       7.35555666 # O
     695  2  0.00000000       3.19522304      24.27115264       5.22907593 # O
     696  2  0.00000000       1.07494024      24.28769111       7.33221198 # O
     697  2  0.00000000       5.33056028      17.87007626       5.23936977 # O
     698  2  0.00000000       5.29267886      20.09485312       7.37856269 # O
     699  2  0.00000000       7.40487575      20.06354426       5.25548229 # O
     700  2  0.00000000       7.34564185      17.89146944       7.42304591 # O
     701  2  0.00000000       5.29995502      22.12442822       1.09604130 # O
     702  2  0.00000000       3.20448368      22.13243753      32.73836043 # O
     703  2  0.00000000       5.31032064      20.00924981      32.64494922 # O
     704  2  0.00000000       5.29971096      24.28207785       3.17581963 # O
     705  2  0.00000000       7.41420881      22.14641145       3.13478309 # O
     706  2  0.00000000       7.36260145      24.29091903       1.08929035 # O
     707  2  0.00000000       1.02594316      17.93915075       9.53736981 # O
     708  2  0.00000000      32.72472285      15.86819456       9.52189258 # O
     709  2  0.00000000      32.71464129      17.98624230       7.35446469 # O
     710  2  0.00000000       1.10671693      20.05229667      11.64637871 # O
     711  2  0.00000000       3.17255564      17.97073328      11.62318189 # O
     712  2  0.00000000       3.19439309      20.09113403       9.50131144 # O
     713  2  0.00000000       1.01140180      22.11050777      13.72050638 # O
     714  2  0.00000000      32.64582008      20.06203952      13.70565407 # O
     715  2  0.00000000      32.73815088      22.20638413      11.60487404 # O
     716  2  0.00000000       3.18306861      22.18167978      15.80145557 # O
     717  2  0.00000000       3.15386008      24.23680698      13.65402847 # O
     718  2  0.00000000       1.09376283      24.27673594      15.83773412 # O
     719  2  0.00000000       5.31362532      17.97119488      13.74482803 # O
     720  2  0.00000000       5.26501454      20.07276238      15.78346530 # O
     721  2  0.00000000       7.41158662      19.97954837      13.67788580 # O
     722  2  0.00000000       7.34735227      17.97151159      15.87103465 # O
     723  2  0.00000000       5.25909512      22.09061028       9.54624122 # O
     724  2  0.00000000       5.30547741      24.26037756      11.65509653 # O
     725  2  0.00000000       7.40701137      22.15147022      11.63648537 # O
     726  2  0.00000000       7.43327986      24.27493997       9.50789597 # O
     727  2  0.00000000       1.03631298      17.87811440      17.96009375 # O
     728  2  0.00000000      32.73265389      15.77786622      17.87217073 # O
     729  2  0.00000000      32.71181764      17.93645030      15.84219920 # O
     730  2  0.00000000       1.00897661      20.06715529      20.04974732 # O
     731  2  0.00000000       3.10560839      17.96940381      19.98129995 # O
     732  2  0.00000000       3.18080842      20.02754075      17.93319407 # O
     733  2  0.00000000       1.08746940      22.14938909      22.15968761 # O
     734  2  0.00000000      32.73197266      20.06533405      22.15511808 # O
     735  2  0.00000000      32.64690890      22.09219109      19.98343887 # O
     736  2  0.00000000       3.17580921      22.13745356      24.29043601 # O
     737  2  0.00000000       3.20533508      24.22551702      22.11325279 # O
     738  2  0.00000000       1.11316590      24.24367246      24.30176636 # O
     739  2  0.00000000       5.26443815      17.92547787      22.15029734 # O
     740  2  0.00000000       5.30792923      19.98831053      24.25483178 # O
     741  2  0.00000000       7.39466520      20.01559263      22.16161999 # O
     742  2  0.00000000       7.36143496      17.87113369      24.20027388 # O
     743  2  0.00000000       5.32060495      22.13506379      17.88366687 # O
     744  2  0.00000000       5.21917924      24.20925294      20.01930041 # O
     745  2  0.00000000       7.38254588      22.09680175      20.00035626 # O
     746  2  0.00000000       7.38975168      24.25270702      17.96352505 # O
     747  2  0.00000000       1.11213647      17.87818219      26.34948112 # O
     748  2  0.00000000      32.73776003      15.77197806      26.41380634 # O
     749  2  0.00000000      32.72956436      17.96955314      24.24966203 # O
     750  2  0.00000000       1.05531293      20.01754632      28.47548286 # O
     751  2  0.00000000       3.12374124      17.93062284      28.48349021 # O
     752  2  0.00000000       3.11607923      19.98998486      26.37651315 # O
     753  2  0.00000000       1.11247439      22.11945222      30.54395937 # O
     754  2  0.00000000      32.73938592      20.07660399      30.61559958 # O
     755  2  0.00000000      32.69717384      22.15005584      28.51284058 # O
     756  2  0.00000000       0.99793554      24.28039728      32.70758906 # O
     757  2  0.00000000       3.16970738      24.25390595      30.62903411 # O
     758  2  0.00000000       5.21670387      17.97566362      30.61711276 # O
     759  2  0.00000000       7.41038544      17.96977540      32.72913926 # O
     760  2  0.00000000       7.34650579      20.06439077      30.61952199 # O
     761  2  0.00000000       5.23288584      22.09557020      26.35251873 # O
     762  2  0.00000000       5.28092395      24.20772738      28.44572018 # O
     763  2  0.00000000       7.44047805      22.19530531      28.42149335 # O
     764  2  0.00000000       7.40421998      24.25165368      26.32878418 # O
     765  2  0.00000000       1.02358902      26.34363545       1.01878556 # O
     766  2  0.00000000      32.73962204      24.29687733       1.04910298 # O
     767  2  0.00000000      32.70289943      26.37363862      32.65601681 # O
     768  2  0.00000000       1.02902856      28.52958842       3.22230512 # O
     769  2  0.00000000       3.19972499      26.32072466       3.21768736 # O
     770  2  0.00000000       3.22010021      28.50310454       1.09661923 # O
     771  2  0.00000000       1.03575847      30.55663434       5.26998423 # O
     772  2  0.00000000      32.64095858      28.45530005       5.21837854 # O
     773  2  0.00000000      32.71072568      30.59086676       3.11428534 # O
     774  2  0.00000000       3.11676573      30.58520163       7.35277804 # O
     775  2  0.00000000       5.29769165      26.41149159       5.32984256 # O
     776  2  0.00000000       5.21507981      28.53229569       7.39669189 # O
     777  2  0.00000000       7.34672752      28.42001066       5.25398900 # O
     778  2  0.00000000       7.32408746      26.37907167       7.36252251 # O
     779  2  0.00000000       5.26155459      30.54558954       1.08977106 # O
     780  2  0.00000000       3.14591609      30.58742004      32.75163263 # O
     781  2  0.00000000       5.24372011      28.45766451      32.64669049 # O
     782  2  0.00000000       7.33955470      32.70542912       1.01531512 # O
     783  2  0.00000000       7.32833229      30.62486638       3.16556459 # O
     784  2  0.00000000       1.03082488      26.41268241       9.45927811 # O
     785  2  0.00000000      32.72436400      24.22464455       9.49074116 # O
     786  2  0.00000000      32.72498769      26.35785109       7.43733049 # O
     787  2  0.00000000       1.05355349      28.46547726      11.63695794 # O
     788  2  0.00000000       3.12534810      26.39862197      11.59132969 # O
     789  2  0.00000000       3.10781575      28.51945364       9.49244559 # O
     790  2  0.00000000       1.01501282      30.55184847      13.70778312 # O
     791  2  0.00000000      32.66614267      28.43452362      13.66869199 # O
     792  2  0.00000000      32.66958399      30.53734203      11.60017364 # O
     793  2  0.00000000       3.16124591      30.63640851      15.76662293 # O
     794  2  0.00000000       5.23429440      26.36779346      13.73587312 # O
     795  2  0.00000000       5.26319570      28.52218026      15.82984066 # O
     796  2  0.00000000       7.41573577      28.53060261      13.67260950 # O
     797  2  0.00000000       7.39634906      26.31847746      15.78119971 # O
     798  2  0.00000000       5.28018571      30.63562294       9.52076388 # O
     799  2  0.00000000       7.33230860      32.65233541       9.46836184 # O
     800  2  0.00000000       7.43020242      30.55983028      11.55300082 # O
     801  2  0.00000000       1.11406441      26.41546136      17.92858675 # O
     802  2  0.00000000      32.65661651      24.27536531      17.97222565 # O
     803  2  0.00000000      32.72336564      26.34604324      15.82996924 # O
     804  2  0.00000000       1.06998739      28.52003061      19.99965634 # O
     805  2  0.00000000       3.14164012      26.30913335      19.99775515 # O
     806  2  0.00000000       3.20129289      28.49301761      17.94634987 # O
     807  2  0.00000000       1.10515030      30.63518851      22.17362082 # O
     808  2  0.00000000      32.64591002      28.45584468      22.20592926 # O
     809  2  0.00000000      32.65997182      30.54418824      20.09349779 # O
     810  2  0.00000000       3.11363068      30.57772530      24.22788939 # O
     811  2  0.00000000       5.31762209      26.36575387      22.13301483 # O
     812  2  0.00000000       5.21541855      28.45772679      24.29224765 # O
     813  2  0.00000000       7.32269808      28.47868528      22.16872106 # O
     814  2  0.00000000       7.43695975      26.38504717      24.25037372 # O
     815  2  0.00000000       5.24632196      30.60094562      17.92095544 # O
     816  2  0.00000000       7.44198140      32.64670930      17.97129796 # O
     817  2  0.00000000       7.39976200      30.57132736      19.99103517 # O
     818  2  0.00000000       1.03679279      26.33182025      26.36145644 # O
     819  2  0.00000000      32.66627132      24.24441128      26.34781306 # O
     820  2  0.00000000      32.64817230      26.38203102      24.21440644 # O
     821  2  0.00000000       1.02238817      28.45137511      28.44134063 # O
     822  2  0.00000000       3.16038952      26.32111367      28.43817851 # O
     823  2  0.00000000       3.21168448      28.50165049      26.42170289 # O
     824  2  0.00000000       1.08541636      30.63308135      30.55296010 # O
     825  2  0.00000000      32.67912439      28.44044536      30.63902544 # O
     826  2  0.00000000      32.69146528      30.58865764      28.45615086 # O
     827  2  0.00000000       5.28820524      26.37127955      30.56480978 # O
     828  2  0.00000000       7.42310223      26.37015465      32.66972484 # O
     829  2  0.00000000       7.40006996      28.46388888      30.59919477 # O
     830  2  0.00000000       5.29754041      30.61679142      26.34313003 # O
     831  2  0.00000000       7.41967864      32.63663091      26.38811697 # O
     832  2  0.00000000       7.32496929      30.56290849      28.51973522 # O
     833  2  0.00000000       9.50489661       0.99731112       1.07898473 # O
     834  2  0.00000000       9.45747587      32.71767052      32.67635407 # O
     835  2  0.00000000       9.44210426       3.14533816       3.22345616 # O
     836  2  0.00000000      11.62906005       1.04813932       3.13370314 # O
     837  2  0.00000000      11.54268877       3.18983382       1.10305986 # O
     838  2  0.00000000       9.45930543       5.25348157       5.31694830 # O
     839  2  0.00000000      11.57591974       5.29313236       7.43658030 # O
     840  2  0.00000000      11.65504798       7.41094070       5.29633788 # O
     841  2  0.00000000       9.48156635       7.42027266       7.41827443 # O
     842  2  0.00000000      13.66913970       1.00566188       5.21372589 # O
     843  2  0.00000000      11.59827539      32.68040529       5.26897481 # O
     844  2  0.00000000      13.74575149      32.67125168       3.17320732 # O
     845  2  0.00000000      13.68624048       3.18850560       7.40715939 # O
     846  2  0.00000000      15.85573184       3.19503141       5.30212850 # O
     847  2  0.00000000      15.79377515       1.07281274       7.37092156 # O
     848  2  0.00000000      13.75098499       5.27411405       1.09998284 # O
     849  2  0.00000000      11.56709502       5.32538507      32.69103437 # O
     850  2  0.00000000      13.70143619       3.11415521      32.75076317 # O
     851  2  0.00000000      13.75494857       7.40195006       3.15950990 # O
     852  2  0.00000000      15.76471838       5.26188292       3.17118508 # O
     853  2  0.00000000      15.76346530       7.35690530       0.99870697 # O
     854  2  0.00000000       9.46713956       1.08225918       9.49578957 # O
     855  2  0.00000000       9.53266739      32.72083056       7.43841141 # O
     856  2  0.00000000       9.48895044       3.21612910      11.57503940 # O
     857  2  0.00000000      11.61220162       1.10704105      11.65080913 # O
     858  2  0.00000000      11.64639854       3.12471910       9.53004786 # O
     859  2  0.00000000       9.44821919       5.21756776      13.75166710 # O
     860  2  0.00000000      11.60905354       5.24010591      15.86632402 # O
     861  2  0.00000000      11.57651063       7.33706842      13.67667898 # O
     862  2  0.00000000       9.51007650       7.40677062      15.79589584 # O
     863  2  0.00000000      13.74564024       1.00785751      13.68761895 # O
     864  2  0.00000000      11.63818860      32.68225390      13.73654347 # O
     865  2  0.00000000      13.66979447      32.70891882      11.65850511 # O
     866  2  0.00000000      13.74224221       3.19239406      15.85301144 # O
     867  2  0.00000000      15.79568516       3.15766242      13.73545131 # O
     868  2  0.00000000      15.79808232       1.00406491      15.80560371 # O
     869  2  0.00000000      13.72510420       5.22776509       9.54967287 # O
     870  2  0.00000000      13.67706854       7.36686023      11.58542152 # O
     871  2  0.00000000      15.78315102       5.32919627      11.54212200 # O
     872  2  0.00000000      15.86353002       7.33413962       9.53866215 # O
     873  2  0.00000000       9.49900798       1.03346896      17.95600620 # O
     874  2  0.00000000       9.46551662      32.74486610      15.76314742 # O
     875  2  0.00000000       9.50187615       3.14387448      19.99983703 # O
     876  2  0.00000000      11.58960071       1.03390531      19.98750842 # O
     877  2  0.00000000      11.56874697       3.12306811      17.93228069 # O
     878  2  0.00000000       9.46641969       5.22409252      22.13233549 # O
     879  2  0.00000000      11.60364956       5.24626955      24.27833494 # O
     880  2  0.00000000      11.60639311       7.42318186      22.14048627 # O
     881  2  0.00000000       9.45192613       7.43123632      24.22007024 # O
     882  2  0.00000000      13.68443054       1.00811286      22.15168527 # O
     883  2  0.00000000      11.61540328      32.73352283      22.11285576 # O
     884  2  0.00000000      13.67306102      32.64494952      20.00193851 # O
     885  2  0.00000000      13.69710073       3.20322491      24.23938494 # O
     886  2  0.00000000      15.84672221       3.16917254      22.13444735 # O
     887  2  0.00000000      15.83629180       1.01344551      24.27115777 # O
     888  2  0.00000000      13.71849032       5.24569593      17.92757405 # O
     889  2  0.00000000      13.71722410       7.34737851      19.98351640 # O
     890  2  0.00000000      15.81783247       5.32882927      19.98977903 # O
     891  2  0.00000000      15.79252668       7.38874624      17.91104096 # O
     892  2  0.00000000       9.45417700       1.06666178      26.40559078 # O
     893  2  0.00000000       9.43232876      32.65297319      24.25761721 # O
     894  2  0.00000000       9.54996266       3.22380464      28.48289369 # O
     895  2  0.00000000      11.64664582       1.03166565      28.53031984 # O
     896  2  0.00000000      11.59061376       3.15679411      26.41725060 # O
     897  2  0.00000000       9.48069878       5.25192406      30.56175685 # O
     898  2  0.00000000       9.44859309       7.39108821      32.75155272 # O
     899  2  0.00000000      11.64046405       7.33075421      30.62698081 # O
     900  2  0.00000000      13.65068056       1.09584021      30.55654990 # O
     901  2  0.00000000      11.56077186      32.74016768      30.55658211 # O
     902  2  0.00000000      13.66707462      32.71520082      28.52647103 # O
     903  2  0.00000000      15.82254284       1.01620507      32.72854244 # O
     904  2  0.00000000      15.84622235       3.21893607      30.59900555 # O
     905  2  0.00000000      13.67648161       5.24661717      26.38730109 # O
     906  2  0.00000000      13.65336684       7.35576813      28.46314230 # O
     907  2  0.00000000      15.85156530       5.24648554      28.46330532 # O
     908  2  0.00000000      15.77360406       7.43481113      26.38278087 # O
     909  2  0.00000000       9.51439270       9.44954038       1.10457999 # O
     910  2  0.00000000       9.43392131      11.55556247       3.20955300 # O
     911  2  0.00000000      11.54741065       9.54783935       3.17662464 # O
     912  2  0.00000000      11.65094110      11.63883976       1.02465838 # O
     913  2  0.00000000       9.54268251      13.68135347       5.33126740 # O
     914  2  0.00000000      11.54351068      13.71153797       7.37086579 # O
     915  2  0.00000000      11.65659149      15.85937666       5.28532464 # O
     916  2  0.00000000       9.43987570      15.77910317       7.40414358 # O
     917  2  0.00000000      13.74381694       9.46387303       5.31167091 # O
     918  2  0.00000000      13.69381547      11.60900730       7.43026733 # O
     919  2  0.00000000      15.78940960      11.62440396       5.29400992 # O
     920  2  0.00000000      15.82531336       9.49893498       7.32897520 # O
     921  2  0.00000000      13.76662266      13.69691276       1.09671830 # O
     922  2  0.00000000      11.56497027      13.72673917      32.68221086 # O
     923  2  0.00000000      13.69167533      11.57762782      32.74116371 # O
     924  2  0.00000000      13.76331302      15.76684885       3.12718301 # O
     925  2  0.00000000      15.76693640      13.75656736       3.18426055 # O
     926  2  0.00000000      15.81851668      15.85295423       1.00862148 # O
     927  2  0.00000000       9.52679724       9.53301401       9.54047598 # O
     928  2  0.00000000       9.45721235      11.63733428      11.54815392 # O
     929  2  0.00000000      11.59366315       9.50122601      11.58882350 # O
     930  2  0.00000000      11.62864769      11.56486020       9.49284900 # O
     931  2  0.00000000       9.46973075      13.76088220      13.73283937 # O
     932  2  0.00000000      11.54129980      13.66829686      15.77077949 # O
     933  2  0.00000000      11.57159112      15.77971172      13.72559514 # O
     934  2  0.00000000       9.43779431      15.87359028      15.78404381 # O
     935  2  0.00000000      13.74596050       9.45295292      13.68878927 # O
     936  2  0.00000000      13.67806848      11.65828804      15.85740581 # O
     937  2  0.00000000      15.83743065      11.54164916      13.65587890 # O
     938  2  0.00000000      15.84356255       9.45616454      15.79956318 # O
     939  2  0.00000000      13.72063789      13.74414480       9.45953381 # O
     940  2  0.00000000      13.76846944      15.84404365      11.57891970 # O
     941  2  0.00000000      15.81199369      13.75422002      11.59340408 # O
     942  2  0.00000000      15.82684559      15.79552065       9.49162791 # O
     943  2  0.00000000       9.47836796       9.53000617      17.98635186 # O
     944  2  0.00000000       9.46185050      11.55691492      20.05593478 # O
     945  2  0.00000000      11.60397654       9.49189357      20.04215962 # O
     946  2  0.00000000      11.64250587      11.58898904      17.87524110 # O
     947  2  0.00000000       9.44026716      13.67474162      22.14082583 # O
     948  2  0.00000000      11.63395069      13.70869655      24.24299819 # O
     949  2  0.00000000      11.56098246      15.78571140      22.18295151 # O
     950  2  0.00000000       9.45444680      15.80730465      24.30809172 # O
     951  2  0.00000000      13.68409326       9.51163002      22.10911867 # O
     952  2  0.00000000      13.74324410      11.55594870      24.29976589 # O
     953  2  0.00000000      15.75984792      11.55106601      22.17343087 # O
     954  2  0.00000000      15.76595723       9.48186668      24.23834007 # O
     955  2  0.00000000      13.74374408      13.67009028      17.96826825 # O
     956  2  0.00000000      13.68655565      15.79265683      20.02700422 # O
     957  2  0.00000000      15.85680864      13.73937029      20.07315296 # O
     958  2  0.00000000      15.77552400      15.79261420      17.91648550 # O
     959  2  0.00000000       9.45695198       9.48594172      26.35516820 # O
     960  2  0.00000000       9.50981057      11.54204496      28.50730335 # O
     961  2  0.00000000      11.64912862       9.48735767      28.44388919 # O
     962  2  0.00000000      11.64472261      11.61496614      26.31923314 # O
     963  2  0.00000000       9.47401746      13.73482233      30.55445797 # O
     964  2  0.00000000       9.46404721      15.87041987      32.63913773 # O
     965  2  0.00000000      11.64043511      15.76019280      30.59552659 # O
     966  2  0.00000000      13.73510926       9.49598609      30.54712290 # O
     967  2  0.00000000      15.80590265       9.52233765      32.65191221 # O
     968  2  0.00000000      15.83551744      11.63879958      30.53567496 # O
     969  2  0.00000000      13.66243872      13.74530221      26.32769716 # O
     970  2  0.00000000      13.67202327      15.84971497      28.41539513 # O
     971  2  0.00000000      15.82382537      13.76965515      28.45650035 # O
     972  2  0.00000000      15.80481815      15.79597005      26.33649890 # O
     973  2  0.00000000       9.48647478      17.97506899       1.09279378 # O
     974  2  0.00000000       9.53668068      20.07143055       3.19094903 # O
     975  2  0.00000000      11.56661701      17.89615175       3.21070685 # O
     976  2  0.00000000      11.58220264      20.05334240       1.03401004 # O
     977  2  0.00000000       9.46689738      22.15284150       5.31531335 # O
     978  2  0.00000000      11.64238881      22.15037333       7.36245859 # O
     979  2  0.00000000      11.62006014      24.24402779       5.31538092 # O
     980  2  0.00000000       9.48236739      24.27355541       7.35034125 # O
     981  2  0.00000000      13.69521754      17.89701811       5.29815883 # O
     982  2  0.00000000      13.67866089      20.05372886       7.33232751 # O
     983  2  0.00000000      15.81544020      19.98324813       5.26952931 # O
     984  2  0.00000000      15.85212801      17.94159116       7.33253209 # O
     985  2  0.00000000      13.71847716      22.10614990       1.00937609 # O
     986  2  0.00000000      11.64161748      22.19485506      32.73035432 # O
     987  2  0.00000000      13.69077322      20.03883272      32.69027491 # O
     988  2  0.00000000      13.71973283      24.24397134       3.16486194 # O
     989  2  0.00000000      15.79816329      22.14799391       3.15773804 # O
     990  2  0.00000000      15.84213851      24.21396871       1.09480379 # O
     991  2  0.00000000       9.44510721      17.87414961       9.50510471 # O
     992  2  0.00000000       9.50132528      19.99469122      11.65967978 # O
     993  2  0.00000000      11.54774756      17.91846228      11.59679338 # O
     994  2  0.00000000      11.55057205      20.01487412       9.47654263 # O
     995  2  0.00000000       9.52334309      22.18974272      13.71775268 # O
     996  2  0.00000000      11.59678259      22.12294026      15.87668298 # O
     997  2  0.00000000      11.65651539      24.22203564      13.70206047 # O
     998  2  0.00000000       9.43864457      24.22099485      15.87757064 # O
     999  2  0.00000000      13.72986051      17.90305689      13.73513942 # O
    1000  2  0.00000000      13.69536288      19.99146001      15.78728128 # O
    1001  2  0.00000000      15.82823421      20.03604319      13.66003587 # O
    1002  2  0.00000000      15.80987649      17.98635573      15.79789084 # O
    1003  2  0.00000000      13.73585148      22.12858052       9.45993649 # O
    1004  2  0.00000000      13.68253555      24.25285333      11.64860792 # O
    1005  2  0.00000000      15.84874230      22.15984923      11.58258860 # O
    1006  2  0.00000000      15.80865646      24.27049564       9.53326298 # O
    1007  2  0.00000000       9.53223974      17.90827231      17.88677423 # O
    1008  2  0.00000000       9.49706517      20.05551246      20.01367794 # O
    1009  2  0.00000000      11.54567071      17.90195976      20.03277997 # O
    1010  2  0.00000000      11.62322504      19.97883378      17.88295006 # O
    1011  2  0.00000000       9.48601795      22.17432311      22.12702409 # O
    1012  2  0.00000000      11.64880113      22.11649775      24.20040302 # O
    1013  2  0.00000000      11.62624837      24.21802702      22.16102999 # O
    1014  2  0.00000000       9.48822062      24.21627513      24.25244175 # O
    1015  2  0.00000000      13.67815602      17.91191744      22.14760925 # O
    1016  2  0.00000000      13.66631158      20.05649889      24.20415384 # O
    1017  2  0.00000000      15.77246650      20.09502960      22.15814025 # O
    1018  2  0.00000000      15.87148152      17.94470870      24.23538082 # O
    1019  2  0.00000000      13.68940226      22.09951912      17.91922046 # O
    1020  2  0.00000000      13.70576819      24.23505766      20.02378576 # O
    1021  2  0.00000000      15.84267200      22.19110363      20.01846316 # O
    1022  2  0.00000000      15.78768624      24.23013222      17.94085748 # O
    1023  2  0.00000000       9.53983356      17.91352481      26.37126309 # O
    1024  2  0.00000000       9.53449199      20.08425209      28.43025344 # O
    1025  2  0.00000000      11.58368113      17.92346770      28.44299537 # O
    1026  2  0.00000000      11.60317303      20.08147140      26.32163033 # O
    1027  2  0.00000000       9.52144867      22.12211900      30.62002727 # O
    1028  2  0.00000000       9.43578787      24.29891511      32.70225555 # O
    1029  2  0.00000000      11.58205364      24.22328472      30.54775163 # O
    1030  2  0.00000000      13.74062251      17.94573943      30.54539109 # O
    1031  2  0.00000000      15.80240958      17.90889526      32.68660357 # O
    1032  2  0.00000000      15.79506207      20.04965007      30.62522872 # O
    1033  2  0.00000000      13.71025772      22.19016412      26.31135950 # O
    1034  2  0.00000000      13.69597199      24.20703491      28.44922352 # O
    1035  2  0.00000000      15.79822658      22.12775789      28.49317859 # O
    1036  2  0.00000000      15.82152638      24.19967403      26.41157399 # O
    1037  2  0.00000000       9.50477609      26.30802920       1.04174549 # O
    1038  2  0.00000000       9.54344883      28.52748957       3.10468077 # O
    1039  2  0.00000000      11.58678391      26.38103618       3.18065726 # O
    1040  2  0.00000000      11.63097791      28.42316603       1.04785539 # O
    1041  2  0.00000000       9.44081507      30.54026761       5.27417510 # O
    1042  2  0.00000000      11.61689966      30.62893928       7.42211282 # O
    1043  2  0.00000000      13.71118001      26.34445034       5.31066771 # O
    1044  2  0.00000000      13.69203946      28.45840899       7.33906514 # O
    1045  2  0.00000000      15.81417844      28.46126650       5.31726281 # O
    1046  2  0.00000000      15.81750975      26.37924194       7.33046247 # O
    1047  2  0.00000000      13.69130476      30.60852860       1.05982904 # O
    1048  2  0.00000000      11.57539114      30.56589523      32.72935177 # O
    1049  2  0.00000000      13.71310146      28.52195013      32.74619196 # O
    1050  2  0.00000000      15.84192744      32.70651150       1.05944195 # O
    1051  2  0.00000000      15.79247432      30.58746157       3.13720771 # O
    1052  2  0.00000000       9.45225282      26.31541983       9.48926225 # O
    1053  2  0.00000000       9.52370558      28.43076425      11.60538383 # O
    1054  2  0.00000000      11.62757753      26.37291421      11.60709826 # O
    1055  2  0.00000000      11.59382626      28.46088457       9.46408092 # O
    1056  2  0.00000000       9.49340497      30.58585202      13.70174190 # O
    1057  2  0.00000000      11.63646692      30.54684394      15.87527978 # O
    1058  2  0.00000000      13.73192287      26.37850458      13.71333171 # O
    1059  2  0.00000000      13.67901185      28.52196782      15.84102276 # O
    1060  2  0.00000000      15.86084994      28.46907867      13.66828575 # O
    1061  2  0.00000000      15.82686453      26.40949982      15.83102813 # O
    1062  2  0.00000000      13.72464228      30.62308614       9.53279085 # O
    1063  2  0.00000000      15.80489444      32.65984330       9.44042873 # O
    1064  2  0.00000000      15.77327515      30.56602367      11.65234645 # O
    1065  2  0.00000000       9.48299464      26.35774108      17.91461589 # O
    1066  2  0.00000000       9.46402174      28.44654544      20.02400148 # O
    1067  2  0.00000000      11.59923748      26.37656968      20.07757877 # O
    1068  2  0.00000000      11.60514845      28.45930177      17.97287080 # O
    1069  2  0.00000000       9.54855725      30.54168977      22.15411539 # O
    1070  2  0.00000000      11.61877271      30.54443372      24.26326576 # O
    1071  2  0.00000000      13.73314101      26.38223234      22.12528001 # O
    1072  2  0.00000000      13.76654530      28.42236171      24.21884791 # O
    1073  2  0.00000000      15.84312181      28.47605822      22.08931783 # O
    1074  2  0.00000000      15.86706221      26.38950451      24.27814484 # O
    1075  2  0.00000000      13.74465694      30.57648977      17.96878616 # O
    1076  2  0.00000000      15.76285570      32.71066826      17.98282455 # O
    1077  2  0.00000000      15.87843735      30.58657766      19.99073383 # O
    1078  2  0.00000000       9.44086481      26.33592917      26.39831838 # O
    1079  2  0.00000000       9.53861269      28.44320235      28.47888957 # O
    1080  2  0.00000000      11.63602908      26.34001085      28.43871087 # O
    1081  2  0.00000000      11.58810000      28.53023811      26.39122150 # O
    1082  2  0.00000000       9.53454331      30.59180842      30.62096089 # O
    1083  2  0.00000000      13.71640052      26.40596101      30.55160918 # O
    1084  2  0.00000000      15.81069600      26.32654599      32.66748374 # O
    1085  2  0.00000000      15.83503677      28.51507268      30.56963011 # O
    1086  2  0.00000000      13.66694851      30.55117389      26.36518831 # O
    1087  2  0.00000000      15.83448598      32.64772124      26.35425426 # O
    1088  2  0.00000000      15.82647937      30.58756692      28.45771407 # O
    1089  2  0.00000000      17.95258980       1.03279358       1.01850114 # O
    1090  2  0.00000000      17.87482241      32.74784325      32.68833176 # O
    1091  2  0.00000000      17.98172657       3.13083747       3.15473596 # O
    1092  2  0.00000000      20.08253426       1.10759378       3.22117695 # O
    1093  2  0.00000000      20.06454992       3.13317228       1.02308855 # O
    1094  2  0.00000000      17.97033160       5.25663262       5.28078528 # O
    1095  2  0.00000000      20.08542847       5.27184759       7.42486425 # O
    1096  2  0.00000000      20.05336774       7.36200951       5.24330015 # O
    1097  2  0.00000000      17.94181545       7.35145075       7.42990898 # O
    1098  2  0.00000000      22.17795942       1.03535754       5.31417380 # O
    1099  2  0.00000000      19.98647856      32.67157749       5.28911580 # O
    1100  2  0.00000000      22.11367551      32.70003494       3.17078170 # O
    1101  2  0.00000000      22.19260442       3.18949657       7.43695886 # O
    1102  2  0.00000000      24.28732591       3.14064966       5.26475242 # O
    1103  2  0.00000000      24.25468352       1.04998616       7.39855813 # O
    1104  2  0.00000000      22.09412805       5.26904966       1.04735974 # O
    1105  2  0.00000000      20.02932585       5.24821585      32.63599230 # O
    1106  2  0.00000000      22.20460359       3.12918411      32.69797373 # O
    1107  2  0.00000000      22.19153729       7.37258854       3.18385696 # O
    1108  2  0.00000000      24.25624430       5.26818289       3.10498559 # O
    1109  2  0.00000000      24.29372277       7.37367657       1.02405229 # O
    1110  2  0.00000000      17.87487304       1.03214564       9.49629702 # O
    1111  2  0.00000000      17.90828843      32.73955094       7.38327109 # O
    1112  2  0.00000000      17.97688333       3.13269738      11.61924194 # O
    1113  2  0.00000000      20.08633243       1.05677124      11.57627387 # O
    1114  2  0.00000000      20.04286341       3.13388563       9.51039068 # O
    1115  2  0.00000000      17.98643829       5.28478660      13.65942389 # O
    1116  2  0.00000000      20.01341681       5.24225094      15.78778575 # O
    1117  2  0.00000000      20.09703167       7.33629580      13.65619673 # O
    1118  2  0.00000000      17.93517334       7.36656659      15.87516750 # O
    1119  2  0.00000000      22.17559116       1.09078930      13.69837427 # O
    1120  2  0.00000000      20.07372674      32.74963454      13.75309445 # O
    1121  2  0.00000000      22.12689278      32.66556708      11.54758232 # O
    1122  2  0.00000000      22.17384744       3.13247075      15.76055560 # O
    1123  2  0.00000000      24.24964520       3.13756874      13.74401898 # O
    1124  2  0.00000000      24.19889016       1.06578698      15.80238306 # O
    1125  2  0.00000000      22.16092840       5.24331018       9.44652651 # O
    1126  2  0.00000000      22.15867409       7.43251388      11.59132424 # O
    1127  2  0.00000000      24.25839421       5.28913714      11.61495884 # O
    1128  2  0.00000000      24.20052746       7.34604947       9.45081753 # O
    1129  2  0.00000000      17.94665960       1.06301587      17.98525535 # O
    1130  2  0.00000000      17.98458589      32.73158825      15.81635280 # O
    1131  2  0.00000000      17.97422514       3.13784566      20.02326048 # O
    1132  2  0.00000000      20.01573202       1.06585541      20.01163549 # O
    1133  2  0.00000000      20.08330676       3.16613888      17.98384466 # O
    1134  2  0.00000000      17.92934665       5.25533100      22.13171836 # O
    1135  2  0.00000000      20.08620938       5.27257109      24.20194451 # O
    1136  2  0.00000000      20.02849178       7.33157096      22.12955270 # O
    1137  2  0.00000000      17.92568899       7.37654550      24.28021146 # O
    1138  2  0.00000000      22.09303522       1.04267185      22.10898204 # O
    1139  2  0.00000000      20.06275597      32.65449760      22.13677163 # O
    1140  2  0.00000000      22.19389873      32.74926813      19.98147600 # O
    1141  2  0.00000000      22.15946608       3.14237984      24.21800795 # O
    1142  2  0.00000000      24.27809371       3.17961302      22.09743567 # O
    1143  2  0.00000000      24.29052091       1.09537906      24.26707273 # O
    1144  2  0.00000000      22.19499675       5.23702722      17.89817936 # O
    1145  2  0.00000000      22.12514275       7.34353696      20.00251561 # O
    1146  2  0.00000000      24.29277375       5.30412111      20.06125026 # O
    1147  2  0.00000000      24.21919312       7.38352204      17.87508728 # O
    1148  2  0.00000000      17.95828406       1.09842983      26.35556137 # O
    1149  2  0.00000000      17.91952399      32.73030340      24.29178429 # O
    1150  2  0.00000000      17.93580252       3.16622068      28.45308229 # O
    1151  2  0.00000000      20.02299392       1.01695576      28.49448527 # O
    1152  2  0.00000000      20.03660366       3.14248794      26.40600914 # O
    1153  2  0.00000000      17.90212724       5.27661847      30.58929424 # O
    1154  2  0.00000000      17.96131725       7.40715312      32.72393841 # O
    1155  2  0.00000000      20.02375929       7.37408103      30.61448617 # O
    1156  2  0.00000000      22.12800178       1.10687774      30.57556235 # O
    1157  2  0.00000000      19.98039461      32.65331472      30.62763129 # O
    1158  2  0.00000000      22.18051342      32.72169093      28.42626493 # O
    1159  2  0.00000000      24.23543311       1.03552719      32.63874889 # O
    1160  2  0.00000000      24.24716706       3.13229929      30.59391187 # O
    1161  2  0.00000000      22.09848398       5.23232247      26.33326680 # O
    1162  2  0.00000000      22.17758374       7.36224516      28.41992121 # O
    1163  2  0.00000000      24.30377449       5.24236580      28.49349000 # O
    1164  2  0.00000000      24.30283421       7.36118422      26.39067756 # O
    1165  2  0.00000000      17.91919925       9.53879966       1.05902424 # O
    1166  2  0.00000000      17.87205796      11.60370186       3.15368381 # O
    1167  2  0.00000000      19.98604354       9.53483831       3.21983728 # O
    1168  2  0.00000000      20.06510359      11.60955805       1.03988018 # O
    1169  2  0.00000000      17.88423692      13.74482439       5.32425349 # O
    1170  2  0.00000000      20.02325276      13.74332969       7.42834949 # O
    1171  2  0.00000000      20.02605928      15.84623910       5.32135440 # O
    1172  2  0.00000000      17.92806548      15.83506414       7.40395116 # O
    1173  2  0.00000000      22.09275109       9.54996352       5.23619989 # O
    1174  2  0.00000000      22.09895787      11.54277246       7.40589269 # O
    1175  2  0.00000000      24.24893122      11.58183627       5.31105499 # O
    1176  2  0.00000000      24.28815447       9.53125562       7.35384488 # O
    1177  2  0.00000000      22.11801807      13.74200375       1.00771505 # O
    1178  2  0.00000000      20.07535128      13.73500860      32.70669150 # O
    1179  2  0.00000000      22.09443963      11.60451578      32.67923153 # O
    1180  2  0.00000000      22.08924620      15.85202091       3.10919607 # O
    1181  2  0.00000000      24.22161910      13.73790001       3.18072973 # O
    1182  2  0.00000000      24.27457549      15.84211321       1.03953264 # O
    1183  2  0.00000000      17.90297380       9.51525387       9.50413874 # O
    1184  2  0.00000000      17.98249797      11.57460592      11.59150135 # O
    1185  2  0.00000000      20.09564199       9.54156210      11.59869028 # O
    1186  2  0.00000000      20.03219885      11.59597611       9.50491269 # O
    1187  2  0.00000000      17.91069844      13.71852343      13.68856255 # O
    1188  2  0.00000000      19.99125301      13.69837737      15.81105955 # O
    1189  2  0.00000000      19.99274787      15.81991124      13.66807380 # O
    1190  2  0.00000000      17.89594540      15.86906252      15.76715466 # O
    1191  2  0.00000000      22.12913791       9.48921986      13.68868466 # O
    1192  2  0.00000000      22.13742314      11.55294313      15.83667511 # O
    1193  2  0.00000000      24.24690987      11.58305186      13.74474561 # O
    1194  2  0.00000000      24.30396324       9.54832318      15.79359269 # O
    1195  2  0.00000000      22.14066948      13.72060735       9.45577742 # O
    1196  2  0.00000000      22.19110944      15.77546644      11.63750179 # O
    1197  2  0.00000000      24.23452602      13.69092019      11.54706236 # O
    1198  2  0.00000000      24.29369012      15.77296637       9.53816557 # O
    1199  2  0.00000000      17.92543212       9.49158959      17.94600098 # O
    1200  2  0.00000000      17.94311735      11.64658824      20.02883024 # O
    1201  2  0.00000000      20.03526133       9.53432011      19.97907760 # O
    1202  2  0.00000000      20.08012065      11.58791949      17.92771760 # O
    1203  2  0.00000000      17.89780287      13.75994620      22.20644998 # O
    1204  2  0.00000000      20.00049548      13.66773722      24.30023764 # O
    1205  2  0.00000000      19.99991758      15.83419798      22.15267563 # O
    1206  2  0.00000000      17.95942870      15.78895754      24.29981546 # O
    1207  2  0.00000000      22.12568985       9.46718099      22.08868710 # O
    1208  2  0.00000000      22.19235906      11.58617459      24.20860944 # O
    1209  2  0.00000000      24.28146880      11.56543418      22.17579513 # O
    1210  2  0.00000000      24.24680662       9.49134546      24.30298558 # O
    1211  2  0.00000000      22.16430045      13.66312656      17.94387293 # O
    1212  2  0.00000000      22.19231796      15.84603238      19.98416804 # O
    1213  2  0.00000000      24.27300774      13.67674672      20.00077245 # O
    1214  2  0.00000000      24.20325311      15.82063954      17.87296580 # O
    1215  2  0.00000000      17.98344781       9.43375792      26.34229293 # O
    1216  2  0.00000000      17.90335764      11.57579127      28.51578775 # O
    1217  2  0.00000000      19.99708420       9.52646634      28.46027224 # O
    1218  2  0.00000000      19.98328358      11.65694489      26.39120504 # O
    1219  2  0.00000000      17.87045558      13.73797065      30.54155708 # O
    1220  2  0.00000000      17.96226007      15.83399022      32.64252295 # O
    1221  2  0.00000000      20.00662969      15.86054490      30.60123921 # O
    1222  2  0.00000000      22.14066953       9.50291644      30.56710228 # O
    1223  2  0.00000000      24.31256488       9.43453778      32.73306816 # O
    1224  2  0.00000000      24.27606801      11.63615505      30.57786469 # O
    1225  2  0.00000000      22.12332857      13.70301911      26.41080474 # O
    1226  2  0.00000000      22.20349897      15.83412443      28.50433658 # O
    1227  2  0.00000000      24.28517348      13.73256894      28.46781145 # O
    1228  2  0.00000000      24.24818009      15.78953686      26.41244615 # O
    1229  2  0.00000000      17.97524255      17.98215574       1.04771710 # O
    1230  2  0.00000000      17.96165559      20.01966513       3.12475946 # O
    1231  2  0.00000000      20.08136212      17.97957315       3.19962002 # O
    1232  2  0.00000000      20.02154258      20.04252255       1.10606136 # O
    1233  2  0.00000000      17.89208347      22.18241935       5.27993949 # O
    1234  2  0.00000000      20.07294297      22.20192721       7.36339214 # O
    1235  2  0.00000000      20.04039480      24.29315856       5.27046339 # O
    1236  2  0.00000000      17.93566257      24.21093625       7.42432489 # O
    1237  2  0.00000000      22.12588516      17.98229162       5.21794222 # O
    1238  2  0.00000000      22.11495888      20.01667173       7.36822598 # O
    1239  2  0.00000000      24.22019982      20.05610201       5.32956919 # O
    1240  2  0.00000000      24.24484287      17.97152131       7.33562231 # O
    1241  2  0.00000000      22.18540723      22.15549822       1.10736913 # O
    1242  2  0.00000000      20.09617256      22.12837574      32.70323466 # O
    1243  2  0.00000000      22.19948373      19.99432872      32.70805474 # O
    1244  2  0.00000000      22.11843439      24.30120056       3.19813287 # O
    1245  2  0.00000000      24.30045026      22.13653848       3.16324495 # O
    1246  2  0.00000000      24.20800990      24.24446969       1.01492282 # O
    1247  2  0.00000000      17.89877005      17.87745267       9.45824559 # O
    1248  2  0.00000000      17.87999628      20.04883756      11.59883543 # O
    1249  2  0.00000000      20.06702229      17.95587951      11.59371814 # O
    1250  2  0.00000000      19.98837364      19.98400986       9.47967003 # O
    1251  2  0.00000000      17.89585865      22.19656042      13.66701571 # O
    1252  2  0.00000000      20.03806930      22.16537775      15.85842813 # O
    1253  2  0.00000000      20.00916052      24.22270217      13.68446120 # O
    1254  2  0.00000000      17.94843271      24.24200539      15.77934439 # O
    1255  2  0.00000000      22.18903175      17.98134873      13.65144236 # O
    1256  2  0.00000000      22.10289752      19.98017902      15.83098052 # O
    1257  2  0.00000000      24.22267934      20.00297429      13.76806299 # O
    1258  2  0.00000000      24.22877916      17.89049078      15.77344099 # O
    1259  2  0.00000000      22.17057407      22.15333396       9.43173548 # O
    1260  2  0.00000000      22.11509455      24.26918997      11.65076837 # O
    1261  2  0.00000000      24.19948935      22.19884949      11.58714315 # O
    1262  2  0.00000000      24.30390746      24.21491546       9.51620161 # O
    1263  2  0.00000000      17.91856983      17.91350052      17.92489876 # O
    1264  2  0.00000000      17.94617451      20.09544871      20.02050768 # O
    1265  2  0.00000000      20.03341843      17.98351775      20.03793548 # O
    1266  2  0.00000000      20.08384858      20.04176881      17.95131605 # O
    1267  2  0.00000000      17.97773792      22.19864660      22.20272309 # O
    1268  2  0.00000000      19.99421725      22.15417267      24.29077434 # O
    1269  2  0.00000000      20.06068143      24.21598019      22.10815909 # O
    1270  2  0.00000000      17.87843510      24.27802544      24.28484363 # O
    1271  2  0.00000000      22.16186419      17.87354136      22.19064939 # O
    1272  2  0.00000000      22.14875487      20.05628412      24.20421506 # O
    1273  2  0.00000000      24.24433776      20.09193081      22.20227079 # O
    1274  2  0.00000000      24.23912268      17.89298790      24.28227208 # O
    1275  2  0.00000000      22.15913961      22.11118932      17.91142605 # O
    1276  2  0.00000000      22.12098534      24.24227089      20.04673369 # O
    1277  2  0.00000000      24.23005130      22.10682422      20.06142912 # O
    1278  2  0.00000000      24.22342254      24.30958317      17.92072076 # O
    1279  2  0.00000000      17.91145071      17.98084013      26.32857289 # O
    1280  2  0.00000000      17.87372305      20.03235114      28.50665614 # O
    1281  2  0.00000000      20.06050698      17.97162699      28.53078958 # O
    1282  2  0.00000000      19.98840372      20.08050444      26.39507561 # O
    1283  2  0.00000000      17.90548298      22.14745954      30.64232127 # O
    1284  2  0.00000000      17.89547807      24.22207148      32.69104703 # O
    1285  2  0.00000000      19.99978681      24.21169857      30.54363625 # O
    1286  2  0.00000000      22.14979494      17.91569827      30.54261225 # O
    1287  2  0.00000000      24.21122190      17.88988321      32.64130024 # O
    1288  2  0.00000000      24.24402335      20.00529254      30.61241108 # O
    1289  2  0.00000000      22.19999442      22.19930494      26.35473589 # O
    1290  2  0.00000000      22.19445144      24.26927436      28.52290550 # O
    1291  2  0.00000000      24.20344136      22.14219813      28.49882400 # O
    1292  2  0.00000000      24.22735564      24.22295658      26.37103806 # O
    1293  2  0.00000000      17.93080189      26.34016607       1.07663342 # O
    1294  2  0.00000000      17.93937089      28.51485007       3.19747981 # O
    1295  2  0.00000000      19.98978587      26.33774066       3.19117164 # O
    1296  2  0.00000000      20.08532169      28.52608335       1.10650364 # O
    1297  2  0.00000000      17.98380121      30.63376911       5.32951365 # O
    1298  2  0.00000000      20.00329123      30.53688606       7.34853293 # O
    1299  2  0.00000000      22.10925442      26.35829814       5.31306523 # O
    1300  2  0.00000000      22.17493928      28.45288765       7.40366422 # O
    1301  2  0.00000000      24.29499013      28.47149521       5.31424627 # O
    1302  2  0.00000000      24.20264404      26.40868282       7.43699242 # O
    1303  2  0.00000000      22.20606004      30.58996343       1.05714914 # O
    1304  2  0.00000000      20.06682982      30.59427115      32.65030662 # O
    1305  2  0.00000000      22.17674854      28.50584828      32.68626137 # O
    1306  2  0.00000000      24.22084657      32.73930706       1.07927948 # O
    1307  2  0.00000000      24.23109729      30.57443816       3.21607054 # O
    1308  2  0.00000000      17.97735423      26.33437413       9.43289001 # O
    1309  2  0.00000000      17.87387441      28.46570724      11.64909692 # O
    1310  2  0.00000000      20.05641101      26.34060916      11.62640975 # O
    1311  2  0.00000000      20.09016538      28.52551296       9.43666897 # O
    1312  2  0.00000000      17.90891676      30.60168739      13.69926545 # O
    1313  2  0.00000000      20.01072185      30.58656704      15.84045548 # O
    1314  2  0.00000000      22.19108272      26.37981284      13.75415116 # O
    1315  2  0.00000000      22.18428756      28.52064995      15.85337256 # O
    1316  2  0.00000000      24.21169291      28.50532372      13.69283978 # O
    1317  2  0.00000000      24.25052303      26.33683935      15.86573803 # O
    1318  2  0.00000000      22.10997508      30.58495589       9.49399556 # O
    1319  2  0.00000000      24.30693963      32.74339265       9.49000015 # O
    1320  2  0.00000000      24.21516694      30.62922010      11.59135912 # O
    1321  2  0.00000000      17.89340743      26.37527317      17.92505031 # O
    1322  2  0.00000000      17.98670027      28.49762376      20.08803255 # O
    1323  2  0.00000000      19.99926717      26.38911077      20.03723197 # O
    1324  2  0.00000000      20.05870348      28.42956484      17.93387520 # O
    1325  2  0.00000000      17.88359353      30.53813030      22.19254034 # O
    1326  2  0.00000000      20.03521782      30.61584763      24.24753641 # O
    1327  2  0.00000000      22.13874107      26.33231300      22.12703937 # O
    1328  2  0.00000000      22.14926181      28.43852552      24.25475858 # O
    1329  2  0.00000000      24.22546495      28.47173774      22.15463366 # O
    1330  2  0.00000000      24.20009361      26.39723309      24.24811123 # O
    1331  2  0.00000000      22.14131104      30.54153013      17.87079987 # O
    1332  2  0.00000000      24.28766974      32.68702649      17.93163591 # O
    1333  2  0.00000000      24.29098587      30.59991241      20.01123083 # O
    1334  2  0.00000000      17.98075144      26.41018880      26.30799766 # O
    1335  2  0.00000000      17.95455739      28.50515438      28.49942415 # O
    1336  2  0.00000000      20.03777400      26.32835369      28.41815184 # O
    1337  2  0.00000000      20.00203972      28.51634858      26.32736718 # O
    1338  2  0.00000000      17.92843900      30.58458707      30.58948962 # O
    1339  2  0.00000000      22.13319786      26.30575608      30.62028786 # O
    1340  2  0.00000000      24.25855021      26.41364058      32.75302133 # O
    1341  2  0.00000000      24.30903911      28.48173614      30.53093470 # O
    1342  2  0.00000000      22.12972569      30.58170773      26.33958744 # O
    1343  2  0.00000000      24.23292396      32.72907892      26.32558984 # O
    1344  2  0.00000000      24.28470456      30.64397024      28.48270588 # O
    1345  2  0.00000000      26.38015661       1.02027006       1.10724319 # O
    1346  2  0.00000000      26.36470373      32.66759644      32.73780477 # O
    1347  2  0.00000000      26.39411508       3.21031696       3.17568680 # O
    1348  2  0.00000000      28.52198315       1.03071933       3.12440685 # O
    1349  2  0.00000000      28.51644502       3.10574640       1.01242451 # O
    1350  2  0.00000000      26.36915130       5.21493359       5.28266309 # O
    1351  2  0.00000000      28.44458847       5.26464912       7.35771996 # O
    1352  2  0.00000000      28.46115667       7.35295561       5.27333031 # O
    1353  2  0.00000000      26.33000127       7.43116892       7.35257124 # O
    1354  2  0.00000000      30.61009085       1.11456429       5.22335372 # O
    1355  2  0.00000000      28.52481411      32.68273939       5.30496785 # O
    1356  2  0.00000000      30.53069747      32.66937486       3.20452289 # O
    1357  2  0.00000000      30.59611607       3.16458692       7.40442187 # O
    1358  2  0.00000000      30.62954672       5.29686991       1.10958826 # O
    1359  2  0.00000000      28.47258878       5.27962443      32.68228097 # O
    1360  2  0.00000000      30.59052721       3.16572832      32.68382040 # O
    1361  2  0.00000000      30.53426085       7.40687331       3.12597317 # O
    1362  2  0.00000000      26.34998334       1.08566926       9.49829489 # O
    1363  2  0.00000000      26.38969727      32.64148913       7.41933941 # O
    1364  2  0.00000000      26.35835536       3.22301126      11.57387771 # O
    1365  2  0.00000000      28.50237930       1.01926459      11.59618675 # O
    1366  2  0.00000000      28.51256559       3.13856463       9.52584238 # O
    1367  2  0.00000000      26.39706782       5.30482001      13.68172419 # O
    1368  2  0.00000000      28.53092080       5.29624765      15.87224924 # O
    1369  2  0.00000000      28.44703568       7.38400381      13.68881515 # O
    1370  2  0.00000000      26.42425852       7.40290022      15.85050711 # O
    1371  2  0.00000000      30.62271736       1.03055653      13.75607456 # O
    1372  2  0.00000000      28.47699275      32.75089757      13.69487728 # O
    1373  2  0.00000000      30.55447704      32.63640256      11.59819443 # O
    1374  2  0.00000000      30.53143875       3.17684578      15.82946938 # O
    1375  2  0.00000000      30.56807557       5.32840228       9.47901907 # O
    1376  2  0.00000000      30.60465041       7.33785185      11.55236060 # O
    1377  2  0.00000000      26.31362385       1.01322695      17.91584692 # O
    1378  2  0.00000000      26.35941762      32.71484502      15.87868278 # O
    1379  2  0.00000000      26.34244326       3.18213838      20.01619852 # O
    1380  2  0.00000000      28.47279419       1.09041080      19.98802351 # O
    1381  2  0.00000000      28.50488677       3.15955186      17.92763435 # O
    1382  2  0.00000000      26.35348718       5.30588124      22.16452125 # O
    1383  2  0.00000000      28.44800960       5.30293147      24.29360455 # O
    1384  2  0.00000000      28.47560030       7.35737283      22.18151306 # O
    1385  2  0.00000000      26.40502671       7.35133146      24.23268574 # O
    1386  2  0.00000000      30.60660036       1.00788073      22.11886105 # O
    1387  2  0.00000000      28.51647906      32.64914738      22.20079381 # O
    1388  2  0.00000000      30.55774971      32.70375628      20.05623291 # O
    1389  2  0.00000000      30.62953721       3.20789518      24.21225440 # O
    1390  2  0.00000000      30.56322366       5.21952999      17.90550479 # O
    1391  2  0.00000000      30.55196832       7.38930265      20.03392065 # O
    1392  2  0.00000000      26.32898061       1.07654404      26.39009777 # O
    1393  2  0.00000000      26.35129266      32.71141413      24.29826412 # O
    1394  2  0.00000000      26.33730657       3.14368298      28.52642273 # O
    1395  2  0.00000000      28.52641915       1.04261066      28.44457735 # O
    1396  2  0.00000000      28.43012969       3.17033453      26.32822505 # O
    1397  2  0.00000000      26.36753815       5.31800833      30.64364600 # O
    1398  2  0.00000000      26.40487513       7.41040572      32.68099126 # O
    1399  2  0.00000000      28.51421269       7.37802438      30.59328478 # O
    1400  2  0.00000000      30.55008961       1.01137210      30.61782301 # O
    1401  2  0.00000000      28.51991105      32.66863998      30.54494958 # O
    1402  2  0.00000000      30.56244170      32.70110624      28.52716977 # O
    1403  2  0.00000000      30.55214985       5.28419357      26.34502387 # O
    1404  2  0.00000000      30.57911406       7.40844785      28.45510024 # O
    1405  2  0.00000000      26.32272166       9.43852908       1.00442806 # O
    1406  2  0.00000000      26.36972348      11.58089065       3.19535528 # O
    1407  2  0.00000000      28.51051424       9.47984705       3.19563457 # O
    1408  2  0.00000000      28.43572141      11.62370099       0.99508942 # O
    1409  2  0.00000000      26.34600742      13.71178112       5.33269262 # O
    1410  2  0.00000000      28.44460362      13.69815083       7.37961997 # O
    1411  2  0.00000000      28.44507579      15.76161026       5.29536420 # O
    1412  2  0.00000000      26.36927147      15.79565176       7.32383340 # O
    1413  2  0.00000000      30.53699390       9.48812346       5.25338679 # O
    1414  2  0.00000000      30.61867937      11.59717483       7.41957650 # O
    1415  2  0.00000000      30.60165997      13.77001454       1.07166258 # O
    1416  2  0.00000000      28.48505860      13.75688733      32.71196793 # O
    1417  2  0.00000000      30.57474610      11.60880761      32.66062041 # O
    1418  2  0.00000000      30.55427354      15.82583974       3.21178262 # O
    1419  2  0.00000000      26.42342754       9.50652575       9.45438017 # O
    1420  2  0.00000000      26.37472893      11.54474299      11.65444892 # O
    1421  2  0.00000000      28.43188733       9.48616933      11.57202452 # O
    1422  2  0.00000000      28.53156104      11.59681832       9.53926368 # O
    1423  2  0.00000000      26.40743131      13.69872487      13.70944215 # O
    1424  2  0.00000000      28.42529863      13.74652944      15.84174024 # O
    1425  2  0.00000000      28.53070730      15.82529229      13.68247304 # O
    1426  2  0.00000000      26.34263201      15.78282114      15.81379836 # O
    1427  2  0.00000000      30.55682281       9.49903783      13.75622464 # O
    1428  2  0.00000000      30.63371652      11.64937683      15.77605564 # O
    1429  2  0.00000000      30.63946523      13.72616207       9.52447917 # O
    1430  2  0.00000000      30.56376279      15.87380053      11.64109133 # O
    1431  2  0.00000000      26.37585745       9.54304663      17.87660336 # O
    1432  2  0.00000000      26.38828180      11.63359072      19.98633577 # O
    1433  2  0.00000000      28.47815144       9.43953878      20.03241986 # O
    1434  2  0.00000000      28.41582548      11.64455597      17.91584714 # O
    1435  2  0.00000000      26.36696766      13.68836465      22.19632203 # O
    1436  2  0.00000000      28.46027795      13.72274461      24.29571333 # O
    1437  2  0.00000000      28.51335819      15.77695641      22.15777515 # O
    1438  2  0.00000000      26.35898762      15.80546795      24.29933248 # O
    1439  2  0.00000000      30.61715279       9.49864308      22.09689694 # O
    1440  2  0.00000000      30.57168383      11.62948589      24.28342251 # O
    1441  2  0.00000000      30.59907171      13.74566180      17.97687357 # O
    1442  2  0.00000000      30.56983539      15.87917827      19.98304779 # O
    1443  2  0.00000000      26.41097528       9.49529844      26.40561566 # O
    1444  2  0.00000000      26.36144959      11.63549049      28.48413123 # O
    1445  2  0.00000000      28.43366983       9.49931634      28.49889690 # O
    1446  2  0.00000000      28.47880682      11.62015276      26.32026763 # O
    1447  2  0.00000000      26.38694361      13.74535152      30.64266139 # O
    1448  2  0.00000000      26.32810684      15.76893276      32.73897496 # O
    1449  2  0.00000000      28.44579745      15.85953216      30.57819716 # O
    1450  2  0.00000000      30.53884839       9.53345193      30.61682645 # O
    1451  2  0.00000000      30.57872492      13.69792736      26.35562644 # O
    1452  2  0.00000000      30.52438327      15.85230065      28.53383902 # O
    1453  2  0.00000000      26.32510003      17.94964819       1.08657070 # O
    1454  2  0.00000000      26.41896115      20.01135603       3.18393259 # O
    1455  2  0.00000000      28.46794228      17.91525069       3.13880841 # O
    1456  2  0.00000000      28.47156708      20.02834424       1.05033209 # O
    1457  2  0.00000000      26.35290024      22.19267539       5.24277622 # O
    1458  2  0.00000000      28.42398124      22.20700691       7.36382399 # O
    1459  2  0.00000000      28.51494901      24.25465303       5.24181487 # O
    1460  2  0.00000000      26.30692904      24.22991681       7.35229710 # O
    1461  2  0.00000000      30.59944261      17.87278072       5.27067565 # O
    1462  2  0.00000000      30.54649206      20.05767485       7.36778378 # O
    1463  2  0.00000000      30.58568552      22.20638951       1.10322715 # O
    1464  2  0.00000000      28.48477793      22.13226499      32.65047527 # O
    1465  2  0.00000000      30.54196166      20.00927979      32.70340930 # O
    1466  2  0.00000000      30.63904057      24.19765057       3.21365743 # O
    1467  2  0.00000000      26.31622905      17.90753019       9.51496081 # O
    1468  2  0.00000000      26.41102385      20.05069643      11.54489655 # O
    1469  2  0.00000000      28.45527385      17.93012097      11.65816320 # O
    1470  2  0.00000000      28.44435364      20.05090926       9.51852021 # O
    1471  2  0.00000000      26.41607781      22.13747317      13.68302681 # O
    1472  2  0.00000000      28.48055394      22.18903613      15.87081850 # O
    1473  2  0.00000000      28.49744867      24.28360093      13.68490088 # O
    1474  2  0.00000000      26.35202445      24.27815111      15.79954677 # O
    1475  2  0.00000000      30.56062440      17.89333952      13.70308173 # O
    1476  2  0.00000000      30.57667741      20.09324682      15.82799328 # O
    1477  2  0.00000000      30.55680972      22.13354539       9.47876766 # O
    1478  2  0.00000000      30.57328057      24.30715477      11.61237679 # O
    1479  2  0.00000000      26.30939741      17.89260603      17.95284885 # O
    1480  2  0.00000000      26.31449153      20.06654077      19.99563234 # O
    1481  2  0.00000000      28.48848036      17.97424809      20.03180511 # O
    1482  2  0.00000000      28.47175057      19.98665685      17.89421958 # O
    1483  2  0.00000000      26.41204421      22.12443476      22.13542755 # O
    1484  2  0.00000000      28.42496719      22.15968787      24.26022331 # O
    1485  2  0.00000000      28.51929122      24.30340455      22.12522906 # O
    1486  2  0.00000000      26.36681999      24.25209381      24.26866536 # O
    1487  2  0.00000000      30.56389311      17.98537027      22.11401414 # O
    1488  2  0.00000000      30.57591262      20.05155152      24.22497505 # O
    1489  2  0.00000000      30.53017405      22.16834241      17.98099869 # O
    1490  2  0.00000000      30.55860784      24.27433507      20.06948293 # O
    1491  2  0.00000000      26.31865551      17.88777843      26.42414799 # O
    1492  2  0.00000000      26.36881937      20.01408677      28.49680529 # O
    1493  2  0.00000000      28.48139657      17.92268252      28.46708899 # O
    1494  2  0.00000000      28.49792316      19.98933727      26.30922907 # O
    1495  2  0.00000000      26.33047488      22.16436787      30.52515910 # O
    1496  2  0.00000000      26.34832033      24.29926608      32.70604612 # O
    1497  2  0.00000000      28.50840437      24.28924956      30.57236129 # O
    1498  2  0.00000000      30.53483294      17.93674034      30.61841217 # O
    1499  2  0.00000000      30.61702759      22.18215530      26.39096944 # O
    1500  2  0.00000000      30.60595758      24.21988266      28.42120712 # O
    1501  2  0.00000000      26.42431055      26.38475500       1.11425338 # O
    1502  2  0.00000000      26.35706452      28.49696804       3.19645463 # O
    1503  2  0.00000000      28.44489014      26.33820822       3.13105465 # O
    1504  2  0.00000000      28.50221044      28.49129466       1.05677569 # O
    1505  2  0.00000000      26.37536880      30.54876297       5.27965784 # O
    1506  2  0.00000000      28.52364206      30.63569767       7.41615638 # O
    1507  2  0.00000000      30.58527842      26.40425012       5.25529482 # O
    1508  2  0.00000000      30.58176233      28.52674998       7.43970405 # O
    1509  2  0.00000000      30.61509199      30.53295137       1.03925867 # O
    1510  2  0.00000000      28.45240616      30.59402871      32.65074380 # O
    1511  2  0.00000000      30.61652185      28.45392305      32.70033421 # O
    1512  2  0.00000000      26.32703070      26.32147947       9.43851586 # O
    1513  2  0.00000000      26.32913342      28.50670082      11.59403000 # O
    1514  2  0.00000000      28.52148058      26.37739264      11.64825526 # O
    1515  2  0.00000000      28.51701488      28.47594527       9.51731085 # O
    1516  2  0.00000000      26.39496853      30.62428955      13.68901929 # O
    1517  2  0.00000000      28.41792813      30.53946310      15.82148172 # O
    1518  2  0.00000000      30.60716076      26.40536012      13.68462943 # O
    1519  2  0.00000000      30.56015336      28.44974271      15.82298395 # O
    1520  2  0.00000000      30.57983910      30.56060751       9.51532289 # O
    1521  2  0.00000000      26.41747498      26.30669965      17.90675909 # O
    1522  2  0.00000000      26.39075008      28.48397744      20.05126633 # O
    1523  2  0.00000000      28.47872205      26.31907202      20.04864393 # O
    1524  2  0.00000000      28.53059944      28.50474010      17.88795509 # O
    1525  2  0.00000000      26.32396902      30.52990402      22.14941339 # O
    1526  2  0.00000000      28.50559263      30.55135193      24.25035327 # O
    1527  2  0.00000000      30.64153912      26.41074754      22.18788307 # O
    1528  2  0.00000000      30.53769730      28.45975381      24.21780449 # O
    1529  2  0.00000000      30.53049942      30.56778799      17.91666910 # O
    1530  2  0.00000000      26.38498023      26.36680232      26.32995371 # O
    1531  2  0.00000000      26.41080931      28.43310168      28.50453097 # O
    1532  2  0.00000000      28.46772566      26.40387097      28.51865710 # O
    1533  2  0.00000000      28.42433574      28.44629677      26.42080474 # O
    1534  2  0.00000000      26.38811575      30.59038159      30.53828026 # O
    1535  2  0.00000000      30.58179458      26.35837877      30.60372581 # O
    1536  2  0.00000000      30.53023347      30.57150160      26.35129960 # O
    1537  2  0.00000000       5.48895982      24.75710203       1.08413448 # O
    1538  2  0.00000000      26.38448526      32.43422491      30.04745132 # O
    1539  2  0.00000000      27.36587621      33.40615986       3.20019032 # O
    1540  2  0.00000000      31.96414085      11.44602145       3.14763258 # O
    1541  2  0.00000000       2.79651678       2.75163476      13.35288411 # O
    1542  2  0.00000000      29.71545213      30.68717729       6.49531102 # O
    1543  2  0.00000000      12.89668965      23.68000219      15.79894013 # O
    1544  2  0.00000000      29.46258363      30.08253401      12.28430434 # O
    1545  2  0.00000000      20.51082528       9.31879745      16.59827979 # O
    1546  2  0.00000000      30.57207323      21.70585022       4.17582264 # O
    1547  2  0.00000000      19.06691106       1.28503218      17.08143169 # O
    1548  2  0.00000000      30.34918798      14.13717741      14.47445832 # O
    1549  2  0.00000000      24.33859032      18.13799810       9.76769181 # O
    1550  2  0.00000000      12.34295868      13.09639544      31.64399898 # O
    1551  2  0.00000000      13.81591484      23.97611972      17.87846683 # O
    1552  2  0.00000000      25.19936362      12.59930746      25.34459451 # O
    1553  2  0.00000000      29.09199662      14.81578404       6.94712895 # O
    1554  2  0.00000000      10.88567877      22.02666827      26.30802531 # O
    1555  2  0.00000000      29.72182202      31.26392954       4.32753564 # O
    1556  2  0.00000000      25.73942315      25.04877962       2.52255625 # O
    1557  2  0.00000000      26.22113643       6.77502172       0.24223057 # O
    1558  2  0.00000000       3.76614250      20.92294320      14.12910030 # O
    1559  2  0.00000000      10.55569235       0.05815636      14.98795975 # O
    1560  2  0.00000000      30.65486714      29.13791831      10.03218319 # O
    1561  2  0.00000000      18.53005260      24.61161395      10.03657644 # O
    1562  2  0.00000000       4.12664518       3.15054462       5.64648726 # O
    1563  2  0.00000000      14.54685407      10.41220512      20.32708733 # O
    1564  2  0.00000000      23.07699308      10.68395315       0.41400204 # O
    1565  2  0.00000000      31.97573128       0.76416264      26.00978416 # O
    1566  2  0.00000000       5.62495347      15.94293404      26.42140205 # O
    1567  2  0.00000000      32.31554644      22.18930001      33.68859898 # O
    1568  2  0.00000000       3.64292318      17.19264171      23.11753533 # O
    1569  2  0.00000000      22.59670534       8.22295151       7.52001489 # O
    1570  2  0.00000000      21.16974048      13.14172878      30.74891570 # O
    1571  2  0.00000000       6.93934883       2.06948984       1.93209807 # O
    1572  2  0.00000000      17.28945716      30.00110594      17.33419858 # O
    1573  2  0.00000000      28.18845214      10.50720408       7.61133015 # O
    1574  2  0.00000000      13.01559639      33.38126090      26.21919157 # O
    1575  2  0.00000000      24.04668139      27.95658039       7.49040570 # O
    1576  2  0.00000000       8.95069849      28.44419582      17.07375457 # O
    1577  2  0.00000000       4.36851592      19.11920571       2.22156895 # O
    1578  2  0.00000000      19.82776497       5.96196298      19.71506725 # O
    1579  2  0.00000000       0.88944127      26.19888567       3.80294676 # O
    1580  2  0.00000000       6.33323018      10.71668365      21.19850323 # O
    1581  2  0.00000000      32.97611526      27.16680407      25.34649594 # O
    1582  2  0.00000000      33.31083481      28.99778342      10.33087217 # O
    1583  2  0.00000000       4.42432825       9.97618080      18.40164998 # O
    1584  2  0.00000000       0.92996397       9.58138874      15.40522752 # O
    1585  2  0.00000000      21.36813043       7.92622133      16.76812466 # O
    1586  2  0.00000000       7.11828964      33.02375642       4.38992148 # O
    1587  2  0.00000000      19.95576646      12.25204595      23.96657417 # O
    1588  2  0.00000000      13.16951317      19.85008957      21.07634656 # O
    1589  2  0.00000000      11.53874447      15.75775469      32.66865924 # O
    1590  2  0.00000000      15.95058949      19.39595946       8.46320114 # O
    1591  2  0.00000000      32.74397758      14.21942742      24.14743126 # O
    1592  2  0.00000000      31.49039514       7.37999925      14.77534336 # O
    1593  2  0.00000000       1.05675943      30.94456135      18.74634477 # O
    1594  2  0.00000000      11.85340859       1.66297515       4.37947730 # O
    1595  2  0.00000000       7.55513201       3.60593670      11.48777823 # O
    1596  2  0.00000000      12.05068214      16.55353141       0.38441870 # O
    1597  2  0.00000000      25.21001578      23.33785838      23.28366172 # O
    1598  2  0.00000000       2.31065399      10.59218225       3.93590910 # O
    1599  2  0.00000000      24.78804169      24.65306216      20.37658994 # O
    1600  2  0.00000000      23.95318179       4.40375262      25.11716575 # O
    1601  3  0.00000000       5.44774894      24.31921963       1.93745778 # H
    1602  3  0.00000000       6.37096569      24.56468168       0.75757658 # H
    1603  3  0.00000000      25.43729890      32.43195025      30.20376134 # H
    1604  3  0.00000000      26.48368645      32.06475840      29.16696644 # H
    1605  3  0.00000000      26.89614223       0.33459492       3.69353157 # H
    1606  3  0.00000000      27.02618916      32.57731419       3.54548378 # H
    1607  3  0.00000000      32.25212698      12.08876861       3.79996691 # H
    1608  3  0.00000000      31.44804853      11.95614014       2.51912033 # H
    1609  3  0.00000000       2.82513507       1.94359634      13.87043113 # H
    1610  3  0.00000000       1.94596540       3.14297371      13.56505426 # H
    1611  3  0.00000000      28.90213393      31.19693544       6.47918196 # H
    1612  3  0.00000000      29.45951235      29.81627383       6.18286583 # H
    1613  3  0.00000000      12.95214729      23.26874325      16.66461359 # H
    1614  3  0.00000000      13.08814591      24.60675797      15.96039671 # H
    1615  3  0.00000000      29.87557470      29.24615947      12.51127571 # H
    1616  3  0.00000000      30.19639320      30.66103004      12.06415470 # H
    1617  3  0.00000000      19.86228736       9.96734902      16.88179245 # H
    1618  3  0.00000000      21.10946087       9.23557578      17.34414142 # H
    1619  3  0.00000000      31.50616174      21.59226581       3.98561948 # H
    1620  3  0.00000000      30.15187568      21.72675855       3.31292238 # H
    1621  3  0.00000000      19.27017257       1.80507509      16.30050908 # H
    1622  3  0.00000000      19.32556683       0.39037092      16.84845436 # H
    1623  3  0.00000000      29.85641455      13.98160675      13.66540201 # H
    1624  3  0.00000000      29.74607630      14.63497098      15.03128673 # H
    1625  3  0.00000000      25.11881243      17.98692955       9.22914584 # H
    1626  3  0.00000000      23.81135810      17.34366808       9.65514852 # H
    1627  3  0.00000000      12.55997337      13.17875766      32.57551446 # H
    1628  3  0.00000000      13.15376836      12.78522284      31.23490330 # H
    1629  3  0.00000000      14.06629024      23.62115434      18.73456948 # H
    1630  3  0.00000000      14.36539166      23.50065059      17.25108789 # H
    1631  3  0.00000000      25.89045302      12.25025618      24.77700430 # H
    1632  3  0.00000000      24.86822027      11.83325187      25.81904462 # H
    1633  3  0.00000000      28.57522148      14.36471713       6.27550249 # H
    1634  3  0.00000000      28.57255603      14.72756451       7.74962430 # H
    1635  3  0.00000000      10.05634280      22.46230320      26.51784441 # H
    1636  3  0.00000000      10.76116615      21.68850370      25.41822684 # H
    1637  3  0.00000000      29.56654881      32.06413423       4.83464775 # H
    1638  3  0.00000000      29.29504948      31.42773208       3.48335916 # H
    1639  3  0.00000000      26.40702892      24.68421976       3.10821711 # H
    1640  3  0.00000000      26.20707515      25.70993845       2.00702682 # H
    1641  3  0.00000000      25.70291854       6.88631549      33.18981573 # H
    1642  3  0.00000000      26.96900692       6.23740563      33.71956720 # H
    1643  3  0.00000000       3.43366288      20.38874625      14.85414576 # H
    1644  3  0.00000000       4.44828302      21.46935751      14.52623467 # H
    1645  3  0.00000000      10.50695123       0.65945395      14.24118970 # H
    1646  3  0.00000000      11.06953627       0.53269320      15.64551524 # H
    1647  3  0.00000000      30.28540451      29.95890207      10.36547441 # H
    1648  3  0.00000000      30.20306083      28.45185453      10.52896035 # H
    1649  3  0.00000000      17.81814269      25.03892131       9.55471267 # H
    1650  3  0.00000000      19.31840776      24.80860308       9.52540971 # H
    1651  3  0.00000000       4.93487650       3.49726416       5.26158766 # H
    1652  3  0.00000000       4.31876063       2.22536555       5.81600228 # H
    1653  3  0.00000000      15.25004375      10.22450295      20.95310025 # H
    1654  3  0.00000000      14.66755310      11.33717817      20.10024685 # H
    1655  3  0.00000000      23.56712774      10.97340866      33.38896677 # H
    1656  3  0.00000000      22.34981710      11.30671074       0.48462841 # H
    1657  3  0.00000000      31.82084170       1.40375005      26.70873849 # H
    1658  3  0.00000000      31.11305392       0.37786888      25.84196015 # H
    1659  3  0.00000000       6.45750864      16.26466932      26.77486816 # H
    1660  3  0.00000000       5.13514141      15.64658897      27.19202760 # H
    1661  3  0.00000000      32.45353302      21.30148858      33.35044138 # H
    1662  3  0.00000000      32.30951676      22.74612388      32.90660741 # H
    1663  3  0.00000000       4.36554828      17.75329353      22.82584628 # H
    1664  3  0.00000000       3.08024286      17.10425727      22.34476173 # H
    1665  3  0.00000000      21.95342900       8.92370158       7.39061284 # H
    1666  3  0.00000000      22.78033537       7.89884501       6.63523526 # H
    1667  3  0.00000000      21.21825353      14.05143981      30.44614132 # H
    1668  3  0.00000000      20.31742809      12.82950749      30.43637536 # H
    1669  3  0.00000000       6.90811967       1.73256059       1.03370872 # H
    1670  3  0.00000000       7.13285473       3.00439870       1.83159492 # H
    1671  3  0.00000000      16.55235831      30.61250134      17.40113850 # H
    1672  3  0.00000000      18.01818561      30.53737861      17.01331468 # H
    1673  3  0.00000000      28.61586059       9.65188680       7.69708781 # H
    1674  3  0.00000000      27.90993885      10.72724481       8.50330124 # H
    1675  3  0.00000000      12.43739575      33.14128240      25.49139055 # H
    1676  3  0.00000000      13.42868181      32.55501900      26.48050510 # H
    1677  3  0.00000000      23.49201797      27.67280609       8.22076221 # H
    1678  3  0.00000000      23.43961354      28.37639880       6.87654813 # H
    1679  3  0.00000000       8.84197005      28.04016353      17.93777774 # H
    1680  3  0.00000000       8.62044450      29.33889497      17.18350756 # H
    1681  3  0.00000000       3.45906971      19.34222843       2.00998339 # H
    1682  3  0.00000000       4.48298752      18.22876675       1.88154730 # H
    1683  3  0.00000000      19.15543866       6.59966446      19.46424028 # H
    1684  3  0.00000000      20.17764506       5.64083716      18.88076387 # H
    1685  3  0.00000000       1.65943843      25.76014980       3.43387330 # H
    1686  3  0.00000000       1.01974802      26.15430415       4.75301656 # H
    1687  3  0.00000000       5.87990303      10.89761438      20.37184819 # H
    1688  3  0.00000000       6.51225454      11.58390789      21.56927593 # H
    1689  3  0.00000000      32.50304644      26.51204054      25.86523539 # H
    1690  3  0.00000000      32.36625130      27.90495348      25.27720389 # H
    1691  3  0.00000000      33.46213279      29.03620965       9.38364868 # H
    1692  3  0.00000000       0.24687982      28.41005502      10.65989764 # H
    1693  3  0.00000000       3.57956442       9.94903507      17.94641688 # H
    1694  3  0.00000000       4.65723594       9.05393470      18.53132699 # H
    1695  3  0.00000000       0.40457195       9.49652787      16.20420302 # H
    1696  3  0.00000000       0.77140048      10.48021345      15.10761744 # H
    1697  3  0.00000000      21.70049523       7.02759484      16.70809070 # H
    1698  3  0.00000000      22.15685526       8.47225596      16.80499372 # H
    1699  3  0.00000000       7.76210611      32.98958772       3.67863191 # H
    1700  3  0.00000000       6.95452745       0.21254517       4.52110371 # H
    1701  3  0.00000000      19.59075090      11.36870624      24.05643302 # H
    1702  3  0.00000000      19.98649045      12.59185600      24.86389528 # H
    1703  3  0.00000000      12.32885546      19.54869149      21.42855929 # H
    1704  3  0.00000000      13.81555254      19.24171221      21.44255703 # H
    1705  3  0.00000000      12.29461472      15.35345087      32.23645723 # H
    1706  3  0.00000000      10.84875001      15.09218263      32.61844490 # H
    1707  3  0.00000000      16.43306514      19.29081612       7.63993805 # H
    1708  3  0.00000000      15.31809336      20.09542283       8.28348012 # H
    1709  3  0.00000000      32.27093378      14.96876617      24.51664799 # H
    1710  3  0.00000000      33.64685634      14.53024414      24.04842161 # H
    1711  3  0.00000000      31.14831143       6.92313573      15.54725946 # H
    1712  3  0.00000000      32.20302916       7.92600836      15.11538280 # H
    1713  3  0.00000000       1.41938262      31.83318058      18.72489068 # H
    1714  3  0.00000000       0.37786792      30.94553992      18.06759198 # H
    1715  3  0.00000000      12.45457861       2.26221976       3.93103499 # H
    1716  3  0.00000000      11.05103114       1.68891835       3.85305791 # H
    1717  3  0.00000000       8.47649995       3.50513801      11.73781973 # H
    1718  3  0.00000000       7.07165299       3.09352700      12.13991652 # H
    1719  3  0.00000000      12.37449776      15.95597384      33.45443022 # H
    1720  3  0.00000000      11.58389026      17.23761311      33.64689057 # H
    1721  3  0.00000000      24.85026670      22.46414061      23.45336103 # H
    1722  3  0.00000000      24.70544676      23.66431091      22.53503709 # H
    1723  3  0.00000000       2.07911995       9.67085253       3.79754892 # H
    1724  3  0.00000000       2.13257495      11.01409422       3.09218039 # H
    1725  3  0.00000000      24.47849648      24.02768337      21.03589498 # H
    1726  3  0.00000000      24.01136246      25.17136153      20.15357617 # H
    1727  3  0.00000000      24.77551613       4.88644174      25.22841970 # H
    1728  3  0.00000000      23.79847183       3.99253766      25.97072716 # H
