1536
Lattice="28.6 0 0 0 28.6 0 0 0 28.6" Properties=species:S:1:pos:R:3 pbc="T T T"
Si 0.00000000 0.00000000 0.00000000
Si 0.00000000 3.57500000 3.57500000
Si 3.57500000 0.00000000 3.57500000
Si 3.57500000 3.57500000 0.00000000
Si 1.78750000 1.78750000 1.78750000
Si 1.78750000 5.36250000 5.36250000
Si 5.36250000 1.78750000 5.36250000
Si 5.36250000 5.36250000 1.78750000
Si 0.00000000 0.00000000 7.15000000
Si 0.00000000 3.57500000 10.72500000
Si 3.57500000 0.00000000 10.72500000
Si 3.57500000 3.57500000 7.15000000
Si 1.78750000 1.78750000 8.93750000
Si 1.78750000 5.36250000 12.51250000
Si 5.36250000 1.78750000 12.51250000
Si 5.36250000 5.36250000 8.93750000
Si 0.00000000 0.00000000 14.30000000
Si 0.00000000 3.57500000 17.87500000
Si 3.57500000 0.00000000 17.87500000
Si 3.57500000 3.57500000 14.30000000
Si 1.78750000 1.78750000 16.08750000
Si 1.78750000 5.36250000 19.66250000
Si 5.36250000 1.78750000 19.66250000
Si 5.36250000 5.36250000 16.08750000
Si 0.00000000 0.00000000 21.45000000
Si 0.00000000 3.57500000 25.02500000
Si 3.57500000 0.00000000 25.02500000
Si 3.57500000 3.57500000 21.45000000
Si 1.78750000 1.78750000 23.23750000
Si 1.78750000 5.36250000 26.81250000
Si 5.36250000 1.78750000 26.81250000
Si 5.36250000 5.36250000 23.23750000
Si 0.00000000 7.15000000 0.00000000
Si 0.00000000 10.72500000 3.57500000
Si 3.57500000 7.15000000 3.57500000
Si 3.57500000 10.72500000 0.00000000
Si 1.78750000 8.93750000 1.78750000
Si 1.78750000 12.51250000 5.36250000
Si 5.36250000 8.93750000 5.36250000
Si 5.36250000 12.51250000 1.78750000
Si 0.00000000 7.15000000 7.15000000
Si 0.00000000 10.72500000 10.72500000
Si 3.57500000 7.15000000 10.72500000
Si 3.57500000 10.72500000 7.15000000
Si 1.78750000 8.93750000 8.93750000
Si 1.78750000 12.51250000 12.51250000
Si 5.36250000 8.93750000 12.51250000
Si 5.36250000 12.51250000 8.93750000
Si 0.00000000 7.15000000 14.30000000
Si 0.00000000 10.72500000 17.87500000
Si 3.57500000 7.15000000 17.87500000
Si 3.57500000 10.72500000 14.30000000
Si 1.78750000 8.93750000 16.08750000
Si 1.78750000 12.51250000 19.66250000
Si 5.36250000 8.93750000 19.66250000
Si 5.36250000 12.51250000 16.08750000
Si 0.00000000 7.15000000 21.45000000
Si 0.00000000 10.72500000 25.02500000
Si 3.57500000 7.15000000 25.02500000
Si 3.57500000 10.72500000 21.45000000
Si 1.78750000 8.93750000 23.23750000
Si 1.78750000 12.51250000 26.81250000
Si 5.36250000 8.93750000 26.81250000
Si 5.36250000 12.51250000 23.23750000
Si 0.00000000 14.30000000 0.00000000
Si 0.00000000 17.87500000 3.57500000
Si 3.57500000 14.30000000 3.57500000
Si 3.57500000 17.87500000 0.00000000
Si 1.78750000 16.08750000 1.78750000
Si 1.78750000 19.66250000 5.36250000
Si 5.36250000 16.08750000 5.36250000
Si 5.36250000 19.66250000 1.78750000
Si 0.00000000 14.30000000 7.15000000
Si 0.00000000 17.87500000 10.72500000
Si 3.57500000 14.30000000 10.72500000
Si 3.57500000 17.87500000 7.15000000
Si 1.78750000 16.08750000 8.93750000
Si 1.78750000 19.66250000 12.51250000
Si 5.36250000 16.08750000 12.51250000
Si 5.36250000 19.66250000 8.93750000
Si 0.00000000 14.30000000 14.30000000
Si 0.00000000 17.87500000 17.87500000
Si 3.57500000 14.30000000 17.87500000
Si 3.57500000 17.87500000 14.30000000
Si 1.78750000 16.08750000 16.08750000
Si 1.78750000 19.66250000 19.66250000
Si 5.36250000 16.08750000 19.66250000
Si 5.36250000 19.66250000 16.08750000
Si 0.00000000 14.30000000 21.45000000
Si 0.00000000 17.87500000 25.02500000
Si 3.57500000 14.30000000 25.02500000
Si 3.57500000 17.87500000 21.45000000
Si 1.78750000 16.08750000 23.23750000
Si 1.78750000 19.66250000 26.81250000
Si 5.36250000 16.08750000 26.81250000
Si 5.36250000 19.66250000 23.23750000
Si 0.00000000 21.45000000 0.00000000
Si 0.00000000 25.02500000 3.57500000
Si 3.57500000 21.45000000 3.57500000
Si 3.57500000 25.02500000 0.00000000
Si 1.78750000 23.23750000 1.78750000
Si 1.78750000 26.81250000 5.36250000
Si 5.36250000 23.23750000 5.36250000
Si 5.36250000 26.81250000 1.78750000
Si 0.00000000 21.45000000 7.15000000
Si 0.00000000 25.02500000 10.72500000
Si 3.57500000 21.45000000 10.72500000
Si 3.57500000 25.02500000 7.15000000
Si 1.78750000 23.23750000 8.93750000
Si 1.78750000 26.81250000 12.51250000
Si 5.36250000 23.23750000 12.51250000
Si 5.36250000 26.81250000 8.93750000
Si 0.00000000 21.45000000 14.30000000
Si 0.00000000 25.02500000 17.87500000
Si 3.57500000 21.45000000 17.87500000
Si 3.57500000 25.02500000 14.30000000
Si 1.78750000 23.23750000 16.08750000
Si 1.78750000 26.81250000 19.66250000
Si 5.36250000 23.23750000 19.66250000
Si 5.36250000 26.81250000 16.08750000
Si 0.00000000 21.45000000 21.45000000
Si 0.00000000 25.02500000 25.02500000
Si 3.57500000 21.45000000 25.02500000
Si 3.57500000 25.02500000 21.45000000
Si 1.78750000 23.23750000 23.23750000
Si 1.78750000 26.81250000 26.81250000
Si 5.36250000 23.23750000 26.81250000
Si 5.36250000 26.81250000 23.23750000
Si 7.15000000 0.00000000 0.00000000
Si 7.15000000 3.57500000 3.57500000
Si 10.72500000 0.00000000 3.57500000
Si 10.72500000 3.57500000 0.00000000
Si 8.93750000 1.78750000 1.78750000
Si 8.93750000 5.36250000 5.36250000
Si 12.51250000 1.78750000 5.36250000
Si 12.51250000 5.36250000 1.78750000
Si 7.15000000 0.00000000 7.15000000
Si 7.15000000 3.57500000 10.72500000
Si 10.72500000 0.00000000 10.72500000
Si 10.72500000 3.57500000 7.15000000
Si 8.93750000 1.78750000 8.93750000
Si 8.93750000 5.36250000 12.51250000
Si 12.51250000 1.78750000 12.51250000
Si 12.51250000 5.36250000 8.93750000
Si 7.15000000 0.00000000 14.30000000
Si 7.15000000 3.57500000 17.87500000
Si 10.72500000 0.00000000 17.87500000
Si 10.72500000 3.57500000 14.30000000
Si 8.93750000 1.78750000 16.08750000
Si 8.93750000 5.36250000 19.66250000
Si 12.51250000 1.78750000 19.66250000
Si 12.51250000 5.36250000 16.08750000
Si 7.15000000 0.00000000 21.45000000
Si 7.15000000 3.57500000 25.02500000
Si 10.72500000 0.00000000 25.02500000
Si 10.72500000 3.57500000 21.45000000
Si 8.93750000 1.78750000 23.23750000
Si 8.93750000 5.36250000 26.81250000
Si 12.51250000 1.78750000 26.81250000
Si 12.51250000 5.36250000 23.23750000
Si 7.15000000 7.15000000 0.00000000
Si 7.15000000 10.72500000 3.57500000
Si 10.72500000 7.15000000 3.57500000
Si 10.72500000 10.72500000 0.00000000
Si 8.93750000 8.93750000 1.78750000
Si 8.93750000 12.51250000 5.36250000
Si 12.51250000 8.93750000 5.36250000
Si 12.51250000 12.51250000 1.78750000
Si 7.15000000 7.15000000 7.15000000
Si 7.15000000 10.72500000 10.72500000
Si 10.72500000 7.15000000 10.72500000
Si 10.72500000 10.72500000 7.15000000
Si 8.93750000 8.93750000 8.93750000
Si 8.93750000 12.51250000 12.51250000
Si 12.51250000 8.93750000 12.51250000
Si 12.51250000 12.51250000 8.93750000
Si 7.15000000 7.15000000 14.30000000
Si 7.15000000 10.72500000 17.87500000
Si 10.72500000 7.15000000 17.87500000
Si 10.72500000 10.72500000 14.30000000
Si 8.93750000 8.93750000 16.08750000
Si 8.93750000 12.51250000 19.66250000
Si 12.51250000 8.93750000 19.66250000
Si 12.51250000 12.51250000 16.08750000
Si 7.15000000 7.15000000 21.45000000
Si 7.15000000 10.72500000 25.02500000
Si 10.72500000 7.15000000 25.02500000
Si 10.72500000 10.72500000 21.45000000
Si 8.93750000 8.93750000 23.23750000
Si 8.93750000 12.51250000 26.81250000
Si 12.51250000 8.93750000 26.81250000
Si 12.51250000 12.51250000 23.23750000
Si 7.15000000 14.30000000 0.00000000
Si 7.15000000 17.87500000 3.57500000
Si 10.72500000 14.30000000 3.57500000
Si 10.72500000 17.87500000 0.00000000
Si 8.93750000 16.08750000 1.78750000
Si 8.93750000 19.66250000 5.36250000
Si 12.51250000 16.08750000 5.36250000
Si 12.51250000 19.66250000 1.78750000
Si 7.15000000 14.30000000 7.15000000
Si 7.15000000 17.87500000 10.72500000
Si 10.72500000 14.30000000 10.72500000
Si 10.72500000 17.87500000 7.15000000
Si 8.93750000 16.08750000 8.93750000
Si 8.93750000 19.66250000 12.51250000
Si 12.51250000 16.08750000 12.51250000
Si 12.51250000 19.66250000 8.93750000
Si 7.15000000 14.30000000 14.30000000
Si 7.15000000 17.87500000 17.87500000
Si 10.72500000 14.30000000 17.87500000
Si 10.72500000 17.87500000 14.30000000
Si 8.93750000 16.08750000 16.08750000
Si 8.93750000 19.66250000 19.66250000
Si 12.51250000 16.08750000 19.66250000
Si 12.51250000 19.66250000 16.08750000
Si 7.15000000 14.30000000 21.45000000
Si 7.15000000 17.87500000 25.02500000
Si 10.72500000 14.30000000 25.02500000
Si 10.72500000 17.87500000 21.45000000
Si 8.93750000 16.08750000 23.23750000
Si 8.93750000 19.66250000 26.81250000
Si 12.51250000 16.08750000 26.81250000
Si 12.51250000 19.66250000 23.23750000
Si 7.15000000 21.45000000 0.00000000
Si 7.15000000 25.02500000 3.57500000
Si 10.72500000 21.45000000 3.57500000
Si 10.72500000 25.02500000 0.00000000
Si 8.93750000 23.23750000 1.78750000
Si 8.93750000 26.81250000 5.36250000
Si 12.51250000 23.23750000 5.36250000
Si 12.51250000 26.81250000 1.78750000
Si 7.15000000 21.45000000 7.15000000
Si 7.15000000 25.02500000 10.72500000
Si 10.72500000 21.45000000 10.72500000
Si 10.72500000 25.02500000 7.15000000
Si 8.93750000 23.23750000 8.93750000
Si 8.93750000 26.81250000 12.51250000
Si 12.51250000 23.23750000 12.51250000
Si 12.51250000 26.81250000 8.93750000
Si 7.15000000 21.45000000 14.30000000
Si 7.15000000 25.02500000 17.87500000
Si 10.72500000 21.45000000 17.87500000
Si 10.72500000 25.02500000 14.30000000
Si 8.93750000 23.23750000 16.08750000
Si 8.93750000 26.81250000 19.66250000
Si 12.51250000 23.23750000 19.66250000
Si 12.51250000 26.81250000 16.08750000
Si 7.15000000 21.45000000 21.45000000
Si 7.15000000 25.02500000 25.02500000
Si 10.72500000 21.45000000 25.02500000
Si 10.72500000 25.02500000 21.45000000
Si 8.93750000 23.23750000 23.23750000
Si 8.93750000 26.81250000 26.81250000
Si 12.51250000 23.23750000 26.81250000
Si 12.51250000 26.81250000 23.23750000
Si 14.30000000 0.00000000 0.00000000
Si 14.30000000 3.57500000 3.57500000
Si 17.87500000 0.00000000 3.57500000
Si 17.87500000 3.57500000 0.00000000
Si 16.08750000 1.78750000 1.78750000
Si 16.08750000 5.36250000 5.36250000
Si 19.66250000 1.78750000 5.36250000
Si 19.66250000 5.36250000 1.78750000
Si 14.30000000 0.00000000 7.15000000
Si 14.30000000 3.57500000 10.72500000
Si 17.87500000 0.00000000 10.72500000
Si 17.87500000 3.57500000 7.15000000
Si 16.08750000 1.78750000 8.93750000
Si 16.08750000 5.36250000 12.51250000
Si 19.66250000 1.78750000 12.51250000
Si 19.66250000 5.36250000 8.93750000
Si 14.30000000 0.00000000 14.30000000
Si 14.30000000 3.57500000 17.87500000
Si 17.87500000 0.00000000 17.87500000
Si 17.87500000 3.57500000 14.30000000
Si 16.08750000 1.78750000 16.08750000
Si 16.08750000 5.36250000 19.66250000
Si 19.66250000 1.78750000 19.66250000
Si 19.66250000 5.36250000 16.08750000
Si 14.30000000 0.00000000 21.45000000
Si 14.30000000 3.57500000 25.02500000
Si 17.87500000 0.00000000 25.02500000
Si 17.87500000 3.57500000 21.45000000
Si 16.08750000 1.78750000 23.23750000
Si 16.08750000 5.36250000 26.81250000
Si 19.66250000 1.78750000 26.81250000
Si 19.66250000 5.36250000 23.23750000
Si 14.30000000 7.15000000 0.00000000
Si 14.30000000 10.72500000 3.57500000
Si 17.87500000 7.15000000 3.57500000
Si 17.87500000 10.72500000 0.00000000
Si 16.08750000 8.93750000 1.78750000
Si 16.08750000 12.51250000 5.36250000
Si 19.66250000 8.93750000 5.36250000
Si 19.66250000 12.51250000 1.78750000
Si 14.30000000 7.15000000 7.15000000
Si 14.30000000 10.72500000 10.72500000
Si 17.87500000 7.15000000 10.72500000
Si 17.87500000 10.72500000 7.15000000
Si 16.08750000 8.93750000 8.93750000
Si 16.08750000 12.51250000 12.51250000
Si 19.66250000 8.93750000 12.51250000
Si 19.66250000 12.51250000 8.93750000
Si 14.30000000 7.15000000 14.30000000
Si 14.30000000 10.72500000 17.87500000
Si 17.87500000 7.15000000 17.87500000
Si 17.87500000 10.72500000 14.30000000
Si 16.08750000 8.93750000 16.08750000
Si 16.08750000 12.51250000 19.66250000
Si 19.66250000 8.93750000 19.66250000
Si 19.66250000 12.51250000 16.08750000
Si 14.30000000 7.15000000 21.45000000
Si 14.30000000 10.72500000 25.02500000
Si 17.87500000 7.15000000 25.02500000
Si 17.87500000 10.72500000 21.45000000
Si 16.08750000 8.93750000 23.23750000
Si 16.08750000 12.51250000 26.81250000
Si 19.66250000 8.93750000 26.81250000
Si 19.66250000 12.51250000 23.23750000
Si 14.30000000 14.30000000 0.00000000
Si 14.30000000 17.87500000 3.57500000
Si 17.87500000 14.30000000 3.57500000
Si 17.87500000 17.87500000 0.00000000
Si 16.08750000 16.08750000 1.78750000
Si 16.08750000 19.66250000 5.36250000
Si 19.66250000 16.08750000 5.36250000
Si 19.66250000 19.66250000 1.78750000
Si 14.30000000 14.30000000 7.15000000
Si 14.30000000 17.87500000 10.72500000
Si 17.87500000 14.30000000 10.72500000
Si 17.87500000 17.87500000 7.15000000
Si 16.08750000 16.08750000 8.93750000
Si 16.08750000 19.66250000 12.51250000
Si 19.66250000 16.08750000 12.51250000
Si 19.66250000 19.66250000 8.93750000
Si 14.30000000 14.30000000 14.30000000
Si 14.30000000 17.87500000 17.87500000
Si 17.87500000 14.30000000 17.87500000
Si 17.87500000 17.87500000 14.30000000
Si 16.08750000 16.08750000 16.08750000
Si 16.08750000 19.66250000 19.66250000
Si 19.66250000 16.08750000 19.66250000
Si 19.66250000 19.66250000 16.08750000
Si 14.30000000 14.30000000 21.45000000
Si 14.30000000 17.87500000 25.02500000
Si 17.87500000 14.30000000 25.02500000
Si 17.87500000 17.87500000 21.45000000
Si 16.08750000 16.08750000 23.23750000
Si 16.08750000 19.66250000 26.81250000
Si 19.66250000 16.08750000 26.81250000
Si 19.66250000 19.66250000 23.23750000
Si 14.30000000 21.45000000 0.00000000
Si 14.30000000 25.02500000 3.57500000
Si 17.87500000 21.45000000 3.57500000
Si 17.87500000 25.02500000 0.00000000
Si 16.08750000 23.23750000 1.78750000
Si 16.08750000 26.81250000 5.36250000
Si 19.66250000 23.23750000 5.36250000
Si 19.66250000 26.81250000 1.78750000
Si 14.30000000 21.45000000 7.15000000
Si 14.30000000 25.02500000 10.72500000
Si 17.87500000 21.45000000 10.72500000
Si 17.87500000 25.02500000 7.15000000
Si 16.08750000 23.23750000 8.93750000
Si 16.08750000 26.81250000 12.51250000
Si 19.66250000 23.23750000 12.51250000
Si 19.66250000 26.81250000 8.93750000
Si 14.30000000 21.45000000 14.30000000
Si 14.30000000 25.02500000 17.87500000
Si 17.87500000 21.45000000 17.87500000
Si 17.87500000 25.02500000 14.30000000
Si 16.08750000 23.23750000 16.08750000
Si 16.08750000 26.81250000 19.66250000
Si 19.66250000 23.23750000 19.66250000
Si 19.66250000 26.81250000 16.08750000
Si 14.30000000 21.45000000 21.45000000
Si 14.30000000 25.02500000 25.02500000
Si 17.87500000 21.45000000 25.02500000
Si 17.87500000 25.02500000 21.45000000
Si 16.08750000 23.23750000 23.23750000
Si 16.08750000 26.81250000 26.81250000
Si 19.66250000 23.23750000 26.81250000
Si 19.66250000 26.81250000 23.23750000
Si 21.45000000 0.00000000 0.00000000
Si 21.45000000 3.57500000 3.57500000
Si 25.02500000 0.00000000 3.57500000
Si 25.02500000 3.57500000 0.00000000
Si 23.23750000 1.78750000 1.78750000
Si 23.23750000 5.36250000 5.36250000
Si 26.81250000 1.78750000 5.36250000
Si 26.81250000 5.36250000 1.78750000
Si 21.45000000 0.00000000 7.15000000
Si 21.45000000 3.57500000 10.72500000
Si 25.02500000 0.00000000 10.72500000
Si 25.02500000 3.57500000 7.15000000
Si 23.23750000 1.78750000 8.93750000
Si 23.23750000 5.36250000 12.51250000
Si 26.81250000 1.78750000 12.51250000
Si 26.81250000 5.36250000 8.93750000
Si 21.45000000 0.00000000 14.30000000
Si 21.45000000 3.57500000 17.87500000
Si 25.02500000 0.00000000 17.87500000
Si 25.02500000 3.57500000 14.30000000
Si 23.23750000 1.78750000 16.08750000
Si 23.23750000 5.36250000 19.66250000
Si 26.81250000 1.78750000 19.66250000
Si 26.81250000 5.36250000 16.08750000
Si 21.45000000 0.00000000 21.45000000
Si 21.45000000 3.57500000 25.02500000
Si 25.02500000 0.00000000 25.02500000
Si 25.02500000 3.57500000 21.45000000
Si 23.23750000 1.78750000 23.23750000
Si 23.23750000 5.36250000 26.81250000
Si 26.81250000 1.78750000 26.81250000
Si 26.81250000 5.36250000 23.23750000
Si 21.45000000 7.15000000 0.00000000
Si 21.45000000 10.72500000 3.57500000
Si 25.02500000 7.15000000 3.57500000
Si 25.02500000 10.72500000 0.00000000
Si 23.23750000 8.93750000 1.78750000
Si 23.23750000 12.51250000 5.36250000
Si 26.81250000 8.93750000 5.36250000
Si 26.81250000 12.51250000 1.78750000
Si 21.45000000 7.15000000 7.15000000
Si 21.45000000 10.72500000 10.72500000
Si 25.02500000 7.15000000 10.72500000
Si 25.02500000 10.72500000 7.15000000
Si 23.23750000 8.93750000 8.93750000
Si 23.23750000 12.51250000 12.51250000
Si 26.81250000 8.93750000 12.51250000
Si 26.81250000 12.51250000 8.93750000
Si 21.45000000 7.15000000 14.30000000
Si 21.45000000 10.72500000 17.87500000
Si 25.02500000 7.15000000 17.87500000
Si 25.02500000 10.72500000 14.30000000
Si 23.23750000 8.93750000 16.08750000
Si 23.23750000 12.51250000 19.66250000
Si 26.81250000 8.93750000 19.66250000
Si 26.81250000 12.51250000 16.08750000
Si 21.45000000 7.15000000 21.45000000
Si 21.45000000 10.72500000 25.02500000
Si 25.02500000 7.15000000 25.02500000
Si 25.02500000 10.72500000 21.45000000
Si 23.23750000 8.93750000 23.23750000
Si 23.23750000 12.51250000 26.81250000
Si 26.81250000 8.93750000 26.81250000
Si 26.81250000 12.51250000 23.23750000
Si 21.45000000 14.30000000 0.00000000
Si 21.45000000 17.87500000 3.57500000
Si 25.02500000 14.30000000 3.57500000
Si 25.02500000 17.87500000 0.00000000
Si 23.23750000 16.08750000 1.78750000
Si 23.23750000 19.66250000 5.36250000
Si 26.81250000 16.08750000 5.36250000
Si 26.81250000 19.66250000 1.78750000
Si 21.45000000 14.30000000 7.15000000
Si 21.45000000 17.87500000 10.72500000
Si 25.02500000 14.30000000 10.72500000
Si 25.02500000 17.87500000 7.15000000
Si 23.23750000 16.08750000 8.93750000
Si 23.23750000 19.66250000 12.51250000
Si 26.81250000 16.08750000 12.51250000
Si 26.81250000 19.66250000 8.93750000
Si 21.45000000 14.30000000 14.30000000
Si 21.45000000 17.87500000 17.87500000
Si 25.02500000 14.30000000 17.87500000
Si 25.02500000 17.87500000 14.30000000
Si 23.23750000 16.08750000 16.08750000
Si 23.23750000 19.66250000 19.66250000
Si 26.81250000 16.08750000 19.66250000
Si 26.81250000 19.66250000 16.08750000
Si 21.45000000 14.30000000 21.45000000
Si 21.45000000 17.87500000 25.02500000
Si 25.02500000 14.30000000 25.02500000
Si 25.02500000 17.87500000 21.45000000
Si 23.23750000 16.08750000 23.23750000
Si 23.23750000 19.66250000 26.81250000
Si 26.81250000 16.08750000 26.81250000
Si 26.81250000 19.66250000 23.23750000
Si 21.45000000 21.45000000 0.00000000
Si 21.45000000 25.02500000 3.57500000
Si 25.02500000 21.45000000 3.57500000
Si 25.02500000 25.02500000 0.00000000
Si 23.23750000 23.23750000 1.78750000
Si 23.23750000 26.81250000 5.36250000
Si 26.81250000 23.23750000 5.36250000
Si 26.81250000 26.81250000 1.78750000
Si 21.45000000 21.45000000 7.15000000
Si 21.45000000 25.02500000 10.72500000
Si 25.02500000 21.45000000 10.72500000
Si 25.02500000 25.02500000 7.15000000
Si 23.23750000 23.23750000 8.93750000
Si 23.23750000 26.81250000 12.51250000
Si 26.81250000 23.23750000 12.51250000
Si 26.81250000 26.81250000 8.93750000
Si 21.45000000 21.45000000 14.30000000
Si 21.45000000 25.02500000 17.87500000
Si 25.02500000 21.45000000 17.87500000
Si 25.02500000 25.02500000 14.30000000
Si 23.23750000 23.23750000 16.08750000
Si 23.23750000 26.81250000 19.66250000
Si 26.81250000 23.23750000 19.66250000
Si 26.81250000 26.81250000 16.08750000
Si 21.45000000 21.45000000 21.45000000
Si 21.45000000 25.02500000 25.02500000
Si 25.02500000 21.45000000 25.02500000
Si 25.02500000 25.02500000 21.45000000
Si 23.23750000 23.23750000 23.23750000
Si 23.23750000 26.81250000 26.81250000
Si 26.81250000 23.23750000 26.81250000
Si 26.81250000 26.81250000 23.23750000
O 0.89375000 0.89375000 0.89375000
O 0.89375000 27.70625000 27.70625000
O 27.70625000 0.89375000 27.70625000
O 27.70625000 27.70625000 0.89375000
O 0.89375000 2.68125000 2.68125000
O 0.89375000 4.46875000 4.46875000
O 27.70625000 2.68125000 4.46875000
O 27.70625000 4.46875000 2.68125000
O 2.68125000 0.89375000 2.68125000
O 4.46875000 0.89375000 4.46875000
O 2.68125000 27.70625000 4.46875000
O 4.46875000 27.70625000 2.68125000
O 2.68125000 2.68125000 0.89375000
O 4.46875000 4.46875000 0.89375000
O 2.68125000 4.46875000 27.70625000
O 4.46875000 2.68125000 27.70625000
O 2.68125000 4.46875000 6.25625000
O 2.68125000 6.25625000 4.46875000
O 0.89375000 6.25625000 6.25625000
O 4.46875000 2.68125000 6.25625000
O 6.25625000 2.68125000 4.46875000
O 6.25625000 0.89375000 6.25625000
O 4.46875000 6.25625000 2.68125000
O 6.25625000 4.46875000 2.68125000
O 6.25625000 6.25625000 0.89375000
O 0.89375000 0.89375000 8.04375000
O 0.89375000 27.70625000 6.25625000
O 27.70625000 0.89375000 6.25625000
O 27.70625000 27.70625000 8.04375000
O 0.89375000 2.68125000 9.83125000
O 0.89375000 4.46875000 11.61875000
O 27.70625000 2.68125000 11.61875000
O 27.70625000 4.46875000 9.83125000
O 2.68125000 0.89375000 9.83125000
O 4.46875000 0.89375000 11.61875000
O 2.68125000 27.70625000 11.61875000
O 4.46875000 27.70625000 9.83125000
O 2.68125000 2.68125000 8.04375000
O 4.46875000 4.46875000 8.04375000
O 2.68125000 4.46875000 13.40625000
O 2.68125000 6.25625000 11.61875000
O 0.89375000 6.25625000 13.40625000
O 4.46875000 2.68125000 13.40625000
O 6.25625000 2.68125000 11.61875000
O 6.25625000 0.89375000 13.40625000
O 4.46875000 6.25625000 9.83125000
O 6.25625000 4.46875000 9.83125000
O 6.25625000 6.25625000 8.04375000
O 0.89375000 0.89375000 15.19375000
O 0.89375000 27.70625000 13.40625000
O 27.70625000 0.89375000 13.40625000
O 27.70625000 27.70625000 15.19375000
O 0.89375000 2.68125000 16.98125000
O 0.89375000 4.46875000 18.76875000
O 27.70625000 2.68125000 18.76875000
O 27.70625000 4.46875000 16.98125000
O 2.68125000 0.89375000 16.98125000
O 4.46875000 0.89375000 18.76875000
O 2.68125000 27.70625000 18.76875000
O 4.46875000 27.70625000 16.98125000
O 2.68125000 2.68125000 15.19375000
O 4.46875000 4.46875000 15.19375000
O 2.68125000 4.46875000 20.55625000
O 2.68125000 6.25625000 18.76875000
O 0.89375000 6.25625000 20.55625000
O 4.46875000 2.68125000 20.55625000
O 6.25625000 2.68125000 18.76875000
O 6.25625000 0.89375000 20.55625000
O 4.46875000 6.25625000 16.98125000
O 6.25625000 4.46875000 16.98125000
O 6.25625000 6.25625000 15.19375000
O 0.89375000 0.89375000 22.34375000
O 0.89375000 27.70625000 20.55625000
O 27.70625000 0.89375000 20.55625000
O 27.70625000 27.70625000 22.34375000
O 0.89375000 2.68125000 24.13125000
O 0.89375000 4.46875000 25.91875000
O 27.70625000 2.68125000 25.91875000
O 27.70625000 4.46875000 24.13125000
O 2.68125000 0.89375000 24.13125000
O 4.46875000 0.89375000 25.91875000
O 2.68125000 27.70625000 25.91875000
O 4.46875000 27.70625000 24.13125000
O 2.68125000 2.68125000 22.34375000
O 4.46875000 4.46875000 22.34375000
O 0.89375000 6.25625000 27.70625000
O 2.68125000 6.25625000 25.91875000
O 6.25625000 0.89375000 27.70625000
O 6.25625000 2.68125000 25.91875000
O 4.46875000 6.25625000 24.13125000
O 6.25625000 4.46875000 24.13125000
O 6.25625000 6.25625000 22.34375000
O 0.89375000 8.04375000 0.89375000
O 27.70625000 6.25625000 0.89375000
O 27.70625000 8.04375000 27.70625000
O 0.89375000 9.83125000 2.68125000
O 0.89375000 11.61875000 4.46875000
O 27.70625000 9.83125000 4.46875000
O 27.70625000 11.61875000 2.68125000
O 2.68125000 8.04375000 2.68125000
O 4.46875000 8.04375000 4.46875000
O 2.68125000 9.83125000 0.89375000
O 4.46875000 11.61875000 0.89375000
O 2.68125000 11.61875000 27.70625000
O 4.46875000 9.83125000 27.70625000
O 2.68125000 11.61875000 6.25625000
O 2.68125000 13.40625000 4.46875000
O 0.89375000 13.40625000 6.25625000
O 4.46875000 9.83125000 6.25625000
O 6.25625000 9.83125000 4.46875000
O 6.25625000 8.04375000 6.25625000
O 4.46875000 13.40625000 2.68125000
O 6.25625000 11.61875000 2.68125000
O 6.25625000 13.40625000 0.89375000
O 0.89375000 8.04375000 8.04375000
O 27.70625000 6.25625000 8.04375000
O 27.70625000 8.04375000 6.25625000
O 0.89375000 9.83125000 9.83125000
O 0.89375000 11.61875000 11.61875000
O 27.70625000 9.83125000 11.61875000
O 27.70625000 11.61875000 9.83125000
O 2.68125000 8.04375000 9.83125000
O 4.46875000 8.04375000 11.61875000
O 2.68125000 9.83125000 8.04375000
O 4.46875000 11.61875000 8.04375000
O 2.68125000 11.61875000 13.40625000
O 2.68125000 13.40625000 11.61875000
O 0.89375000 13.40625000 13.40625000
O 4.46875000 9.83125000 13.40625000
O 6.25625000 9.83125000 11.61875000
O 6.25625000 8.04375000 13.40625000
O 4.46875000 13.40625000 9.83125000
O 6.25625000 11.61875000 9.83125000
O 6.25625000 13.40625000 8.04375000
O 0.89375000 8.04375000 15.19375000
O 27.70625000 6.25625000 15.19375000
O 27.70625000 8.04375000 13.40625000
O 0.89375000 9.83125000 16.98125000
O 0.89375000 11.61875000 18.76875000
O 27.70625000 9.83125000 18.76875000
O 27.70625000 11.61875000 16.98125000
O 2.68125000 8.04375000 16.98125000
O 4.46875000 8.04375000 18.76875000
O 2.68125000 9.83125000 15.19375000
O 4.46875000 11.61875000 15.19375000
O 2.68125000 11.61875000 20.55625000
O 2.68125000 13.40625000 18.76875000
O 0.89375000 13.40625000 20.55625000
O 4.46875000 9.83125000 20.55625000
O 6.25625000 9.83125000 18.76875000
O 6.25625000 8.04375000 20.55625000
O 4.46875000 13.40625000 16.98125000
O 6.25625000 11.61875000 16.98125000
O 6.25625000 13.40625000 15.19375000
O 0.89375000 8.04375000 22.34375000
O 27.70625000 6.25625000 22.34375000
O 27.70625000 8.04375000 20.55625000
O 0.89375000 9.83125000 24.13125000
O 0.89375000 11.61875000 25.91875000
O 27.70625000 9.83125000 25.91875000
O 27.70625000 11.61875000 24.13125000
O 2.68125000 8.04375000 24.13125000
O 4.46875000 8.04375000 25.91875000
O 2.68125000 9.83125000 22.34375000
O 4.46875000 11.61875000 22.34375000
O 0.89375000 13.40625000 27.70625000
O 2.68125000 13.40625000 25.91875000
O 6.25625000 8.04375000 27.70625000
O 6.25625000 9.83125000 25.91875000
O 4.46875000 13.40625000 24.13125000
O 6.25625000 11.61875000 24.13125000
O 6.25625000 13.40625000 22.34375000
O 0.89375000 15.19375000 0.89375000
O 27.70625000 13.40625000 0.89375000
O 27.70625000 15.19375000 27.70625000
O 0.89375000 16.98125000 2.68125000
O 0.89375000 18.76875000 4.46875000
O 27.70625000 16.98125000 4.46875000
O 27.70625000 18.76875000 2.68125000
O 2.68125000 15.19375000 2.68125000
O 4.46875000 15.19375000 4.46875000
O 2.68125000 16.98125000 0.89375000
O 4.46875000 18.76875000 0.89375000
O 2.68125000 18.76875000 27.70625000
O 4.46875000 16.98125000 27.70625000
O 2.68125000 18.76875000 6.25625000
O 2.68125000 20.55625000 4.46875000
O 0.89375000 20.55625000 6.25625000
O 4.46875000 16.98125000 6.25625000
O 6.25625000 16.98125000 4.46875000
O 6.25625000 15.19375000 6.25625000
O 4.46875000 20.55625000 2.68125000
O 6.25625000 18.76875000 2.68125000
O 6.25625000 20.55625000 0.89375000
O 0.89375000 15.19375000 8.04375000
O 27.70625000 13.40625000 8.04375000
O 27.70625000 15.19375000 6.25625000
O 0.89375000 16.98125000 9.83125000
O 0.89375000 18.76875000 11.61875000
O 27.70625000 16.98125000 11.61875000
O 27.70625000 18.76875000 9.83125000
O 2.68125000 15.19375000 9.83125000
O 4.46875000 15.19375000 11.61875000
O 2.68125000 16.98125000 8.04375000
O 4.46875000 18.76875000 8.04375000
O 2.68125000 18.76875000 13.40625000
O 2.68125000 20.55625000 11.61875000
O 0.89375000 20.55625000 13.40625000
O 4.46875000 16.98125000 13.40625000
O 6.25625000 16.98125000 11.61875000
O 6.25625000 15.19375000 13.40625000
O 4.46875000 20.55625000 9.83125000
O 6.25625000 18.76875000 9.83125000
O 6.25625000 20.55625000 8.04375000
O 0.89375000 15.19375000 15.19375000
O 27.70625000 13.40625000 15.19375000
O 27.70625000 15.19375000 13.40625000
O 0.89375000 16.98125000 16.98125000
O 0.89375000 18.76875000 18.76875000
O 27.70625000 16.98125000 18.76875000
O 27.70625000 18.76875000 16.98125000
O 2.68125000 15.19375000 16.98125000
O 4.46875000 15.19375000 18.76875000
O 2.68125000 16.98125000 15.19375000
O 4.46875000 18.76875000 15.19375000
O 2.68125000 18.76875000 20.55625000
O 2.68125000 20.55625000 18.76875000
O 0.89375000 20.55625000 20.55625000
O 4.46875000 16.98125000 20.55625000
O 6.25625000 16.98125000 18.76875000
O 6.25625000 15.19375000 20.55625000
O 4.46875000 20.55625000 16.98125000
O 6.25625000 18.76875000 16.98125000
O 6.25625000 20.55625000 15.19375000
O 0.89375000 15.19375000 22.34375000
O 27.70625000 13.40625000 22.34375000
O 27.70625000 15.19375000 20.55625000
O 0.89375000 16.98125000 24.13125000
O 0.89375000 18.76875000 25.91875000
O 27.70625000 16.98125000 25.91875000
O 27.70625000 18.76875000 24.13125000
O 2.68125000 15.19375000 24.13125000
O 4.46875000 15.19375000 25.91875000
O 2.68125000 16.98125000 22.34375000
O 4.46875000 18.76875000 22.34375000
O 0.89375000 20.55625000 27.70625000
O 2.68125000 20.55625000 25.91875000
O 6.25625000 15.19375000 27.70625000
O 6.25625000 16.98125000 25.91875000
O 4.46875000 20.55625000 24.13125000
O 6.25625000 18.76875000 24.13125000
O 6.25625000 20.55625000 22.34375000
O 0.89375000 22.34375000 0.89375000
O 27.70625000 20.55625000 0.89375000
O 27.70625000 22.34375000 27.70625000
O 0.89375000 24.13125000 2.68125000
O 0.89375000 25.91875000 4.46875000
O 27.70625000 24.13125000 4.46875000
O 27.70625000 25.91875000 2.68125000
O 2.68125000 22.34375000 2.68125000
O 4.46875000 22.34375000 4.46875000
O 2.68125000 24.13125000 0.89375000
O 4.46875000 25.91875000 0.89375000
O 2.68125000 25.91875000 27.70625000
O 4.46875000 24.13125000 27.70625000
O 2.68125000 25.91875000 6.25625000
O 4.46875000 24.13125000 6.25625000
O 6.25625000 24.13125000 4.46875000
O 6.25625000 22.34375000 6.25625000
O 6.25625000 27.70625000 0.89375000
O 6.25625000 25.91875000 2.68125000
O 0.89375000 22.34375000 8.04375000
O 27.70625000 20.55625000 8.04375000
O 27.70625000 22.34375000 6.25625000
O 0.89375000 24.13125000 9.83125000
O 0.89375000 25.91875000 11.61875000
O 27.70625000 24.13125000 11.61875000
O 27.70625000 25.91875000 9.83125000
O 2.68125000 22.34375000 9.83125000
O 4.46875000 22.34375000 11.61875000
O 2.68125000 24.13125000 8.04375000
O 4.46875000 25.91875000 8.04375000
O 2.68125000 25.91875000 13.40625000
O 4.46875000 24.13125000 13.40625000
O 6.25625000 24.13125000 11.61875000
O 6.25625000 22.34375000 13.40625000
O 6.25625000 27.70625000 8.04375000
O 6.25625000 25.91875000 9.83125000
O 0.89375000 22.34375000 15.19375000
O 27.70625000 20.55625000 15.19375000
O 27.70625000 22.34375000 13.40625000
O 0.89375000 24.13125000 16.98125000
O 0.89375000 25.91875000 18.76875000
O 27.70625000 24.13125000 18.76875000
O 27.70625000 25.91875000 16.98125000
O 2.68125000 22.34375000 16.98125000
O 4.46875000 22.34375000 18.76875000
O 2.68125000 24.13125000 15.19375000
O 4.46875000 25.91875000 15.19375000
O 2.68125000 25.91875000 20.55625000
O 4.46875000 24.13125000 20.55625000
O 6.25625000 24.13125000 18.76875000
O 6.25625000 22.34375000 20.55625000
O 6.25625000 27.70625000 15.19375000
O 6.25625000 25.91875000 16.98125000
O 0.89375000 22.34375000 22.34375000
O 27.70625000 20.55625000 22.34375000
O 27.70625000 22.34375000 20.55625000
O 0.89375000 24.13125000 24.13125000
O 0.89375000 25.91875000 25.91875000
O 27.70625000 24.13125000 25.91875000
O 27.70625000 25.91875000 24.13125000
O 2.68125000 22.34375000 24.13125000
O 4.46875000 22.34375000 25.91875000
O 2.68125000 24.13125000 22.34375000
O 4.46875000 25.91875000 22.34375000
O 6.25625000 22.34375000 27.70625000
O 6.25625000 24.13125000 25.91875000
O 6.25625000 27.70625000 22.34375000
O 6.25625000 25.91875000 24.13125000
O 8.04375000 0.89375000 0.89375000
O 8.04375000 27.70625000 27.70625000
O 8.04375000 2.68125000 2.68125000
O 8.04375000 4.46875000 4.46875000
O 9.83125000 0.89375000 2.68125000
O 11.61875000 0.89375000 4.46875000
O 9.83125000 27.70625000 4.46875000
O 11.61875000 27.70625000 2.68125000
O 9.83125000 2.68125000 0.89375000
O 11.61875000 4.46875000 0.89375000
O 9.83125000 4.46875000 27.70625000
O 11.61875000 2.68125000 27.70625000
O 9.83125000 4.46875000 6.25625000
O 9.83125000 6.25625000 4.46875000
O 8.04375000 6.25625000 6.25625000
O 11.61875000 2.68125000 6.25625000
O 13.40625000 2.68125000 4.46875000
O 13.40625000 0.89375000 6.25625000
O 11.61875000 6.25625000 2.68125000
O 13.40625000 4.46875000 2.68125000
O 13.40625000 6.25625000 0.89375000
O 8.04375000 0.89375000 8.04375000
O 8.04375000 27.70625000 6.25625000
O 8.04375000 2.68125000 9.83125000
O 8.04375000 4.46875000 11.61875000
O 9.83125000 0.89375000 9.83125000
O 11.61875000 0.89375000 11.61875000
O 9.83125000 27.70625000 11.61875000
O 11.61875000 27.70625000 9.83125000
O 9.83125000 2.68125000 8.04375000
O 11.61875000 4.46875000 8.04375000
O 9.83125000 4.46875000 13.40625000
O 9.83125000 6.25625000 11.61875000
O 8.04375000 6.25625000 13.40625000
O 11.61875000 2.68125000 13.40625000
O 13.40625000 2.68125000 11.61875000
O 13.40625000 0.89375000 13.40625000
O 11.61875000 6.25625000 9.83125000
O 13.40625000 4.46875000 9.83125000
O 13.40625000 6.25625000 8.04375000
O 8.04375000 0.89375000 15.19375000
O 8.04375000 27.70625000 13.40625000
O 8.04375000 2.68125000 16.98125000
O 8.04375000 4.46875000 18.76875000
O 9.83125000 0.89375000 16.98125000
O 11.61875000 0.89375000 18.76875000
O 9.83125000 27.70625000 18.76875000
O 11.61875000 27.70625000 16.98125000
O 9.83125000 2.68125000 15.19375000
O 11.61875000 4.46875000 15.19375000
O 9.83125000 4.46875000 20.55625000
O 9.83125000 6.25625000 18.76875000
O 8.04375000 6.25625000 20.55625000
O 11.61875000 2.68125000 20.55625000
O 13.40625000 2.68125000 18.76875000
O 13.40625000 0.89375000 20.55625000
O 11.61875000 6.25625000 16.98125000
O 13.40625000 4.46875000 16.98125000
O 13.40625000 6.25625000 15.19375000
O 8.04375000 0.89375000 22.34375000
O 8.04375000 27.70625000 20.55625000
O 8.04375000 2.68125000 24.13125000
O 8.04375000 4.46875000 25.91875000
O 9.83125000 0.89375000 24.13125000
O 11.61875000 0.89375000 25.91875000
O 9.83125000 27.70625000 25.91875000
O 11.61875000 27.70625000 24.13125000
O 9.83125000 2.68125000 22.34375000
O 11.61875000 4.46875000 22.34375000
O 8.04375000 6.25625000 27.70625000
O 9.83125000 6.25625000 25.91875000
O 13.40625000 0.89375000 27.70625000
O 13.40625000 2.68125000 25.91875000
O 11.61875000 6.25625000 24.13125000
O 13.40625000 4.46875000 24.13125000
O 13.40625000 6.25625000 22.34375000
O 8.04375000 8.04375000 0.89375000
O 8.04375000 9.83125000 2.68125000
O 8.04375000 11.61875000 4.46875000
O 9.83125000 8.04375000 2.68125000
O 11.61875000 8.04375000 4.46875000
O 9.83125000 9.83125000 0.89375000
O 11.61875000 11.61875000 0.89375000
O 9.83125000 11.61875000 27.70625000
O 11.61875000 9.83125000 27.70625000
O 9.83125000 11.61875000 6.25625000
O 9.83125000 13.40625000 4.46875000
O 8.04375000 13.40625000 6.25625000
O 11.61875000 9.83125000 6.25625000
O 13.40625000 9.83125000 4.46875000
O 13.40625000 8.04375000 6.25625000
O 11.61875000 13.40625000 2.68125000
O 13.40625000 11.61875000 2.68125000
O 13.40625000 13.40625000 0.89375000
O 8.04375000 8.04375000 8.04375000
O 8.04375000 9.83125000 9.83125000
O 8.04375000 11.61875000 11.61875000
O 9.83125000 8.04375000 9.83125000
O 11.61875000 8.04375000 11.61875000
O 9.83125000 9.83125000 8.04375000
O 11.61875000 11.61875000 8.04375000
O 9.83125000 11.61875000 13.40625000
O 9.83125000 13.40625000 11.61875000
O 8.04375000 13.40625000 13.40625000
O 11.61875000 9.83125000 13.40625000
O 13.40625000 9.83125000 11.61875000
O 13.40625000 8.04375000 13.40625000
O 11.61875000 13.40625000 9.83125000
O 13.40625000 11.61875000 9.83125000
O 13.40625000 13.40625000 8.04375000
O 8.04375000 8.04375000 15.19375000
O 8.04375000 9.83125000 16.98125000
O 8.04375000 11.61875000 18.76875000
O 9.83125000 8.04375000 16.98125000
O 11.61875000 8.04375000 18.76875000
O 9.83125000 9.83125000 15.19375000
O 11.61875000 11.61875000 15.19375000
O 9.83125000 11.61875000 20.55625000
O 9.83125000 13.40625000 18.76875000
O 8.04375000 13.40625000 20.55625000
O 11.61875000 9.83125000 20.55625000
O 13.40625000 9.83125000 18.76875000
O 13.40625000 8.04375000 20.55625000
O 11.61875000 13.40625000 16.98125000
O 13.40625000 11.61875000 16.98125000
O 13.40625000 13.40625000 15.19375000
O 8.04375000 8.04375000 22.34375000
O 8.04375000 9.83125000 24.13125000
O 8.04375000 11.61875000 25.91875000
O 9.83125000 8.04375000 24.13125000
O 11.61875000 8.04375000 25.91875000
O 9.83125000 9.83125000 22.34375000
O 11.61875000 11.61875000 22.34375000
O 8.04375000 13.40625000 27.70625000
O 9.83125000 13.40625000 25.91875000
O 13.40625000 8.04375000 27.70625000
O 13.40625000 9.83125000 25.91875000
O 11.61875000 13.40625000 24.13125000
O 13.40625000 11.61875000 24.13125000
O 13.40625000 13.40625000 22.34375000
O 8.04375000 15.19375000 0.89375000
O 8.04375000 16.98125000 2.68125000
O 8.04375000 18.76875000 4.46875000
O 9.83125000 15.19375000 2.68125000
O 11.61875000 15.19375000 4.46875000
O 9.83125000 16.98125000 0.89375000
O 11.61875000 18.76875000 0.89375000
O 9.83125000 18.76875000 27.70625000
O 11.61875000 16.98125000 27.70625000
O 9.83125000 18.76875000 6.25625000
O 9.83125000 20.55625000 4.46875000
O 8.04375000 20.55625000 6.25625000
O 11.61875000 16.98125000 6.25625000
O 13.40625000 16.98125000 4.46875000
O 13.40625000 15.19375000 6.25625000
O 11.61875000 20.55625000 2.68125000
O 13.40625000 18.76875000 2.68125000
O 13.40625000 20.55625000 0.89375000
O 8.04375000 15.19375000 8.04375000
O 8.04375000 16.98125000 9.83125000
O 8.04375000 18.76875000 11.61875000
O 9.83125000 15.19375000 9.83125000
O 11.61875000 15.19375000 11.61875000
O 9.83125000 16.98125000 8.04375000
O 11.61875000 18.76875000 8.04375000
O 9.83125000 18.76875000 13.40625000
O 9.83125000 20.55625000 11.61875000
O 8.04375000 20.55625000 13.40625000
O 11.61875000 16.98125000 13.40625000
O 13.40625000 16.98125000 11.61875000
O 13.40625000 15.19375000 13.40625000
O 11.61875000 20.55625000 9.83125000
O 13.40625000 18.76875000 9.83125000
O 13.40625000 20.55625000 8.04375000
O 8.04375000 15.19375000 15.19375000
O 8.04375000 16.98125000 16.98125000
O 8.04375000 18.76875000 18.76875000
O 9.83125000 15.19375000 16.98125000
O 11.61875000 15.19375000 18.76875000
O 9.83125000 16.98125000 15.19375000
O 11.61875000 18.76875000 15.19375000
O 9.83125000 18.76875000 20.55625000
O 9.83125000 20.55625000 18.76875000
O 8.04375000 20.55625000 20.55625000
O 11.61875000 16.98125000 20.55625000
O 13.40625000 16.98125000 18.76875000
O 13.40625000 15.19375000 20.55625000
O 11.61875000 20.55625000 16.98125000
O 13.40625000 18.76875000 16.98125000
O 13.40625000 20.55625000 15.19375000
O 8.04375000 15.19375000 22.34375000
O 8.04375000 16.98125000 24.13125000
O 8.04375000 18.76875000 25.91875000
O 9.83125000 15.19375000 24.13125000
O 11.61875000 15.19375000 25.91875000
O 9.83125000 16.98125000 22.34375000
O 11.61875000 18.76875000 22.34375000
O 8.04375000 20.55625000 27.70625000
O 9.83125000 20.55625000 25.91875000
O 13.40625000 15.19375000 27.70625000
O 13.40625000 16.98125000 25.91875000
O 11.61875000 20.55625000 24.13125000
O 13.40625000 18.76875000 24.13125000
O 13.40625000 20.55625000 22.34375000
O 8.04375000 22.34375000 0.89375000
O 8.04375000 24.13125000 2.68125000
O 8.04375000 25.91875000 4.46875000
O 9.83125000 22.34375000 2.68125000
O 11.61875000 22.34375000 4.46875000
O 9.83125000 24.13125000 0.89375000
O 11.61875000 25.91875000 0.89375000
O 9.83125000 25.91875000 27.70625000
O 11.61875000 24.13125000 27.70625000
O 9.83125000 25.91875000 6.25625000
O 11.61875000 24.13125000 6.25625000
O 13.40625000 24.13125000 4.46875000
O 13.40625000 22.34375000 6.25625000
O 13.40625000 27.70625000 0.89375000
O 13.40625000 25.91875000 2.68125000
O 8.04375000 22.34375000 8.04375000
O 8.04375000 24.13125000 9.83125000
O 8.04375000 25.91875000 11.61875000
O 9.83125000 22.34375000 9.83125000
O 11.61875000 22.34375000 11.61875000
O 9.83125000 24.13125000 8.04375000
O 11.61875000 25.91875000 8.04375000
O 9.83125000 25.91875000 13.40625000
O 11.61875000 24.13125000 13.40625000
O 13.40625000 24.13125000 11.61875000
O 13.40625000 22.34375000 13.40625000
O 13.40625000 27.70625000 8.04375000
O 13.40625000 25.91875000 9.83125000
O 8.04375000 22.34375000 15.19375000
O 8.04375000 24.13125000 16.98125000
O 8.04375000 25.91875000 18.76875000
O 9.83125000 22.34375000 16.98125000
O 11.61875000 22.34375000 18.76875000
O 9.83125000 24.13125000 15.19375000
O 11.61875000 25.91875000 15.19375000
O 9.83125000 25.91875000 20.55625000
O 11.61875000 24.13125000 20.55625000
O 13.40625000 24.13125000 18.76875000
O 13.40625000 22.34375000 20.55625000
O 13.40625000 27.70625000 15.19375000
O 13.40625000 25.91875000 16.98125000
O 8.04375000 22.34375000 22.34375000
O 8.04375000 24.13125000 24.13125000
O 8.04375000 25.91875000 25.91875000
O 9.83125000 22.34375000 24.13125000
O 11.61875000 22.34375000 25.91875000
O 9.83125000 24.13125000 22.34375000
O 11.61875000 25.91875000 22.34375000
O 13.40625000 22.34375000 27.70625000
O 13.40625000 24.13125000 25.91875000
O 13.40625000 27.70625000 22.34375000
O 13.40625000 25.91875000 24.13125000
O 15.19375000 0.89375000 0.89375000
O 15.19375000 27.70625000 27.70625000
O 15.19375000 2.68125000 2.68125000
O 15.19375000 4.46875000 4.46875000
O 16.98125000 0.89375000 2.68125000
O 18.76875000 0.89375000 4.46875000
O 16.98125000 27.70625000 4.46875000
O 18.76875000 27.70625000 2.68125000
O 16.98125000 2.68125000 0.89375000
O 18.76875000 4.46875000 0.89375000
O 16.98125000 4.46875000 27.70625000
O 18.76875000 2.68125000 27.70625000
O 16.98125000 4.46875000 6.25625000
O 16.98125000 6.25625000 4.46875000
O 15.19375000 6.25625000 6.25625000
O 18.76875000 2.68125000 6.25625000
O 20.55625000 2.68125000 4.46875000
O 20.55625000 0.89375000 6.25625000
O 18.76875000 6.25625000 2.68125000
O 20.55625000 4.46875000 2.68125000
O 20.55625000 6.25625000 0.89375000
O 15.19375000 0.89375000 8.04375000
O 15.19375000 27.70625000 6.25625000
O 15.19375000 2.68125000 9.83125000
O 15.19375000 4.46875000 11.61875000
O 16.98125000 0.89375000 9.83125000
O 18.76875000 0.89375000 11.61875000
O 16.98125000 27.70625000 11.61875000
O 18.76875000 27.70625000 9.83125000
O 16.98125000 2.68125000 8.04375000
O 18.76875000 4.46875000 8.04375000
O 16.98125000 4.46875000 13.40625000
O 16.98125000 6.25625000 11.61875000
O 15.19375000 6.25625000 13.40625000
O 18.76875000 2.68125000 13.40625000
O 20.55625000 2.68125000 11.61875000
O 20.55625000 0.89375000 13.40625000
O 18.76875000 6.25625000 9.83125000
O 20.55625000 4.46875000 9.83125000
O 20.55625000 6.25625000 8.04375000
O 15.19375000 0.89375000 15.19375000
O 15.19375000 27.70625000 13.40625000
O 15.19375000 2.68125000 16.98125000
O 15.19375000 4.46875000 18.76875000
O 16.98125000 0.89375000 16.98125000
O 18.76875000 0.89375000 18.76875000
O 16.98125000 27.70625000 18.76875000
O 18.76875000 27.70625000 16.98125000
O 16.98125000 2.68125000 15.19375000
O 18.76875000 4.46875000 15.19375000
O 16.98125000 4.46875000 20.55625000
O 16.98125000 6.25625000 18.76875000
O 15.19375000 6.25625000 20.55625000
O 18.76875000 2.68125000 20.55625000
O 20.55625000 2.68125000 18.76875000
O 20.55625000 0.89375000 20.55625000
O 18.76875000 6.25625000 16.98125000
O 20.55625000 4.46875000 16.98125000
O 20.55625000 6.25625000 15.19375000
O 15.19375000 0.89375000 22.34375000
O 15.19375000 27.70625000 20.55625000
O 15.19375000 2.68125000 24.13125000
O 15.19375000 4.46875000 25.91875000
O 16.98125000 0.89375000 24.13125000
O 18.76875000 0.89375000 25.91875000
O 16.98125000 27.70625000 25.91875000
O 18.76875000 27.70625000 24.13125000
O 16.98125000 2.68125000 22.34375000
O 18.76875000 4.46875000 22.34375000
O 15.19375000 6.25625000 27.70625000
O 16.98125000 6.25625000 25.91875000
O 20.55625000 0.89375000 27.70625000
O 20.55625000 2.68125000 25.91875000
O 18.76875000 6.25625000 24.13125000
O 20.55625000 4.46875000 24.13125000
O 20.55625000 6.25625000 22.34375000
O 15.19375000 8.04375000 0.89375000
O 15.19375000 9.83125000 2.68125000
O 15.19375000 11.61875000 4.46875000
O 16.98125000 8.04375000 2.68125000
O 18.76875000 8.04375000 4.46875000
O 16.98125000 9.83125000 0.89375000
O 18.76875000 11.61875000 0.89375000
O 16.98125000 11.61875000 27.70625000
O 18.76875000 9.83125000 27.70625000
O 16.98125000 11.61875000 6.25625000
O 16.98125000 13.40625000 4.46875000
O 15.19375000 13.40625000 6.25625000
O 18.76875000 9.83125000 6.25625000
O 20.55625000 9.83125000 4.46875000
O 20.55625000 8.04375000 6.25625000
O 18.76875000 13.40625000 2.68125000
O 20.55625000 11.61875000 2.68125000
O 20.55625000 13.40625000 0.89375000
O 15.19375000 8.04375000 8.04375000
O 15.19375000 9.83125000 9.83125000
O 15.19375000 11.61875000 11.61875000
O 16.98125000 8.04375000 9.83125000
O 18.76875000 8.04375000 11.61875000
O 16.98125000 9.83125000 8.04375000
O 18.76875000 11.61875000 8.04375000
O 16.98125000 11.61875000 13.40625000
O 16.98125000 13.40625000 11.61875000
O 15.19375000 13.40625000 13.40625000
O 18.76875000 9.83125000 13.40625000
O 20.55625000 9.83125000 11.61875000
O 20.55625000 8.04375000 13.40625000
O 18.76875000 13.40625000 9.83125000
O 20.55625000 11.61875000 9.83125000
O 20.55625000 13.40625000 8.04375000
O 15.19375000 8.04375000 15.19375000
O 15.19375000 9.83125000 16.98125000
O 15.19375000 11.61875000 18.76875000
O 16.98125000 8.04375000 16.98125000
O 18.76875000 8.04375000 18.76875000
O 16.98125000 9.83125000 15.19375000
O 18.76875000 11.61875000 15.19375000
O 16.98125000 11.61875000 20.55625000
O 16.98125000 13.40625000 18.76875000
O 15.19375000 13.40625000 20.55625000
O 18.76875000 9.83125000 20.55625000
O 20.55625000 9.83125000 18.76875000
O 20.55625000 8.04375000 20.55625000
O 18.76875000 13.40625000 16.98125000
O 20.55625000 11.61875000 16.98125000
O 20.55625000 13.40625000 15.19375000
O 15.19375000 8.04375000 22.34375000
O 15.19375000 9.83125000 24.13125000
O 15.19375000 11.61875000 25.91875000
O 16.98125000 8.04375000 24.13125000
O 18.76875000 8.04375000 25.91875000
O 16.98125000 9.83125000 22.34375000
O 18.76875000 11.61875000 22.34375000
O 15.19375000 13.40625000 27.70625000
O 16.98125000 13.40625000 25.91875000
O 20.55625000 8.04375000 27.70625000
O 20.55625000 9.83125000 25.91875000
O 18.76875000 13.40625000 24.13125000
O 20.55625000 11.61875000 24.13125000
O 20.55625000 13.40625000 22.34375000
O 15.19375000 15.19375000 0.89375000
O 15.19375000 16.98125000 2.68125000
O 15.19375000 18.76875000 4.46875000
O 16.98125000 15.19375000 2.68125000
O 18.76875000 15.19375000 4.46875000
O 16.98125000 16.98125000 0.89375000
O 18.76875000 18.76875000 0.89375000
O 16.98125000 18.76875000 27.70625000
O 18.76875000 16.98125000 27.70625000
O 16.98125000 18.76875000 6.25625000
O 16.98125000 20.55625000 4.46875000
O 15.19375000 20.55625000 6.25625000
O 18.76875000 16.98125000 6.25625000
O 20.55625000 16.98125000 4.46875000
O 20.55625000 15.19375000 6.25625000
O 18.76875000 20.55625000 2.68125000
O 20.55625000 18.76875000 2.68125000
O 20.55625000 20.55625000 0.89375000
O 15.19375000 15.19375000 8.04375000
O 15.19375000 16.98125000 9.83125000
O 15.19375000 18.76875000 11.61875000
O 16.98125000 15.19375000 9.83125000
O 18.76875000 15.19375000 11.61875000
O 16.98125000 16.98125000 8.04375000
O 18.76875000 18.76875000 8.04375000
O 16.98125000 18.76875000 13.40625000
O 16.98125000 20.55625000 11.61875000
O 15.19375000 20.55625000 13.40625000
O 18.76875000 16.98125000 13.40625000
O 20.55625000 16.98125000 11.61875000
O 20.55625000 15.19375000 13.40625000
O 18.76875000 20.55625000 9.83125000
O 20.55625000 18.76875000 9.83125000
O 20.55625000 20.55625000 8.04375000
O 15.19375000 15.19375000 15.19375000
O 15.19375000 16.98125000 16.98125000
O 15.19375000 18.76875000 18.76875000
O 16.98125000 15.19375000 16.98125000
O 18.76875000 15.19375000 18.76875000
O 16.98125000 16.98125000 15.19375000
O 18.76875000 18.76875000 15.19375000
O 16.98125000 18.76875000 20.55625000
O 16.98125000 20.55625000 18.76875000
O 15.19375000 20.55625000 20.55625000
O 18.76875000 16.98125000 20.55625000
O 20.55625000 16.98125000 18.76875000
O 20.55625000 15.19375000 20.55625000
O 18.76875000 20.55625000 16.98125000
O 20.55625000 18.76875000 16.98125000
O 20.55625000 20.55625000 15.19375000
O 15.19375000 15.19375000 22.34375000
O 15.19375000 16.98125000 24.13125000
O 15.19375000 18.76875000 25.91875000
O 16.98125000 15.19375000 24.13125000
O 18.76875000 15.19375000 25.91875000
O 16.98125000 16.98125000 22.34375000
O 18.76875000 18.76875000 22.34375000
O 15.19375000 20.55625000 27.70625000
O 16.98125000 20.55625000 25.91875000
O 20.55625000 15.19375000 27.70625000
O 20.55625000 16.98125000 25.91875000
O 18.76875000 20.55625000 24.13125000
O 20.55625000 18.76875000 24.13125000
O 20.55625000 20.55625000 22.34375000
O 15.19375000 22.34375000 0.89375000
O 15.19375000 24.13125000 2.68125000
O 15.19375000 25.91875000 4.46875000
O 16.98125000 22.34375000 2.68125000
O 18.76875000 22.34375000 4.46875000
O 16.98125000 24.13125000 0.89375000
O 18.76875000 25.91875000 0.89375000
O 16.98125000 25.91875000 27.70625000
O 18.76875000 24.13125000 27.70625000
O 16.98125000 25.91875000 6.25625000
O 18.76875000 24.13125000 6.25625000
O 20.55625000 24.13125000 4.46875000
O 20.55625000 22.34375000 6.25625000
O 20.55625000 27.70625000 0.89375000
O 20.55625000 25.91875000 2.68125000
O 15.19375000 22.34375000 8.04375000
O 15.19375000 24.13125000 9.83125000
O 15.19375000 25.91875000 11.61875000
O 16.98125000 22.34375000 9.83125000
O 18.76875000 22.34375000 11.61875000
O 16.98125000 24.13125000 8.04375000
O 18.76875000 25.91875000 8.04375000
O 16.98125000 25.91875000 13.40625000
O 18.76875000 24.13125000 13.40625000
O 20.55625000 24.13125000 11.61875000
O 20.55625000 22.34375000 13.40625000
O 20.55625000 27.70625000 8.04375000
O 20.55625000 25.91875000 9.83125000
O 15.19375000 22.34375000 15.19375000
O 15.19375000 24.13125000 16.98125000
O 15.19375000 25.91875000 18.76875000
O 16.98125000 22.34375000 16.98125000
O 18.76875000 22.34375000 18.76875000
O 16.98125000 24.13125000 15.19375000
O 18.76875000 25.91875000 15.19375000
O 16.98125000 25.91875000 20.55625000
O 18.76875000 24.13125000 20.55625000
O 20.55625000 24.13125000 18.76875000
O 20.55625000 22.34375000 20.55625000
O 20.55625000 27.70625000 15.19375000
O 20.55625000 25.91875000 16.98125000
O 15.19375000 22.34375000 22.34375000
O 15.19375000 24.13125000 24.13125000
O 15.19375000 25.91875000 25.91875000
O 16.98125000 22.34375000 24.13125000
O 18.76875000 22.34375000 25.91875000
O 16.98125000 24.13125000 22.34375000
O 18.76875000 25.91875000 22.34375000
O 20.55625000 22.34375000 27.70625000
O 20.55625000 24.13125000 25.91875000
O 20.55625000 27.70625000 22.34375000
O 20.55625000 25.91875000 24.13125000
O 22.34375000 0.89375000 0.89375000
O 22.34375000 27.70625000 27.70625000
O 22.34375000 2.68125000 2.68125000
O 22.34375000 4.46875000 4.46875000
O 24.13125000 0.89375000 2.68125000
O 25.91875000 0.89375000 4.46875000
O 24.13125000 27.70625000 4.46875000
O 25.91875000 27.70625000 2.68125000
O 24.13125000 2.68125000 0.89375000
O 25.91875000 4.46875000 0.89375000
O 24.13125000 4.46875000 27.70625000
O 25.91875000 2.68125000 27.70625000
O 24.13125000 4.46875000 6.25625000
O 24.13125000 6.25625000 4.46875000
O 22.34375000 6.25625000 6.25625000
O 25.91875000 2.68125000 6.25625000
O 25.91875000 6.25625000 2.68125000
O 22.34375000 0.89375000 8.04375000
O 22.34375000 27.70625000 6.25625000
O 22.34375000 2.68125000 9.83125000
O 22.34375000 4.46875000 11.61875000
O 24.13125000 0.89375000 9.83125000
O 25.91875000 0.89375000 11.61875000
O 24.13125000 27.70625000 11.61875000
O 25.91875000 27.70625000 9.83125000
O 24.13125000 2.68125000 8.04375000
O 25.91875000 4.46875000 8.04375000
O 24.13125000 4.46875000 13.40625000
O 24.13125000 6.25625000 11.61875000
O 22.34375000 6.25625000 13.40625000
O 25.91875000 2.68125000 13.40625000
O 25.91875000 6.25625000 9.83125000
O 22.34375000 0.89375000 15.19375000
O 22.34375000 27.70625000 13.40625000
O 22.34375000 2.68125000 16.98125000
O 22.34375000 4.46875000 18.76875000
O 24.13125000 0.89375000 16.98125000
O 25.91875000 0.89375000 18.76875000
O 24.13125000 27.70625000 18.76875000
O 25.91875000 27.70625000 16.98125000
O 24.13125000 2.68125000 15.19375000
O 25.91875000 4.46875000 15.19375000
O 24.13125000 4.46875000 20.55625000
O 24.13125000 6.25625000 18.76875000
O 22.34375000 6.25625000 20.55625000
O 25.91875000 2.68125000 20.55625000
O 25.91875000 6.25625000 16.98125000
O 22.34375000 0.89375000 22.34375000
O 22.34375000 27.70625000 20.55625000
O 22.34375000 2.68125000 24.13125000
O 22.34375000 4.46875000 25.91875000
O 24.13125000 0.89375000 24.13125000
O 25.91875000 0.89375000 25.91875000
O 24.13125000 27.70625000 25.91875000
O 25.91875000 27.70625000 24.13125000
O 24.13125000 2.68125000 22.34375000
O 25.91875000 4.46875000 22.34375000
O 22.34375000 6.25625000 27.70625000
O 24.13125000 6.25625000 25.91875000
O 25.91875000 6.25625000 24.13125000
O 22.34375000 8.04375000 0.89375000
O 22.34375000 9.83125000 2.68125000
O 22.34375000 11.61875000 4.46875000
O 24.13125000 8.04375000 2.68125000
O 25.91875000 8.04375000 4.46875000
O 24.13125000 9.83125000 0.89375000
O 25.91875000 11.61875000 0.89375000
O 24.13125000 11.61875000 27.70625000
O 25.91875000 9.83125000 27.70625000
O 24.13125000 11.61875000 6.25625000
O 24.13125000 13.40625000 4.46875000
O 22.34375000 13.40625000 6.25625000
O 25.91875000 9.83125000 6.25625000
O 25.91875000 13.40625000 2.68125000
O 22.34375000 8.04375000 8.04375000
O 22.34375000 9.83125000 9.83125000
O 22.34375000 11.61875000 11.61875000
O 24.13125000 8.04375000 9.83125000
O 25.91875000 8.04375000 11.61875000
O 24.13125000 9.83125000 8.04375000
O 25.91875000 11.61875000 8.04375000
O 24.13125000 11.61875000 13.40625000
O 24.13125000 13.40625000 11.61875000
O 22.34375000 13.40625000 13.40625000
O 25.91875000 9.83125000 13.40625000
O 25.91875000 13.40625000 9.83125000
O 22.34375000 8.04375000 15.19375000
O 22.34375000 9.83125000 16.98125000
O 22.34375000 11.61875000 18.76875000
O 24.13125000 8.04375000 16.98125000
O 25.91875000 8.04375000 18.76875000
O 24.13125000 9.83125000 15.19375000
O 25.91875000 11.61875000 15.19375000
O 24.13125000 11.61875000 20.55625000
O 24.13125000 13.40625000 18.76875000
O 22.34375000 13.40625000 20.55625000
O 25.91875000 9.83125000 20.55625000
O 25.91875000 13.40625000 16.98125000
O 22.34375000 8.04375000 22.34375000
O 22.34375000 9.83125000 24.13125000
O 22.34375000 11.61875000 25.91875000
O 24.13125000 8.04375000 24.13125000
O 25.91875000 8.04375000 25.91875000
O 24.13125000 9.83125000 22.34375000
O 25.91875000 11.61875000 22.34375000
O 22.34375000 13.40625000 27.70625000
O 24.13125000 13.40625000 25.91875000
O 25.91875000 13.40625000 24.13125000
O 22.34375000 15.19375000 0.89375000
O 22.34375000 16.98125000 2.68125000
O 22.34375000 18.76875000 4.46875000
O 24.13125000 15.19375000 2.68125000
O 25.91875000 15.19375000 4.46875000
O 24.13125000 16.98125000 0.89375000
O 25.91875000 18.76875000 0.89375000
O 24.13125000 18.76875000 27.70625000
O 25.91875000 16.98125000 27.70625000
O 24.13125000 18.76875000 6.25625000
O 24.13125000 20.55625000 4.46875000
O 22.34375000 20.55625000 6.25625000
O 25.91875000 16.98125000 6.25625000
O 25.91875000 20.55625000 2.68125000
O 22.34375000 15.19375000 8.04375000
O 22.34375000 16.98125000 9.83125000
O 22.34375000 18.76875000 11.61875000
O 24.13125000 15.19375000 9.83125000
O 25.91875000 15.19375000 11.61875000
O 24.13125000 16.98125000 8.04375000
O 25.91875000 18.76875000 8.04375000
O 24.13125000 18.76875000 13.40625000
O 24.13125000 20.55625000 11.61875000
O 22.34375000 20.55625000 13.40625000
O 25.91875000 16.98125000 13.40625000
O 25.91875000 20.55625000 9.83125000
O 22.34375000 15.19375000 15.19375000
O 22.34375000 16.98125000 16.98125000
O 22.34375000 18.76875000 18.76875000
O 24.13125000 15.19375000 16.98125000
O 25.91875000 15.19375000 18.76875000
O 24.13125000 16.98125000 15.19375000
O 25.91875000 18.76875000 15.19375000
O 24.13125000 18.76875000 20.55625000
O 24.13125000 20.55625000 18.76875000
O 22.34375000 20.55625000 20.55625000
O 25.91875000 16.98125000 20.55625000
O 25.91875000 20.55625000 16.98125000
O 22.34375000 15.19375000 22.34375000
O 22.34375000 16.98125000 24.13125000
O 22.34375000 18.76875000 25.91875000
O 24.13125000 15.19375000 24.13125000
O 25.91875000 15.19375000 25.91875000
O 24.13125000 16.98125000 22.34375000
O 25.91875000 18.76875000 22.34375000
O 22.34375000 20.55625000 27.70625000
O 24.13125000 20.55625000 25.91875000
O 25.91875000 20.55625000 24.13125000
O 22.34375000 22.34375000 0.89375000
O 22.34375000 24.13125000 2.68125000
O 22.34375000 25.91875000 4.46875000
O 24.13125000 22.34375000 2.68125000
O 25.91875000 22.34375000 4.46875000
O 24.13125000 24.13125000 0.89375000
O 25.91875000 25.91875000 0.89375000
O 24.13125000 25.91875000 27.70625000
O 25.91875000 24.13125000 27.70625000
O 24.13125000 25.91875000 6.25625000
O 25.91875000 24.13125000 6.25625000
O 22.34375000 22.34375000 8.04375000
O 22.34375000 24.13125000 9.83125000
O 22.34375000 25.91875000 11.61875000
O 24.13125000 22.34375000 9.83125000
O 25.91875000 22.34375000 11.61875000
O 24.13125000 24.13125000 8.04375000
O 25.91875000 25.91875000 8.04375000
O 24.13125000 25.91875000 13.40625000
O 25.91875000 24.13125000 13.40625000
O 22.34375000 22.34375000 15.19375000
O 22.34375000 24.13125000 16.98125000
O 22.34375000 25.91875000 18.76875000
O 24.13125000 22.34375000 16.98125000
O 25.91875000 22.34375000 18.76875000
O 24.13125000 24.13125000 15.19375000
O 25.91875000 25.91875000 15.19375000
O 24.13125000 25.91875000 20.55625000
O 25.91875000 24.13125000 20.55625000
O 22.34375000 22.34375000 22.34375000
O 22.34375000 24.13125000 24.13125000
O 22.34375000 25.91875000 25.91875000
O 24.13125000 22.34375000 24.13125000
O 25.91875000 22.34375000 25.91875000
O 24.13125000 24.13125000 22.34375000
O 25.91875000 25.91875000 22.34375000
