# idealized beta-cristobalite SiO2; atom_style charge

1536 atoms
2 atom types

0.0 28.6000000000 xlo xhi
0.0 28.6000000000 ylo yhi
0.0 28.6000000000 zlo zhi

Masses

1 28.085500 # Si
2 15.999400 # O

Atoms # charge

       1  1  0.00000000      0.00000000      0.00000000      0.00000000 # Si
       2  1  0.00000000      0.00000000      3.57500000      3.57500000 # Si
       3  1  0.00000000      3.57500000      0.00000000      3.57500000 # Si
       4  1  0.00000000      3.57500000      3.57500000      0.00000000 # Si
       5  1  0.00000000      1.78750000      1.78750000      1.78750000 # Si
       6  1  0.00000000      1.78750000      5.36250000      5.36250000 # Si
       7  1  0.00000000      5.36250000      1.78750000      5.36250000 # Si
       8  1  0.00000000      5.36250000      5.36250000      1.78750000 # Si
       9  1  0.00000000      0.00000000      0.00000000      7.15000000 # Si
      10  1  0.00000000      0.00000000      3.57500000     10.72500000 # Si
      11  1  0.00000000      3.57500000      0.00000000     10.72500000 # Si
      12  1  0.00000000      3.57500000      3.57500000      7.15000000 # Si
      13  1  0.00000000      1.78750000      1.78750000      8.93750000 # Si
      14  1  0.00000000      1.78750000      5.36250000     12.51250000 # Si
      15  1  0.00000000      5.36250000      1.78750000     12.51250000 # Si
      16  1  0.00000000      5.36250000      5.36250000      8.93750000 # Si
      17  1  0.00000000      0.00000000      0.00000000     14.30000000 # Si
      18  1  0.00000000      0.00000000      3.57500000     17.87500000 # Si
      19  1  0.00000000      3.57500000      0.00000000     17.87500000 # Si
      20  1  0.00000000      3.57500000      3.57500000     14.30000000 # Si
      21  1  0.00000000      1.78750000      1.78750000     16.08750000 # Si
      22  1  0.00000000      1.78750000      5.36250000     19.66250000 # Si
      23  1  0.00000000      5.36250000      1.78750000     19.66250000 # Si
      24  1  0.00000000      5.36250000      5.36250000     16.08750000 # Si
      25  1  0.00000000      0.00000000      0.00000000     21.45000000 # Si
      26  1  0.00000000      0.00000000      3.57500000     25.02500000 # Si
      27  1  0.00000000      3.57500000      0.00000000     25.02500000 # Si
      28  1  0.00000000      3.57500000      3.57500000     21.45000000 # Si
      29  1  0.00000000      1.78750000      1.78750000     23.23750000 # Si
      30  1  0.00000000      1.78750000      5.36250000     26.81250000 # Si
      31  1  0.00000000      5.36250000      1.78750000     26.81250000 # Si
      32  1  0.00000000      5.36250000      5.36250000     23.23750000 # Si
      33  1  0.00000000      0.00000000      7.15000000      0.00000000 # Si
      34  1  0.00000000      0.00000000     10.72500000      3.57500000 # Si
      35  1  0.00000000      3.57500000      7.15000000      3.57500000 # Si
      36  1  0.00000000      3.57500000     10.72500000      0.00000000 # Si
      37  1  0.00000000      1.78750000      8.93750000      1.78750000 # Si
      38  1  0.00000000      1.78750000     12.51250000      5.36250000 # Si
      39  1  0.00000000      5.36250000      8.93750000      5.36250000 # Si
      40  1  0.00000000      5.36250000     12.51250000      1.78750000 # Si
      41  1  0.00000000      0.00000000      7.15000000      7.15000000 # Si
      42  1  0.00000000      0.00000000     10.72500000     10.72500000 # Si
      43  1  0.00000000      3.57500000      7.15000000     10.72500000 # Si
      44  1  0.00000000      3.57500000     10.72500000      7.15000000 # Si
      45  1  0.00000000      1.78750000      8.93750000      8.93750000 # Si
      46  1  0.00000000      1.78750000     12.51250000     12.51250000 # Si
      47  1  0.00000000      5.36250000      8.93750000     12.51250000 # Si
      48  1  0.00000000      5.36250000     12.51250000      8.93750000 # Si
      49  1  0.00000000      0.00000000      7.15000000     14.30000000 # Si
      50  1  0.00000000      0.00000000     10.72500000     17.87500000 # Si
      51  1  0.00000000      3.57500000      7.15000000     17.87500000 # Si
      52  1  0.00000000      3.57500000     10.72500000     14.30000000 # Si
      53  1  0.00000000      1.78750000      8.93750000     16.08750000 # Si
      54  1  0.00000000      1.78750000     12.51250000     19.66250000 # Si
      55  1  0.00000000      5.36250000      8.93750000     19.66250000 # Si
      56  1  0.00000000      5.36250000     12.51250000     16.08750000 # Si
      57  1  0.00000000      0.00000000      7.15000000     21.45000000 # Si
      58  1  0.00000000      0.00000000     10.72500000     25.02500000 # Si
      59  1  0.00000000      3.57500000      7.15000000     25.02500000 # Si
      60  1  0.00000000      3.57500000     10.72500000     21.45000000 # Si
      61  1  0.00000000      1.78750000      8.93750000     23.23750000 # Si
      62  1  0.00000000      1.78750000     12.51250000     26.81250000 # Si
      63  1  0.00000000      5.36250000      8.93750000     26.81250000 # Si
      64  1  0.00000000      5.36250000     12.51250000     23.23750000 # Si
      65  1  0.00000000      0.00000000     14.30000000      0.00000000 # Si
      66  1  0.00000000      0.00000000     17.87500000      3.57500000 # Si
      67  1  0.00000000      3.57500000     14.30000000      3.57500000 # Si
      68  1  0.00000000      3.57500000     17.87500000      0.00000000 # Si
      69  1  0.00000000      1.78750000     16.08750000      1.78750000 # Si
      70  1  0.00000000      1.78750000     19.66250000      5.36250000 # Si
      71  1  0.00000000      5.36250000     16.08750000      5.36250000 # Si
      72  1  0.00000000      5.36250000     19.66250000      1.78750000 # Si
      73  1  0.00000000      0.00000000     14.30000000      7.15000000 # Si
      74  1  0.00000000      0.00000000     17.87500000     10.72500000 # Si
      75  1  0.00000000      3.57500000     14.30000000     10.72500000 # Si
      76  1  0.00000000      3.57500000     17.87500000      7.15000000 # Si
      77  1  0.00000000      1.78750000     16.08750000      8.93750000 # Si
      78  1  0.00000000      1.78750000     19.66250000     12.51250000 # Si
      79  1  0.00000000      5.36250000     16.08750000     12.51250000 # Si
      80  1  0.00000000      5.36250000     19.66250000      8.93750000 # Si
      81  1  0.00000000      0.00000000     14.30000000     14.30000000 # Si
      82  1  0.00000000      0.00000000     17.87500000     17.87500000 # Si
      83  1  0.00000000      3.57500000     14.30000000     17.87500000 # Si
      84  1  0.00000000      3.57500000     17.87500000     14.30000000 # Si
      85  1  0.00000000      1.78750000     16.08750000     16.08750000 # Si
      86  1  0.00000000      1.78750000     19.66250000     19.66250000 # Si
      87  1  0.00000000      5.36250000     16.08750000     19.66250000 # Si
      88  1  0.00000000      5.36250000     19.66250000     16.08750000 # Si
      89  1  0.00000000      0.00000000     14.30000000     21.45000000 # Si
      90  1  0.00000000      0.00000000     17.87500000     25.02500000 # Si
      91  1  0.00000000      3.57500000     14.30000000     25.02500000 # Si
      92  1  0.00000000      3.57500000     17.87500000     21.45000000 # Si
      93  1  0.00000000      1.78750000     16.08750000     23.23750000 # Si
      94  1  0.00000000      1.78750000     19.66250000     26.81250000 # Si
      95  1  0.00000000      5.36250000     16.08750000     26.81250000 # Si
      96  1  0.00000000      5.36250000     19.66250000     23.23750000 # Si
      97  1  0.00000000      0.00000000     21.45000000      0.00000000 # Si
      98  1  0.00000000      0.00000000     25.02500000      3.57500000 # Si
      99  1  0.00000000      3.57500000     21.45000000      3.57500000 # Si
     100  1  0.00000000      3.57500000     25.02500000      0.00000000 # Si
     101  1  0.00000000      1.78750000     23.23750000      1.78750000 # Si
     102  1  0.00000000      1.78750000     26.81250000      5.36250000 # Si
     103  1  0.00000000      5.36250000     23.23750000      5.36250000 # Si
     104  1  0.00000000      5.36250000     26.81250000      1.78750000 # Si
     105  1  0.00000000      0.00000000     21.45000000      7.15000000 # Si
     106  1  0.00000000      0.00000000     25.02500000     10.72500000 # Si
     107  1  0.00000000      3.57500000     21.45000000     10.72500000 # Si
     108  1  0.00000000      3.57500000     25.02500000      7.15000000 # Si
     109  1  0.00000000      1.78750000     23.23750000      8.93750000 # Si
     110  1  0.00000000      1.78750000     26.81250000     12.51250000 # Si
     111  1  0.00000000      5.36250000     23.23750000     12.51250000 # Si
     112  1  0.00000000      5.36250000     26.81250000      8.93750000 # Si
     113  1  0.00000000      0.00000000     21.45000000     14.30000000 # Si
     114  1  0.00000000      0.00000000     25.02500000     17.87500000 # Si
     115  1  0.00000000      3.57500000     21.45000000     17.87500000 # Si
     116  1  0.00000000      3.57500000     25.02500000     14.30000000 # Si
     117  1  0.00000000      1.78750000     23.23750000     16.08750000 # Si
     118  1  0.00000000      1.78750000     26.81250000     19.66250000 # Si
     119  1  0.00000000      5.36250000     23.23750000     19.66250000 # Si
     120  1  0.00000000      5.36250000     26.81250000     16.08750000 # Si
     121  1  0.00000000      0.00000000     21.45000000     21.45000000 # Si
     122  1  0.00000000      0.00000000     25.02500000     25.02500000 # Si
     123  1  0.00000000      3.57500000     21.45000000     25.02500000 # Si
     124  1  0.00000000      3.57500000     25.02500000     21.45000000 # Si
     125  1  0.00000000      1.78750000     23.23750000     23.23750000 # Si
     126  1  0.00000000      1.78750000     26.81250000     26.81250000 # Si
     127  1  0.00000000      5.36250000     23.23750000     26.81250000 # Si
     128  1  0.00000000      5.36250000     26.81250000     23.23750000 # Si
     129  1  0.00000000      7.15000000      0.00000000      0.00000000 # Si
     130  1  0.00000000      7.15000000      3.57500000      3.57500000 # Si
     131  1  0.00000000     10.72500000      0.00000000      3.57500000 # Si
     132  1  0.00000000     10.72500000      3.57500000      0.00000000 # Si
     133  1  0.00000000      8.93750000      1.78750000      1.78750000 # Si
     134  1  0.00000000      8.93750000      5.36250000      5.36250000 # Si
     135  1  0.00000000     12.51250000      1.78750000      5.36250000 # Si
     136  1  0.00000000     12.51250000      5.36250000      1.78750000 # Si
     137  1  0.00000000      7.15000000      0.00000000      7.15000000 # Si
     138  1  0.00000000      7.15000000      3.57500000     10.72500000 # Si
     139  1  0.00000000     10.72500000      0.00000000     10.72500000 # Si
     140  1  0.00000000     10.72500000      3.57500000      7.15000000 # Si
     141  1  0.00000000      8.93750000      1.78750000      8.93750000 # Si
     142  1  0.00000000      8.93750000      5.36250000     12.51250000 # Si
     143  1  0.00000000     12.51250000      1.78750000     12.51250000 # Si
     144  1  0.00000000     12.51250000      5.36250000      8.93750000 # Si
     145  1  0.00000000      7.15000000      0.00000000     14.30000000 # Si
     146  1  0.00000000      7.15000000      3.57500000     17.87500000 # Si
     147  1  0.00000000     10.72500000      0.00000000     17.87500000 # Si
     148  1  0.00000000     10.72500000      3.57500000     14.30000000 # Si
     149  1  0.00000000      8.93750000      1.78750000     16.08750000 # Si
     150  1  0.00000000      8.93750000      5.36250000     19.66250000 # Si
     151  1  0.00000000     12.51250000      1.78750000     19.66250000 # Si
     152  1  0.00000000     12.51250000      5.36250000     16.08750000 # Si
     153  1  0.00000000      7.15000000      0.00000000     21.45000000 # Si
     154  1  0.00000000      7.15000000      3.57500000     25.02500000 # Si
     155  1  0.00000000     10.72500000      0.00000000     25.02500000 # Si
     156  1  0.00000000     10.72500000      3.57500000     21.45000000 # Si
     157  1  0.00000000      8.93750000      1.78750000     23.23750000 # Si
     158  1  0.00000000      8.93750000      5.36250000     26.81250000 # Si
     159  1  0.00000000     12.51250000      1.78750000     26.81250000 # Si
     160  1  0.00000000     12.51250000      5.36250000     23.23750000 # Si
     161  1  0.00000000      7.15000000      7.15000000      0.00000000 # Si
     162  1  0.00000000      7.15000000     10.72500000      3.57500000 # Si
     163  1  0.00000000     10.72500000      7.15000000      3.57500000 # Si
     164  1  0.00000000     10.72500000     10.72500000      0.00000000 # Si
     165  1  0.00000000      8.93750000      8.93750000      1.78750000 # Si
     166  1  0.00000000      8.93750000     12.51250000      5.36250000 # Si
     167  1  0.00000000     12.51250000      8.93750000      5.36250000 # Si
     168  1  0.00000000     12.51250000     12.51250000      1.78750000 # Si
     169  1  0.00000000      7.15000000      7.15000000      7.15000000 # Si
     170  1  0.00000000      7.15000000     10.72500000     10.72500000 # Si
     171  1  0.00000000     10.72500000      7.15000000     10.72500000 # Si
     172  1  0.00000000     10.72500000     10.72500000      7.15000000 # Si
     173  1  0.00000000      8.93750000      8.93750000      8.93750000 # Si
     174  1  0.00000000      8.93750000     12.51250000     12.51250000 # Si
     175  1  0.00000000     12.51250000      8.93750000     12.51250000 # Si
     176  1  0.00000000     12.51250000     12.51250000      8.93750000 # Si
     177  1  0.00000000      7.15000000      7.15000000     14.30000000 # Si
     178  1  0.00000000      7.15000000     10.72500000     17.87500000 # Si
     179  1  0.00000000     10.72500000      7.15000000     17.87500000 # Si
     180  1  0.00000000     10.72500000     10.72500000     14.30000000 # Si
     181  1  0.00000000      8.93750000      8.93750000     16.08750000 # Si
     182  1  0.00000000      8.93750000     12.51250000     19.66250000 # Si
     183  1  0.00000000     12.51250000      8.93750000     19.66250000 # Si
     184  1  0.00000000     12.51250000     12.51250000     16.08750000 # Si
     185  1  0.00000000      7.15000000      7.15000000     21.45000000 # Si
     186  1  0.00000000      7.15000000     10.72500000     25.02500000 # Si
     187  1  0.00000000     10.72500000      7.15000000     25.02500000 # Si
     188  1  0.00000000     10.72500000     10.72500000     21.45000000 # Si
     189  1  0.00000000      8.93750000      8.93750000     23.23750000 # Si
     190  1  0.00000000      8.93750000     12.51250000     26.81250000 # Si
     191  1  0.00000000     12.51250000      8.93750000     26.81250000 # Si
     192  1  0.00000000     12.51250000     12.51250000     23.23750000 # Si
     193  1  0.00000000      7.15000000     14.30000000      0.00000000 # Si
     194  1  0.00000000      7.15000000     17.87500000      3.57500000 # Si
     195  1  0.00000000     10.72500000     14.30000000      3.57500000 # Si
     196  1  0.00000000     10.72500000     17.87500000      0.00000000 # Si
     197  1  0.00000000      8.93750000     16.08750000      1.78750000 # Si
     198  1  0.00000000      8.93750000     19.66250000      5.36250000 # Si
     199  1  0.00000000     12.51250000     16.08750000      5.36250000 # Si
     200  1  0.00000000     12.51250000     19.66250000      1.78750000 # Si
     201  1  0.00000000      7.15000000     14.30000000      7.15000000 # Si
     202  1  0.00000000      7.15000000     17.87500000     10.72500000 # Si
     203  1  0.00000000     10.72500000     14.30000000     10.72500000 # Si
     204  1  0.00000000     10.72500000     17.87500000      7.15000000 # Si
     205  1  0.00000000      8.93750000     16.08750000      8.93750000 # Si
     206  1  0.00000000      8.93750000     19.66250000     12.51250000 # Si
     207  1  0.00000000     12.51250000     16.08750000     12.51250000 # Si
     208  1  0.00000000     12.51250000     19.66250000      8.93750000 # Si
     209  1  0.00000000      7.15000000     14.30000000     14.30000000 # Si
     210  1  0.00000000      7.15000000     17.87500000     17.87500000 # Si
     211  1  0.00000000     10.72500000     14.30000000     17.87500000 # Si
     212  1  0.00000000     10.72500000     17.87500000     14.30000000 # Si
     213  1  0.00000000      8.93750000     16.08750000     16.08750000 # Si
     214  1  0.00000000      8.93750000     19.66250000     19.66250000 # Si
     215  1  0.00000000     12.51250000     16.08750000     19.66250000 # Si
     216  1  0.00000000     12.51250000     19.66250000     16.08750000 # Si
     217  1  0.00000000      7.15000000     14.30000000     21.45000000 # Si
     218  1  0.00000000      7.15000000     17.87500000     25.02500000 # Si
     219  1  0.00000000     10.72500000     14.30000000     25.02500000 # Si
     220  1  0.00000000     10.72500000     17.87500000     21.45000000 # Si
     221  1  0.00000000      8.93750000     16.08750000     23.23750000 # Si
     222  1  0.00000000      8.93750000     19.66250000     26.81250000 # Si
     223  1  0.00000000     12.51250000     16.08750000     26.81250000 # Si
     224  1  0.00000000     12.51250000     19.66250000     23.23750000 # Si
     225  1  0.00000000      7.15000000     21.45000000      0.00000000 # Si
     226  1  0.00000000      7.15000000     25.02500000      3.57500000 # Si
     227  1  0.00000000     10.72500000     21.45000000      3.57500000 # Si
     228  1  0.00000000     10.72500000     25.02500000      0.00000000 # Si
     229  1  0.00000000      8.93750000     23.23750000      1.78750000 # Si
     230  1  0.00000000      8.93750000     26.81250000      5.36250000 # Si
     231  1  0.00000000     12.51250000     23.23750000      5.36250000 # Si
     232  1  0.00000000     12.51250000     26.81250000      1.78750000 # Si
     233  1  0.00000000      7.15000000     21.45000000      7.15000000 # Si
     234  1  0.00000000      7.15000000     25.02500000     10.72500000 # Si
     235  1  0.00000000     10.72500000     21.45000000     10.72500000 # Si
     236  1  0.00000000     10.72500000     25.02500000      7.15000000 # Si
     237  1  0.00000000      8.93750000     23.23750000      8.93750000 # Si
     238  1  0.00000000      8.93750000     26.81250000     12.51250000 # Si
     239  1  0.00000000     12.51250000     23.23750000     12.51250000 # Si
     240  1  0.00000000     12.51250000     26.81250000      8.93750000 # Si
     241  1  0.00000000      7.15000000     21.45000000     14.30000000 # Si
     242  1  0.00000000      7.15000000     25.02500000     17.87500000 # Si
     243  1  0.00000000     10.72500000     21.45000000     17.87500000 # Si
     244  1  0.00000000     10.72500000     25.02500000     14.30000000 # Si
     245  1  0.00000000      8.93750000     23.23750000     16.08750000 # Si
     246  1  0.00000000      8.93750000     26.81250000     19.66250000 # Si
     247  1  0.00000000     12.51250000     23.23750000     19.66250000 # Si
     248  1  0.00000000     12.51250000     26.81250000     16.08750000 # Si
     249  1  0.00000000      7.15000000     21.45000000     21.45000000 # Si
     250  1  0.00000000      7.15000000     25.02500000     25.02500000 # Si
     251  1  0.00000000     10.72500000     21.45000000     25.02500000 # Si
     252  1  0.00000000     10.72500000     25.02500000     21.45000000 # Si
     253  1  0.00000000      8.93750000     23.23750000     23.23750000 # Si
     254  1  0.00000000      8.93750000     26.81250000     26.81250000 # Si
     255  1  0.00000000     12.51250000     23.23750000     26.81250000 # Si
     256  1  0.00000000     12.51250000     26.81250000     23.23750000 # Si
     257  1  0.00000000     14.30000000      0.00000000      0.00000000 # Si
     258  1  0.00000000     14.30000000      3.57500000      3.57500000 # Si
     259  1  0.00000000     17.87500000      0.00000000      3.57500000 # Si
     260  1  0.00000000     17.87500000      3.57500000      0.00000000 # Si
     261  1  0.00000000     16.08750000      1.78750000      1.78750000 # Si
     262  1  0.00000000     16.08750000      5.36250000      5.36250000 # Si
     263  1  0.00000000     19.66250000      1.78750000      5.36250000 # Si
     264  1  0.00000000     19.66250000      5.36250000      1.78750000 # Si
     265  1  0.00000000     14.30000000      0.00000000      7.15000000 # Si
     266  1  0.00000000     14.30000000      3.57500000     10.72500000 # Si
     267  1  0.00000000     17.87500000      0.00000000     10.72500000 # Si
     268  1  0.00000000     17.87500000      3.57500000      7.15000000 # Si
     269  1  0.00000000     16.08750000      1.78750000      8.93750000 # Si
     270  1  0.00000000     16.08750000      5.36250000     12.51250000 # Si
     271  1  0.00000000     19.66250000      1.78750000     12.51250000 # Si
     272  1  0.00000000     19.66250000      5.36250000      8.93750000 # Si
     273  1  0.00000000     14.30000000      0.00000000     14.30000000 # Si
     274  1  0.00000000     14.30000000      3.57500000     17.87500000 # Si
     275  1  0.00000000     17.87500000      0.00000000     17.87500000 # Si
     276  1  0.00000000     17.87500000      3.57500000     14.30000000 # Si
     277  1  0.00000000     16.08750000      1.78750000     16.08750000 # Si
     278  1  0.00000000     16.08750000      5.36250000     19.66250000 # Si
     279  1  0.00000000     19.66250000      1.78750000     19.66250000 # Si
     280  1  0.00000000     19.66250000      5.36250000     16.08750000 # Si
     281  1  0.00000000     14.30000000      0.00000000     21.45000000 # Si
     282  1  0.00000000     14.30000000      3.57500000     25.02500000 # Si
     283  1  0.00000000     17.87500000      0.00000000     25.02500000 # Si
     284  1  0.00000000     17.87500000      3.57500000     21.45000000 # Si
     285  1  0.00000000     16.08750000      1.78750000     23.23750000 # Si
     286  1  0.00000000     16.08750000      5.36250000     26.81250000 # Si
     287  1  0.00000000     19.66250000      1.78750000     26.81250000 # Si
     288  1  0.00000000     19.66250000      5.36250000     23.23750000 # Si
     289  1  0.00000000     14.30000000      7.15000000      0.00000000 # Si
     290  1  0.00000000     14.30000000     10.72500000      3.57500000 # Si
     291  1  0.00000000     17.87500000      7.15000000      3.57500000 # Si
     292  1  0.00000000     17.87500000     10.72500000      0.00000000 # Si
     293  1  0.00000000     16.08750000      8.93750000      1.78750000 # Si
     294  1  0.00000000     16.08750000     12.51250000      5.36250000 # Si
     295  1  0.00000000     19.66250000      8.93750000      5.36250000 # Si
     296  1  0.00000000     19.66250000     12.51250000      1.78750000 # Si
     297  1  0.00000000     14.30000000      7.15000000      7.15000000 # Si
     298  1  0.00000000     14.30000000     10.72500000     10.72500000 # Si
     299  1  0.00000000     17.87500000      7.15000000     10.72500000 # Si
     300  1  0.00000000     17.87500000     10.72500000      7.15000000 # Si
     301  1  0.00000000     16.08750000      8.93750000      8.93750000 # Si
     302  1  0.00000000     16.08750000     12.51250000     12.51250000 # Si
     303  1  0.00000000     19.66250000      8.93750000     12.51250000 # Si
     304  1  0.00000000     19.66250000     12.51250000      8.93750000 # Si
     305  1  0.00000000     14.30000000      7.15000000     14.30000000 # Si
     306  1  0.00000000     14.30000000     10.72500000     17.87500000 # Si
     307  1  0.00000000     17.87500000      7.15000000     17.87500000 # Si
     308  1  0.00000000     17.87500000     10.72500000     14.30000000 # Si
     309  1  0.00000000     16.08750000      8.93750000     16.08750000 # Si
     310  1  0.00000000     16.08750000     12.51250000     19.66250000 # Si
     311  1  0.00000000     19.66250000      8.93750000     19.66250000 # Si
     312  1  0.00000000     19.66250000     12.51250000     16.08750000 # Si
     313  1  0.00000000     14.30000000      7.15000000     21.45000000 # Si
     314  1  0.00000000     14.30000000     10.72500000     25.02500000 # Si
     315  1  0.00000000     17.87500000      7.15000000     25.02500000 # Si
     316  1  0.00000000     17.87500000     10.72500000     21.45000000 # Si
     317  1  0.00000000     16.08750000      8.93750000     23.23750000 # Si
     318  1  0.00000000     16.08750000     12.51250000     26.81250000 # Si
     319  1  0.00000000     19.66250000      8.93750000     26.81250000 # Si
     320  1  0.00000000     19.66250000     12.51250000     23.23750000 # Si
     321  1  0.00000000     14.30000000     14.30000000      0.00000000 # Si
     322  1  0.00000000     14.30000000     17.87500000      3.57500000 # Si
     323  1  0.00000000     17.87500000     14.30000000      3.57500000 # Si
     324  1  0.00000000     17.87500000     17.87500000      0.00000000 # Si
     325  1  0.00000000     16.08750000     16.08750000      1.78750000 # Si
     326  1  0.00000000     16.08750000     19.66250000      5.36250000 # Si
     327  1  0.00000000     19.66250000     16.08750000      5.36250000 # Si
     328  1  0.00000000     19.66250000     19.66250000      1.78750000 # Si
     329  1  0.00000000     14.30000000     14.30000000      7.15000000 # Si
     330  1  0.00000000     14.30000000     17.87500000     10.72500000 # Si
     331  1  0.00000000     17.87500000     14.30000000     10.72500000 # Si
     332  1  0.00000000     17.87500000     17.87500000      7.15000000 # Si
     333  1  0.00000000     16.08750000     16.08750000      8.93750000 # Si
     334  1  0.00000000     16.08750000     19.66250000     12.51250000 # Si
     335  1  0.00000000     19.66250000     16.08750000     12.51250000 # Si
     336  1  0.00000000     19.66250000     19.66250000      8.93750000 # Si
     337  1  0.00000000     14.30000000     14.30000000     14.30000000 # Si
     338  1  0.00000000     14.30000000     17.87500000     17.87500000 # Si
     339  1  0.00000000     17.87500000     14.30000000     17.87500000 # Si
     340  1  0.00000000     17.87500000     17.87500000     14.30000000 # Si
     341  1  0.00000000     16.08750000     16.08750000     16.08750000 # Si
     342  1  0.00000000     16.08750000     19.66250000     19.66250000 # Si
     343  1  0.00000000     19.66250000     16.08750000     19.66250000 # Si
     344  1  0.00000000     19.66250000     19.66250000     16.08750000 # Si
     345  1  0.00000000     14.30000000     14.30000000     21.45000000 # Si
     346  1  0.00000000     14.30000000     17.87500000     25.02500000 # Si
     347  1  0.00000000     17.87500000     14.30000000     25.02500000 # Si
     348  1  0.00000000     17.87500000     17.87500000     21.45000000 # Si
     349  1  0.00000000     16.08750000     16.08750000     23.23750000 # Si
     350  1  0.00000000     16.08750000     19.66250000     26.81250000 # Si
     351  1  0.00000000     19.66250000     16.08750000     26.81250000 # Si
     352  1  0.00000000     19.66250000     19.66250000     23.23750000 # Si
     353  1  0.00000000     14.30000000     21.45000000      0.00000000 # Si
     354  1  0.00000000     14.30000000     25.02500000      3.57500000 # Si
     355  1  0.00000000     17.87500000     21.45000000      3.57500000 # Si
     356  1  0.00000000     17.87500000     25.02500000      0.00000000 # Si
     357  1  0.00000000     16.08750000     23.23750000      1.78750000 # Si
     358  1  0.00000000     16.08750000     26.81250000      5.36250000 # Si
     359  1  0.00000000     19.66250000     23.23750000      5.36250000 # Si
     360  1  0.00000000     19.66250000     26.81250000      1.78750000 # Si
     361  1  0.00000000     14.30000000     21.45000000      7.15000000 # Si
     362  1  0.00000000     14.30000000     25.02500000     10.72500000 # Si
     363  1  0.00000000     17.87500000     21.45000000     10.72500000 # Si
     364  1  0.00000000     17.87500000     25.02500000      7.15000000 # Si
     365  1  0.00000000     16.08750000     23.23750000      8.93750000 # Si
     366  1  0.00000000     16.08750000     26.81250000     12.51250000 # Si
     367  1  0.00000000     19.66250000     23.23750000     12.51250000 # Si
     368  1  0.00000000     19.66250000     26.81250000      8.93750000 # Si
     369  1  0.00000000     14.30000000     21.45000000     14.30000000 # Si
     370  1  0.00000000     14.30000000     25.02500000     17.87500000 # Si
     371  1  0.00000000     17.87500000     21.45000000     17.87500000 # Si
     372  1  0.00000000     17.87500000     25.02500000     14.30000000 # Si
     373  1  0.00000000     16.08750000     23.23750000     16.08750000 # Si
     374  1  0.00000000     16.08750000     26.81250000     19.66250000 # Si
     375  1  0.00000000     19.66250000     23.23750000     19.66250000 # Si
     376  1  0.00000000     19.66250000     26.81250000     16.08750000 # Si
     377  1  0.00000000     14.30000000     21.45000000     21.45000000 # Si
     378  1  0.00000000     14.30000000     25.02500000     25.02500000 # Si
     379  1  0.00000000     17.87500000     21.45000000     25.02500000 # Si
     380  1  0.00000000     17.87500000     25.02500000     21.45000000 # Si
     381  1  0.00000000     16.08750000     23.23750000     23.23750000 # Si
     382  1  0.00000000     16.08750000     26.81250000     26.81250000 # Si
     383  1  0.00000000     19.66250000     23.23750000     26.81250000 # Si
     384  1  0.00000000     19.66250000     26.81250000     23.23750000 # Si
     385  1  0.00000000     21.45000000      0.00000000      0.00000000 # Si
     386  1  0.00000000     21.45000000      3.57500000      3.57500000 # Si
     387  1  0.00000000     25.02500000      0.00000000      3.57500000 # Si
     388  1  0.00000000     25.02500000      3.57500000      0.00000000 # Si
     389  1  0.00000000     23.23750000      1.78750000      1.78750000 # Si
     390  1  0.00000000     23.23750000      5.36250000      5.36250000 # Si
     391  1  0.00000000     26.81250000      1.78750000      5.36250000 # Si
     392  1  0.00000000     26.81250000      5.36250000      1.78750000 # Si
     393  1  0.00000000     21.45000000      0.00000000      7.15000000 # Si
     394  1  0.00000000     21.45000000      3.57500000     10.72500000 # Si
     395  1  0.00000000     25.02500000      0.00000000     10.72500000 # Si
     396  1  0.00000000     25.02500000      3.57500000      7.15000000 # Si
     397  1  0.00000000     23.23750000      1.78750000      8.93750000 # Si
     398  1  0.00000000     23.23750000      5.36250000     12.51250000 # Si
     399  1  0.00000000     26.81250000      1.78750000     12.51250000 # Si
     400  1  0.00000000     26.81250000      5.36250000      8.93750000 # Si
     401  1  0.00000000     21.45000000      0.00000000     14.30000000 # Si
     402  1  0.00000000     21.45000000      3.57500000     17.87500000 # Si
     403  1  0.00000000     25.02500000      0.00000000     17.87500000 # Si
     404  1  0.00000000     25.02500000      3.57500000     14.30000000 # Si
     405  1  0.00000000     23.23750000      1.78750000     16.08750000 # Si
     406  1  0.00000000     23.23750000      5.36250000     19.66250000 # Si
     407  1  0.00000000     26.81250000      1.78750000     19.66250000 # Si
     408  1  0.00000000     26.81250000      5.36250000     16.08750000 # Si
     409  1  0.00000000     21.45000000      0.00000000     21.45000000 # Si
     410  1  0.00000000     21.45000000      3.57500000     25.02500000 # Si
     411  1  0.00000000     25.02500000      0.00000000     25.02500000 # Si
     412  1  0.00000000     25.02500000      3.57500000     21.45000000 # Si
     413  1  0.00000000     23.23750000      1.78750000     23.23750000 # Si
     414  1  0.00000000     23.23750000      5.36250000     26.81250000 # Si
     415  1  0.00000000     26.81250000      1.78750000     26.81250000 # Si
     416  1  0.00000000     26.81250000      5.36250000     23.23750000 # Si
     417  1  0.00000000     21.45000000      7.15000000      0.00000000 # Si
     418  1  0.00000000     21.45000000     10.72500000      3.57500000 # Si
     419  1  0.00000000     25.02500000      7.15000000      3.57500000 # Si
     420  1  0.00000000     25.02500000     10.72500000      0.00000000 # Si
     421  1  0.00000000     23.23750000      8.93750000      1.78750000 # Si
     422  1  0.00000000     23.23750000     12.51250000      5.36250000 # Si
     423  1  0.00000000     26.81250000      8.93750000      5.36250000 # Si
     424  1  0.00000000     26.81250000     12.51250000      1.78750000 # Si
     425  1  0.00000000     21.45000000      7.15000000      7.15000000 # Si
     426  1  0.00000000     21.45000000     10.72500000     10.72500000 # Si
     427  1  0.00000000     25.02500000      7.15000000     10.72500000 # Si
     428  1  0.00000000     25.02500000     10.72500000      7.15000000 # Si
     429  1  0.00000000     23.23750000      8.93750000      8.93750000 # Si
     430  1  0.00000000     23.23750000     12.51250000     12.51250000 # Si
     431  1  0.00000000     26.81250000      8.93750000     12.51250000 # Si
     432  1  0.00000000     26.81250000     12.51250000      8.93750000 # Si
     433  1  0.00000000     21.45000000      7.15000000     14.30000000 # Si
     434  1  0.00000000     21.45000000     10.72500000     17.87500000 # Si
     435  1  0.00000000     25.02500000      7.15000000     17.87500000 # Si
     436  1  0.00000000     25.02500000     10.72500000     14.30000000 # Si
     437  1  0.00000000     23.23750000      8.93750000     16.08750000 # Si
     438  1  0.00000000     23.23750000     12.51250000     19.66250000 # Si
     439  1  0.00000000     26.81250000      8.93750000     19.66250000 # Si
     440  1  0.00000000     26.81250000     12.51250000     16.08750000 # Si
     441  1  0.00000000     21.45000000      7.15000000     21.45000000 # Si
     442  1  0.00000000     21.45000000     10.72500000     25.02500000 # Si
     443  1  0.00000000     25.02500000      7.15000000     25.02500000 # Si
     444  1  0.00000000     25.02500000     10.72500000     21.45000000 # Si
     445  1  0.00000000     23.23750000      8.93750000     23.23750000 # Si
     446  1  0.00000000     23.23750000     12.51250000     26.81250000 # Si
     447  1  0.00000000     26.81250000      8.93750000     26.81250000 # Si
     448  1  0.00000000     26.81250000     12.51250000     23.23750000 # Si
     449  1  0.00000000     21.45000000     14.30000000      0.00000000 # Si
     450  1  0.00000000     21.45000000     17.87500000      3.57500000 # Si
     451  1  0.00000000     25.02500000     14.30000000      3.57500000 # Si
     452  1  0.00000000     25.02500000     17.87500000      0.00000000 # Si
     453  1  0.00000000     23.23750000     16.08750000      1.78750000 # Si
     454  1  0.00000000     23.23750000     19.66250000      5.36250000 # Si
     455  1  0.00000000     26.81250000     16.08750000      5.36250000 # Si
     456  1  0.00000000     26.81250000     19.66250000      1.78750000 # Si
     457  1  0.00000000     21.45000000     14.30000000      7.15000000 # Si
     458  1  0.00000000     21.45000000     17.87500000     10.72500000 # Si
     459  1  0.00000000     25.02500000     14.30000000     10.72500000 # Si
     460  1  0.00000000     25.02500000     17.87500000      7.15000000 # Si
     461  1  0.00000000     23.23750000     16.08750000      8.93750000 # Si
     462  1  0.00000000     23.23750000     19.66250000     12.51250000 # Si
     463  1  0.00000000     26.81250000     16.08750000     12.51250000 # Si
     464  1  0.00000000     26.81250000     19.66250000      8.93750000 # Si
     465  1  0.00000000     21.45000000     14.30000000     14.30000000 # Si
     466  1  0.00000000     21.45000000     17.87500000     17.87500000 # Si
     467  1  0.00000000     25.02500000     14.30000000     17.87500000 # Si
     468  1  0.00000000     25.02500000     17.87500000     14.30000000 # Si
     469  1  0.00000000     23.23750000     16.08750000     16.08750000 # Si
     470  1  0.00000000     23.23750000     19.66250000     19.66250000 # Si
     471  1  0.00000000     26.81250000     16.08750000     19.66250000 # Si
     472  1  0.00000000     26.81250000     19.66250000     16.08750000 # Si
     473  1  0.00000000     21.45000000     14.30000000     21.45000000 # Si
     474  1  0.00000000     21.45000000     17.87500000     25.02500000 # Si
     475  1  0.00000000     25.02500000     14.30000000     25.02500000 # Si
     476  1  0.00000000     25.02500000     17.87500000     21.45000000 # Si
     477  1  0.00000000     23.23750000     16.08750000     23.23750000 # Si
     478  1  0.00000000     23.23750000     19.66250000     26.81250000 # Si
     479  1  0.00000000     26.81250000     16.08750000     26.81250000 # Si
     480  1  0.00000000     26.81250000     19.66250000     23.23750000 # Si
     481  1  0.00000000     21.45000000     21.45000000      0.00000000 # Si
     482  1  0.00000000     21.45000000     25.02500000      3.57500000 # Si
     483  1  0.00000000     25.02500000     21.45000000      3.57500000 # Si
     484  1  0.00000000     25.02500000     25.02500000      0.00000000 # Si
     485  1  0.00000000     23.23750000     23.23750000      1.78750000 # Si
     486  1  0.00000000     23.23750000     26.81250000      5.36250000 # Si
     487  1  0.00000000     26.81250000     23.23750000      5.36250000 # Si
     488  1  0.00000000     26.81250000     26.81250000      1.78750000 # Si
     489  1  0.00000000     21.45000000     21.45000000      7.15000000 # Si
     490  1  0.00000000     21.45000000     25.02500000     10.72500000 # Si
     491  1  0.00000000     25.02500000     21.45000000     10.72500000 # Si
     492  1  0.00000000     25.02500000     25.02500000      7.15000000 # Si
     493  1  0.00000000     23.23750000     23.23750000      8.93750000 # Si
     494  1  0.00000000     23.23750000     26.81250000     12.51250000 # Si
     495  1  0.00000000     26.81250000     23.23750000     12.51250000 # Si
     496  1  0.00000000     26.81250000     26.81250000      8.93750000 # Si
     497  1  0.00000000     21.45000000     21.45000000     14.30000000 # Si
     498  1  0.00000000     21.45000000     25.02500000     17.87500000 # Si
     499  1  0.00000000     25.02500000     21.45000000     17.87500000 # Si
     500  1  0.00000000     25.02500000     25.02500000     14.30000000 # Si
     501  1  0.00000000     23.23750000     23.23750000     16.08750000 # Si
     502  1  0.00000000     23.23750000     26.81250000     19.66250000 # Si
     503  1  0.00000000     26.81250000     23.23750000     19.66250000 # Si
     504  1  0.00000000     26.81250000     26.81250000     16.08750000 # Si
     505  1  0.00000000     21.45000000     21.45000000     21.45000000 # Si
     506  1  0.00000000     21.45000000     25.02500000     25.02500000 # Si
     507  1  0.00000000     25.02500000     21.45000000     25.02500000 # Si
     508  1  0.00000000     25.02500000     25.02500000     21.45000000 # Si
     509  1  0.00000000     23.23750000     23.23750000     23.23750000 # Si
     510  1  0.00000000     23.23750000     26.81250000     26.81250000 # Si
     511  1  0.00000000     26.81250000     23.23750000     26.81250000 # Si
     512  1  0.00000000     26.81250000     26.81250000     23.23750000 # Si
     513  2  0.00000000      0.89375000      0.89375000      0.89375000 # O
     514  2  0.00000000      0.89375000     27.70625000     27.70625000 # O
     515  2  0.00000000     27.70625000      0.89375000     27.70625000 # O
     516  2  0.00000000     27.70625000     27.70625000      0.89375000 # O
     517  2  0.00000000      0.89375000      2.68125000      2.68125000 # O
     518  2  0.00000000      0.89375000      4.46875000      4.46875000 # O
     519  2  0.00000000     27.70625000      2.68125000      4.46875000 # O
     520  2  0.00000000     27.70625000      4.46875000      2.68125000 # O
     521  2  0.00000000      2.68125000      0.89375000      2.68125000 # O
     522  2  0.00000000      4.46875000      0.89375000      4.46875000 # O
     523  2  0.00000000      2.68125000     27.70625000      4.46875000 # O
     524  2  0.00000000      4.46875000     27.70625000      2.68125000 # O
     525  2  0.00000000      2.68125000      2.68125000      0.89375000 # O
     526  2  0.00000000      4.46875000      4.46875000      0.89375000 # O
     527  2  0.00000000      2.68125000      4.46875000     27.70625000 # O
     528  2  0.00000000      4.46875000      2.68125000     27.70625000 # O
     529  2  0.00000000      2.68125000      4.46875000      6.25625000 # O
     530  2  0.00000000      2.68125000      6.25625000      4.46875000 # O
     531  2  0.00000000      0.89375000      6.25625000      6.25625000 # O
     532  2  0.00000000      4.46875000      2.68125000      6.25625000 # O
     533  2  0.00000000      6.25625000      2.68125000      4.46875000 # O
     534  2  0.00000000      6.25625000      0.89375000      6.25625000 # O
     535  2  0.00000000      4.46875000      6.25625000      2.68125000 # O
     536  2  0.00000000      6.25625000      4.46875000      2.68125000 # O
     537  2  0.00000000      6.25625000      6.25625000      0.89375000 # O
     538  2  0.00000000      0.89375000      0.89375000      8.04375000 # O
     539  2  0.00000000      0.89375000     27.70625000      6.25625000 # O
     540  2  0.00000000     27.70625000      0.89375000      6.25625000 # O
     541  2  0.00000000     27.70625000     27.70625000      8.04375000 # O
     542  2  0.00000000      0.89375000      2.68125000      9.83125000 # O
     543  2  0.00000000      0.89375000      4.46875000     11.61875000 # O
     544  2  0.00000000     27.70625000      2.68125000     11.61875000 # O
     545  2  0.00000000     27.70625000      4.46875000      9.83125000 # O
     546  2  0.00000000      2.68125000      0.89375000      9.83125000 # O
     547  2  0.00000000      4.46875000      0.89375000     11.61875000 # O
     548  2  0.00000000      2.68125000     27.70625000     11.61875000 # O
     549  2  0.00000000      4.46875000     27.70625000      9.83125000 # O
     550  2  0.00000000      2.68125000      2.68125000      8.04375000 # O
     551  2  0.00000000      4.46875000      4.46875000      8.04375000 # O
     552  2  0.00000000      2.68125000      4.46875000     13.40625000 # O
     553  2  0.00000000      2.68125000      6.25625000     11.61875000 # O
     554  2  0.00000000      0.89375000      6.25625000     13.40625000 # O
     555  2  0.00000000      4.46875000      2.68125000     13.40625000 # O
     556  2  0.00000000      6.25625000      2.68125000     11.61875000 # O
     557  2  0.00000000      6.25625000      0.89375000     13.40625000 # O
     558  2  0.00000000      4.46875000      6.25625000      9.83125000 # O
     559  2  0.00000000      6.25625000      4.46875000      9.83125000 # O
     560  2  0.00000000      6.25625000      6.25625000      8.04375000 # O
     561  2  0.00000000      0.89375000      0.89375000     15.19375000 # O
     562  2  0.00000000      0.89375000     27.70625000     13.40625000 # O
     563  2  0.00000000     27.70625000      0.89375000     13.40625000 # O
     564  2  0.00000000     27.70625000     27.70625000     15.19375000 # O
     565  2  0.00000000      0.89375000      2.68125000     16.98125000 # O
     566  2  0.00000000      0.89375000      4.46875000     18.76875000 # O
     567  2  0.00000000     27.70625000      2.68125000     18.76875000 # O
     568  2  0.00000000     27.70625000      4.46875000     16.98125000 # O
     569  2  0.00000000      2.68125000      0.89375000     16.98125000 # O
     570  2  0.00000000      4.46875000      0.89375000     18.76875000 # O
     571  2  0.00000000      2.68125000     27.70625000     18.76875000 # O
     572  2  0.00000000      4.46875000     27.70625000     16.98125000 # O
     573  2  0.00000000      2.68125000      2.68125000     15.19375000 # O
     574  2  0.00000000      4.46875000      4.46875000     15.19375000 # O
     575  2  0.00000000      2.68125000      4.46875000     20.55625000 # O
     576  2  0.00000000      2.68125000      6.25625000     18.76875000 # O
     577  2  0.00000000      0.89375000      6.25625000     20.55625000 # O
     578  2  0.00000000      4.46875000      2.68125000     20.55625000 # O
     579  2  0.00000000      6.25625000      2.68125000     18.76875000 # O
     580  2  0.00000000      6.25625000      0.89375000     20.55625000 # O
     581  2  0.00000000      4.46875000      6.25625000     16.98125000 # O
     582  2  0.00000000      6.25625000      4.46875000     16.98125000 # O
     583  2  0.00000000      6.25625000      6.25625000     15.19375000 # O
     584  2  0.00000000      0.89375000      0.89375000     22.34375000 # O
     585  2  0.00000000      0.89375000     27.70625000     20.55625000 # O
     586  2  0.00000000     27.70625000      0.89375000     20.55625000 # O
     587  2  0.00000000     27.70625000     27.70625000     22.34375000 # O
     588  2  0.00000000      0.89375000      2.68125000     24.13125000 # O
     589  2  0.00000000      0.89375000      4.46875000     25.91875000 # O
     590  2  0.00000000     27.70625000      2.68125000     25.91875000 # O
     591  2  0.00000000     27.70625000      4.46875000     24.13125000 # O
     592  2  0.00000000      2.68125000      0.89375000     24.13125000 # O
     593  2  0.00000000      4.46875000      0.89375000     25.91875000 # O
     594  2  0.00000000      2.68125000     27.70625000     25.91875000 # O
     595  2  0.00000000      4.46875000     27.70625000     24.13125000 # O
     596  2  0.00000000      2.68125000      2.68125000     22.34375000 # O
     597  2  0.00000000      4.46875000      4.46875000     22.34375000 # O
     598  2  0.00000000      0.89375000      6.25625000     27.70625000 # O
     599  2  0.00000000      2.68125000      6.25625000     25.91875000 # O
     600  2  0.00000000      6.25625000      0.89375000     27.70625000 # O
     601  2  0.00000000      6.25625000      2.68125000     25.91875000 # O
     602  2  0.00000000      4.46875000      6.25625000     24.13125000 # O
     603  2  0.00000000      6.25625000      4.46875000     24.13125000 # O
     604  2  0.00000000      6.25625000      6.25625000     22.34375000 # O
     605  2  0.00000000      0.89375000      8.04375000      0.89375000 # O
     606  2  0.00000000     27.70625000      6.25625000      0.89375000 # O
     607  2  0.00000000     27.70625000      8.04375000     27.70625000 # O
     608  2  0.00000000      0.89375000      9.83125000      2.68125000 # O
     609  2  0.00000000      0.89375000     11.61875000      4.46875000 # O
     610  2  0.00000000     27.70625000      9.83125000      4.46875000 # O
     611  2  0.00000000     27.70625000     11.61875000      2.68125000 # O
     612  2  0.00000000      2.68125000      8.04375000      2.68125000 # O
     613  2  0.00000000      4.46875000      8.04375000      4.46875000 # O
     614  2  0.00000000      2.68125000      9.83125000      0.89375000 # O
     615  2  0.00000000      4.46875000     11.61875000      0.89375000 # O
     616  2  0.00000000      2.68125000     11.61875000     27.70625000 # O
     617  2  0.00000000      4.46875000      9.83125000     27.70625000 # O
     618  2  0.00000000      2.68125000     11.61875000      6.25625000 # O
     619  2  0.00000000      2.68125000     13.40625000      4.46875000 # O
     620  2  0.00000000      0.89375000     13.40625000      6.25625000 # O
     621  2  0.00000000      4.46875000      9.83125000      6.25625000 # O
     622  2  0.00000000      6.25625000      9.83125000      4.46875000 # O
     623  2  0.00000000      6.25625000      8.04375000      6.25625000 # O
     624  2  0.00000000      4.46875000     13.40625000      2.68125000 # O
     625  2  0.00000000      6.25625000     11.61875000      2.68125000 # O
     626  2  0.00000000      6.25625000     13.40625000      0.89375000 # O
     627  2  0.00000000      0.89375000      8.04375000      8.04375000 # O
     628  2  0.00000000     27.70625000      6.25625000      8.04375000 # O
     629  2  0.00000000     27.70625000      8.04375000      6.25625000 # O
     630  2  0.00000000      0.89375000      9.83125000      9.83125000 # O
     631  2  0.00000000      0.89375000     11.61875000     11.61875000 # O
     632  2  0.00000000     27.70625000      9.83125000     11.61875000 # O
     633  2  0.00000000     27.70625000     11.61875000      9.83125000 # O
     634  2  0.00000000      2.68125000      8.04375000      9.83125000 # O
     635  2  0.00000000      4.46875000      8.04375000     11.61875000 # O
     636  2  0.00000000      2.68125000      9.83125000      8.04375000 # O
     637  2  0.00000000      4.46875000     11.61875000      8.04375000 # O
     638  2  0.00000000      2.68125000     11.61875000     13.40625000 # O
     639  2  0.00000000      2.68125000     13.40625000     11.61875000 # O
     640  2  0.00000000      0.89375000     13.40625000     13.40625000 # O
     641  2  0.00000000      4.46875000      9.83125000     13.40625000 # O
     642  2  0.00000000      6.25625000      9.83125000     11.61875000 # O
     643  2  0.00000000      6.25625000      8.04375000     13.40625000 # O
     644  2  0.00000000      4.46875000     13.40625000      9.83125000 # O
     645  2  0.00000000      6.25625000     11.61875000      9.83125000 # O
     646  2  0.00000000      6.25625000     13.40625000      8.04375000 # O
     647  2  0.00000000      0.89375000      8.04375000     15.19375000 # O
     648  2  0.00000000     27.70625000      6.25625000     15.19375000 # O
     649  2  0.00000000     27.70625000      8.04375000     13.40625000 # O
     650  2  0.00000000      0.89375000      9.83125000     16.98125000 # O
     651  2  0.00000000      0.89375000     11.61875000     18.76875000 # O
     652  2  0.00000000     27.70625000      9.83125000     18.76875000 # O
     653  2  0.00000000     27.70625000     11.61875000     16.98125000 # O
     654  2  0.00000000      2.68125000      8.04375000     16.98125000 # O
     655  2  0.00000000      4.46875000      8.04375000     18.76875000 # O
     656  2  0.00000000      2.68125000      9.83125000     15.19375000 # O
     657  2  0.00000000      4.46875000     11.61875000     15.19375000 # O
     658  2  0.00000000      2.68125000     11.61875000     20.55625000 # O
     659  2  0.00000000      2.68125000     13.40625000     18.76875000 # O
     660  2  0.00000000      0.89375000     13.40625000     20.55625000 # O
     661  2  0.00000000      4.46875000      9.83125000     20.55625000 # O
     662  2  0.00000000      6.25625000      9.83125000     18.76875000 # O
     663  2  0.00000000      6.25625000      8.04375000     20.55625000 # O
     664  2  0.00000000      4.46875000     13.40625000     16.98125000 # O
     665  2  0.00000000      6.25625000     11.61875000     16.98125000 # O
     666  2  0.00000000      6.25625000     13.40625000     15.19375000 # O
     667  2  0.00000000      0.89375000      8.04375000     22.34375000 # O
     668  2  0.00000000     27.70625000      6.25625000     22.34375000 # O
     669  2  0.00000000     27.70625000      8.04375000     20.55625000 # O
     670  2  0.00000000      0.89375000      9.83125000     24.13125000 # O
     671  2  0.00000000      0.89375000     11.61875000     25.91875000 # O
     672  2  0.00000000     27.70625000      9.83125000     25.91875000 # O
     673  2  0.00000000     27.70625000     11.61875000     24.13125000 # O
     674  2  0.00000000      2.68125000      8.04375000     24.13125000 # O
     675  2  0.00000000      4.46875000      8.04375000     25.91875000 # O
     676  2  0.00000000      2.68125000      9.83125000     22.34375000 # O
     677  2  0.00000000      4.46875000     11.61875000     22.34375000 # O
     678  2  0.00000000      0.89375000     13.40625000     27.70625000 # O
     679  2  0.00000000      2.68125000     13.40625000     25.91875000 # O
     680  2  0.00000000      6.25625000      8.04375000     27.70625000 # O
     681  2  0.00000000      6.25625000      9.83125000     25.91875000 # O
     682  2  0.00000000      4.46875000     13.40625000     24.13125000 # O
     683  2  0.00000000      6.25625000     11.61875000     24.13125000 # O
     684  2  0.00000000      6.25625000     13.40625000     22.34375000 # O
     685  2  0.00000000      0.89375000     15.19375000      0.89375000 # O
     686  2  0.00000000     27.70625000     13.40625000      0.89375000 # O
     687  2  0.00000000     27.70625000     15.19375000     27.70625000 # O
     688  2  0.00000000      0.89375000     16.98125000      2.68125000 # O
     689  2  0.00000000      0.89375000     18.76875000      4.46875000 # O
     690  2  0.00000000     27.70625000     16.98125000      4.46875000 # O
     691  2  0.00000000     27.70625000     18.76875000      2.68125000 # O
     692  2  0.00000000      2.68125000     15.19375000      2.68125000 # O
     693  2  0.00000000      4.46875000     15.19375000      4.46875000 # O
     694  2  0.00000000      2.68125000     16.98125000      0.89375000 # O
     695  2  0.00000000      4.46875000     18.76875000      0.89375000 # O
     696  2  0.00000000      2.68125000     18.76875000     27.70625000 # O
     697  2  0.00000000      4.46875000     16.98125000     27.70625000 # O
     698  2  0.00000000      2.68125000     18.76875000      6.25625000 # O
     699  2  0.00000000      2.68125000     20.55625000      4.46875000 # O
     700  2  0.00000000      0.89375000     20.55625000      6.25625000 # O
     701  2  0.00000000      4.46875000     16.98125000      6.25625000 # O
     702  2  0.00000000      6.25625000     16.98125000      4.46875000 # O
     703  2  0.00000000      6.25625000     15.19375000      6.25625000 # O
     704  2  0.00000000      4.46875000     20.55625000      2.68125000 # O
     705  2  0.00000000      6.25625000     18.76875000      2.68125000 # O
     706  2  0.00000000      6.25625000     20.55625000      0.89375000 # O
     707  2  0.00000000      0.89375000     15.19375000      8.04375000 # O
     708  2  0.00000000     27.70625000     13.40625000      8.04375000 # O
     709  2  0.00000000     27.70625000     15.19375000      6.25625000 # O
     710  2  0.00000000      0.89375000     16.98125000      9.83125000 # O
     711  2  0.00000000      0.89375000     18.76875000     11.61875000 # O
     712  2  0.00000000     27.70625000     16.98125000     11.61875000 # O
     713  2  0.00000000     27.70625000     18.76875000      9.83125000 # O
     714  2  0.00000000      2.68125000     15.19375000      9.83125000 # O
     715  2  0.00000000      4.46875000     15.19375000     11.61875000 # O
     716  2  0.00000000      2.68125000     16.98125000      8.04375000 # O
     717  2  0.00000000      4.46875000     18.76875000      8.04375000 # O
     718  2  0.00000000      2.68125000     18.76875000     13.40625000 # O
     719  2  0.00000000      2.68125000     20.55625000     11.61875000 # O
     720  2  0.00000000      0.89375000     20.55625000     13.40625000 # O
     721  2  0.00000000      4.46875000     16.98125000     13.40625000 # O
     722  2  0.00000000      6.25625000     16.98125000     11.61875000 # O
     723  2  0.00000000      6.25625000     15.19375000     13.40625000 # O
     724  2  0.00000000      4.46875000     20.55625000      9.83125000 # O
     725  2  0.00000000      6.25625000     18.76875000      9.83125000 # O
     726  2  0.00000000      6.25625000     20.55625000      8.04375000 # O
     727  2  0.00000000      0.89375000     15.19375000     15.19375000 # O
     728  2  0.00000000     27.70625000     13.40625000     15.19375000 # O
     729  2  0.00000000     27.70625000     15.19375000     13.40625000 # O
     730  2  0.00000000      0.89375000     16.98125000     16.98125000 # O
     731  2  0.00000000      0.89375000     18.76875000     18.76875000 # O
     732  2  0.00000000     27.70625000     16.98125000     18.76875000 # O
     733  2  0.00000000     27.70625000     18.76875000     16.98125000 # O
     734  2  0.00000000      2.68125000     15.19375000     16.98125000 # O
     735  2  0.00000000      4.46875000     15.19375000     18.76875000 # O
     736  2  0.00000000      2.68125000     16.98125000     15.19375000 # O
     737  2  0.00000000      4.46875000     18.76875000     15.19375000 # O
     738  2  0.00000000      2.68125000     18.76875000     20.55625000 # O
     739  2  0.00000000      2.68125000     20.55625000     18.76875000 # O
     740  2  0.00000000      0.89375000     20.55625000     20.55625000 # O
     741  2  0.00000000      4.46875000     16.98125000     20.55625000 # O
     742  2  0.00000000      6.25625000     16.98125000     18.76875000 # O
     743  2  0.00000000      6.25625000     15.19375000     20.55625000 # O
     744  2  0.00000000      4.46875000     20.55625000     16.98125000 # O
     745  2  0.00000000      6.25625000     18.76875000     16.98125000 # O
     746  2  0.00000000      6.25625000     20.55625000     15.19375000 # O
     747  2  0.00000000      0.89375000     15.19375000     22.34375000 # O
     748  2  0.00000000     27.70625000     13.40625000     22.34375000 # O
     749  2  0.00000000     27.70625000     15.19375000     20.55625000 # O
     750  2  0.00000000      0.89375000     16.98125000     24.13125000 # O
     751  2  0.00000000      0.89375000     18.76875000     25.91875000 # O
     752  2  0.00000000     27.70625000     16.98125000     25.91875000 # O
     753  2  0.00000000     27.70625000     18.76875000     24.13125000 # O
     754  2  0.00000000      2.68125000     15.19375000     24.13125000 # O
     755  2  0.00000000      4.46875000     15.19375000     25.91875000 # O
     756  2  0.00000000      2.68125000     16.98125000     22.34375000 # O
     757  2  0.00000000      4.46875000     18.76875000     22.34375000 # O
     758  2  0.00000000      0.89375000     20.55625000     27.70625000 # O
     759  2  0.00000000      2.68125000     20.55625000     25.91875000 # O
     760  2  0.00000000      6.25625000     15.19375000     27.70625000 # O
     761  2  0.00000000      6.25625000     16.98125000     25.91875000 # O
     762  2  0.00000000      4.46875000     20.55625000     24.13125000 # O
     763  2  0.00000000      6.25625000     18.76875000     24.13125000 # O
     764  2  0.00000000      6.25625000     20.55625000     22.34375000 # O
     765  2  0.00000000      0.89375000     22.34375000      0.89375000 # O
     766  2  0.00000000     27.70625000     20.55625000      0.89375000 # O
     767  2  0.00000000     27.70625000     22.34375000     27.70625000 # O
     768  2  0.00000000      0.89375000     24.13125000      2.68125000 # O
     769  2  0.00000000      0.89375000     25.91875000      4.46875000 # O
     770  2  0.00000000     27.70625000     24.13125000      4.46875000 # O
     771  2  0.00000000     27.70625000     25.91875000      2.68125000 # O
     772  2  0.00000000      2.68125000     22.34375000      2.68125000 # O
     773  2  0.00000000      4.46875000     22.34375000      4.46875000 # O
     774  2  0.00000000      2.68125000     24.13125000      0.89375000 # O
     775  2  0.00000000      4.46875000     25.91875000      0.89375000 # O
     776  2  0.00000000      2.68125000     25.91875000     27.70625000 # O
     777  2  0.00000000      4.46875000     24.13125000     27.70625000 # O
     778  2  0.00000000      2.68125000     25.91875000      6.25625000 # O
     779  2  0.00000000      4.46875000     24.13125000      6.25625000 # O
     780  2  0.00000000      6.25625000     24.13125000      4.46875000 # O
     781  2  0.00000000      6.25625000     22.34375000      6.25625000 # O
     782  2  0.00000000      6.25625000     27.70625000      0.89375000 # O
     783  2  0.00000000      6.25625000     25.91875000      2.68125000 # O
     784  2  0.00000000      0.89375000     22.34375000      8.04375000 # O
     785  2  0.00000000     27.70625000     20.55625000      8.04375000 # O
     786  2  0.00000000     27.70625000     22.34375000      6.25625000 # O
     787  2  0.00000000      0.89375000     24.13125000      9.83125000 # O
     788  2  0.00000000      0.89375000     25.91875000     11.61875000 # O
     789  2  0.00000000     27.70625000     24.13125000     11.61875000 # O
     790  2  0.00000000     27.70625000     25.91875000      9.83125000 # O
     791  2  0.00000000      2.68125000     22.34375000      9.83125000 # O
     792  2  0.00000000      4.46875000     22.34375000     11.61875000 # O
     793  2  0.00000000      2.68125000     24.13125000      8.04375000 # O
     794  2  0.00000000      4.46875000     25.91875000      8.04375000 # O
     795  2  0.00000000      2.68125000     25.91875000     13.40625000 # O
     796  2  0.00000000      4.46875000     24.13125000     13.40625000 # O
     797  2  0.00000000      6.25625000     24.13125000     11.61875000 # O
     798  2  0.00000000      6.25625000     22.34375000     13.40625000 # O
     799  2  0.00000000      6.25625000     27.70625000      8.04375000 # O
     800  2  0.00000000      6.25625000     25.91875000      9.83125000 # O
     801  2  0.00000000      0.89375000     22.34375000     15.19375000 # O
     802  2  0.00000000     27.70625000     20.55625000     15.19375000 # O
     803  2  0.00000000     27.70625000     22.34375000     13.40625000 # O
     804  2  0.00000000      0.89375000     24.13125000     16.98125000 # O
     805  2  0.00000000      0.89375000     25.91875000     18.76875000 # O
     806  2  0.00000000     27.70625000     24.13125000     18.76875000 # O
     807  2  0.00000000     27.70625000     25.91875000     16.98125000 # O
     808  2  0.00000000      2.68125000     22.34375000     16.98125000 # O
     809  2  0.00000000      4.46875000     22.34375000     18.76875000 # O
     810  2  0.00000000      2.68125000     24.13125000     15.19375000 # O
     811  2  0.00000000      4.46875000     25.91875000     15.19375000 # O
     812  2  0.00000000      2.68125000     25.91875000     20.55625000 # O
     813  2  0.00000000      4.46875000     24.13125000     20.55625000 # O
     814  2  0.00000000      6.25625000     24.13125000     18.76875000 # O
     815  2  0.00000000      6.25625000     22.34375000     20.55625000 # O
     816  2  0.00000000      6.25625000     27.70625000     15.19375000 # O
     817  2  0.00000000      6.25625000     25.91875000     16.98125000 # O
     818  2  0.00000000      0.89375000     22.34375000     22.34375000 # O
     819  2  0.00000000     27.70625000     20.55625000     22.34375000 # O
     820  2  0.00000000     27.70625000     22.34375000     20.55625000 # O
     821  2  0.00000000      0.89375000     24.13125000     24.13125000 # O
     822  2  0.00000000      0.89375000     25.91875000     25.91875000 # O
     823  2  0.00000000     27.70625000     24.13125000     25.91875000 # O
     824  2  0.00000000     27.70625000     25.91875000     24.13125000 # O
     825  2  0.00000000      2.68125000     22.34375000     24.13125000 # O
     826  2  0.00000000      4.46875000     22.34375000     25.91875000 # O
     827  2  0.00000000      2.68125000     24.13125000     22.34375000 # O
     828  2  0.00000000      4.46875000     25.91875000     22.34375000 # O
     829  2  0.00000000      6.25625000     22.34375000     27.70625000 # O
     830  2  0.00000000      6.25625000     24.13125000     25.91875000 # O
     831  2  0.00000000      6.25625000     27.70625000     22.34375000 # O
     832  2  0.00000000      6.25625000     25.91875000     24.13125000 # O
     833  2  0.00000000      8.04375000      0.89375000      0.89375000 # O
     834  2  0.00000000      8.04375000     27.70625000     27.70625000 # O
     835  2  0.00000000      8.04375000      2.68125000      2.68125000 # O
     836  2  0.00000000      8.04375000      4.46875000      4.46875000 # O
     837  2  0.00000000      9.83125000      0.89375000      2.68125000 # O
     838  2  0.00000000     11.61875000      0.89375000      4.46875000 # O
     839  2  0.00000000      9.83125000     27.70625000      4.46875000 # O
     840  2  0.00000000     11.61875000     27.70625000      2.68125000 # O
     841  2  0.00000000      9.83125000      2.68125000      0.89375000 # O
     842  2  0.00000000     11.61875000      4.46875000      0.89375000 # O
     843  2  0.00000000      9.83125000      4.46875000     27.70625000 # O
     844  2  0.00000000     11.61875000      2.68125000     27.70625000 # O
     845  2  0.00000000      9.83125000      4.46875000      6.25625000 # O
     846  2  0.00000000      9.83125000      6.25625000      4.46875000 # O
     847  2  0.00000000      8.04375000      6.25625000      6.25625000 # O
     848  2  0.00000000     11.61875000      2.68125000      6.25625000 # O
     849  2  0.00000000     13.40625000      2.68125000      4.46875000 # O
     850  2  0.00000000     13.40625000      0.89375000      6.25625000 # O
     851  2  0.00000000     11.61875000      6.25625000      2.68125000 # O
     852  2  0.00000000     13.40625000      4.46875000      2.68125000 # O
     853  2  0.00000000     13.40625000      6.25625000      0.89375000 # O
     854  2  0.00000000      8.04375000      0.89375000      8.04375000 # O
     855  2  0.00000000      8.04375000     27.70625000      6.25625000 # O
     856  2  0.00000000      8.04375000      2.68125000      9.83125000 # O
     857  2  0.00000000      8.04375000      4.46875000     11.61875000 # O
     858  2  0.00000000      9.83125000      0.89375000      9.83125000 # O
     859  2  0.00000000     11.61875000      0.89375000     11.61875000 # O
     860  2  0.00000000      9.83125000     27.70625000     11.61875000 # O
     861  2  0.00000000     11.61875000     27.70625000      9.83125000 # O
     862  2  0.00000000      9.83125000      2.68125000      8.04375000 # O
     863  2  0.00000000     11.61875000      4.46875000      8.04375000 # O
     864  2  0.00000000      9.83125000      4.46875000     13.40625000 # O
     865  2  0.00000000      9.83125000      6.25625000     11.61875000 # O
     866  2  0.00000000      8.04375000      6.25625000     13.40625000 # O
     867  2  0.00000000     11.61875000      2.68125000     13.40625000 # O
     868  2  0.00000000     13.40625000      2.68125000     11.61875000 # O
     869  2  0.00000000     13.40625000      0.89375000     13.40625000 # O
     870  2  0.00000000     11.61875000      6.25625000      9.83125000 # O
     871  2  0.00000000     13.40625000      4.46875000      9.83125000 # O
     872  2  0.00000000     13.40625000      6.25625000      8.04375000 # O
     873  2  0.00000000      8.04375000      0.89375000     15.19375000 # O
     874  2  0.00000000      8.04375000     27.70625000     13.40625000 # O
     875  2  0.00000000      8.04375000      2.68125000     16.98125000 # O
     876  2  0.00000000      8.04375000      4.46875000     18.76875000 # O
     877  2  0.00000000      9.83125000      0.89375000     16.98125000 # O
     878  2  0.00000000     11.61875000      0.89375000     18.76875000 # O
     879  2  0.00000000      9.83125000     27.70625000     18.76875000 # O
     880  2  0.00000000     11.61875000     27.70625000     16.98125000 # O
     881  2  0.00000000      9.83125000      2.68125000     15.19375000 # O
     882  2  0.00000000     11.61875000      4.46875000     15.19375000 # O
     883  2  0.00000000      9.83125000      4.46875000     20.55625000 # O
     884  2  0.00000000      9.83125000      6.25625000     18.76875000 # O
     885  2  0.00000000      8.04375000      6.25625000     20.55625000 # O
     886  2  0.00000000     11.61875000      2.68125000     20.55625000 # O
     887  2  0.00000000     13.40625000      2.68125000     18.76875000 # O
     888  2  0.00000000     13.40625000      0.89375000     20.55625000 # O
     889  2  0.00000000     11.61875000      6.25625000     16.98125000 # O
     890  2  0.00000000     13.40625000      4.46875000     16.98125000 # O
     891  2  0.00000000     13.40625000      6.25625000     15.19375000 # O
     892  2  0.00000000      8.04375000      0.89375000     22.34375000 # O
     893  2  0.00000000      8.04375000     27.70625000     20.55625000 # O
     894  2  0.00000000      8.04375000      2.68125000     24.13125000 # O
     895  2  0.00000000      8.04375000      4.46875000     25.91875000 # O
     896  2  0.00000000      9.83125000      0.89375000     24.13125000 # O
     897  2  0.00000000     11.61875000      0.89375000     25.91875000 # O
     898  2  0.00000000      9.83125000     27.70625000     25.91875000 # O
     899  2  0.00000000     11.61875000     27.70625000     24.13125000 # O
     900  2  0.00000000      9.83125000      2.68125000     22.34375000 # O
     901  2  0.00000000     11.61875000      4.46875000     22.34375000 # O
     902  2  0.00000000      8.04375000      6.25625000     27.70625000 # O
     903  2  0.00000000      9.83125000      6.25625000     25.91875000 # O
     904  2  0.00000000     13.40625000      0.89375000     27.70625000 # O
     905  2  0.00000000     13.40625000      2.68125000     25.91875000 # O
     906  2  0.00000000     11.61875000      6.25625000     24.13125000 # O
     907  2  0.00000000     13.40625000      4.46875000     24.13125000 # O
     908  2  0.00000000     13.40625000      6.25625000     22.34375000 # O
     909  2  0.00000000      8.04375000      8.04375000      0.89375000 # O
     910  2  0.00000000      8.04375000      9.83125000      2.68125000 # O
     911  2  0.00000000      8.04375000     11.61875000      4.46875000 # O
     912  2  0.00000000      9.83125000      8.04375000      2.68125000 # O
     913  2  0.00000000     11.61875000      8.04375000      4.46875000 # O
     914  2  0.00000000      9.83125000      9.83125000      0.89375000 # O
     915  2  0.00000000     11.61875000     11.61875000      0.89375000 # O
     916  2  0.00000000      9.83125000     11.61875000     27.70625000 # O
     917  2  0.00000000     11.61875000      9.83125000     27.70625000 # O
     918  2  0.00000000      9.83125000     11.61875000      6.25625000 # O
     919  2  0.00000000      9.83125000     13.40625000      4.46875000 # O
     920  2  0.00000000      8.04375000     13.40625000      6.25625000 # O
     921  2  0.00000000     11.61875000      9.83125000      6.25625000 # O
     922  2  0.00000000     13.40625000      9.83125000      4.46875000 # O
     923  2  0.00000000     13.40625000      8.04375000      6.25625000 # O
     924  2  0.00000000     11.61875000     13.40625000      2.68125000 # O
     925  2  0.00000000     13.40625000     11.61875000      2.68125000 # O
     926  2  0.00000000     13.40625000     13.40625000      0.89375000 # O
     927  2  0.00000000      8.04375000      8.04375000      8.04375000 # O
     928  2  0.00000000      8.04375000      9.83125000      9.83125000 # O
     929  2  0.00000000      8.04375000     11.61875000     11.61875000 # O
     930  2  0.00000000      9.83125000      8.04375000      9.83125000 # O
     931  2  0.00000000     11.61875000      8.04375000     11.61875000 # O
     932  2  0.00000000      9.83125000      9.83125000      8.04375000 # O
     933  2  0.00000000     11.61875000     11.61875000      8.04375000 # O
     934  2  0.00000000      9.83125000     11.61875000     13.40625000 # O
     935  2  0.00000000      9.83125000     13.40625000     11.61875000 # O
     936  2  0.00000000      8.04375000     13.40625000     13.40625000 # O
     937  2  0.00000000     11.61875000      9.83125000     13.40625000 # O
     938  2  0.00000000     13.40625000      9.83125000     11.61875000 # O
     939  2  0.00000000     13.40625000      8.04375000     13.40625000 # O
     940  2  0.00000000     11.61875000     13.40625000      9.83125000 # O
     941  2  0.00000000     13.40625000     11.61875000      9.83125000 # O
     942  2  0.00000000     13.40625000     13.40625000      8.04375000 # O
     943  2  0.00000000      8.04375000      8.04375000     15.19375000 # O
     944  2  0.00000000      8.04375000      9.83125000     16.98125000 # O
     945  2  0.00000000      8.04375000     11.61875000     18.76875000 # O
     946  2  0.00000000      9.83125000      8.04375000     16.98125000 # O
     947  2  0.00000000     11.61875000      8.04375000     18.76875000 # O
     948  2  0.00000000      9.83125000      9.83125000     15.19375000 # O
     949  2  0.00000000     11.61875000     11.61875000     15.19375000 # O
     950  2  0.00000000      9.83125000     11.61875000     20.55625000 # O
     951  2  0.00000000      9.83125000     13.40625000     18.76875000 # O
     952  2  0.00000000      8.04375000     13.40625000     20.55625000 # O
     953  2  0.00000000     11.61875000      9.83125000     20.55625000 # O
     954  2  0.00000000     13.40625000      9.83125000     18.76875000 # O
     955  2  0.00000000     13.40625000      8.04375000     20.55625000 # O
     956  2  0.00000000     11.61875000     13.40625000     16.98125000 # O
     957  2  0.00000000     13.40625000     11.61875000     16.98125000 # O
     958  2  0.00000000     13.40625000     13.40625000     15.19375000 # O
     959  2  0.00000000      8.04375000      8.04375000     22.34375000 # O
     960  2  0.00000000      8.04375000      9.83125000     24.13125000 # O
     961  2  0.00000000      8.04375000     11.61875000     25.91875000 # O
     962  2  0.00000000      9.83125000      8.04375000     24.13125000 # O
     963  2  0.00000000     11.61875000      8.04375000     25.91875000 # O
     964  2  0.00000000      9.83125000      9.83125000     22.34375000 # O
     965  2  0.00000000     11.61875000     11.61875000     22.34375000 # O
     966  2  0.00000000      8.04375000     13.40625000     27.70625000 # O
     967  2  0.00000000      9.83125000     13.40625000     25.91875000 # O
     968  2  0.00000000     13.40625000      8.04375000     27.70625000 # O
     969  2  0.00000000     13.40625000      9.83125000     25.91875000 # O
     970  2  0.00000000     11.61875000     13.40625000     24.13125000 # O
     971  2  0.00000000     13.40625000     11.61875000     24.13125000 # O
     972  2  0.00000000     13.40625000     13.40625000     22.34375000 # O
     973  2  0.00000000      8.04375000     15.19375000      0.89375000 # O
     974  2  0.00000000      8.04375000     16.98125000      2.68125000 # O
     975  2  0.00000000      8.04375000     18.76875000      4.46875000 # O
     976  2  0.00000000      9.83125000     15.19375000      2.68125000 # O
     977  2  0.00000000     11.61875000     15.19375000      4.46875000 # O
     978  2  0.00000000      9.83125000     16.98125000      0.89375000 # O
     979  2  0.00000000     11.61875000     18.76875000      0.89375000 # O
     980  2  0.00000000      9.83125000     18.76875000     27.70625000 # O
     981  2  0.00000000     11.61875000     16.98125000     27.70625000 # O
     982  2  0.00000000      9.83125000     18.76875000      6.25625000 # O
     983  2  0.00000000      9.83125000     20.55625000      4.46875000 # O
     984  2  0.00000000      8.04375000     20.55625000      6.25625000 # O
     985  2  0.00000000     11.61875000     16.98125000      6.25625000 # O
     986  2  0.00000000     13.40625000     16.98125000      4.46875000 # O
     987  2  0.00000000     13.40625000     15.19375000      6.25625000 # O
     988  2  0.00000000     11.61875000     20.55625000      2.68125000 # O
     989  2  0.00000000     13.40625000     18.76875000      2.68125000 # O
     990  2  0.00000000     13.40625000     20.55625000      0.89375000 # O
     991  2  0.00000000      8.04375000     15.19375000      8.04375000 # O
     992  2  0.00000000      8.04375000     16.98125000      9.83125000 # O
     993  2  0.00000000      8.04375000     18.76875000     11.61875000 # O
     994  2  0.00000000      9.83125000     15.19375000      9.83125000 # O
     995  2  0.00000000     11.61875000     15.19375000     11.61875000 # O
     996  2  0.00000000      9.83125000     16.98125000      8.04375000 # O
     997  2  0.00000000     11.61875000     18.76875000      8.04375000 # O
     998  2  0.00000000      9.83125000     18.76875000     13.40625000 # O
     999  2  0.00000000      9.83125000     20.55625000     11.61875000 # O
    1000  2  0.00000000      8.04375000     20.55625000     13.40625000 # O
    1001  2  0.00000000     11.61875000     16.98125000     13.40625000 # O
    1002  2  0.00000000     13.40625000     16.98125000     11.61875000 # O
    1003  2  0.00000000     13.40625000     15.19375000     13.40625000 # O
    1004  2  0.00000000     11.61875000     20.55625000      9.83125000 # O
    1005  2  0.00000000     13.40625000     18.76875000      9.83125000 # O
    1006  2  0.00000000     13.40625000     20.55625000      8.04375000 # O
    1007  2  0.00000000      8.04375000     15.19375000     15.19375000 # O
    1008  2  0.00000000      8.04375000     16.98125000     16.98125000 # O
    1009  2  0.00000000      8.04375000     18.76875000     18.76875000 # O
    1010  2  0.00000000      9.83125000     15.19375000     16.98125000 # O
    1011  2  0.00000000     11.61875000     15.19375000     18.76875000 # O
    1012  2  0.00000000      9.83125000     16.98125000     15.19375000 # O
    1013  2  0.00000000     11.61875000     18.76875000     15.19375000 # O
    1014  2  0.00000000      9.83125000     18.76875000     20.55625000 # O
    1015  2  0.00000000      9.83125000     20.55625000     18.76875000 # O
    1016  2  0.00000000      8.04375000     20.55625000     20.55625000 # O
    1017  2  0.00000000     11.61875000     16.98125000     20.55625000 # O
    1018  2  0.00000000     13.40625000     16.98125000     18.76875000 # O
    1019  2  0.00000000     13.40625000     15.19375000     20.55625000 # O
    1020  2  0.00000000     11.61875000     20.55625000     16.98125000 # O
    1021  2  0.00000000     13.40625000     18.76875000     16.98125000 # O
    1022  2  0.00000000     13.40625000     20.55625000     15.19375000 # O
    1023  2  0.00000000      8.04375000     15.19375000     22.34375000 # O
    1024  2  0.00000000      8.04375000     16.98125000     24.13125000 # O
    1025  2  0.00000000      8.04375000     18.76875000     25.91875000 # O
    1026  2  0.00000000      9.83125000     15.19375000     24.13125000 # O
    1027  2  0.00000000     11.61875000     15.19375000     25.91875000 # O
    1028  2  0.00000000      9.83125000     16.98125000     22.34375000 # O
    1029  2  0.00000000     11.61875000     18.76875000     22.34375000 # O
    1030  2  0.00000000      8.04375000     20.55625000     27.70625000 # O
    1031  2  0.00000000      9.83125000     20.55625000     25.91875000 # O
    1032  2  0.00000000     13.40625000     15.19375000     27.70625000 # O
    1033  2  0.00000000     13.40625000     16.98125000     25.91875000 # O
    1034  2  0.00000000     11.61875000     20.55625000     24.13125000 # O
    1035  2  0.00000000     13.40625000     18.76875000     24.13125000 # O
    1036  2  0.00000000     13.40625000     20.55625000     22.34375000 # O
    1037  2  0.00000000      8.04375000     22.34375000      0.89375000 # O
    1038  2  0.00000000      8.04375000     24.13125000      2.68125000 # O
    1039  2  0.00000000      8.04375000     25.91875000      4.46875000 # O
    1040  2  0.00000000      9.83125000     22.34375000      2.68125000 # O
    1041  2  0.00000000     11.61875000     22.34375000      4.46875000 # O
    1042  2  0.00000000      9.83125000     24.13125000      0.89375000 # O
    1043  2  0.00000000     11.61875000     25.91875000      0.89375000 # O
    1044  2  0.00000000      9.83125000     25.91875000     27.70625000 # O
    1045  2  0.00000000     11.61875000     24.13125000     27.70625000 # O
    1046  2  0.00000000      9.83125000     25.91875000      6.25625000 # O
    1047  2  0.00000000     11.61875000     24.13125000      6.25625000 # O
    1048  2  0.00000000     13.40625000     24.13125000      4.46875000 # O
    1049  2  0.00000000     13.40625000     22.34375000      6.25625000 # O
    1050  2  0.00000000     13.40625000     27.70625000      0.89375000 # O
    1051  2  0.00000000     13.40625000     25.91875000      2.68125000 # O
    1052  2  0.00000000      8.04375000     22.34375000      8.04375000 # O
    1053  2  0.00000000      8.04375000     24.13125000      9.83125000 # O
    1054  2  0.00000000      8.04375000     25.91875000     11.61875000 # O
    1055  2  0.00000000      9.83125000     22.34375000      9.83125000 # O
    1056  2  0.00000000     11.61875000     22.34375000     11.61875000 # O
    1057  2  0.00000000      9.83125000     24.13125000      8.04375000 # O
    1058  2  0.00000000     11.61875000     25.91875000      8.04375000 # O
    1059  2  0.00000000      9.83125000     25.91875000     13.40625000 # O
    1060  2  0.00000000     11.61875000     24.13125000     13.40625000 # O
    1061  2  0.00000000     13.40625000     24.13125000     11.61875000 # O
    1062  2  0.00000000     13.40625000     22.34375000     13.40625000 # O
    1063  2  0.00000000     13.40625000     27.70625000      8.04375000 # O
    1064  2  0.00000000     13.40625000     25.91875000      9.83125000 # O
    1065  2  0.00000000      8.04375000     22.34375000     15.19375000 # O
    1066  2  0.00000000      8.04375000     24.13125000     16.98125000 # O
    1067  2  0.00000000      8.04375000     25.91875000     18.76875000 # O
    1068  2  0.00000000      9.83125000     22.34375000     16.98125000 # O
    1069  2  0.00000000     11.61875000     22.34375000     18.76875000 # O
    1070  2  0.00000000      9.83125000     24.13125000     15.19375000 # O
    1071  2  0.00000000     11.61875000     25.91875000     15.19375000 # O
    1072  2  0.00000000      9.83125000     25.91875000     20.55625000 # O
    1073  2  0.00000000     11.61875000     24.13125000     20.55625000 # O
    1074  2  0.00000000     13.40625000     24.13125000     18.76875000 # O
    1075  2  0.00000000     13.40625000     22.34375000     20.55625000 # O
    1076  2  0.00000000     13.40625000     27.70625000     15.19375000 # O
    1077  2  0.00000000     13.40625000     25.91875000     16.98125000 # O
    1078  2  0.00000000      8.04375000     22.34375000     22.34375000 # O
    1079  2  0.00000000      8.04375000     24.13125000     24.13125000 # O
    1080  2  0.00000000      8.04375000     25.91875000     25.91875000 # O
    1081  2  0.00000000      9.83125000     22.34375000     24.13125000 # O
    1082  2  0.00000000     11.61875000     22.34375000     25.91875000 # O
    1083  2  0.00000000      9.83125000     24.13125000     22.34375000 # O
    1084  2  0.00000000     11.61875000     25.91875000     22.34375000 # O
    1085  2  0.00000000     13.40625000     22.34375000     27.70625000 # O
    1086  2  0.00000000     13.40625000     24.13125000     25.91875000 # O
    1087  2  0.00000000     13.40625000     27.70625000     22.34375000 # O
    1088  2  0.00000000     13.40625000     25.91875000     24.13125000 # O
    1089  2  0.00000000     15.19375000      0.89375000      0.89375000 # O
    1090  2  0.00000000     15.19375000     27.70625000     27.70625000 # O
    1091  2  0.00000000     15.19375000      2.68125000      2.68125000 # O
    1092  2  0.00000000     15.19375000      4.46875000      4.46875000 # O
    1093  2  0.00000000     16.98125000      0.89375000      2.68125000 # O
    1094  2  0.00000000     18.76875000      0.89375000      4.46875000 # O
    1095  2  0.00000000     16.98125000     27.70625000      4.46875000 # O
    1096  2  0.00000000     18.76875000     27.70625000      2.68125000 # O
    1097  2  0.00000000     16.98125000      2.68125000      0.89375000 # O
    1098  2  0.00000000     18.76875000      4.46875000      0.89375000 # O
    1099  2  0.00000000     16.98125000      4.46875000     27.70625000 # O
    1100  2  0.00000000     18.76875000      2.68125000     27.70625000 # O
    1101  2  0.00000000     16.98125000      4.46875000      6.25625000 # O
    1102  2  0.00000000     16.98125000      6.25625000      4.46875000 # O
    1103  2  0.00000000     15.19375000      6.25625000      6.25625000 # O
    1104  2  0.00000000     18.76875000      2.68125000      6.25625000 # O
    1105  2  0.00000000     20.55625000      2.68125000      4.46875000 # O
    1106  2  0.00000000     20.55625000      0.89375000      6.25625000 # O
    1107  2  0.00000000     18.76875000      6.25625000      2.68125000 # O
    1108  2  0.00000000     20.55625000      4.46875000      2.68125000 # O
    1109  2  0.00000000     20.55625000      6.25625000      0.89375000 # O
    1110  2  0.00000000     15.19375000      0.89375000      8.04375000 # O
    1111  2  0.00000000     15.19375000     27.70625000      6.25625000 # O
    1112  2  0.00000000     15.19375000      2.68125000      9.83125000 # O
    1113  2  0.00000000     15.19375000      4.46875000     11.61875000 # O
    1114  2  0.00000000     16.98125000      0.89375000      9.83125000 # O
    1115  2  0.00000000     18.76875000      0.89375000     11.61875000 # O
    1116  2  0.00000000     16.98125000     27.70625000     11.61875000 # O
    1117  2  0.00000000     18.76875000     27.70625000      9.83125000 # O
    1118  2  0.00000000     16.98125000      2.68125000      8.04375000 # O
    1119  2  0.00000000     18.76875000      4.46875000      8.04375000 # O
    1120  2  0.00000000     16.98125000      4.46875000     13.40625000 # O
    1121  2  0.00000000     16.98125000      6.25625000     11.61875000 # O
    1122  2  0.00000000     15.19375000      6.25625000     13.40625000 # O
    1123  2  0.00000000     18.76875000      2.68125000     13.40625000 # O
    1124  2  0.00000000     20.55625000      2.68125000     11.61875000 # O
    1125  2  0.00000000     20.55625000      0.89375000     13.40625000 # O
    1126  2  0.00000000     18.76875000      6.25625000      9.83125000 # O
    1127  2  0.00000000     20.55625000      4.46875000      9.83125000 # O
    1128  2  0.00000000     20.55625000      6.25625000      8.04375000 # O
    1129  2  0.00000000     15.19375000      0.89375000     15.19375000 # O
    1130  2  0.00000000     15.19375000     27.70625000     13.40625000 # O
    1131  2  0.00000000     15.19375000      2.68125000     16.98125000 # O
    1132  2  0.00000000     15.19375000      4.46875000     18.76875000 # O
    1133  2  0.00000000     16.98125000      0.89375000     16.98125000 # O
    1134  2  0.00000000     18.76875000      0.89375000     18.76875000 # O
    1135  2  0.00000000     16.98125000     27.70625000     18.76875000 # O
    1136  2  0.00000000     18.76875000     27.70625000     16.98125000 # O
    1137  2  0.00000000     16.98125000      2.68125000     15.19375000 # O
    1138  2  0.00000000     18.76875000      4.46875000     15.19375000 # O
    1139  2  0.00000000     16.98125000      4.46875000     20.55625000 # O
    1140  2  0.00000000     16.98125000      6.25625000     18.76875000 # O
    1141  2  0.00000000     15.19375000      6.25625000     20.55625000 # O
    1142  2  0.00000000     18.76875000      2.68125000     20.55625000 # O
    1143  2  0.00000000     20.55625000      2.68125000     18.76875000 # O
    1144  2  0.00000000     20.55625000      0.89375000     20.55625000 # O
    1145  2  0.00000000     18.76875000      6.25625000     16.98125000 # O
    1146  2  0.00000000     20.55625000      4.46875000     16.98125000 # O
    1147  2  0.00000000     20.55625000      6.25625000     15.19375000 # O
    1148  2  0.00000000     15.19375000      0.89375000     22.34375000 # O
    1149  2  0.00000000     15.19375000     27.70625000     20.55625000 # O
    1150  2  0.00000000     15.19375000      2.68125000     24.13125000 # O
    1151  2  0.00000000     15.19375000      4.46875000     25.91875000 # O
    1152  2  0.00000000     16.98125000      0.89375000     24.13125000 # O
    1153  2  0.00000000     18.76875000      0.89375000     25.91875000 # O
    1154  2  0.00000000     16.98125000     27.70625000     25.91875000 # O
    1155  2  0.00000000     18.76875000     27.70625000     24.13125000 # O
    1156  2  0.00000000     16.98125000      2.68125000     22.34375000 # O
    1157  2  0.00000000     18.76875000      4.46875000     22.34375000 # O
    1158  2  0.00000000     15.19375000      6.25625000     27.70625000 # O
    1159  2  0.00000000     16.98125000      6.25625000     25.91875000 # O
    1160  2  0.00000000     20.55625000      0.89375000     27.70625000 # O
    1161  2  0.00000000     20.55625000      2.68125000     25.91875000 # O
    1162  2  0.00000000     18.76875000      6.25625000     24.13125000 # O
    1163  2  0.00000000     20.55625000      4.46875000     24.13125000 # O
    1164  2  0.00000000     20.55625000      6.25625000     22.34375000 # O
    1165  2  0.00000000     15.19375000      8.04375000      0.89375000 # O
    1166  2  0.00000000     15.19375000      9.83125000      2.68125000 # O
    1167  2  0.00000000     15.19375000     11.61875000      4.46875000 # O
    1168  2  0.00000000     16.98125000      8.04375000      2.68125000 # O
    1169  2  0.00000000     18.76875000      8.04375000      4.46875000 # O
    1170  2  0.00000000     16.98125000      9.83125000      0.89375000 # O
    1171  2  0.00000000     18.76875000     11.61875000      0.89375000 # O
    1172  2  0.00000000     16.98125000     11.61875000     27.70625000 # O
    1173  2  0.00000000     18.76875000      9.83125000     27.70625000 # O
    1174  2  0.00000000     16.98125000     11.61875000      6.25625000 # O
    1175  2  0.00000000     16.98125000     13.40625000      4.46875000 # O
    1176  2  0.00000000     15.19375000     13.40625000      6.25625000 # O
    1177  2  0.00000000     18.76875000      9.83125000      6.25625000 # O
    1178  2  0.00000000     20.55625000      9.83125000      4.46875000 # O
    1179  2  0.00000000     20.55625000      8.04375000      6.25625000 # O
    1180  2  0.00000000     18.76875000     13.40625000      2.68125000 # O
    1181  2  0.00000000     20.55625000     11.61875000      2.68125000 # O
    1182  2  0.00000000     20.55625000     13.40625000      0.89375000 # O
    1183  2  0.00000000     15.19375000      8.04375000      8.04375000 # O
    1184  2  0.00000000     15.19375000      9.83125000      9.83125000 # O
    1185  2  0.00000000     15.19375000     11.61875000     11.61875000 # O
    1186  2  0.00000000     16.98125000      8.04375000      9.83125000 # O
    1187  2  0.00000000     18.76875000      8.04375000     11.61875000 # O
    1188  2  0.00000000     16.98125000      9.83125000      8.04375000 # O
    1189  2  0.00000000     18.76875000     11.61875000      8.04375000 # O
    1190  2  0.00000000     16.98125000     11.61875000     13.40625000 # O
    1191  2  0.00000000     16.98125000     13.40625000     11.61875000 # O
    1192  2  0.00000000     15.19375000     13.40625000     13.40625000 # O
    1193  2  0.00000000     18.76875000      9.83125000     13.40625000 # O
    1194  2  0.00000000     20.55625000      9.83125000     11.61875000 # O
    1195  2  0.00000000     20.55625000      8.04375000     13.40625000 # O
    1196  2  0.00000000     18.76875000     13.40625000      9.83125000 # O
    1197  2  0.00000000     20.55625000     11.61875000      9.83125000 # O
    1198  2  0.00000000     20.55625000     13.40625000      8.04375000 # O
    1199  2  0.00000000     15.19375000      8.04375000     15.19375000 # O
    1200  2  0.00000000     15.19375000      9.83125000     16.98125000 # O
    1201  2  0.00000000     15.19375000     11.61875000     18.76875000 # O
    1202  2  0.00000000     16.98125000      8.04375000     16.98125000 # O
    1203  2  0.00000000     18.76875000      8.04375000     18.76875000 # O
    1204  2  0.00000000     16.98125000      9.83125000     15.19375000 # O
    1205  2  0.00000000     18.76875000     11.61875000     15.19375000 # O
    1206  2  0.00000000     16.98125000     11.61875000     20.55625000 # O
    1207  2  0.00000000     16.98125000     13.40625000     18.76875000 # O
    1208  2  0.00000000     15.19375000     13.40625000     20.55625000 # O
    1209  2  0.00000000     18.76875000      9.83125000     20.55625000 # O
    1210  2  0.00000000     20.55625000      9.83125000     18.76875000 # O
    1211  2  0.00000000     20.55625000      8.04375000     20.55625000 # O
    1212  2  0.00000000     18.76875000     13.40625000     16.98125000 # O
    1213  2  0.00000000     20.55625000     11.61875000     16.98125000 # O
    1214  2  0.00000000     20.55625000     13.40625000     15.19375000 # O
    1215  2  0.00000000     15.19375000      8.04375000     22.34375000 # O
    1216  2  0.00000000     15.19375000      9.83125000     24.13125000 # O
    1217  2  0.00000000     15.19375000     11.61875000     25.91875000 # O
    1218  2  0.00000000     16.98125000      8.04375000     24.13125000 # O
    1219  2  0.00000000     18.76875000      8.04375000     25.91875000 # O
    1220  2  0.00000000     16.98125000      9.83125000     22.34375000 # O
    1221  2  0.00000000     18.76875000     11.61875000     22.34375000 # O
    1222  2  0.00000000     15.19375000     13.40625000     27.70625000 # O
    1223  2  0.00000000     16.98125000     13.40625000     25.91875000 # O
    1224  2  0.00000000     20.55625000      8.04375000     27.70625000 # O
    1225  2  0.00000000     20.55625000      9.83125000     25.91875000 # O
    1226  2  0.00000000     18.76875000     13.40625000     24.13125000 # O
    1227  2  0.00000000     20.55625000     11.61875000     24.13125000 # O
    1228  2  0.00000000     20.55625000     13.40625000     22.34375000 # O
    1229  2  0.00000000     15.19375000     15.19375000      0.89375000 # O
    1230  2  0.00000000     15.19375000     16.98125000      2.68125000 # O
    1231  2  0.00000000     15.19375000     18.76875000      4.46875000 # O
    1232  2  0.00000000     16.98125000     15.19375000      2.68125000 # O
    1233  2  0.00000000     18.76875000     15.19375000      4.46875000 # O
    1234  2  0.00000000     16.98125000     16.98125000      0.89375000 # O
    1235  2  0.00000000     18.76875000     18.76875000      0.89375000 # O
    1236  2  0.00000000     16.98125000     18.76875000     27.70625000 # O
    1237  2  0.00000000     18.76875000     16.98125000     27.70625000 # O
    1238  2  0.00000000     16.98125000     18.76875000      6.25625000 # O
    1239  2  0.00000000     16.98125000     20.55625000      4.46875000 # O
    1240  2  0.00000000     15.19375000     20.55625000      6.25625000 # O
    1241  2  0.00000000     18.76875000     16.98125000      6.25625000 # O
    1242  2  0.00000000     20.55625000     16.98125000      4.46875000 # O
    1243  2  0.00000000     20.55625000     15.19375000      6.25625000 # O
    1244  2  0.00000000     18.76875000     20.55625000      2.68125000 # O
    1245  2  0.00000000     20.55625000     18.76875000      2.68125000 # O
    1246  2  0.00000000     20.55625000     20.55625000      0.89375000 # O
    1247  2  0.00000000     15.19375000     15.19375000      8.04375000 # O
    1248  2  0.00000000     15.19375000     16.98125000      9.83125000 # O
    1249  2  0.00000000     15.19375000     18.76875000     11.61875000 # O
    1250  2  0.00000000     16.98125000     15.19375000      9.83125000 # O
    1251  2  0.00000000     18.76875000     15.19375000     11.61875000 # O
    1252  2  0.00000000     16.98125000     16.98125000      8.04375000 # O
    1253  2  0.00000000     18.76875000     18.76875000      8.04375000 # O
    1254  2  0.00000000     16.98125000     18.76875000     13.40625000 # O
    1255  2  0.00000000     16.98125000     20.55625000     11.61875000 # O
    1256  2  0.00000000     15.19375000     20.55625000     13.40625000 # O
    1257  2  0.00000000     18.76875000     16.98125000     13.40625000 # O
    1258  2  0.00000000     20.55625000     16.98125000     11.61875000 # O
    1259  2  0.00000000     20.55625000     15.19375000     13.40625000 # O
    1260  2  0.00000000     18.76875000     20.55625000      9.83125000 # O
    1261  2  0.00000000     20.55625000     18.76875000      9.83125000 # O
    1262  2  0.00000000     20.55625000     20.55625000      8.04375000 # O
    1263  2  0.00000000     15.19375000     15.19375000     15.19375000 # O
    1264  2  0.00000000     15.19375000     16.98125000     16.98125000 # O
    1265  2  0.00000000     15.19375000     18.76875000     18.76875000 # O
    1266  2  0.00000000     16.98125000     15.19375000     16.98125000 # O
    1267  2  0.00000000     18.76875000     15.19375000     18.76875000 # O
    1268  2  0.00000000     16.98125000     16.98125000     15.19375000 # O
    1269  2  0.00000000     18.76875000     18.76875000     15.19375000 # O
    1270  2  0.00000000     16.98125000     18.76875000     20.55625000 # O
    1271  2  0.00000000     16.98125000     20.55625000     18.76875000 # O
    1272  2  0.00000000     15.19375000     20.55625000     20.55625000 # O
    1273  2  0.00000000     18.76875000     16.98125000     20.55625000 # O
    1274  2  0.00000000     20.55625000     16.98125000     18.76875000 # O
    1275  2  0.00000000     20.55625000     15.19375000     20.55625000 # O
    1276  2  0.00000000     18.76875000     20.55625000     16.98125000 # O
    1277  2  0.00000000     20.55625000     18.76875000     16.98125000 # O
    1278  2  0.00000000     20.55625000     20.55625000     15.19375000 # O
    1279  2  0.00000000     15.19375000     15.19375000     22.34375000 # O
    1280  2  0.00000000     15.19375000     16.98125000     24.13125000 # O
    1281  2  0.00000000     15.19375000     18.76875000     25.91875000 # O
    1282  2  0.00000000     16.98125000     15.19375000     24.13125000 # O
    1283  2  0.00000000     18.76875000     15.19375000     25.91875000 # O
    1284  2  0.00000000     16.98125000     16.98125000     22.34375000 # O
    1285  2  0.00000000     18.76875000     18.76875000     22.34375000 # O
    1286  2  0.00000000     15.19375000     20.55625000     27.70625000 # O
    1287  2  0.00000000     16.98125000     20.55625000     25.91875000 # O
    1288  2  0.00000000     20.55625000     15.19375000     27.70625000 # O
    1289  2  0.00000000     20.55625000     16.98125000     25.91875000 # O
    1290  2  0.00000000     18.76875000     20.55625000     24.13125000 # O
    1291  2  0.00000000     20.55625000     18.76875000     24.13125000 # O
    1292  2  0.00000000     20.55625000     20.55625000     22.34375000 # O
    1293  2  0.00000000     15.19375000     22.34375000      0.89375000 # O
    1294  2  0.00000000     15.19375000     24.13125000      2.68125000 # O
    1295  2  0.00000000     15.19375000     25.91875000      4.46875000 # O
    1296  2  0.00000000     16.98125000     22.34375000      2.68125000 # O
    1297  2  0.00000000     18.76875000     22.34375000      4.46875000 # O
    1298  2  0.00000000     16.98125000     24.13125000      0.89375000 # O
    1299  2  0.00000000     18.76875000     25.91875000      0.89375000 # O
    1300  2  0.00000000     16.98125000     25.91875000     27.70625000 # O
    1301  2  0.00000000     18.76875000     24.13125000     27.70625000 # O
    1302  2  0.00000000     16.98125000     25.91875000      6.25625000 # O
    1303  2  0.00000000     18.76875000     24.13125000      6.25625000 # O
    1304  2  0.00000000     20.55625000     24.13125000      4.46875000 # O
    1305  2  0.00000000     20.55625000     22.34375000      6.25625000 # O
    1306  2  0.00000000     20.55625000     27.70625000      0.89375000 # O
    1307  2  0.00000000     20.55625000     25.91875000      2.68125000 # O
    1308  2  0.00000000     15.19375000     22.34375000      8.04375000 # O
    1309  2  0.00000000     15.19375000     24.13125000      9.83125000 # O
    1310  2  0.00000000     15.19375000     25.91875000     11.61875000 # O
    1311  2  0.00000000     16.98125000     22.34375000      9.83125000 # O
    1312  2  0.00000000     18.76875000     22.34375000     11.61875000 # O
    1313  2  0.00000000     16.98125000     24.13125000      8.04375000 # O
    1314  2  0.00000000     18.76875000     25.91875000      8.04375000 # O
    1315  2  0.00000000     16.98125000     25.91875000     13.40625000 # O
    1316  2  0.00000000     18.76875000     24.13125000     13.40625000 # O
    1317  2  0.00000000     20.55625000     24.13125000     11.61875000 # O
    1318  2  0.00000000     20.55625000     22.34375000     13.40625000 # O
    1319  2  0.00000000     20.55625000     27.70625000      8.04375000 # O
    1320  2  0.00000000     20.55625000     25.91875000      9.83125000 # O
    1321  2  0.00000000     15.19375000     22.34375000     15.19375000 # O
    1322  2  0.00000000     15.19375000     24.13125000     16.98125000 # O
    1323  2  0.00000000     15.19375000     25.91875000     18.76875000 # O
    1324  2  0.00000000     16.98125000     22.34375000     16.98125000 # O
    1325  2  0.00000000     18.76875000     22.34375000     18.76875000 # O
    1326  2  0.00000000     16.98125000     24.13125000     15.19375000 # O
    1327  2  0.00000000     18.76875000     25.91875000     15.19375000 # O
    1328  2  0.00000000     16.98125000     25.91875000     20.55625000 # O
    1329  2  0.00000000     18.76875000     24.13125000     20.55625000 # O
    1330  2  0.00000000     20.55625000     24.13125000     18.76875000 # O
    1331  2  0.00000000     20.55625000     22.34375000     20.55625000 # O
    1332  2  0.00000000     20.55625000     27.70625000     15.19375000 # O
    1333  2  0.00000000     20.55625000     25.91875000     16.98125000 # O
    1334  2  0.00000000     15.19375000     22.34375000     22.34375000 # O
    1335  2  0.00000000     15.19375000     24.13125000     24.13125000 # O
    1336  2  0.00000000     15.19375000     25.91875000     25.91875000 # O
    1337  2  0.00000000     16.98125000     22.34375000     24.13125000 # O
    1338  2  0.00000000     18.76875000     22.34375000     25.91875000 # O
    1339  2  0.00000000     16.98125000     24.13125000     22.34375000 # O
    1340  2  0.00000000     18.76875000     25.91875000     22.34375000 # O
    1341  2  0.00000000     20.55625000     22.34375000     27.70625000 # O
    1342  2  0.00000000     20.55625000     24.13125000     25.91875000 # O
    1343  2  0.00000000     20.55625000     27.70625000     22.34375000 # O
    1344  2  0.00000000     20.55625000     25.91875000     24.13125000 # O
    1345  2  0.00000000     22.34375000      0.89375000      0.89375000 # O
    1346  2  0.00000000     22.34375000     27.70625000     27.70625000 # O
    1347  2  0.00000000     22.34375000      2.68125000      2.68125000 # O
    1348  2  0.00000000     22.34375000      4.46875000      4.46875000 # O
    1349  2  0.00000000     24.13125000      0.89375000      2.68125000 # O
    1350  2  0.00000000     25.91875000      0.89375000      4.46875000 # O
    1351  2  0.00000000     24.13125000     27.70625000      4.46875000 # O
    1352  2  0.00000000     25.91875000     27.70625000      2.68125000 # O
    1353  2  0.00000000     24.13125000      2.68125000      0.89375000 # O
    1354  2  0.00000000     25.91875000      4.46875000      0.89375000 # O
    1355  2  0.00000000     24.13125000      4.46875000     27.70625000 # O
    1356  2  0.00000000     25.91875000      2.68125000     27.70625000 # O
    1357  2  0.00000000     24.13125000      4.46875000      6.25625000 # O
    1358  2  0.00000000     24.13125000      6.25625000      4.46875000 # O
    1359  2  0.00000000     22.34375000      6.25625000      6.25625000 # O
    1360  2  0.00000000     25.91875000      2.68125000      6.25625000 # O
    1361  2  0.00000000     25.91875000      6.25625000      2.68125000 # O
    1362  2  0.00000000     22.34375000      0.89375000      8.04375000 # O
    1363  2  0.00000000     22.34375000     27.70625000      6.25625000 # O
    1364  2  0.00000000     22.34375000      2.68125000      9.83125000 # O
    1365  2  0.00000000     22.34375000      4.46875000     11.61875000 # O
    1366  2  0.00000000     24.13125000      0.89375000      9.83125000 # O
    1367  2  0.00000000     25.91875000      0.89375000     11.61875000 # O
    1368  2  0.00000000     24.13125000     27.70625000     11.61875000 # O
    1369  2  0.00000000     25.91875000     27.70625000      9.83125000 # O
    1370  2  0.00000000     24.13125000      2.68125000      8.04375000 # O
    1371  2  0.00000000     25.91875000      4.46875000      8.04375000 # O
    1372  2  0.00000000     24.13125000      4.46875000     13.40625000 # O
    1373  2  0.00000000     24.13125000      6.25625000     11.61875000 # O
    1374  2  0.00000000     22.34375000      6.25625000     13.40625000 # O
    1375  2  0.00000000     25.91875000      2.68125000     13.40625000 # O
    1376  2  0.00000000     25.91875000      6.25625000      9.83125000 # O
    1377  2  0.00000000     22.34375000      0.89375000     15.19375000 # O
    1378  2  0.00000000     22.34375000     27.70625000     13.40625000 # O
    1379  2  0.00000000     22.34375000      2.68125000     16.98125000 # O
    1380  2  0.00000000     22.34375000      4.46875000     18.76875000 # O
    1381  2  0.00000000     24.13125000      0.89375000     16.98125000 # O
    1382  2  0.00000000     25.91875000      0.89375000     18.76875000 # O
    1383  2  0.00000000     24.13125000     27.70625000     18.76875000 # O
    1384  2  0.00000000     25.91875000     27.70625000     16.98125000 # O
    1385  2  0.00000000     24.13125000      2.68125000     15.19375000 # O
    1386  2  0.00000000     25.91875000      4.46875000     15.19375000 # O
    1387  2  0.00000000     24.13125000      4.46875000     20.55625000 # O
    1388  2  0.00000000     24.13125000      6.25625000     18.76875000 # O
    1389  2  0.00000000     22.34375000      6.25625000     20.55625000 # O
    1390  2  0.00000000     25.91875000      2.68125000     20.55625000 # O
    1391  2  0.00000000     25.91875000      6.25625000     16.98125000 # O
    1392  2  0.00000000     22.34375000      0.89375000     22.34375000 # O
    1393  2  0.00000000     22.34375000     27.70625000     20.55625000 # O
    1394  2  0.00000000     22.34375000      2.68125000     24.13125000 # O
    1395  2  0.00000000     22.34375000      4.46875000     25.91875000 # O
    1396  2  0.00000000     24.13125000      0.89375000     24.13125000 # O
    1397  2  0.00000000     25.91875000      0.89375000     25.91875000 # O
    1398  2  0.00000000     24.13125000     27.70625000     25.91875000 # O
    1399  2  0.00000000     25.91875000     27.70625000     24.13125000 # O
    1400  2  0.00000000     24.13125000      2.68125000     22.34375000 # O
    1401  2  0.00000000     25.91875000      4.46875000     22.34375000 # O
    1402  2  0.00000000     22.34375000      6.25625000     27.70625000 # O
    1403  2  0.00000000     24.13125000      6.25625000     25.91875000 # O
    1404  2  0.00000000     25.91875000      6.25625000     24.13125000 # O
    1405  2  0.00000000     22.34375000      8.04375000      0.89375000 # O
    1406  2  0.00000000     22.34375000      9.83125000      2.68125000 # O
    1407  2  0.00000000     22.34375000     11.61875000      4.46875000 # O
    1408  2  0.00000000     24.13125000      8.04375000      2.68125000 # O
    1409  2  0.00000000     25.91875000      8.04375000      4.46875000 # O
    1410  2  0.00000000     24.13125000      9.83125000      0.89375000 # O
    1411  2  0.00000000     25.91875000     11.61875000      0.89375000 # O
    1412  2  0.00000000     24.13125000     11.61875000     27.70625000 # O
    1413  2  0.00000000     25.91875000      9.83125000     27.70625000 # O
    1414  2  0.00000000     24.13125000     11.61875000      6.25625000 # O
    1415  2  0.00000000     24.13125000     13.40625000      4.46875000 # O
    1416  2  0.00000000     22.34375000     13.40625000      6.25625000 # O
    1417  2  0.00000000     25.91875000      9.83125000      6.25625000 # O
    1418  2  0.00000000     25.91875000     13.40625000      2.68125000 # O
    1419  2  0.00000000     22.34375000      8.04375000      8.04375000 # O
    1420  2  0.00000000     22.34375000      9.83125000      9.83125000 # O
    1421  2  0.00000000     22.34375000     11.61875000     11.61875000 # O
    1422  2  0.00000000     24.13125000      8.04375000      9.83125000 # O
    1423  2  0.00000000     25.91875000      8.04375000     11.61875000 # O
    1424  2  0.00000000     24.13125000      9.83125000      8.04375000 # O
    1425  2  0.00000000     25.91875000     11.61875000      8.04375000 # O
    1426  2  0.00000000     24.13125000     11.61875000     13.40625000 # O
    1427  2  0.00000000     24.13125000     13.40625000     11.61875000 # O
    1428  2  0.00000000     22.34375000     13.40625000     13.40625000 # O
    1429  2  0.00000000     25.91875000      9.83125000     13.40625000 # O
    1430  2  0.00000000     25.91875000     13.40625000      9.83125000 # O
    1431  2  0.00000000     22.34375000      8.04375000     15.19375000 # O
    1432  2  0.00000000     22.34375000      9.83125000     16.98125000 # O
    1433  2  0.00000000     22.34375000     11.61875000     18.76875000 # O
    1434  2  0.00000000     24.13125000      8.04375000     16.98125000 # O
    1435  2  0.00000000     25.91875000      8.04375000     18.76875000 # O
    1436  2  0.00000000     24.13125000      9.83125000     15.19375000 # O
    1437  2  0.00000000     25.91875000     11.61875000     15.19375000 # O
    1438  2  0.00000000     24.13125000     11.61875000     20.55625000 # O
    1439  2  0.00000000     24.13125000     13.40625000     18.76875000 # O
    1440  2  0.00000000     22.34375000     13.40625000     20.55625000 # O
    1441  2  0.00000000     25.91875000      9.83125000     20.55625000 # O
    1442  2  0.00000000     25.91875000     13.40625000     16.98125000 # O
    1443  2  0.00000000     22.34375000      8.04375000     22.34375000 # O
    1444  2  0.00000000     22.34375000      9.83125000     24.13125000 # O
    1445  2  0.00000000     22.34375000     11.61875000     25.91875000 # O
    1446  2  0.00000000     24.13125000      8.04375000     24.13125000 # O
    1447  2  0.00000000     25.91875000      8.04375000     25.91875000 # O
    1448  2  0.00000000     24.13125000      9.83125000     22.34375000 # O
    1449  2  0.00000000     25.91875000     11.61875000     22.34375000 # O
    1450  2  0.00000000     22.34375000     13.40625000     27.70625000 # O
    1451  2  0.00000000     24.13125000     13.40625000     25.91875000 # O
    1452  2  0.00000000     25.91875000     13.40625000     24.13125000 # O
    1453  2  0.00000000     22.34375000     15.19375000      0.89375000 # O
    1454  2  0.00000000     22.34375000     16.98125000      2.68125000 # O
    1455  2  0.00000000     22.34375000     18.76875000      4.46875000 # O
    1456  2  0.00000000     24.13125000     15.19375000      2.68125000 # O
    1457  2  0.00000000     25.91875000     15.19375000      4.46875000 # O
    1458  2  0.00000000     24.13125000     16.98125000      0.89375000 # O
    1459  2  0.00000000     25.91875000     18.76875000      0.89375000 # O
    1460  2  0.00000000     24.13125000     18.76875000     27.70625000 # O
    1461  2  0.00000000     25.91875000     16.98125000     27.70625000 # O
    1462  2  0.00000000     24.13125000     18.76875000      6.25625000 # O
    1463  2  0.00000000     24.13125000     20.55625000      4.46875000 # O
    1464  2  0.00000000     22.34375000     20.55625000      6.25625000 # O
    1465  2  0.00000000     25.91875000     16.98125000      6.25625000 # O
    1466  2  0.00000000     25.91875000     20.55625000      2.68125000 # O
    1467  2  0.00000000     22.34375000     15.19375000      8.04375000 # O
    1468  2  0.00000000     22.34375000     16.98125000      9.83125000 # O
    1469  2  0.00000000     22.34375000     18.76875000     11.61875000 # O
    1470  2  0.00000000     24.13125000     15.19375000      9.83125000 # O
    1471  2  0.00000000     25.91875000     15.19375000     11.61875000 # O
    1472  2  0.00000000     24.13125000     16.98125000      8.04375000 # O
    1473  2  0.00000000     25.91875000     18.76875000      8.04375000 # O
    1474  2  0.00000000     24.13125000     18.76875000     13.40625000 # O
    1475  2  0.00000000     24.13125000     20.55625000     11.61875000 # O
    1476  2  0.00000000     22.34375000     20.55625000     13.40625000 # O
    1477  2  0.00000000     25.91875000     16.98125000     13.40625000 # O
    1478  2  0.00000000     25.91875000     20.55625000      9.83125000 # O
    1479  2  0.00000000     22.34375000     15.19375000     15.19375000 # O
    1480  2  0.00000000     22.34375000     16.98125000     16.98125000 # O
    1481  2  0.00000000     22.34375000     18.76875000     18.76875000 # O
    1482  2  0.00000000     24.13125000     15.19375000     16.98125000 # O
    1483  2  0.00000000     25.91875000     15.19375000     18.76875000 # O
    1484  2  0.00000000     24.13125000     16.98125000     15.19375000 # O
    1485  2  0.00000000     25.91875000     18.76875000     15.19375000 # O
    1486  2  0.00000000     24.13125000     18.76875000     20.55625000 # O
    1487  2  0.00000000     24.13125000     20.55625000     18.76875000 # O
    1488  2  0.00000000     22.34375000     20.55625000     20.55625000 # O
    1489  2  0.00000000     25.91875000     16.98125000     20.55625000 # O
    1490  2  0.00000000     25.91875000     20.55625000     16.98125000 # O
    1491  2  0.00000000     22.34375000     15.19375000     22.34375000 # O
    1492  2  0.00000000     22.34375000     16.98125000     24.13125000 # O
    1493  2  0.00000000     22.34375000     18.76875000     25.91875000 # O
    1494  2  0.00000000     24.13125000     15.19375000     24.13125000 # O
    1495  2  0.00000000     25.91875000     15.19375000     25.91875000 # O
    1496  2  0.00000000     24.13125000     16.98125000     22.34375000 # O
    1497  2  0.00000000     25.91875000     18.76875000     22.34375000 # O
    1498  2  0.00000000     22.34375000     20.55625000     27.70625000 # O
    1499  2  0.00000000     24.13125000     20.55625000     25.91875000 # O
    1500  2  0.00000000     25.91875000     20.55625000     24.13125000 # O
    1501  2  0.00000000     22.34375000     22.34375000      0.89375000 # O
    1502  2  0.00000000     22.34375000     24.13125000      2.68125000 # O
    1503  2  0.00000000     22.34375000     25.91875000      4.46875000 # O
    1504  2  0.00000000     24.13125000     22.34375000      2.68125000 # O
    1505  2  0.00000000     25.91875000     22.34375000      4.46875000 # O
    1506  2  0.00000000     24.13125000     24.13125000      0.89375000 # O
    1507  2  0.00000000     25.91875000     25.91875000      0.89375000 # O
    1508  2  0.00000000     24.13125000     25.91875000     27.70625000 # O
    1509  2  0.00000000     25.91875000     24.13125000     27.70625000 # O
    1510  2  0.00000000     24.13125000     25.91875000      6.25625000 # O
    1511  2  0.00000000     25.91875000     24.13125000      6.25625000 # O
    1512  2  0.00000000     22.34375000     22.34375000      8.04375000 # O
    1513  2  0.00000000     22.34375000     24.13125000      9.83125000 # O
    1514  2  0.00000000     22.34375000     25.91875000     11.61875000 # O
    1515  2  0.00000000     24.13125000     22.34375000      9.83125000 # O
    1516  2  0.00000000     25.91875000     22.34375000     11.61875000 # O
    1517  2  0.00000000     24.13125000     24.13125000      8.04375000 # O
    1518  2  0.00000000     25.91875000     25.91875000      8.04375000 # O
    1519  2  0.00000000     24.13125000     25.91875000     13.40625000 # O
    1520  2  0.00000000     25.91875000     24.13125000     13.40625000 # O
    1521  2  0.00000000     22.34375000     22.34375000     15.19375000 # O
    1522  2  0.00000000     22.34375000     24.13125000     16.98125000 # O
    1523  2  0.00000000     22.34375000     25.91875000     18.76875000 # O
    1524  2  0.00000000     24.13125000     22.34375000     16.98125000 # O
    1525  2  0.00000000     25.91875000     22.34375000     18.76875000 # O
    1526  2  0.00000000     24.13125000     24.13125000     15.19375000 # O
    1527  2  0.00000000     25.91875000     25.91875000     15.19375000 # O
    1528  2  0.00000000     24.13125000     25.91875000     20.55625000 # O
    1529  2  0.00000000     25.91875000     24.13125000     20.55625000 # O
    1530  2  0.00000000     22.34375000     22.34375000     22.34375000 # O
    1531  2  0.00000000     22.34375000     24.13125000     24.13125000 # O
    1532  2  0.00000000     22.34375000     25.91875000     25.91875000 # O
    1533  2  0.00000000     24.13125000     22.34375000     24.13125000 # O
    1534  2  0.00000000     25.91875000     22.34375000     25.91875000 # O
    1535  2  0.00000000     24.13125000     24.13125000     22.34375000 # O
    1536  2  0.00000000     25.91875000     25.91875000     22.34375000 # O
