LAMMPS data file via write_data, version 29 Aug 2024, timestep = 600000, units = real

1536 atoms
2 atom types

0 28.6 xlo xhi
0 28.6 ylo yhi
0 28.6 zlo zhi

Masses

1 28.0855
2 15.9994

Atoms # charge

5 1 1.492962930448508 3.319615471412948 2.848817012529312 2.5809223371008123 0 0 0
8 1 1.360973754028279 5.214404121428476 5.271582811317821 2.4331964632303302 0 0 0
521 2 -0.8011521775766539 4.229549947219245 4.114892869923934 2.3920308750516135 0 0 0
536 2 -0.5981762099229615 6.53231875907402 4.79288584068162 3.1580620577975904 0 0 0
525 2 -0.777750836077555 3.8593245155400258 1.3992771211115398 2.750635708203708 0 0 0
513 2 -0.6340617534246318 1.874593379136338 3.0935477360291896 3.1936130412774872 0 0 0
518 2 -0.6881355903010599 2.5529813204248284 2.7582146819368374 1.156718480091149 0 0 0
537 2 -0.6858061924606764 5.855357218852133 5.8039510385900925 0.905695721889544 0 0 0
535 2 -0.6075367262253289 4.54537054059073 6.701529228951131 3.267724284602253 0 0 0
522 2 -0.7769986991732557 4.7150031680541735 0.7731902769206995 4.744244599274755 0 0 0
516 2 -0.7537430100753088 6.621959299391953 2.6181319922630624 5.163182507578548 1 1 0
530 2 -0.7292997051490753 2.882007246389941 6.106422136065325 4.6752437654901176 0 0 0
517 2 -0.6663789272365293 0.6640992712112341 4.775497063365761 4.819911100948426 0 0 0
623 2 -0.6631335135173765 6.557407259414443 8.279612992042873 5.512098010834335 0 0 0
161 1 1.382179701059834 6.646890900282497 6.799073624910655 0.0463467263549832 0 0 0
67 1 1.570894964737529 3.888663832061471 14.168352690651558 3.615906297064631 0 0 0
913 2 -0.7367873930120828 11.90107095873865 8.223584780404114 4.171998791670891 0 0 0
130 1 1.393607728855058 7.289775783545888 3.4096083602898437 4.062017856453013 0 0 0
849 2 -0.7278295863654852 13.309337883117864 4.01677398789173 2.939277047128251 0 0 0
841 2 -0.6264529887783647 10.099288900982145 2.738086438370763 1.689868784165342 0 0 0
835 2 -0.7211024435950477 7.926463936928969 2.6175073895057 2.8316472383655156 0 0 0
133 1 1.372035224309542 8.92374026112805 1.78795449654497 2.011668897336158 0 0 0
136 1 1.514036728559694 12.483160190972905 5.033887640531995 2.0592109052454357 0 0 0
851 2 -0.6332858576929865 11.679254335322995 5.826084020752217 3.266749364001054 0 0 0
842 2 -0.7776907724771045 11.963606386999675 4.127664615518361 1.0024622709450361 0 0 0
846 2 -0.6765479628357609 9.873093663871675 6.759438675185072 4.666941348167244 0 0 0
836 2 -0.629541743135394 8.131581826494454 4.6068441323191625 4.72161404126892 0 0 0
838 2 -0.6569017649743657 11.505621025928566 0.9209725393027641 5.0963609528482685 0 0 0
833 2 -0.6605900813056592 8.076196702137203 1.211348603338159 0.6067336134793866 0 0 0
837 2 -0.6466037694623405 9.730212590491524 1.1768141609236487 3.2350312727893353 0 0 0
1092 2 -0.7805496477750865 13.632845518038254 2.3770332925903133 5.03721000709393 0 0 0
290 1 1.503001838825306 14.262038296179243 10.978375078522435 3.218943109165321 0 0 0
926 2 -0.7361764283834576 13.136628752142691 13.243081702574047 0.10954475091291412 0 0 0
131 1 1.327428217871291 10.793484690199397 0.0848169625322647 3.728721162275338 0 0 0
853 2 -0.8164826854595115 13.43945112968886 6.219533950316087 1.5560237319760089 0 0 0
925 2 -0.7291393855171796 13.5119502067657 11.836928453430659 1.9853003878063993 0 0 0
911 2 -0.652102999825835 7.733006872409449 12.149230726931066 4.484922974355134 0 0 0
39 1 1.506879323401141 5.491726333115299 9.374214700496065 5.262582409338584 0 0 0
38 1 1.369215796223053 1.9873374119964105 12.53165404477302 5.32654199209317 0 0 0
35 1 1.475182428306846 3.479441749773056 7.454267933068837 4.057797890429642 0 0 0
612 2 -0.8193730497451676 2.6471107254152244 8.222888187246904 2.955578969604344 0 0 0
608 2 -0.8753589044466773 0.6391300446845796 9.893367794334594 2.7722780079118152 0 0 0
614 2 -0.8811675588744173 2.5165924217264446 9.76730956871009 0.9574658305818808 0 0 0
619 2 -0.7804245995129863 3.075141269549801 13.366761093715022 4.522764677460046 0 0 0
609 2 -0.7725834139926188 1.414785592226285 11.4520189880047 4.290412763062462 0 0 0
37 1 1.688519579891787 1.7871965737761815 9.115801195193745 2.0603064938851343 0 0 0
40 1 1.354649717821499 5.315718426251586 12.661752258151726 1.221620784182812 0 0 0
625 2 -0.660961940049395 6.024594754157098 11.348754133387583 1.9574871044221303 0 0 0
613 2 -0.8010079344060292 4.546162788091301 8.542178492349631 4.46257313827998 0 0 0
615 2 -0.683416517848625 4.1285482999422065 11.775151826087024 0.4737522477405141 0 0 0
624 2 -0.7552679954354045 4.904162179475777 13.54714877840092 2.573999201738536 0 0 0
605 2 -0.7057794380735289 0.8655222785231693 7.966868178646872 1.2415316605938944 0 0 0
622 2 -0.6103266475771442 5.87236261038601 10.685599878547189 4.499816461140307 0 0 0
626 2 -0.7864603797164414 6.39880666390554 13.369250931441236 0.34552218179236266 0 0 0
162 1 1.165059731608386 6.954237291106119 11.176734113460656 3.2423387300721433 0 0 0
65 1 1.429082977347275 0.1281378538598989 14.169024037838426 0.10995696342120777 0 0 0
912 2 -0.5955567525043101 9.86952349962924 8.292987609867831 2.7417009804137873 0 0 0
167 1 1.428450077299193 12.738647322407017 9.04474575503429 5.089465661612567 0 0 0
922 2 -0.8020013092835363 13.65490186999275 9.929645472336665 4.187360144818821 0 0 0
289 1 1.575953755175712 14.163482143346348 6.673643447939982 0.3095183087978476 0 0 0
163 1 1.398779007647397 10.800424942183625 7.331925692092381 3.4939721383709337 0 0 0
910 2 -0.5490910822180134 7.989972969400767 9.820770730573951 3.1071217688758304 0 0 0
909 2 -0.5927023744260594 7.5134185592767135 7.702025460760222 1.1936595749254615 0 0 0
920 2 -0.7570478182087873 10.019868495280074 13.463986848294834 4.483246293550268 0 0 0
166 1 1.599888906194058 9.014067959442709 12.58670227872435 5.295342248953885 0 0 0
915 2 -0.7643407164994668 11.365987842912778 11.592688202664874 0.41910312952665413 0 0 0
168 1 1.508768028376783 12.303120717788596 12.525658003004692 1.3198274111917423 0 0 0
919 2 -0.7415788092223405 11.833948733783023 13.41460788105987 2.5200721681467493 0 0 0
914 2 -0.6943311260748819 9.43940633285203 9.918334971075833 1.1137516285489677 0 0 0
165 1 1.246704887234976 8.471741727669016 8.9111403379164 1.7696462733935208 0 0 0
34 1 1.560916096445716 0.057456446992168404 11.04630281206028 3.5365079517530957 0 0 0
2 1 1.290350776945843 0.26735266075348463 3.943600193546359 3.618395920581001 0 0 0
134 1 1.454612023469319 9.276739178850086 5.507289825634209 5.442633104675626 0 0 0
33 1 1.494823693595316 0.22635150872126406 7.091398715022065 0.12411881355275663 0 0 0
132 1 1.26729272386415 10.83315265767515 3.334686918400442 0.15743504544147555 0 0 0
12 1 1.741265297353393 3.5020697733625985 3.6346781046947103 7.3205723020194196 0 0 0
13 1 1.6169099544942 1.8867708500768696 1.8185925111685604 9.036422027557549 0 0 0
16 1 1.483488350648856 5.485501609325311 5.607289858148687 9.044820627340114 0 0 0
550 2 -0.835480800228255 2.4602390687682885 2.917295216151868 8.159554582327566 0 0 0
551 2 -0.74901544354299 4.402836482472287 4.420931416770899 8.365156294954174 0 0 0
558 2 -0.7320014496258607 4.700019397245212 6.489665447403417 9.974392703573631 0 0 0
559 2 -0.8026992203092523 6.473440780727032 4.852167728736342 9.805228208477455 0 0 0
546 2 -0.6765267152090819 3.095139645195394 1.031553515291611 9.570731966546914 0 0 0
560 2 -0.6730914354752542 6.41081302051025 6.673537064148099 7.991028339336152 0 0 0
75 1 1.565103889711755 3.6537708890404996 14.226930458719904 10.288696402553702 0 0 0
542 2 -0.7671087537145836 1.2278062298411403 2.6765703588251752 10.084882487595227 0 0 0
531 2 -0.6723916931449302 0.3995491580985371 6.329326833928085 6.6872590588538126 0 0 0
529 2 -0.7933915369765432 2.6569615855950213 4.628686779028735 6.590632498533952 0 0 0
538 2 -0.7731714150940593 0.990363334622801 0.8408340746100808 8.020090550462081 0 0 0
532 2 -0.9295071961913556 4.251095418241444 2.8484142409474535 6.249649421784437 0 0 0
9 1 1.413504878725755 0.0012752353938707069 0.023227782609321464 7.152352199271983 0 0 0
169 1 1.194003736220905 7.270206373148223 7.4783404728719125 6.8997860510835105 0 0 0
642 2 -0.7316186262804903 6.350938860201279 9.610297998232282 11.215772409205313 0 0 0
928 2 -0.6947800983548039 8.03313708887965 10.52557488519967 9.510475692368214 0 0 0
848 2 -0.7789731051253774 11.671578378083364 2.8056670188202584 6.718545160856881 0 0 0
620 2 -0.7154373007839678 0.9000936581001803 13.251025708953959 6.278041991920704 0 0 0
138 1 1.514201115338328 7.039775063159216 3.6121450904612664 10.69420786012409 0 0 0
854 2 -0.8638009859925408 7.8748054051580345 1.4470080918076509 7.827113210193908 0 0 0
872 2 -0.7099568290254191 13.360396152762915 6.43684672846756 8.375227189308639 0 0 0
856 2 -0.8442440341076366 7.922230752296214 2.5539466487382607 10.020493038995246 0 0 0
140 1 1.659426379280437 10.727676997189546 3.7149227142196466 7.527361795801091 0 0 0
141 1 1.793908082715342 8.722000277697077 1.993890119754154 8.865314370160512 0 0 0
144 1 1.510017374775814 12.560242149559805 5.612100055039279 9.303628546177737 0 0 0
862 2 -0.8681086480774617 9.535819692406061 3.204507628496368 8.243413712033773 0 0 0
863 2 -0.730773077521129 11.566517838736084 4.851836595911787 8.225741710527013 0 0 0
858 2 -0.8011017372943392 9.830316439455027 1.2674220290843219 9.5680287767945 0 0 0
871 2 -0.8170832270747084 13.302765493595034 4.262657327832177 9.962414993564447 0 0 0
870 2 -0.6923795806130658 11.550993034735473 6.351625618008343 10.238752862632653 0 0 0
845 2 -0.7039226350319568 10.05676902426227 4.326707003319737 6.204103343520508 0 0 0
847 2 -0.5922407342041929 8.111678156907468 6.251368786402807 6.2207239121120885 0 0 0
927 2 -0.5924247546458176 8.649713488298925 8.243738662300386 7.643483538548565 0 0 0
137 1 1.47133248581495 7.03496116412705 0.05614309363559911 7.376507514940594 0 0 0
43 1 1.458720458906859 3.447262177162585 7.486897305798883 10.656617053529297 0 0 0
850 2 -0.7907018470676587 13.31801953748614 0.9326886074249192 7.11033833517057 0 0 0
942 2 -0.7815349427443017 13.702501727396653 13.364989156445487 8.028903983702534 0 0 0
173 1 1.412247295836739 8.855104228128267 9.28911846395058 8.836573137799837 0 0 0
10 1 1.377355486384756 0.19193259354478343 3.488550663090682 11.00371094223749 0 0 0
621 2 -0.7229909373714267 4.847917064608193 10.05605402765548 6.543680963163866 0 0 0
646 2 -0.6276453643134388 6.560131487278125 12.99681888793681 7.552437463758162 0 0 0
627 2 -0.7342090080084704 0.48812506799630007 8.57508541984149 8.106901285791972 0 0 0
630 2 -0.7005189456756857 0.9942827429600248 10.290455642126929 9.650602136875928 0 0 0
634 2 -0.8246606054433331 2.5201916667303235 8.251265123310823 9.773003964421518 0 0 0
44 1 1.457127795375136 3.5991736552660627 11.048859517444571 7.186765226681638 0 0 0
45 1 1.675146599742158 1.7020400532896454 9.185024221010357 8.743404978846916 0 0 0
48 1 1.548696178964791 5.465926887279724 12.63415837088131 8.712289895804956 0 0 0
636 2 -0.8609436527423855 2.6453331123918606 9.898569422355935 7.8809154309801395 0 0 0
637 2 -0.7869159969799517 4.36486109657435 11.718683958337296 8.428767414906615 0 0 0
644 2 -0.726766538189768 4.502343638736029 13.876767599322367 8.999666854243172 0 0 0
645 2 -0.7415090222864875 6.06603169148042 12.412113103916091 10.046236510746205 0 0 0
170 1 1.236106555515134 6.94443303670482 11.080315111446682 10.60801751302095 0 0 0
135 1 1.554812719902655 12.570252132310145 1.7309369158774102 5.933527074803403 0 0 0
42 1 1.531068147137741 0.08614481788159535 10.915796219964594 10.882395209577703 0 0 0
859 2 -0.6914738405048831 11.533410838859695 1.0893521530233599 11.427586181090259 0 0 0
172 1 1.574067329091842 10.832266384838325 10.964531534693066 7.121205915517154 0 0 0
171 1 1.202567582445154 10.586718681023875 7.548841025022455 10.897284984507392 0 0 0
921 2 -0.6555044809265164 11.604130159423208 9.860563216918596 6.176678520321251 0 0 0
933 2 -0.9070694151528249 11.482136972444463 11.922175665332787 8.185257649164093 0 0 0
923 2 -0.6710385315585471 13.575780157929001 7.958155421886208 6.180103953785906 0 0 0
932 2 -0.7012891675390087 9.962329298863121 10.034754664458072 7.802539581292288 0 0 0
940 2 -0.7746125156063398 11.817368424109102 14.05746831989231 9.39271939604725 0 0 0
941 2 -0.8240992520328417 13.540767386275329 12.201769246878495 9.866603783624692 0 0 0
701 2 -0.7307326298975382 8.605988115561145 13.719275525153614 6.293508042712721 0 0 0
918 2 -0.8153959115727296 9.781719346528408 11.54747945010655 6.067605204148894 0 0 0
930 2 -0.7160794317478602 9.563820036953373 8.538386893632543 9.876764645571047 0 0 0
176 1 1.648201424441176 12.595303408848274 12.726525431264529 8.861032179261022 0 0 0
139 1 1.396984395389675 10.585597992701672 0.012632556333173922 10.470261911462728 0 0 0
533 2 -0.7233950352393553 5.626219826148881 0.6572189202602696 6.649474732824345 0 0 0
618 2 -0.7125946763232156 3.372528123318018 12.176099683993048 6.308132852104551 0 0 0
935 2 -0.7987218717732946 10.162799883944869 13.275895444764439 11.390083576607315 0 0 0
639 2 -0.7678948735531153 2.871691802849837 13.107982235277358 11.014654173245003 0 0 0
7 1 1.584847012876293 5.2066492759338265 1.7837163780036585 5.722906694781799 0 0 0
6 1 1.308540749765844 1.7236088423793603 5.588934199319355 5.746680321094567 0 0 0
20 1 1.578198721098168 3.4682223654361612 3.8578546898763624 14.573562489531351 0 0 0
24 1 1.561507780007561 5.457780794914927 5.852438240594687 16.22611329136445 0 0 0
552 2 -0.7030628371346228 2.58588324259058 5.075810009237428 13.974137941955725 0 0 0
555 2 -0.7578570607309316 4.224258475221078 3.1439707557867944 13.40085675991183 0 0 0
573 2 -0.7928176143209879 2.431032422112242 3.074310985012284 15.48945581490302 0 0 0
574 2 -0.6754360908581967 4.606539754646849 4.6239909242790045 15.019492698842944 0 0 0
14 1 1.317316604026906 1.6758879549166419 5.682063487031048 12.82348921748407 0 0 0
21 1 1.411646819132423 1.535836089530382 1.897927931189682 16.164043972359725 0 0 0
15 1 1.482722719598566 4.925121730192789 2.1926308092672477 12.411750124132228 0 0 0
583 2 -0.7569442709021817 6.3083085498072045 6.62182232698621 15.267498818335449 0 0 0
554 2 -0.7473803591252836 0.2613317112608966 6.324081941589698 13.525729085794591 0 0 0
557 2 -0.7248453074283222 5.99796864210391 1.1735227271198445 13.527182559490114 0 0 0
561 2 -0.6773500881946081 0.7387853373816838 1.2886670565261744 14.878983866987767 0 0 0
547 2 -0.6116789840346123 3.8356476461308677 1.3984745523641486 11.607488955082012 0 0 0
556 2 -0.7747438543191828 5.785104676051921 3.0178364224857033 11.51355840475625 0 0 0
145 1 1.467068222587094 7.090275484201318 0.33494858642617936 14.098038623920768 0 0 0
650 2 -0.7345406468943285 0.8324130070520148 10.094575370479333 16.560754015987982 0 0 0
569 2 -0.7366950384573572 2.292645699139706 0.5190816072381506 16.78102028781615 0 0 0
273 1 1.660094681772638 14.065770731201752 0.45498957933367856 14.61706080938588 0 0 0
873 2 -0.6500724507415204 8.103605409220396 1.7228578977781517 14.701792489426378 0 0 0
866 2 -0.6968261303637603 7.412347063507885 6.024137673607906 13.134073377572172 0 0 0
148 1 1.657404117210098 10.659644067742178 3.6339068595790973 13.928285312368015 0 0 0
149 1 1.53813476964246 8.840456034066424 2.279443195925243 15.945375601388237 0 0 0
864 2 -0.7943268263529898 9.692647628584595 4.658801051264621 13.47652375225493 0 0 0
867 2 -0.8910040713594813 11.51094307113399 2.8478742070366048 13.034448929682457 0 0 0
881 2 -0.7214489021718565 10.097513767702337 2.991412657986121 15.234345061941704 0 0 0
882 2 -0.6967931177937524 11.787667565502485 4.297587475559849 15.087751989833972 0 0 0
142 1 1.432680143927136 8.768846283188344 5.472198976527778 12.306434646254546 0 0 0
143 1 1.717165931374758 12.521971787489482 1.791387552284514 12.389006576182705 0 0 0
152 1 1.536856163858992 12.696679342465016 5.3317736204845385 15.79383971569224 0 0 0
891 2 -0.7916940112381562 13.998238212900613 5.692311981308276 14.853955122405923 0 0 0
869 2 -0.873674437738222 13.131723070833068 0.9351675962003057 13.477869506766583 0 0 0
857 2 -0.6704006991986554 8.319558792548124 4.116436028163118 11.688325296128635 0 0 0
868 2 -0.8486675815121545 13.71450960999966 2.3457246574220805 11.565346395720155 0 0 0
181 1 1.627656045982405 8.9132310275675 8.905430692487919 15.98084218572658 0 0 0
875 2 -0.8466615198924544 8.076919653131304 3.4229025476104153 16.58683335159529 0 0 0
81 1 1.377134329740967 0.1048495818057253 14.234421794859212 14.175742487535004 0 0 0
865 2 -0.7712119103865994 9.350141885767018 6.699712119060955 11.746675474882966 0 0 0
931 2 -0.7009532165703735 12.02020269690415 8.087376316733037 11.685483411390772 0 0 0
177 1 1.505416005193631 6.98426596695697 7.277361618077813 13.966028187578814 0 0 0
934 2 -0.7384518055924664 10.205640806047475 11.463203927010767 13.248784697801563 0 0 0
631 2 -0.7604682583622264 0.7487097234826694 11.930082704820125 11.759676442472108 0 0 0
654 2 -0.7560786980511305 2.5481382836129254 8.400775455573928 16.89779534846122 0 0 0
666 2 -0.6474038844804342 6.215571813291564 13.591428582119514 15.251837755306722 0 0 0
647 2 -0.806882643521869 0.6135990732045667 8.309628996343132 15.169306338200384 0 0 0
643 2 -0.8405661534907998 5.917508091851221 8.033700710056204 13.15015820318758 0 0 0
640 2 -0.7071607161109479 1.3665021941245146 13.47120935916654 13.651929853590694 0 0 0
52 1 1.604940542063251 3.656808382163276 10.786325849348117 14.047234114804764 0 0 0
638 2 -0.7972252869777204 2.733707946221757 11.470576175689166 13.10034887022929 0 0 0
641 2 -0.8471965369677698 4.9535243164372 10.277447984980695 13.214238357062703 0 0 0
656 2 -0.8088715080055674 2.8599328133588533 9.60701490583128 14.7908761776245 0 0 0
657 2 -0.78643840172726 4.068667391023724 11.916320102608113 15.048351218295553 0 0 0
47 1 1.738900638979003 5.300348431145766 9.125711768520718 12.287847173950516 0 0 0
53 1 1.664023147881516 1.7742852881950395 9.179081654851913 15.846338365299168 0 0 0
56 1 1.392953830718278 5.111329885417206 12.707281528955296 15.951041468493678 0 0 0
46 1 1.445813818785836 2.069865307388845 12.684992666589956 12.356115478251251 0 0 0
889 2 -0.7615010835301361 12.040132088589004 6.475592020777237 16.4123588445231 0 0 0
948 2 -0.8618467794878877 10.032509810430543 9.493424363152352 15.208322401842134 0 0 0
665 2 -0.6602198605851152 5.851410009732538 11.401670221131619 17.04141916312879 0 0 0
174 1 1.513052148523119 9.283945332235605 12.44724318812383 12.371300936653762 0 0 0
175 1 1.311379423336258 12.866184282381868 8.789128845747882 12.8175393283822 0 0 0
949 2 -0.6449258577355883 11.881350110152404 11.322753098619147 15.514171894496766 0 0 0
209 1 1.292856244420055 7.571023986496361 14.259776608723413 14.12982406199147 0 0 0
929 2 -0.6376707482635123 7.943211480494518 11.722419583405028 11.820618637748282 0 0 0
958 2 -0.893574973641114 13.492203208789359 13.416342576388145 15.46744100596406 0 0 0
943 2 -0.7507862790340653 7.804647381038273 8.308595359359678 15.02252629070382 0 0 0
180 1 1.375293908814168 10.856475725867487 10.599467200005584 14.472007374235371 0 0 0
184 1 1.598106821681904 12.747520094412504 12.428700759225665 16.346395056545322 0 0 0
936 2 -0.6986971898224513 8.461671130197411 13.113800294993311 13.50040712369562 0 0 0
937 2 -0.6193313743369409 12.325973541819044 9.843546405169741 13.814823707207536 0 0 0
939 2 -0.8358701637767936 13.953971989078912 7.908608763200311 13.558597241664797 0 0 0
938 2 -0.584267397549985 13.889630706075039 10.271040226472385 12.040206820396405 0 0 0
944 2 -0.670652853775219 8.193212559761546 10.048114301650587 16.686182684550005 0 0 0
337 1 1.709999998642886 14.295801160705846 14.057544402982135 14.32650040447182 0 0 0
581 2 -0.796786540211774 4.331370255253866 6.743606731972504 16.8901417300769 0 0 0
543 2 -0.6098810690628693 1.2390678441900693 4.019310252865676 11.964281613274736 0 0 0
877 2 -0.7628723002568342 9.348909650430487 1.0545510326580418 16.885491402574353 0 0 0
582 2 -0.9383909863100903 6.179173951941835 4.83563933136884 17.08917668239987 0 0 0
890 2 -0.7277959986629502 13.36641200757171 4.4061099029569535 17.035534005197412 0 0 0
635 2 -0.8722730693017601 4.2213062085407635 8.568102128056976 11.457153505388224 0 0 0
553 2 -0.6556711546229187 2.3543320398153442 6.37199180994215 11.674287377440173 0 0 0
22 1 1.351767521158665 2.178992795470602 5.048078312435682 19.885636178148957 0 0 0
23 1 1.291156490582805 5.451658278614212 1.8708161447191702 19.468919466746737 0 0 0
28 1 1.641571535315929 4.060783823302875 3.3266751003633313 21.69702431137553 0 0 0
575 2 -0.7708468830330891 2.9314185642682773 4.174730397241947 20.921813948106735 0 0 0
578 2 -0.7954726452430726 4.632357007267877 2.2821807989655776 20.777854010645147 0 0 0
579 2 -0.7672885896575384 6.701292486242987 2.762617805080318 18.660265828573 0 0 0
580 2 -0.7242061658019959 6.425780446261807 0.5933047017850424 19.90398850077582 0 0 0
570 2 -0.6847442729539819 4.287698923815545 1.0254521137924621 18.536876590903766 0 0 0
566 2 -0.7590400060585419 1.0389134154783364 4.1926353616813055 19.164960638107743 0 0 0
577 2 -0.5641662412443759 0.9496239161463971 5.981210941305204 21.01949590495722 0 0 0
596 2 -0.7245390413428346 3.047028514071443 2.542995453276843 22.48355050170799 0 0 0
584 2 -0.7832016916690001 1.190267037640646 1.1061625721122554 22.349828500868345 0 0 0
576 2 -0.6914227610340302 2.8332584035243484 6.144727758217064 18.923494816849722 0 0 0
51 1 1.504762250078734 3.559336537277645 7.48528153607597 17.97941023878268 0 0 0
604 2 -0.7710312832894216 6.314513768395925 6.155413711649396 22.146089992156774 0 0 0
597 2 -0.8473847914729123 4.983408568133361 4.321308427640802 22.526577880556054 0 0 0
188 1 1.329936172639934 10.692203450350823 10.986784571027528 21.65284693857769 0 0 0
952 2 -0.7520485329199053 7.581756787704587 13.154936316513913 20.351104105939 0 0 0
955 2 -0.7142683444433393 12.700468256175819 8.02666975211341 20.97261226303254 0 0 0
947 2 -0.5788108816880475 11.822871779966984 8.238871764367522 18.287844237103418 0 0 0
146 1 1.768821883524283 7.173684577278668 3.944493540116777 17.75935125457117 0 0 0
892 2 -0.7445655745390038 7.330492823753637 0.689303753628917 22.38492303230605 0 0 0
888 2 -0.9096350492650239 13.545409302640897 0.6008989623560612 20.524840821032374 0 0 0
885 2 -0.768818545025867 8.600143354888864 6.641273955368951 20.300079742611295 0 0 0
876 2 -0.8964603240336507 8.059080268126877 4.657899110582212 18.699980077455137 0 0 0
150 1 1.582884362876665 9.158277453521816 5.474149926901827 19.46942237952976 0 0 0
151 1 1.616675045917658 12.590446811425585 1.5492205510950425 19.808471413665178 0 0 0
883 2 -0.7811275381471022 9.659312774230319 4.171652455991021 20.46091571894316 0 0 0
886 2 -0.8577709980796078 11.576207152892367 2.369886586745227 20.573364176277636 0 0 0
884 2 -0.7645982961338379 10.250472622145518 6.139970130769826 18.606943823150107 0 0 0
156 1 1.558442516342379 10.360427493838 3.1035068679846445 21.234591084506736 0 0 0
878 2 -0.6823993749716309 11.701532152392142 0.7093819892756233 18.724801396690363 0 0 0
887 2 -0.7470395345039523 13.28724407110228 2.460561859359327 18.642569470996488 0 0 0
901 2 -0.6674551766297663 11.299023481531176 4.225968311125098 22.002462438012113 0 0 0
956 2 -0.7196578343968465 11.51604307520065 13.168652699682037 17.27323391432735 0 0 0
900 2 -0.7987652470459574 9.708180399999256 2.1071103950864334 22.274664031608225 0 0 0
954 2 -0.4968492383783014 13.418135042469029 9.720180740585224 19.157370103075877 0 0 0
89 1 1.196763736657782 0.21407830745297157 14.293006501392387 21.450417946530134 0 0 0
951 2 -0.7135398136674039 9.543488022287622 13.732410465212563 18.72243398434479 0 0 0
185 1 1.435814080463918 7.402725344051453 7.283824983457412 21.273391926424626 0 0 0
964 2 -0.7448261893688211 9.608936296106759 9.784884820996787 22.0952707708434 0 0 0
682 2 -0.7664770974708266 5.868055308239784 13.74546144634282 22.129172840408774 0 0 0
676 2 -0.8811844551443008 2.45138221608807 10.261853596174236 22.565219749096542 0 0 0
651 2 -0.8148551836967494 0.7476139595815209 11.404649958767454 18.746267593168795 0 0 0
659 2 -0.8137768590410933 2.5187483169865366 13.321155419324576 18.198094880759378 0 0 0
663 2 -0.746666642303494 6.5436282736546065 8.258927840959515 20.449446635909087 0 0 0
655 2 -0.8145253481106515 4.461108864591182 8.109467301483779 18.93983481110347 0 0 0
54 1 1.593240143440408 1.9204355985356836 12.41619748755512 19.32599964765136 0 0 0
55 1 1.45228428141196 5.361015574456914 9.110016376611714 19.760205276355002 0 0 0
60 1 1.584676048183459 3.440860335613397 10.907837050723405 21.51304967333978 0 0 0
658 2 -0.7847419013532261 2.7976271957043286 11.865960110093187 20.365590200458055 0 0 0
661 2 -0.7624388932503551 4.299795578092337 10.094790487347485 20.41310142681771 0 0 0
662 2 -0.5950030072607218 6.233705172577728 9.577144443442677 18.443786021922207 0 0 0
660 2 -0.6452177814206668 1.189803877828046 13.574463134920666 20.179090883121724 0 0 0
667 2 -0.7111933104761146 1.5143346372230506 8.151849384719789 22.140505852437123 0 0 0
178 1 1.405088394334638 7.072816144379774 10.930034202902634 17.693831360201553 0 0 0
677 2 -0.754409738147513 4.4304102889945165 11.89990836525333 22.001709798444523 0 0 0
313 1 1.462528660050218 13.862791433602508 7.173624519934321 21.608046681858603 0 0 0
182 1 1.411884439300259 8.961808529556412 12.669386663477825 19.696166956446955 0 0 0
945 2 -0.6395158017627766 8.180684305363318 11.75774414494527 18.20361903937171 0 0 0
950 2 -0.7827478958385763 9.911801900878304 12.007284000379883 20.692318701489132 0 0 0
179 1 1.300914975124589 10.836301248267171 7.148058815756852 17.50372103923606 0 0 0
953 2 -0.6122370950521397 11.927963368743802 10.311741283813722 20.683159353028366 0 0 0
25 1 1.439660482657582 0.3100393107423385 0.11312747022818824 21.491851837431312 0 0 0
565 2 -0.6483143092864593 0.5842623194103497 2.3918937827781783 17.194438647834257 0 0 0
345 1 1.451108745817244 14.131963165097407 14.008123174266476 21.58842436352709 0 0 0
972 2 -0.856635533827127 13.37542294752879 13.03780358032057 22.717250247201758 0 0 0
959 2 -0.8015559506017642 7.802933957117739 8.225569266467891 22.4326167301052 0 0 0
183 1 1.281881081393768 12.181258513526004 8.9796609649741 19.771796990016433 0 0 0
147 1 1.545222825813863 10.440667137238586 0.17868443231640682 17.626853492036357 0 0 0
908 2 -0.7153906223658795 13.12588383318856 6.080173916686614 22.277534102082274 0 0 0
274 1 1.626991609427404 14.21974189503267 3.5898303249079584 18.005811469868085 0 0 0
57 1 1.236479869421261 0.11654606568065629 7.209708617597901 21.582426258814188 0 0 0
946 2 -0.7336922841460871 9.485593769080468 8.052556737561664 17.160116698968935 0 0 0
957 2 -0.8227480748110652 13.339768574222374 11.464899565740337 17.260483351911436 0 0 0
664 2 -0.7334470881817264 4.598449576039755 13.471292593090222 17.177810261796825 0 0 0
30 1 1.526887343455592 1.5548956214101906 5.123652489664676 26.808629589988062 0 0 0
599 2 -0.705367455743128 2.22917042935811 5.892382311603486 25.576255729939156 0 0 0
31 1 1.453286690454806 4.812726437052326 1.7521788350086374 26.601174807327805 0 0 0
527 2 -0.6741634190900916 2.546846259959581 4.125614902860409 27.330992349438148 0 0 0
603 2 -0.7174749388273914 6.209952807233675 4.947670039935161 24.617503812932647 0 0 0
601 2 -0.66011179512074 5.424600423834078 2.8587705186709336 25.606340713968265 0 0 0
602 2 -0.7766902757611139 4.466930809865781 6.3649948062021195 23.861301838592453 0 0 0
526 2 -0.632497622182423 3.6873137015947877 1.6648072481516605 27.703898412857065 0 0 -1
588 2 -0.7541794406748863 1.2078371239574028 3.1288593536456086 24.390376889636762 0 0 0
4 1 1.278543130225337 2.2817008848586666 2.5397416157340857 28.288663988694445 0 0 -1
592 2 -0.5932492097464216 2.7796820647748874 1.1674992977701704 24.642758715901888 0 0 0
598 2 -0.7551994031648234 1.2112772035553094 5.997694338705768 28.08932437621021 0 0 0
600 2 -0.763317132010955 6.143606597590271 1.2832514929430632 27.24729521807942 0 0 0
528 2 -0.6625850489956071 4.563829941310578 0.4954781534252705 25.65442330849551 0 0 0
154 1 1.236208537966766 6.849166719797189 3.5918499929455203 25.334983526975343 0 0 0
164 1 1.454643008520643 10.344318544558234 10.522996404137782 28.47754397562744 0 0 -1
593 2 -0.7144725455974539 1.3411254338972092 1.255609689614528 28.249435878095824 0 0 0
589 2 -0.8068916416899337 0.30395128477562994 4.429048283467619 26.127655224761508 0 0 0
29 1 1.389880007335648 1.738958749108954 2.1944537678152303 23.318060576860194 0 0 0
157 1 1.300359570146339 8.5288278026694 1.6112478940617834 23.181895933794735 0 0 0
896 2 -0.6038371619183001 9.282164324572639 1.0883541179978904 24.534646608189817 0 0 0
904 2 -0.7711475046559861 13.334917392610693 1.1515515602150805 27.749715633047174 0 0 0
902 2 -0.6013480728291197 8.198626904449236 6.365555989850316 28.28097980474321 0 0 0
905 2 -0.84469782110456 13.036750397412492 2.9802440863867603 26.114394547749477 0 0 0
897 2 -0.7643961398434956 11.967489895360124 0.7450891204186249 25.564117494724226 0 0 0
894 2 -0.5838663426949955 7.731421896031809 2.8655704125058263 23.89950130207257 0 0 0
895 2 -0.6816168765806605 7.800862435800624 4.08882879044055 26.62103745020655 0 0 0
158 1 1.324757633742235 8.861995250734852 5.16846978269132 27.19495719327257 0 0 0
159 1 1.640743745784245 12.465919776254486 1.7281296298412312 26.68658029411978 0 0 0
906 2 -0.7390828659219 11.259615165325448 6.088204079259775 24.11993257406969 0 0 0
903 2 -0.7660955205421319 9.595514302135886 6.063153666821289 26.024886859180597 0 0 0
844 2 -0.709431749791165 11.26708258690984 2.061599015813755 27.644779992053213 0 0 0
907 2 -0.6772125327607187 12.953034535334105 4.852997511718643 24.38899274687402 0 0 0
843 2 -0.7220068858644904 9.928529368912889 4.4207969383717955 28.088269304285305 0 0 0
129 1 1.562648323819928 7.1791695424195625 0.3897063582848236 28.125134176471594 0 0 -1
189 1 1.519619871805402 8.836393027419359 8.99687342517364 23.177069649861085 0 0 0
160 1 1.420675070510921 12.129004205349034 5.116589757411056 23.1773809198573 0 0 0
59 1 1.416714794118185 3.4123397816343592 6.897752875011986 25.021360566264452 0 0 0
32 1 1.676403363380741 5.609404774862102 5.490338697144768 23.280656219667303 0 0 0
314 1 1.326863257891473 13.798729434059101 10.721336987686843 25.499332351496143 0 0 0
680 2 -0.7837351153864656 6.264157703781393 7.952728606201029 27.661845618994015 0 0 0
91 1 1.437122453010241 3.2014281043508945 14.112415578043734 24.861170149808068 0 0 0
61 1 1.560869217605806 1.8061053888183844 9.154983492175491 23.252330216468195 0 0 0
616 2 -0.7931569506796003 2.4752079326845653 11.071204828739075 27.425167332720818 0 0 0
675 2 -0.6608081423764948 4.335334233330271 7.34316786895204 26.1391404965543 0 0 0
679 2 -0.7899881011503896 2.7422014170609286 13.148590675185545 25.993763263467667 0 0 0
670 2 -0.7778010662682261 0.7214098782458673 9.948429923516356 24.00085465706142 0 0 0
674 2 -0.6837569938978152 2.4944323396314925 8.134932900715027 24.52063434396717 0 0 0
62 1 1.668645328824402 1.7827937347874603 12.303171137689798 26.970148885993844 0 0 0
63 1 1.331030461449199 5.414104201644477 8.682869033502941 26.690507278867194 0 0 0
684 2 -0.7459462289674851 4.151438342886083 13.107753699621586 24.052122942718068 0 0 0
681 2 -0.6839158640197647 6.260779757311816 11.506855535998696 23.561108226518318 0 0 0
683 2 -0.7617851974351042 6.035998250755922 10.02333487693587 26.019677990761224 0 0 0
671 2 -0.7647139533073261 0.7063819408169116 11.72245624899098 26.054935461376214 0 0 0
678 2 -0.8321972150958392 0.7569781193721503 13.154667832893997 27.752610083399706 0 0 0
617 2 -0.6481819223894868 4.15193281238246 9.063506415388408 27.700321959694033 0 0 0
64 1 1.527991473122763 5.330493262265772 12.659499487594626 23.079802793643154 0 0 0
966 2 -0.8803502345069064 8.423830836055288 13.361920196241488 27.407387578445714 0 0 0
187 1 1.713935035878158 10.480216886439619 6.950630635963188 25.122528443233804 0 0 0
186 1 1.363342871536607 7.099972706353187 10.68450104260224 24.985071456735337 0 0 0
917 2 -0.683277676629946 11.163546941533005 9.260599671698223 28.16196882736457 0 0 0
963 2 -0.8952689149078435 11.417767378152604 7.679293324170594 25.980082466787707 0 0 0
282 1 1.295620189580357 14.035303195561546 3.7750754155896895 25.283417775152834 0 0 0
916 2 -0.795287344001254 9.391015664923087 11.203990112656713 27.33893728469278 0 0 0
962 2 -0.7158719414095832 9.469500669020581 7.539226492482013 24.09521668541424 0 0 0
970 2 -0.7961424913871237 11.528760093342232 13.720837232817582 23.949832932843567 0 0 0
967 2 -0.8621947249924172 10.1882381180533 13.406714326162417 25.851752049057563 0 0 0
971 2 -0.7861108972405479 12.770287487845101 11.84166831488916 24.90998774016625 0 0 0
192 1 1.751240852695326 12.365181930960013 12.461268352214354 23.587129117707384 0 0 0
961 2 -0.7334925459694448 8.032509641539743 11.884947537986697 25.42203668246667 0 0 0
968 2 -0.7784301529588981 13.130859432335903 7.246840966687539 27.822048328416813 0 0 0
960 2 -0.7989597462444488 8.19605044273832 9.841356926182565 24.270940764294313 0 0 0
969 2 -0.6718854821492196 13.376954031105216 9.438070341813964 26.673305074256056 0 0 0
191 1 1.454460443118711 12.335188883595888 8.336808223651104 27.07758500126737 0 0 0
190 1 1.677895846980215 9.135267465103242 12.48711337624549 26.481162644876935 0 0 0
1 1 1.650012650865908 0.14545159601954954 0.20692844706558058 28.188104444411042 0 0 -1
193 1 1.47606730415257 7.222223880680487 14.16055308652541 28.01012539325552 0 0 -1
36 1 1.430245053397652 3.475042025209769 10.29541577135759 28.49384976788112 0 0 -1
965 2 -0.8063140389444968 11.311953272062244 11.485465917228609 23.059097710616584 0 0 0
69 1 1.570229911573436 1.9346690529728006 15.825174738561074 1.9443355563090459 0 0 0
72 1 1.582661870510388 5.489320036959819 19.56562961311165 1.5467285025589321 0 0 0
704 2 -0.8070299804518575 4.501000738255311 20.70249460906147 2.3158439637239776 0 0 0
705 2 -0.6468719691716166 6.597692599791294 18.59654754061484 2.413021528784951 0 0 0
694 2 -0.8450176963552037 2.862117409108347 16.84781682206782 1.1416386314522209 0 0 0
706 2 -0.7122903554538371 6.110055974374825 20.4029974682499 0.5450454430497814 0 0 0
695 2 -0.825033531998033 4.767423787198751 18.529274969825288 0.8447177420328953 0 0 0
692 2 -0.7730103320872471 2.8518726561713463 15.272349250444531 2.9735383269191855 0 0 0
699 2 -0.88013954447776 2.8335311240247445 20.24890571397677 4.18066199753327 0 0 0
685 2 -0.8260430560036666 1.4078146549974435 14.874892236187716 0.8900174940308403 0 0 0
703 2 -0.7232319559068464 4.680422683830648 15.277572309963173 4.511554541892033 0 0 0
688 2 -0.6688091404690801 0.9193224860163168 16.49163107140349 3.0647278203380464 0 0 0
689 2 -0.6194974864917908 0.664632144264886 18.786605622593385 4.592418916572587 0 0 0
702 2 -0.7408283679667979 6.609355867844843 16.92583617103218 4.423252903007995 0 0 0
194 1 1.454750579267487 7.610433598397979 17.674558598536535 3.498521147119067 0 0 0
97 1 1.633115368699327 0.005587142273103317 21.55695747084293 0.0986455412254333 0 0 0
71 1 1.364201926922203 5.649010496843983 16.1417769442115 5.40492408152533 0 0 0
70 1 1.434565917886663 2.110685103106531 19.54872046604639 5.282566455238761 0 0 0
1048 2 -0.6685992937190925 13.930208919375263 24.346583729536263 4.7962767861279705 0 0 0
1037 2 -0.7128142824512245 8.248597227849425 22.434929619746434 0.40535206480376695 0 0 0
979 2 -0.8491153805493187 11.707995835763748 18.860410073648055 0.7811759942190347 0 0 0
973 2 -0.7400759019115589 7.8276957752789205 15.224481780127332 0.4943054724060095 0 0 0
974 2 -0.7351081508383596 8.447666676701843 16.798845823148273 2.528137999452727 0 0 0
200 1 1.780675357274973 12.70407423279632 19.657195727751475 1.4901177311469682 0 0 0
975 2 -0.7183243695191619 8.457114120886393 18.889335169167623 4.165798478313011 0 0 0
197 1 1.408886966147881 8.925401663987374 15.678966339316217 1.4658709000775922 0 0 0
988 2 -0.8232527372325261 12.116152189462163 20.918546600784218 2.1164286862693746 0 0 0
977 2 -0.6840155107896143 11.858795422386148 15.383098403850703 4.244088794669596 0 0 0
924 2 -0.6069176068367526 9.4464615222711 14.442665743231267 2.376696715923022 0 0 0
976 2 -0.6690309393487365 10.167851530332012 16.55271732322412 0.7801614406260692 0 0 0
983 2 -0.6678735441600221 10.58434053378424 20.346227590133378 4.301863486910498 0 0 0
986 2 -0.6510606293369693 13.426753279393521 17.423407294362775 4.718903303516645 0 0 0
990 2 -0.8160712877906509 13.740669933975289 20.225935499779013 0.5342537747128225 0 0 0
199 1 1.444163122945191 12.720208368568105 16.278648369016157 5.374676813347963 0 0 0
198 1 1.337909614004661 9.324593096615672 19.877220199608157 5.075178688134536 0 0 0
989 2 -0.8329113045365291 13.339623212246451 18.690005053372268 2.4928196642734504 0 0 0
231 1 1.254697793501196 12.68969706510074 23.115975198779093 5.39176205381772 0 0 0
227 1 1.429399589853353 11.126818249964977 21.561364782477735 3.165008654897586 0 0 0
99 1 1.465364576328259 3.580839277041085 21.256123003290362 3.3684494564731837 0 0 0
232 1 1.228734595385682 12.555108751714181 26.678130737623338 1.6598468576232361 0 0 0
68 1 1.692917758184977 3.692033530316916 17.54881100860132 0.08199711338836063 0 0 0
102 1 1.416954230869064 1.8612951852631083 27.079218704668143 5.333585868432663 0 0 0
524 2 -0.8704692904166041 4.874468344856015 27.700965990078057 2.7635059003694384 0 0 0
523 2 -0.7683288915292825 2.555367737462725 28.126656836726543 4.003116875079583 0 0 0
782 2 -0.8704893043719314 6.4450059322543005 28.254967162519783 0.6505006942791118 0 0 0
765 2 -0.8209847764933611 0.8420060388624846 22.69434424938088 0.6827849467682578 0 0 0
774 2 -0.5416852184243551 2.9808735648015783 24.30694049214575 1.2053517839526142 0 0 0
773 2 -0.589003663918689 4.481881453618044 22.51775801191627 4.555455866487936 0 0 0
768 2 -0.6795598997948176 0.8079807485084577 24.134071722151837 2.5950569506517036 0 0 0
772 2 -0.7426330790704272 2.5114185428267493 22.349191897080342 2.816758512267581 0 0 0
769 2 -0.5268616937424569 1.4535306049674157 25.651826259911783 4.707236323955453 0 0 0
101 1 1.514889169264121 1.7388447907937414 23.281861855074858 1.8196043867293468 0 0 0
104 1 1.647241508651626 5.544200684607547 27.345360894914077 1.4483089613317224 0 0 0
783 2 -0.5765696136250266 6.479015464815282 26.01140395206581 2.172320714139267 0 0 0
780 2 -0.7441410228939197 6.661747077472181 23.88302925240085 4.309041108490803 0 0 0
775 2 -0.8442733435494647 4.795305902680212 26.573037077364358 0.44483909284143236 0 0 0
195 1 1.331929264948822 10.896080411782394 14.33052284874332 3.5106575638383775 0 0 0
226 1 1.289488415073308 7.290681879314439 25.083239756541225 3.345796177077921 0 0 0
3 1 1.58348039928772 3.88647713144688 28.585056403625707 3.54329794743324 0 -1 0
230 1 1.358217560362004 8.83598007297029 27.01369423574491 5.2965986563832805 0 0 0
1051 2 -0.7055054772185744 13.116492451752693 25.52562394886111 2.7413735013011458 0 0 0
1038 2 -0.7304885919928114 8.315065140858131 24.58165335280894 2.267749406231398 0 0 0
1041 2 -0.7109727754794906 12.137680116737188 22.2278979884693 4.164088079926726 0 0 0
840 2 -0.6145682179823073 12.01813718299819 27.92167035460599 2.788101158526164 0 0 0
229 1 1.442623836868235 9.051757697763952 23.36569888525231 1.5040850836891821 0 0 0
103 1 1.407881630699799 5.594954871716135 23.375608460216572 5.364460742044893 0 0 0
1042 2 -0.7072996984495427 10.061055300203297 24.003074617816274 0.48650324681735696 0 0 0
1043 2 -0.5624788315062264 11.044222340741639 26.27172432957269 0.8721544268374172 0 0 0
1040 2 -0.7313724430845375 10.058410144919218 22.50244950333103 2.3778670659268526 0 0 0
1039 2 -0.7220175681953108 7.892228978164418 26.317397874958097 4.3907941884113235 0 0 0
1050 2 -0.7513020676069523 13.551485627164109 27.117838951941774 0.5379115594554648 0 0 0
839 2 -0.7055632399873084 9.637028977734177 28.021093111580964 4.41788516241163 0 0 0
984 2 -0.6150383801259378 8.741354505308406 21.306026878657917 5.544427129082048 0 0 0
257 1 1.474686737709376 14.20196822582501 28.422413558631526 0.016774318496268464 0 -1 0
66 1 1.284946923750335 0.015394549592777196 17.854651136543655 3.4134387037957663 0 0 0
77 1 1.321575373618317 1.804394293642429 15.96759203968081 8.756125823984094 0 0 0
80 1 1.37032220821103 5.456466794533424 19.68291519583901 8.664252724631359 0 0 0
716 2 -0.721797817169436 4.3250673196152505 18.724571447528863 8.236533168980042 0 0 0
724 2 -0.6821223706536247 4.890872436107118 20.61623633127213 9.963403103520768 0 0 0
725 2 -0.5423110441202156 6.463014352354309 18.92295881311973 9.569001278182045 0 0 0
76 1 1.481494823837494 3.76814085602042 17.799973892706287 7.075457737980168 0 0 0
726 2 -0.6121917858944558 6.035237093610282 20.541620973022635 7.4084955886523 0 0 0
710 2 -0.7234314508227436 2.630180842444122 16.733435900514706 7.775316921547955 0 0 0
698 2 -0.8197896522054192 3.1002862124472617 18.852013847757846 6.312215954782177 0 0 0
693 2 -0.5587153491089036 7.153608730955021 15.672919820396672 6.317764118397157 0 0 0
700 2 -0.5925210453435565 1.12624283930615 20.236047589524265 6.40783938093513 0 0 0
11 1 1.214743329018168 3.5273029676364716 28.399830004909255 10.66015119716546 0 -1 0
714 2 -0.8163319283287324 2.6269448840217513 15.36240351927645 9.85544113703711 0 0 0
233 1 1.062259737670557 7.409523966612969 21.57414051201031 6.883872552391579 0 0 0
106 1 1.537905607248585 0.2550226242825548 24.516630706527856 10.672101041049663 0 0 0
107 1 1.204336932533486 3.967262329752468 21.628383512633654 10.523177376131288 0 0 0
861 2 -0.7813517208244747 11.4746177521644 27.592909504964954 9.593266457853156 0 0 0
1049 2 -0.5912652872900087 13.370399072060328 22.710478905223024 6.86877905466364 0 0 0
707 2 -0.7563189864459082 1.0710754999297012 15.074186414501943 7.888272302684619 0 0 0
202 1 1.44378252628896 7.047614801526852 17.77944426655652 11.177242739688804 0 0 0
1006 2 -0.6754504028005874 13.419125373538598 20.768645452162826 8.321021233438996 0 0 0
987 2 -0.7715641483648958 13.8734921089305 15.47595354925349 6.246527578570894 0 0 0
994 2 -0.7395117524045913 9.662899757897417 15.299531020995394 10.12947973371545 0 0 0
992 2 -0.6934605411953966 7.668504958770147 17.075786702674414 9.962842493992126 0 0 0
204 1 1.461453222910836 10.573025126331169 17.89745393733769 7.150420634110066 0 0 0
205 1 1.304374256693512 8.862503716623394 16.24435809002528 9.187877290008398 0 0 0
208 1 1.422652347217642 12.84864060712246 19.479317378869517 9.021949016825895 0 0 0
996 2 -0.7602905371348576 9.928514057614459 16.979861541073937 8.205921689047981 0 0 0
997 2 -0.659896153321792 11.669544231342803 18.697790989745336 8.103980155535893 0 0 0
991 2 -0.5654874661859215 8.09556776302898 14.661422308671982 8.809068545020551 0 0 0
1004 2 -0.6281731717563093 11.628076256747239 20.30417743535078 9.711774460187382 0 0 0
203 1 1.533586474231058 10.806699257688523 14.45715721242547 10.570171668047287 0 0 0
985 2 -0.6972103731781312 11.470140706851485 16.977560755959153 6.091566366717162 0 0 0
982 2 -0.7306236004184646 9.603650733688697 18.7415932589215 6.2979570786975705 0 0 0
1005 2 -0.7704623391170581 13.437687524070407 18.594519064193424 10.134565379907173 0 0 0
855 2 -0.7677129851870712 7.937854002926758 27.71104507740539 6.709912443747346 0 0 0
1057 2 -0.7820956389274552 10.170000965807748 24.07250142890117 7.977444498783184 0 0 0
201 1 1.220196464839855 7.648902527949209 14.392347477510414 7.277932017155296 0 0 0
779 2 -0.7719360403652774 4.665451950569781 24.507561750522253 5.816268811520665 0 0 0
105 1 1.391445497172297 0.11504397962467887 21.580589872443937 6.8404137431271685 0 0 0
791 2 -0.6069909038439283 3.39079154963523 22.934891513155897 9.21421370080492 0 0 0
108 1 1.589765214895435 3.8213442819661165 25.23957142018334 6.878554557334995 0 0 0
109 1 1.393068704452837 2.0557206773387584 23.37491832067384 8.48544902269501 0 0 0
112 1 1.448654372533633 5.657678480354551 26.64413158200064 9.028916007192585 0 0 0
793 2 -0.6766468549633259 2.5275085829724357 24.40898234307858 7.407575785679895 0 0 0
794 2 -0.7793636436639602 4.760722696902525 25.75485826776309 7.945333782287713 0 0 0
800 2 -0.7635908292748576 6.693149100579738 25.681989905437668 9.561484909870856 0 0 0
799 2 -0.6890801891691433 4.534911947586051 27.389574231799227 9.949811196247492 0 0 0
784 2 -0.7530600950864463 1.1386667392175847 22.3728576245635 7.557000166772374 0 0 0
787 2 -0.7565257685896485 1.0651569359512696 24.32025480395978 9.459085520774883 0 0 0
781 2 -0.6477944504041498 6.253648244776704 22.64078672800555 6.654837259658761 0 0 0
534 2 -0.7510847098193312 6.3574531752966195 28.07998145799391 8.627497016906942 0 -1 0
778 2 -0.7039123255009763 2.9999278442219586 26.36219596307321 6.011559850955028 0 0 0
234 1 1.604136692334093 7.698593065369691 24.962871838766176 10.76609118262375 0 0 0
1063 2 -0.7636180629891142 13.66257797150341 27.393043556974245 8.134313858132584 0 0 0
236 1 1.340598975457425 10.61751164867704 25.010689481136204 6.822411342557802 0 0 0
539 2 -0.7745006484106643 0.9969544553459513 27.708316906333863 6.379795496118404 0 0 0
719 2 -0.5760384890191889 2.481761045753195 20.839129410641608 10.992867036075916 0 0 0
1047 2 -0.6289395090070101 11.460490298151823 24.077430371469305 5.920708490696981 0 0 0
362 1 1.372952144023115 13.92856665139762 25.47396685744 11.19656427291274 0 0 0
240 1 1.509546108754291 12.40251239511301 26.679013224416252 8.781504901209308 0 0 0
235 1 1.498908891817825 10.693702395977931 21.07653145339678 10.845771271961869 0 0 0
1052 2 -0.6496409427432416 8.371705458924188 22.393740028458602 7.967263765205796 0 0 0
1053 2 -0.8449879414081626 8.652377063412825 24.032493127053606 10.153417637344127 0 0 0
237 1 1.474749483531291 9.377515441842323 23.19905421881347 8.994890009812268 0 0 0
1055 2 -0.7422549014763565 10.289234985660485 22.24306094278884 9.973520177592006 0 0 0
1046 2 -0.6670713324562454 10.253062635106383 26.319126101956726 5.949043391599402 0 0 0
1058 2 -0.5924237620566122 12.038825323924819 25.747836144788312 7.467847714876514 0 0 0
1064 2 -0.709982641821709 12.972249050153527 26.029196795108774 10.06835663785537 0 0 0
717 2 -0.7390894182969543 5.144585000664034 17.07403355024707 6.5719915968185525 0 0 0
711 2 -0.6924207708732603 0.8897153856073166 18.794431797591947 11.302105612765224 0 0 0
330 1 1.529901394445724 14.188115870850833 17.335342221518765 10.881177660160455 0 0 0
84 1 1.53132650695054 3.2845993608230373 17.706221877185666 14.090320099672608 0 0 0
85 1 1.475787419278946 1.5869758573465338 16.0935819204302 15.990803327154666 0 0 0
718 2 -0.6928890908304063 2.678250829856053 18.734560755554252 13.143201000634162 0 0 0
721 2 -0.8028114906603326 4.132514518352829 16.70239133175666 13.00369627601696 0 0 0
736 2 -0.8093460881061466 2.422926386255165 17.215336203747533 15.283674540203192 0 0 0
737 2 -0.6639020277685863 4.250717708884374 18.601351795450352 14.858926885856583 0 0 0
78 1 1.317767515245295 1.6525768157616516 19.797078727244205 12.185222661634137 0 0 0
88 1 1.352362580746222 4.923542166337128 19.583171674648522 16.181948170828097 0 0 0
79 1 1.550840621995093 5.172282918738383 15.813385552100964 12.439610940681774 0 0 0
723 2 -0.6752500339585821 6.552250311058933 15.253298925521175 13.118202967073538 0 0 0
727 2 -0.7115520861430487 0.5386289137089436 15.613688218462944 14.741050630813712 0 0 0
746 2 -0.7762502215486728 5.627934636078557 20.855278718093675 15.50847826416639 0 0 0
720 2 -0.7121293650742685 0.5201289439101379 20.60245808109071 12.910257682326714 0 0 0
1070 2 -0.7358203760754354 10.088199595905651 22.41512374372151 17.10293740358679 0 0 0
369 1 1.483942992146105 14.289360313116648 21.626470736108107 14.245911664042628 0 0 0
1008 2 -0.6922819450655223 7.920246089524122 16.933762276482128 16.445920397220128 0 0 0
715 2 -0.7667853626774064 4.583527811895806 14.62267571722341 11.47847622301055 0 0 0
995 2 -0.7589811102297868 11.300089430182146 15.372497009552756 11.885576070565978 0 0 0
860 2 -0.7106897713502918 9.888575291937933 27.850198728620366 11.64189281255856 0 0 0
1056 2 -0.6472872218751192 11.679436908742257 21.7920477610748 11.839625206874352 0 0 0
1021 2 -0.8144340622710512 13.752413596491937 18.364544119958502 16.84475847636809 0 0 0
239 1 1.385097413391241 12.12419841254611 23.229029209783548 12.619504228585386 0 0 0
993 2 -0.6910259103958268 7.978801954065833 18.551999501056603 12.114977841306104 0 0 0
245 1 1.319272505778449 9.062688329275765 23.31230425786689 16.17757239405084 0 0 0
1065 2 -0.7718522430438417 8.058363653237642 22.315801116269245 15.424488993035466 0 0 0
1061 2 -0.7206326929586636 12.884611242795835 24.420044237204557 11.91701082269739 0 0 0
1007 2 -0.7250770617468469 8.718176173168873 14.839473758173783 15.00186528520292 0 0 0
207 1 1.457381043234636 12.461656507660527 15.776136158688525 12.663181358072018 0 0 0
206 1 1.198299679323339 8.734507948755507 19.682439263367066 13.249869266020033 0 0 0
212 1 1.413826474931075 10.796667267591816 17.845043855989733 14.408187813029265 0 0 0
998 2 -0.6501974006900836 10.108669871386393 19.351492001951947 13.799088583931594 0 0 0
1001 2 -0.6693123433877334 11.83393923357648 17.25753458583833 13.278328061134163 0 0 0
1012 2 -0.8515640455178729 9.99529939404013 16.816277140004196 15.07147093494976 0 0 0
1013 2 -0.6650070615167675 11.67669668459355 18.687133815325442 15.48062769202212 0 0 0
213 1 1.564632637190523 9.164562606946568 15.956717639023047 16.001881035051134 0 0 0
216 1 1.467380584798848 12.923435185254274 19.56645976690073 16.072209947431215 0 0 0
1000 2 -0.6858608809452091 7.4025419084723 20.52404289343462 13.687595834303075 0 0 0
1003 2 -0.8274587875948688 13.16378144758229 14.548703105407919 13.538944316804992 0 0 0
1022 2 -0.7259445440505734 13.452665489698097 20.44664518622009 14.940275665691736 0 0 0
241 1 1.421762119138903 6.854230759913926 21.475724464685268 14.875996370966526 0 0 0
1068 2 -0.7739409641148453 9.556997839438731 24.721696945717557 15.371050026988096 0 0 0
999 2 -0.6230615822994328 9.749196032616771 20.539266354148438 11.885384880880089 0 0 0
788 2 -0.608797698135304 1.2528985642789077 25.466835335355963 11.764463803769294 0 0 0
1002 2 -0.8164627258220536 13.615143085698802 16.139930673628587 11.649189449519668 0 0 0
1010 2 -0.7976691054754109 10.303159025847258 15.287035650971964 16.86053816436849 0 0 0
792 2 -0.5880531151811229 4.6055736114232175 22.479203374803202 11.847898115606949 0 0 0
801 2 -0.80703921413906 0.8807346395863114 21.857617636071176 15.11158821457826 0 0 0
548 2 -0.7205753102795671 0.14888403157829214 27.335519047132305 13.09985691473754 0 0 0
798 2 -0.6421873234593071 6.253983326406648 22.802470814054686 13.991934013867919 0 0 0
110 1 1.383785731364287 1.4607078577925459 26.860564940493184 12.593401723739705 0 0 0
111 1 1.397454713967418 5.567231239744063 23.604522617344223 12.733569228367418 0 0 0
116 1 1.383810496781198 3.4536950419067405 25.28242890944147 14.489805719554436 0 0 0
117 1 1.571993811718137 1.6636299313709373 23.065204128403934 15.729730619339467 0 0 0
795 2 -0.7275324746128351 2.6337150806492144 26.26475673487751 13.526731136668648 0 0 0
796 2 -0.6863225849702377 4.490618500230726 24.531396700659723 13.292041649172601 0 0 0
810 2 -0.8125822022766793 2.720607342503662 24.154434872294235 15.327818570520895 0 0 0
811 2 -0.7652968936736652 4.448408897359155 26.167832888206437 15.469084911447913 0 0 0
120 1 1.549238293532946 5.4946557504379845 27.08299565052195 16.143778186404464 0 0 0
816 2 -0.764832924736909 6.397309825272774 27.914755275175786 15.222793581256626 0 0 0
734 2 -0.8199982470087599 2.635625016414732 14.892268820022135 16.3175855183987 0 0 0
804 2 -0.8583674087734696 0.7680542030881743 23.878072714564478 16.701068853807993 0 0 0
817 2 -0.6732084623829483 6.756144063141354 26.368364897143557 16.95767008400411 0 0 0
1060 2 -0.7348382333543738 11.402670888139886 23.854930680630755 13.86836421834594 0 0 0
1059 2 -0.8747715959875441 11.791299480725229 26.024527418625752 14.972685064775932 0 0 0
248 1 1.737894368921606 12.158898957276978 27.072926666192327 16.07333442175126 0 0 0
797 2 -0.7754883973003898 6.559362952934657 24.197055829179625 11.670557223429741 0 0 0
238 1 1.625132608983655 8.906003105999714 26.963668828381252 12.597795239736085 0 0 0
1071 2 -0.8367683505964962 9.78720070614696 26.23451585679568 13.635699631168288 0 0 0
1054 2 -0.929053262051496 8.416953406105803 26.067832804960528 11.469526354938113 0 0 0
1062 2 -0.671285036181558 13.029231092963446 22.299724234437708 13.607087211069896 0 0 0
244 1 1.596086683947282 10.630803113311321 25.230458769174707 14.442673477981781 0 0 0
1076 2 -0.7777450718419872 13.18845364802197 27.978642604843373 15.372141531425658 0 0 0
874 2 -0.8177224823598266 8.138756493390423 28.138625621565915 13.329759239159904 0 0 0
880 2 -0.8360930172601245 11.085149013849023 28.110948492959537 16.470918113522988 0 0 0
572 2 -0.8130187798324016 4.4888569325282175 27.915560560894153 16.98657468588977 0 0 0
745 2 -0.7195703924206478 6.007284061836698 18.507120532840826 16.49226381979145 0 0 0
808 2 -0.6937623703276405 2.2613642281301356 22.247656051502275 16.958792386693617 0 0 0
730 2 -0.8461365268791268 0.6215243169985092 16.6122995193008 17.02615983153135 0 0 0
722 2 -0.7852174938219851 5.947669062059467 16.867822224526574 11.636463592979673 0 0 0
549 2 -0.6922982499930755 2.29763964011551 27.708329547161636 11.4833211431554 0 0 0
86 1 1.538863594322155 1.4003917244229271 19.597336626427243 19.617924993323204 0 0 0
87 1 1.602510501468231 5.130045148865534 16.224081389370852 19.34846720854191 0 0 0
92 1 1.373390258136831 3.442904229199928 18.065598731336785 21.553030221981555 0 0 0
741 2 -0.6937702290701776 4.4529444387165595 17.350621288478916 20.079082569604275 0 0 0
738 2 -0.7481157522112154 2.2401053792092536 18.801233454440926 20.70018611782917 0 0 0
742 2 -0.6963793214591467 6.297568978625382 16.634870802306843 18.287346343607567 0 0 0
739 2 -0.6650136718838016 2.0477527511713047 20.872448779966554 19.035830628769578 0 0 0
731 2 -0.6992000448034426 0.7715913943024545 18.808868493639263 18.34693704752797 0 0 0
743 2 -0.7492051337793416 6.014776044015087 15.458549938012025 20.24293262484566 0 0 0
740 2 -0.7638408895645122 0.4625313593737641 20.499187441628955 20.33957093194586 0 0 0
735 2 -0.8537936487116276 4.118101028940398 15.177667135539226 18.6674065591649 0 0 0
747 2 -0.6544737698308041 0.5137386531043827 15.710459477856265 22.09291277721147 0 0 0
114 1 1.482913147072639 0.12582111930639425 24.909184725431064 17.52822469613055 0 0 0
210 1 1.327096377786786 7.1021168989430645 17.827286768541004 17.55239643789394 0 0 0
1083 2 -0.7957377539938265 9.83746511524529 23.992223040141894 22.018585620408796 0 0 0
1084 2 -0.6880401837950658 11.891753849387673 25.444840237822763 22.605947796524312 0 0 0
764 2 -0.9015008664456565 6.544191978230034 20.32810933093936 22.111788837505575 0 0 0
115 1 1.362486679121409 3.226219689182 21.58028120301893 17.9786096606734 0 0 0
217 1 1.518041190075534 6.920081442913675 14.367510575706369 21.134830234842497 0 0 0
19 1 1.556755606479751 3.3600918951018754 28.563265407989466 17.770783242596135 0 -1 0
1074 2 -0.6977122452779201 13.42890077803486 24.288534178922447 18.645105448863102 0 0 0
1077 2 -0.8779190559626699 12.886270225633051 26.522257274155532 17.24879241284898 0 0 0
1019 2 -0.7991563103273829 13.616951513446432 14.764107486060901 20.28253143810173 0 0 0
1009 2 -0.7211737064400863 8.270456380855949 18.19694466108364 18.564262013853547 0 0 0
1016 2 -0.720412496257216 7.843880852850033 20.352797943604827 20.270862869083494 0 0 0
214 1 1.317149866381632 9.024372672271657 19.211397166577278 19.550468265570032 0 0 0
215 1 1.544439608848497 12.620562054249369 15.838289097020775 19.704608610673016 0 0 0
1017 2 -0.6746436589362395 10.196533874531974 18.552511409805028 20.596955127734926 0 0 0
220 1 1.383869527397018 11.15419165071221 17.746207422336077 21.554905134963096 0 0 0
1029 2 -0.7711563542417261 12.128466352718073 16.87608691463442 20.6796511123032 0 0 0
1015 2 -0.7265180564018263 9.845913485109403 20.29333421236048 18.59128429481685 0 0 0
1018 2 -0.7953254479483465 12.967188070523356 16.9246580533253 18.655654254042986 0 0 0
1011 2 -0.7550112454699937 11.300500933748047 15.030486096097556 19.353577587796174 0 0 0
1033 2 -0.6046168434249422 9.795115334384674 16.74487055288659 22.30798934363887 0 0 0
1014 2 -0.8181962047325315 13.024045928664957 20.494056111919317 22.34705546849963 0 0 0
377 1 1.65220644400872 14.03132923065559 21.317243788757615 21.491216702721964 0 0 0
1036 2 -0.7622352481618311 11.876700158072648 18.413251277289138 22.84421548194636 0 0 0
249 1 1.803968331223909 7.110491587320394 21.3449490630843 21.157619445734454 0 0 0
83 1 1.645087370667201 3.4066272053739124 14.411284416406863 17.61343469585143 0 0 0
756 2 -0.7856391818988042 3.0059170678305 16.71777873432555 22.24287705983414 0 0 0
805 2 -0.710817043580082 0.608459426584434 25.4171647819688 19.07228934630777 0 0 0
585 2 -0.693486946223783 1.2243697175659278 27.814318480451202 20.504224634029484 0 0 0
813 2 -0.8543231762631799 6.043133128188744 21.8759568761941 20.222759640999225 0 0 0
571 2 -0.7732697135554276 2.3774859318877324 27.458136266518625 18.459275489157914 0 0 0
815 2 -0.6962804139185308 4.13922185990685 22.689632254168224 18.55712072916851 0 0 0
118 1 1.552118960095537 1.6498794289227727 26.656342747541004 19.532670397679126 0 0 0
119 1 1.506446828270731 5.430892578021919 23.154808821861455 19.4972014042027 0 0 0
124 1 1.461900404352859 3.51713120832139 25.142409341037393 21.310014957963133 0 0 0
812 2 -0.7784044572409076 2.78357393873692 26.216070181186616 20.365495996501483 0 0 0
809 2 -0.6577896789656604 4.365820369971187 23.84163153641328 20.552052168688412 0 0 0
814 2 -0.7875903258433735 6.144291220078856 24.17102040388728 18.683447834214846 0 0 0
828 2 -0.7050400797375161 4.398039480785476 25.65558679543633 22.462225790633024 0 0 0
831 2 -0.74171287465155 5.765310687090991 27.675098255548733 21.602114925823173 0 0 0
827 2 -0.6167317129373548 2.450901833451631 24.521426589682275 22.179459468532414 0 0 0
744 2 -0.7031800888704 4.199688593578534 20.258841812122885 17.43746912995819 0 0 0
242 1 1.348960750773564 7.264229560256728 25.016452103641303 17.88455779280894 0 0 0
757 2 -0.7628295607223236 4.2735152309542555 19.1860253372807 22.18028485872776 0 0 0
1087 2 -0.6578319624363271 14.062048004410206 27.125825143622716 22.384218813487003 0 0 0
246 1 1.451587864537911 9.030289289820553 26.906436321027787 19.638024987879405 0 0 0
893 2 -0.8527326086032248 8.294348040495098 27.830399931440713 20.747018227482844 0 0 0
1069 2 -0.6949584935246114 11.507987505044017 22.09826599977107 19.04358390721113 0 0 0
370 1 1.601521552687267 14.106362411839427 25.59216573618407 17.680566002105248 0 0 0
247 1 1.42612294258168 12.462838582730722 23.285352182773536 19.302722591084695 0 0 0
153 1 1.630215051214881 7.021119451172372 28.48246859819966 21.09532850237865 0 -1 0
879 2 -0.7695618755050282 9.712696951857021 27.638880675785277 18.401917427888275 0 0 0
243 1 1.401186319771764 10.735915166906336 21.236706150093035 17.850273767108114 0 0 0
1066 2 -0.6643630171062964 8.289826225683699 23.909500657908403 17.527449221150608 0 0 0
1072 2 -0.6786916007344994 10.239828948151297 26.21106531639769 20.499018138518363 0 0 0
1067 2 -0.6687182110832485 8.024973752243138 25.750645713978376 19.174189132743418 0 0 0
1073 2 -0.6680863627196539 11.577909021158758 24.300719566338625 19.988461036840373 0 0 0
338 1 1.634483096568625 14.218167403737105 17.678099399221594 18.04899837114696 0 0 0
252 1 1.377877280704206 10.833195957347526 24.981537130115065 21.370386120592133 0 0 0
1334 2 -0.6750850731238245 13.52413590705053 22.420184023432295 20.5039559351749 0 0 0
818 2 -0.7678546954208897 0.9841590326500753 22.48231330394048 22.06235381287629 0 0 0
211 1 1.51064645479547 10.789673149492867 14.364449600554138 17.979041635843682 0 0 0
1023 2 -0.7640083692397572 7.922379231422266 15.162430209617543 22.09360505027791 0 0 0
1078 2 -0.8981851095183715 7.725519227582276 22.51666740579661 21.891514946376695 0 0 0
253 1 1.507126366063238 8.750557806011106 23.21276583743512 22.813191569529966 0 0 0
1020 2 -0.6807743145434585 12.234939835429989 20.40820751817307 17.23317678259946 0 0 0
94 1 1.461041685148254 1.9674312498210909 19.415490676596708 27.04128328507617 0 0 0
95 1 1.503036173275112 5.039603481879538 15.871655060319691 26.439424118003313 0 0 0
761 2 -0.7982211637402461 6.268651892215207 16.76271477892858 25.690117970339738 0 0 0
759 2 -0.8441190984579432 2.806457289992541 20.237303988764268 26.06514740611828 0 0 0
696 2 -0.835232981933028 2.969679192058419 18.627194237561554 27.86136751204908 0 0 0
762 2 -0.8475455935457203 4.6914015599037295 20.548235732376046 24.115564696901107 0 0 0
763 2 -0.8241112691760355 6.2376752066688885 18.618027901582476 23.943450942680762 0 0 0
750 2 -0.7538393884268433 0.9800257289814037 17.23558979488354 23.818816418253334 0 0 0
751 2 -0.7124685611209102 0.9593913589112851 18.307335308492103 26.26777238200622 0 0 0
697 2 -0.8166151412930041 4.187823347587414 16.497531221550318 27.683266690688523 0 0 0
760 2 -0.734873672427895 5.749363724989307 14.740953697455463 27.005121277344795 0 0 0
754 2 -0.7763216924555596 2.0722255170968342 14.98992777842744 24.01172804339183 0 0 0
758 2 -0.7300272692052329 0.9929898026252605 20.650807231832538 28.015120848170266 0 0 0
93 1 1.49126916803897 1.814589840603493 16.1332687163732 23.085317938165122 0 0 0
755 2 -0.7194182005995144 4.089893108508913 15.486428991145416 25.214308905821646 0 0 0
96 1 1.646566090215558 5.516933072116614 19.793828670667267 23.090854685660883 0 0 0
256 1 1.318117992157203 12.78161817896223 26.57826832523298 23.295084848349763 0 0 0
218 1 1.743721683313119 7.065529058565089 17.812277475615662 24.943206725706382 0 0 0
1027 2 -0.6737282021491821 12.146923129390442 14.887578285683034 26.016963486354527 0 0 0
1024 2 -0.7972649533571741 8.004337785603996 17.10579955437431 24.02899972445628 0 0 0
1025 2 -0.8285013072457864 7.635126612659839 18.748478722361437 26.043248583080484 0 0 0
222 1 1.606481459550123 8.894254256980371 19.54357589784533 26.745607173824965 0 0 0
223 1 1.426400032310174 12.668958946017396 16.3392048607142 26.823290227140138 0 0 0
1034 2 -0.713233740240203 11.3835487568498 20.8717192015277 24.327482248990403 0 0 0
1031 2 -0.8152823980877124 9.742053695590746 20.38578148231554 25.82252865020988 0 0 0
1281 2 -0.7289152760256967 13.72239914719695 19.229573450948433 24.274144803951632 0 0 0
1026 2 -0.7853266257401315 9.639899224822779 15.252326291838457 24.436055483317073 0 0 0
978 2 -0.7960935012382513 13.551281653946988 15.629549810219704 27.91900551608811 0 0 -1
219 1 1.581770529448626 10.864803303961349 14.521856902237829 25.132732649113496 0 0 0
221 1 1.448285984761459 8.793894226012327 15.886714497617325 23.21262067740104 0 0 0
1030 2 -0.7118214859268948 8.205361367745171 20.45031079193501 27.73399646036769 0 0 0
224 1 1.507578148131852 12.380215862458186 19.734948499653367 23.48180020336895 0 0 0
1028 2 -0.7579689905323881 11.524496290870683 16.691873524167104 27.706942725076427 0 0 0
980 2 -0.7468118704638247 9.625569985254465 18.806694706963906 27.894980385785804 0 0 0
90 1 1.386547450371022 0.11594654998146656 18.001660421886758 24.950684857368053 0 0 0
128 1 1.42145588927056 5.272130603654587 26.929068822041877 22.938148531148926 0 0 0
123 1 1.642691963819287 3.5851902506507414 21.11624663823349 25.09645530440187 0 0 0
27 1 1.515486704593812 3.366284539280559 28.334228587631777 24.859708642415818 0 -1 0
594 2 -0.7229415183659793 1.0024703320169008 25.458715848691835 25.751055116618787 0 0 0
595 2 -0.7641154213261155 4.031945141303847 27.660878077893955 23.717019612298465 0 0 0
832 2 -0.7155821019812897 6.43963693919258 26.17633075108332 23.79322744582149 0 0 0
126 1 1.582792631685375 1.6774284661535745 26.64756034823507 26.74597102180861 0 0 0
826 2 -0.7386318978708984 4.340141834375016 21.961846232857514 26.06721202551711 0 0 0
127 1 1.467070951412466 5.15795202707033 23.290726891284937 26.56382620095711 0 0 0
825 2 -0.8041571343129243 2.7029614060884706 22.161078872230476 24.079586727777603 0 0 0
830 2 -0.7748445795274939 5.913339094830796 23.987011094859284 25.28881433075591 0 0 0
776 2 -0.713036457824557 2.401615522402244 25.97345504044447 27.873782471779407 0 0 0
822 2 -0.7851473264234283 2.7732806168540733 27.312952925154224 25.935884613924333 0 0 0
514 2 -0.7868099137330463 0.9470675657449936 27.94830392515984 27.12680967433612 0 0 0
821 2 -0.7300847664966614 0.5764070825828866 23.652059399173787 24.16068870270457 0 0 0
777 2 -0.732799622338749 4.205897631812355 24.303291897103577 27.39131904267433 0 0 0
100 1 1.311208360667576 3.860872687766834 25.40419534003614 28.49902481277497 0 0 -1
1082 2 -0.6891206040517021 11.178815435575752 22.346607515490856 26.433151586628636 0 0 0
125 1 1.405896269888899 1.8439596749997098 23.084151458861715 23.304411271316557 0 0 0
225 1 1.395674199115458 7.167650173724172 21.564692909120723 28.249368779046364 0 0 -1
981 2 -0.7409392278968668 12.830090628513284 17.115413415781042 25.55062158387887 0 0 0
1088 2 -0.7951599330646703 13.630116062341402 25.993991119777508 24.401280444980532 0 0 0
251 1 1.407581008831912 10.335440336045265 21.614541393158095 25.047742428854068 0 0 0
1044 2 -0.7637658528104319 9.426828683362588 26.012482814225805 27.426620020265158 0 0 0
829 2 -0.7653452011231273 6.181877898768012 22.445590872849078 27.341566810778794 0 0 0
834 2 -0.8440960310697695 8.27740800770843 28.255397308234144 27.274122345260537 0 0 0
1086 2 -0.787077839078283 13.309682337966917 23.84453381156305 25.61674077259938 0 0 0
155 1 1.293579165396887 10.710795266021432 28.56854095624434 24.96681647232308 0 -1 0
898 2 -0.7659137876309642 10.027543150661312 27.37584847045355 25.598951136502794 0 0 0
1085 2 -0.7027033545879811 13.077068792135515 22.841091827038827 27.967983188578618 0 0 0
899 2 -0.5778558751187158 11.720254433224069 28.051564378445352 23.76881817745947 0 0 0
1080 2 -0.8315213636983663 7.75668345351203 26.024912612461026 25.914455164191878 0 0 0
250 1 1.460175793531751 6.963863739383455 24.989572694999517 24.803366880577357 0 0 0
255 1 1.557703984912363 12.362203924118692 23.361448003410015 26.734500386657032 0 0 0
1081 2 -0.6943226443122489 9.490637457804647 21.996539487893045 23.687122839721965 0 0 0
254 1 1.644387571507177 8.702591540644448 26.96933319508563 26.504717663292137 0 0 0
1045 2 -0.7236792379477641 11.741167587071189 24.720209279465315 27.105957333903575 0 0 0
1079 2 -0.7540891872340776 7.899703337098909 24.070308147297606 23.95136487116069 0 0 0
228 1 1.355940923711648 10.551745403626859 25.173467192489642 28.182677040114097 0 0 -1
353 1 1.291370254680471 14.21286993737885 21.62713335208844 28.513537601383003 0 0 -1
321 1 1.533535505703499 14.186272842166028 14.347587307603243 28.48746772450928 0 0 -1
196 1 1.435021889290162 10.739619020010366 17.80857164514188 28.59040838134734 0 0 -1
261 1 1.406716433764565 16.128000133714476 1.2874891512997841 1.8734046841809315 0 0 0
264 1 1.456025212515703 19.238653126806724 5.0149909666983365 2.2568267716047865 0 0 0
1169 2 -0.8214247094204478 18.821822001151585 6.221243696335182 2.9746027868134552 0 0 0
1102 2 -0.669181166368489 16.705485294439804 6.166776079289582 4.206365239701975 0 0 0
1094 2 -0.6592722415761484 20.664027488431216 2.827099126966315 5.0465105968439055 0 0 0
1107 2 -0.5676044011783635 15.088576196522112 4.253602797915618 4.713403110409377 0 0 0
852 2 -0.7609522771964722 19.24190160932122 0.45732331789438574 4.407705660702562 0 0 0
1108 2 -0.6308896747392445 20.265212315889872 3.85065733378997 2.7526211092845996 0 0 0
1109 2 -0.7317187655691673 20.39246956312985 5.648503552919562 1.3131144519629558 0 0 0
1091 2 -0.7239917443813487 15.160363656112875 2.180660504325061 3.0354003672755074 0 0 0
263 1 1.413636780970704 19.922194493211062 1.4612538437056513 5.4186585332020645 0 0 0
1097 2 -0.6612842391252371 16.858194521519128 2.3352329974095394 0.9137680269122002 0 0 0
422 1 1.536397536714744 22.916014092462476 12.326877112824375 5.14941609524134 0 0 0
1089 2 -0.7404781297613529 15.304549370538082 0.2882406177140808 0.9486472291078409 0 0 0
262 1 1.219755409815632 16.393106506353153 5.345983816063211 5.5996949109100616 0 0 0
386 1 1.24988966025835 21.46487763428925 3.79759705906118 3.812842284604013 0 0 0
291 1 1.492712125078907 17.760215983367907 7.199425816368082 3.5740040610747315 0 0 0
451 1 1.403704617425475 24.690795747295763 14.204357921446706 3.528976604547588 0 0 0
258 1 1.514085690445055 14.345246641712409 3.1851253503741264 3.8487840574100027 0 0 0
1098 2 -0.6721414444742725 18.062647204280808 4.111827772605702 1.6619876025584595 0 0 0
391 1 1.422167785534703 27.103932486943748 2.0881436552131856 5.278797691259278 0 0 0
1349 2 -0.6952655690017828 23.92016584154313 0.9882505255767454 3.1800066881386297 0 0 0
519 2 -0.7546964944259219 27.626259097099737 2.9729449504391 4.228943424853037 0 0 0
1105 2 -0.7340919190942249 22.172024377246494 5.108863355463757 4.165501848282878 0 0 0
1354 2 -0.5902645469745139 26.80492645421661 4.134594407530651 0.715655074649215 0 0 0
1353 2 -0.6242872277657339 24.310246983928312 2.8331422340085113 1.153019683566053 0 0 0
1347 2 -0.5203569281328287 22.293501065505055 2.7719457806958547 2.538620062776621 0 0 0
389 1 1.289043182028935 23.299600991780895 1.7157701309138609 1.902851963316232 0 0 0
392 1 1.318779442802442 26.808926959298404 5.154358170243919 1.8863746025692654 0 0 0
1350 2 -0.6468329045346193 25.63271294823595 1.8209383653982376 4.7273087111542 0 0 0
1348 2 -0.7283512264675674 24.33632225899158 6.645364732440821 4.341915628979851 0 0 0
1361 2 -0.5498329377600598 25.518700163504302 6.030891328774854 2.5597731929277336 0 0 0
606 2 -0.5753611791283482 27.594276047842133 6.295477544934358 1.0157914695268733 0 0 0
520 2 -0.685756823268746 28.112254752689395 4.972555430596967 2.608369988232421 0 0 0
1345 2 -0.7255912471116275 22.14363302327869 0.9885513119151284 0.8772294204228945 0 0 0
390 1 1.421366088771807 23.43043607323514 5.704215342907243 5.083024195942885 0 0 0
419 1 1.308410984574034 24.989263252219818 7.653850994086714 3.322634864134763 0 0 0
424 1 1.476265938806669 26.722693925110775 12.631109795600691 1.8628839155237744 0 0 0
294 1 1.570405463152418 15.9975974097017 12.750241111038537 4.928791767228684 0 0 0
260 1 1.208126749173304 17.989050581525614 3.2546099660233603 0.16923687765630663 0 0 0
686 2 -0.7056439944703535 27.282247432595735 13.756016144260817 0.8576914993073624 0 0 0
295 1 1.543851491627075 19.9447487610599 9.038426487472547 5.0302953376396635 0 0 0
1166 2 -0.665416516209554 15.195583930584535 9.882919518828617 2.6032071879753946 0 0 0
1165 2 -0.6070692181263775 15.046241083794113 8.078387580661712 0.8018889448806975 0 0 0
1170 2 -0.7923906118417284 16.933521875349562 9.978529752754529 0.6349128527685742 0 0 0
1175 2 -0.7844079711181311 17.022540836686826 13.761639403510365 4.2275631373855616 0 0 0
1178 2 -0.7069892141174356 18.908539372324263 8.001404676137453 4.7322203852353 0 0 0
1167 2 -0.826647405373813 15.253869646600847 12.050199648203932 3.852814919940134 0 0 0
1168 2 -0.8245426149376864 17.164370291983513 8.176513393365234 2.6659685026131528 0 0 0
293 1 1.431145158760106 16.2466990622419 9.033237206309863 1.626271877677926 0 0 0
296 1 1.322928047368547 19.657526012528983 12.919921590435083 1.2619527493218052 0 0 0
1171 2 -0.6979206441674739 18.35609436900249 11.891123629980356 0.8296812950279624 0 0 0
1179 2 -0.8016827680199931 20.38691342542063 9.892342670159115 3.726282296240582 0 0 0
1181 2 -0.7424304276687332 20.62412082947572 11.705070182667365 1.8557014620232188 0 0 0
1180 2 -0.7403169772931089 19.0732789161293 13.68730251211631 2.6666367338426844 0 0 0
1182 2 -0.6523561214783945 20.755859565243842 13.864543348119446 0.6671289501846868 0 0 0
610 2 -0.7218146629489188 27.75539757078866 10.57891150463123 4.787816967168556 0 0 0
1174 2 -0.72292206024754 17.155528538171072 11.907489805642266 5.645395360115294 0 0 0
423 1 1.488766717621161 26.613296848162776 9.488143421643844 5.018996982056946 0 0 0
1415 2 -0.7580210408504103 23.622973853385755 13.540072558290284 4.345464527842519 0 0 0
421 1 1.369868164900158 22.893946161525346 8.827450580622928 1.3098397536656072 0 0 0
418 1 1.725888838280095 21.297493511338793 10.850676643779934 2.9029442742725493 0 0 0
1406 2 -0.810346403113135 21.91324742401205 9.794412769624246 2.058972361464023 0 0 0
1411 2 -0.7165397667968785 25.935209260878626 11.361360788955698 1.134813085002284 0 0 0
1418 2 -0.6943668554576347 25.358399025820834 13.111505696884276 2.4938833904419457 0 0 0
1405 2 -0.6096842274834421 22.20573777865188 7.606464127637394 0.28794941612957403 0 0 0
629 2 -0.8175954480480784 26.06217185449867 8.820319622523927 3.801815446105085 0 0 0
1408 2 -0.7118608249853779 23.789356705667824 8.035264048926988 2.3220678275060638 0 0 0
1407 2 -0.8260852527522172 22.323443084448698 11.4034713297784 3.9390286688133824 0 0 0
1409 2 -0.8956215113331913 27.719086781608848 12.094291298736401 2.8472285717739427 0 0 0
1410 2 -0.6933815515210072 23.85695815296287 9.851988983153234 0.31885074785573664 0 0 0
1093 2 -0.6083448448349087 16.949211227461067 0.21072958182480803 2.658618391507006 0 0 0
387 1 1.326309091629801 25.2172606291441 0.3328781512297676 3.7978769424885406 0 0 0
417 1 1.325147483388562 20.861917627728182 6.571548468632389 0.15842488686519596 0 0 0
268 1 1.330255545892067 18.173808685209217 3.454556543409341 6.8339922015083125 0 0 0
269 1 1.405377773127704 16.17420185826064 2.06700368395956 8.571746747813439 0 0 0
272 1 1.344688347147918 20.139081010777144 5.203588375246561 8.921526612634587 0 0 0
1118 2 -0.760723876051292 16.887913271929357 3.1046023033186785 7.594710220399089 0 0 0
1119 2 -0.6182861873999237 19.36355902943849 4.008543098204115 7.751041699912845 0 0 0
1126 2 -0.6989247687518495 19.6320293226924 6.301577355516782 9.743354386701427 0 0 0
1127 2 -0.6966557543455876 21.14105211478755 4.27173548558315 9.864538427761067 0 0 0
1128 2 -0.7691987871378754 20.763826773725707 6.320608386381102 7.815270186960625 0 0 0
1112 2 -0.8409341948760267 15.284079703993482 2.5014355693182577 9.771317286253145 0 0 0
1114 2 -0.5635174201564359 17.700933440111562 1.3206407587112208 9.362174503371476 0 0 0
1110 2 -0.7393203998635361 15.778057724453287 0.7674046675452169 7.853724043894424 0 0 0
395 1 1.453739501408501 25.199090235502116 0.00011593387199557072 10.549713503951482 0 0 0
425 1 1.435569394187491 21.50958419176215 7.1973983320993975 6.935814429931541 0 0 0
1106 2 -0.6821098372576239 21.053664837264268 0.6095466304053129 6.134198106892588 0 0 0
394 1 1.379799759677075 22.274322267302036 3.554273543531841 10.634076782271666 0 0 0
299 1 1.218934605842372 18.498030548978885 7.3961356749060325 10.389737069286907 0 0 0
266 1 1.526890670952358 14.3155881880097 3.3383327639680553 10.602523263319405 0 0 0
297 1 1.320832554890854 14.438374494120097 7.245436387106646 7.197604988150417 0 0 0
73 1 1.539215327180673 28.494082097082586 14.232323419259854 7.111211388179184 -1 0 0
1370 2 -0.676971792422619 26.692961388216883 3.0400654296148146 6.501194822880543 0 0 0
1366 2 -0.7493558713866714 24.4149680768452 0.5883758916799624 9.438219587195473 0 0 0
545 2 -0.5502416965026392 27.978557777073938 4.759295083526116 9.937582499576973 0 0 0
1372 2 -0.7632290980013716 22.685600445556304 2.230059093473561 9.687956922356578 0 0 0
1364 2 -0.8639114603786124 24.59407899180192 2.4351133009514645 7.933342655141958 0 0 0
396 1 1.483959699237251 25.23753789846756 3.538181622198522 7.032713718754653 0 0 0
397 1 1.578082931480022 23.510335564628104 1.629260928881826 8.54253765050631 0 0 0
400 1 1.404984007967939 26.656912460482594 5.223315234593235 9.07143812974212 0 0 0
1371 2 -0.7882471951551633 25.832643491504022 4.626145270267074 7.905437536244656 0 0 0
1376 2 -0.812561909686127 25.97715220204754 6.073501733775778 10.1582272657272 0 0 0
1362 2 -0.6915592685102179 22.743517767434902 0.919484534512505 7.3528922866901825 0 0 0
628 2 -0.5828133614091486 27.685076402936307 6.492610526214612 8.345585633672458 0 0 0
1359 2 -0.6854323093114154 22.998745759134675 6.5777745677149175 6.228394349140557 0 0 0
1423 2 -0.7142471289564547 26.02033152562159 8.558953539173059 11.13346492594414 0 0 0
1360 2 -0.770274322811507 27.918551545727414 0.8833785184236574 6.006895182898117 0 0 0
1357 2 -0.6461588010936787 24.234953246915545 4.565397310649489 6.178152809211906 0 0 0
427 1 1.439612853993754 25.1946449545164 7.292261008646586 10.55497495374724 0 0 0
331 1 1.483587690672647 18.14479412127196 14.215641131160536 11.11778777643594 0 0 0
459 1 1.401260937111792 25.120333617810704 14.056824155375958 10.916462564256214 0 0 0
1121 2 -0.6952504585935323 17.40541597155907 6.143748471234166 11.132764756337272 0 0 0
1358 2 -0.7654900731123694 20.989072282303532 8.056398333853627 5.829305075499957 0 0 0
1176 2 -0.8057729522986589 15.00808287773879 13.415414317012704 6.038527072492106 0 0 0
1196 2 -0.6966279344688895 19.130606532078655 13.319942279286227 10.386403732659634 0 0 0
1414 2 -0.914521650383717 24.006933116176725 11.917434077432013 6.106080934624662 0 0 0
1186 2 -0.6977682943725947 17.349361388108278 7.839905868091003 9.401526892056328 0 0 0
300 1 1.259250085090865 18.008740821943938 10.810783882012675 6.514180669236282 0 0 0
301 1 1.149765542169352 16.42888474165892 9.044264455435373 9.016010778853698 0 0 0
304 1 1.216639906396849 19.597234941761318 12.305093879377285 9.166843677893949 0 0 0
1188 2 -0.5653642448554121 17.014243336862553 9.878775860001085 7.672323888755358 0 0 0
1189 2 -0.5664537033181575 18.681805224843107 11.82262416455624 7.805204023651818 0 0 0
1197 2 -0.5697526527750471 20.908856942090974 11.607907603649613 9.805468122766378 0 0 0
1184 2 -0.6167938639800277 15.26269670183885 9.92401505498807 10.264190455980694 0 0 0
1183 2 -0.6160425021088977 15.34934504714531 8.4304824857417 7.919322091781824 0 0 0
1177 2 -0.7628229834052239 19.21126010855056 9.966778570974213 6.081819713864951 0 0 0
1365 2 -0.7903033673129128 23.209658682438594 4.494160988841588 11.388733141377111 0 0 0
267 1 1.340274541168661 18.077447305811017 0.3966911475203969 10.582876987174766 0 0 0
1103 2 -0.6534048065568542 15.199566052396325 5.934734671812442 6.518962226582867 0 0 0
1416 2 -0.5891693355648124 20.19979298829672 13.580983546720608 8.240841288113165 0 0 0
1424 2 -0.8231936407447102 23.715175131658576 9.98967830819041 7.402937371107438 0 0 0
1419 2 -0.6129870179469692 22.168361208616314 8.469467029967287 8.066217651214194 0 0 0
298 1 1.397108355074675 14.370459979927135 11.104967137030837 10.794819414672745 0 0 0
1104 2 -0.6228785140653104 18.701755870053947 1.9249812159199975 6.462719481192027 0 0 0
611 2 -0.8770469274470409 25.913964550971126 10.117303243533433 6.256898485913727 0 0 0
1425 2 -0.7645745707039511 25.470668838111713 11.702845858055445 8.026682562582495 0 0 0
1420 2 -0.7550873431000187 22.47200802508289 9.779697061569829 9.953493235333958 0 0 0
633 2 -0.6540642927886766 27.5602759193301 11.33952880441828 9.799330657202086 0 0 0
428 1 1.737383084765218 24.776739124879697 10.927789929052883 6.893317787508986 0 0 0
1422 2 -0.7653667481903067 24.29650690047533 8.086559820792976 9.581198713170808 0 0 0
426 1 1.372807319565389 21.82292114387462 10.549606304340154 11.00328528913052 0 0 0
1467 2 -0.6996884030951046 21.730371079282893 12.683913384924226 6.221978780046781 0 0 0
429 1 1.451624413166498 23.360877635977044 9.136326196820665 8.720147962719148 0 0 0
1430 2 -0.7418050542238445 25.664679794701332 13.01815452169065 9.899495686040959 0 0 0
457 1 1.28419395482339 21.15962677174548 13.975361127218543 7.00194156895279 0 0 0
708 2 -0.8592664309333182 27.79867701224334 13.45027547864442 8.198157819256162 0 0 0
432 1 1.39382397149712 26.735537746833117 12.462363163861621 8.821122298258059 0 0 0
41 1 1.32510426455171 28.166633000443074 7.402685293385873 7.186006510895789 -1 0 0
1417 2 -0.6061708719814654 27.641061346730943 8.433825369174437 5.770094979557819 0 0 0
544 2 -0.8524716781059646 27.38859640150038 2.9139229281858956 11.394357072331852 0 0 0
1115 2 -0.673696519452483 19.00794922198378 1.5789126462900642 11.264992617888758 0 0 0
1101 2 -0.7027792620797854 17.776475230394915 4.6358472524455 5.726695927222078 0 0 0
276 1 1.23694766133878 17.96945547756856 3.8590953502673706 14.468728926807712 0 0 0
1120 2 -0.7041207014556353 17.170013272655268 4.4537360898099 13.146702464450732 0 0 0
1123 2 -0.5941257990846179 19.25053360105261 3.359320154339665 13.639707595810243 0 0 0
1137 2 -0.7819965969499763 17.16393717796772 2.60534516430125 15.269549659738194 0 0 0
1138 2 -0.6573486507283876 18.134280951851817 5.1221846051895135 15.677320781415728 0 0 0
270 1 1.427786522399877 16.653777075721443 5.52995486301833 12.235239436650643 0 0 0
280 1 1.286459784333765 19.390944992019012 5.383675173171003 16.6191603477805 0 0 0
271 1 1.497535734313889 19.9756314475331 2.214060653238272 12.341609205403058 0 0 0
277 1 1.670754479434151 15.98099043859046 2.1467871925877984 16.17632991099423 0 0 0
1147 2 -0.6231307321121032 20.096554080587484 6.638512870985499 15.953627413974761 0 0 0
1122 2 -0.8452756496605375 15.77555745043958 6.3840951161785995 13.327338856423566 0 0 0
1129 2 -0.880621438285578 14.7742672920648 1.4483582152096066 15.539908510305606 0 0 0
1429 2 -0.67057116576863 25.790083453896873 9.839792391121579 13.106916983604565 0 0 0
49 1 1.633514290157785 28.238946970129874 7.306210487773875 14.534190404805457 -1 0 0
1373 2 -0.6186571762316948 24.41330961683812 6.742803604203345 12.042608891488982 0 0 0
1124 2 -0.6740877918455846 20.9995079446283 3.152105963726239 11.937810493585749 0 0 0
1191 2 -0.6112220005169187 17.450745993125057 13.072284010800955 12.38467566946075 0 0 0
1125 2 -0.7945249642756521 20.412599858677982 1.054675431785253 13.18763309894759 0 0 0
465 1 1.467585730272655 21.348776487307834 14.054363701065615 14.811384449228466 0 0 0
1113 2 -0.5257998475294861 15.157862747788021 4.439542758222393 11.808821396004245 0 0 0
1421 2 -0.727224335555013 22.09830380939059 11.810444058535898 12.03108905673234 0 0 0
430 1 1.451857275962166 23.166208922286415 12.548465781212327 12.927844180294871 0 0 0
1377 2 -0.5571463178239665 22.74617638356231 0.8153697362154095 14.806471601125091 0 0 0
562 2 -0.8302321451661809 27.27083465126044 1.0191204385403323 13.214847960456298 -1 1 0
1374 2 -0.5878128871846146 21.779228166314137 5.9158567662785 13.512911705015995 0 0 0
408 1 1.641044483347257 26.753743631818878 5.183666797200279 16.232320952591028 0 0 0
563 2 -0.9680080880250852 25.640906855430224 2.8829996013352694 13.219790074421388 0 0 0
404 1 1.830536763817575 25.11747277854196 3.882114851534732 14.199338493663292 0 0 0
1375 2 -0.8407452180482579 24.10615651602303 4.853630891278356 13.635114117901567 0 0 0
1385 2 -0.7930662580158853 24.32171453657351 3.0166776831904953 15.124765151526487 0 0 0
1386 2 -0.9035217447687927 26.360919864833438 4.2661962980350765 15.028573811722108 0 0 0
405 1 1.359190818022779 23.494140244046008 2.050578867369793 16.22771167250431 0 0 0
398 1 1.336588427211816 23.282904318461508 5.55677659833097 12.513165852794323 0 0 0
399 1 1.825504406553003 26.581263276475887 2.0589419615473585 12.430435331934502 0 0 0
648 2 -0.7814387661992096 27.26521533351821 6.447572134502955 15.657144058291697 0 0 0
433 1 1.185157359027444 21.36251570299446 6.806696974215536 14.761827283152842 0 0 0
1133 2 -0.706325019822563 16.45698645660314 1.0651675281382091 17.11232908489289 0 0 0
1187 2 -0.6926860018394426 18.769424226222768 8.322933126679132 11.807513891414205 0 0 0
632 2 -0.7429949821496236 28.156385761606995 9.713604707180465 11.748821558287682 0 0 0
1194 2 -0.7171806505066547 20.968174724922992 9.483805549177506 11.889846356784163 0 0 0
401 1 1.407654784543701 21.35252478838656 0.23770195890057516 14.196747348411158 0 0 0
1427 2 -0.7066319303817896 24.320294680996334 13.63912134427783 12.248449267953644 0 0 0
1185 2 -0.7683957262454175 15.459110502489386 11.954114486153253 11.52906076935424 0 0 0
17 1 1.32495726827469 28.33214093595467 0.13698000140484642 14.07990090891363 -1 0 0
1442 2 -0.7173625447061501 25.395245165408422 13.502750393293372 16.835274584288427 0 0 0
305 1 1.803121101323125 14.777332328212136 6.869227409239952 14.281011901636942 0 0 0
431 1 1.553583024695764 26.931081534774286 8.899486710396827 12.396263057151835 0 0 0
1192 2 -0.9104794123628996 15.395712648841673 13.245640496355119 13.71994361399615 0 0 0
1195 2 -0.6789558123369742 20.40884418776255 7.791639859414325 13.862882548853172 0 0 0
302 1 1.658923021833629 16.173290498597108 12.192611827229204 12.909385590540307 0 0 0
303 1 1.466778455454114 19.849491051084062 8.822446927208 12.868095562211892 0 0 0
308 1 1.51324142290218 17.773722959184997 10.386258830819164 14.699823518342145 0 0 0
312 1 1.539145789256705 19.76946713497289 12.040532447887605 16.283709725783197 0 0 0
1190 2 -0.8622952819101594 16.805946686999253 11.08453862373876 13.660262989149109 0 0 0
1193 2 -0.735249309559319 19.004517616732223 9.73971782092916 13.860961310549241 0 0 0
1204 2 -0.8642087908290332 17.24788720217545 9.546862613708074 15.93184022252433 0 0 0
1205 2 -0.7280192294549037 18.515707767286475 11.644231312355819 15.406386129187707 0 0 0
309 1 1.545465664548527 16.27700808537445 8.596542371662652 16.664402834016627 0 0 0
1214 2 -0.7721023474725547 20.886717402054632 12.736161514071469 15.55255452337124 0 0 0
1199 2 -0.6984409321055985 15.071612503299425 7.382365797778806 15.611585735190937 0 0 0
728 2 -0.6763520327237791 27.508123896163195 13.52894635651081 15.194063895405945 0 0 0
440 1 1.393261841415202 26.578934292653106 12.665703271730933 16.120931542448155 0 0 0
649 2 -0.8772578875206853 27.47892777155243 8.121568957308618 13.54144228446377 0 0 0
1146 2 -0.7180633166781888 20.561096064807483 4.224143746523019 16.760959489983115 0 0 0
437 1 1.313379026028533 23.248290713456683 8.781535986447452 16.216027493396822 0 0 0
1431 2 -0.6764883165635264 22.77298137684784 7.794692824723418 15.15903396403454 0 0 0
1437 2 -0.6103080501676378 26.280191593328716 11.243975928050077 15.259183249504433 0 0 0
1434 2 -0.5694560717105183 24.385911173902283 7.8136156165800585 16.924879619173797 0 0 0
1436 2 -0.659121073065112 24.316407876572203 9.830065266179082 15.770253694719603 0 0 0
436 1 1.225854213713044 25.06335557476365 10.432323867670636 14.463246786617116 0 0 0
1426 2 -0.6789969332494561 23.70655132802588 11.433452553827292 13.815482132295376 0 0 0
1428 2 -0.7646507552205235 22.478021620105032 13.560720662164067 13.844792432985077 0 0 0
1273 2 -0.476111548730849 16.291207776300393 14.010323282472724 16.851900898414108 0 0 0
653 2 -0.731002908453436 27.82486040214886 12.086483346087617 16.783239187278014 0 0 0
1367 2 -0.8300380248781233 25.947392492788502 1.0585002377842578 11.444353137338487 0 0 0
278 1 1.762023850536901 15.754867858365236 5.279532660099984 20.03658415929709 0 0 0
279 1 1.286956116110932 19.485877838365585 1.6633130830846923 19.574311679665207 0 0 0
284 1 1.331414415585497 17.752991647927782 3.453493526633525 21.393115942915518 0 0 0
1139 2 -0.7480244620358022 16.446769180372765 4.434129822607476 21.141218653132004 0 0 0
1142 2 -0.6795712658502298 18.87240630525755 2.78620650000837 20.452292888514823 0 0 0
1143 2 -0.7761118085825575 20.186292207368847 2.5595761043660383 18.47257028781256 0 0 0
1140 2 -0.8361822954260565 16.885511835788858 6.062927393982623 19.444112535031113 0 0 0
1144 2 -0.5862414704564008 21.077028629964154 0.9044543685068204 20.14552861337899 0 0 0
1134 2 -0.5813373975632162 18.104135299576825 1.225963786259797 19.024893418564325 0 0 0
1132 2 -0.8537291360567811 14.674411141549502 4.5224399228821115 19.29983374484653 0 0 0
1141 2 -0.7671430703299091 15.139730982074683 6.241380229009295 20.943872816885445 0 0 0
1202 2 -0.8496715482356842 16.8498241816686 7.682544062198528 17.688975552148406 0 0 0
1157 2 -0.649631840521344 18.838478769911553 4.056777309577159 22.47576616637007 0 0 0
1148 2 -0.7231141532543999 14.988484176331655 0.8019757607575138 22.52884800496903 0 0 0
409 1 1.31643271603655 21.714303743368994 0.08911563864678992 21.376567971880927 0 0 0
1156 2 -0.6099920398739948 16.958228348697993 2.443738967857386 22.416785250129212 0 0 0
1432 2 -0.6437344492116778 22.32115951105303 9.394777367424194 17.61839618836758 0 0 0
1145 2 -0.6616388990394303 19.141255387808794 5.955567625152228 18.084014858754223 0 0 0
339 1 1.227843096731939 18.061308327560504 14.12987284714166 17.680398909396033 0 0 0
50 1 1.439087213414228 28.465642411587122 10.948552964416049 17.704679874821355 -1 0 0
402 1 1.632252894701467 21.404890522530877 3.315550950860408 17.89459706317686 0 0 0
668 2 -0.6535695017750982 27.582923862283142 6.551497792600588 22.582795479977833 0 0 0
1380 2 -0.8453744819492579 22.305862982761152 4.102099977086267 18.770194631605534 0 0 0
567 2 -0.8074413716167874 26.094674191688945 0.7769462481948642 18.840708923585662 0 0 0
586 2 -0.7862180746888712 27.523230110535426 0.4788543072324959 20.95084549106607 0 0 0
1389 2 -0.5858398728654799 22.295553448632546 6.038506090531653 20.582201042412226 0 0 0
406 1 1.508853332514406 23.283326816055936 4.963243094413496 19.668932369180837 0 0 0
407 1 1.689702396931439 26.900927350876582 1.5019838544812563 19.91890627994547 0 0 0
412 1 1.599967159898321 25.025502447652784 3.249509627068889 21.50984109965164 0 0 0
1387 2 -0.7677905447689425 24.296305375989142 3.801113983097693 20.234329997898318 0 0 0
1390 2 -0.8720628094220771 26.22442423455564 2.411147380773006 20.88065908565125 0 0 0
1388 2 -0.8716101081118612 24.00136487994361 6.146995416777258 19.167073562234354 0 0 0
1382 2 -0.7839016138916796 28.121477265238596 2.157271802950533 19.264384570488396 0 0 0
1401 2 -0.7955491464698362 25.741742309179333 4.547024900166209 21.96341430138146 0 0 0
1400 2 -0.7447618747640644 24.194986053544508 3.01552181137877 22.758013474482247 0 0 0
1392 2 -0.6876567175467214 22.864594515600093 0.9609779624596761 22.100182733505605 0 0 0
306 1 1.337634943739878 14.484905216043947 10.831264643039704 18.027015852289157 0 0 0
307 1 1.497580969027336 17.856305462554253 7.079123226180531 18.650264631212053 0 0 0
1207 2 -0.4996997351390722 17.072565980100006 13.623526919076683 19.267135618984106 0 0 0
275 1 1.209384428435379 17.720058688115177 0.12940712522538078 17.656817932591853 0 0 0
441 1 1.237025483714206 21.39560276245321 7.088619065848415 21.69520874428444 0 0 0
1208 2 -0.6519666644664377 15.25910686348378 13.15914844960231 20.827010865716876 0 0 0
1201 2 -0.7432325118407813 15.0806023644442 11.891076064356103 18.922564988867304 0 0 0
1211 2 -0.7839486460413747 20.539716614007975 8.266276355867184 21.079315495565286 0 0 0
1203 2 -0.850582512534263 18.47627022506879 8.189552839556436 19.523870820697365 0 0 0
310 1 1.266476657468493 16.151944108922233 12.338326033824137 19.96215901288898 0 0 0
311 1 1.662316394972067 19.52201725673098 9.074771982538602 20.235744679207038 0 0 0
316 1 1.243527663248789 17.89732964558359 10.881582025755494 22.034476432639412 0 0 0
1206 2 -0.5835291496180056 16.54845752412535 10.97663310980709 21.054531528740885 0 0 0
1209 2 -0.7173081394293087 18.605250588596355 9.614572693640632 21.293927939812324 0 0 0
1210 2 -0.7726445906793084 20.26594699186948 10.17933485251202 19.5387319104915 0 0 0
18 1 1.356254934528837 28.515706341959234 3.5014840754696146 18.469317954084328 -1 0 0
444 1 1.641397585086932 25.106089614579364 10.882228239388194 21.590761154897542 0 0 0
1391 2 -0.79363076378389 25.85059308807743 5.919030765725307 17.258242718202794 0 0 0
434 1 1.378553537928871 21.524614312657224 10.582477240594997 18.368796173200113 0 0 0
1212 2 -0.6971981265051135 18.979460746169064 12.996285332866561 17.33383023745699 0 0 0
748 2 -0.6067377910882993 28.112432447828503 13.067121681378152 22.747268472939435 0 0 0
1443 2 -0.7064841783925216 22.45286407886698 7.821367239137886 22.687743454273043 0 0 0
439 1 1.407534636294846 26.591193125464436 9.070672936008336 19.776151703505164 0 0 0
1438 2 -0.8403686815317744 23.808386683282897 11.571408042055138 21.014522848113735 0 0 0
1448 2 -0.8195575042457329 24.429930992648387 9.88508618896906 22.614355638390506 0 0 0
1435 2 -0.6993109964470917 25.872529988877538 7.690820096467608 19.230151964992555 0 0 0
1441 2 -0.8423574672384683 25.638685451087213 10.163081064384606 20.38258950784149 0 0 0
435 1 1.489114878048684 25.015989943481266 6.783590948761815 18.27634079451402 0 0 0
1439 2 -0.8463962883046102 24.250773019700606 13.515304993871311 19.100586718852604 0 0 0
1433 2 -0.6984614041158598 22.65172209317724 11.62892948545266 18.905773479898684 0 0 0
1440 2 -0.8445371964114907 22.1808774193666 13.46017117272367 20.53207511021886 0 0 0
1449 2 -0.8243897388489656 26.22926411172104 11.766356372228126 22.19053173863076 0 0 0
438 1 1.611448089618306 23.35417895212536 12.618400345539373 19.964812255048415 0 0 0
652 2 -0.6271347351249401 27.583081433919457 9.684306384781094 18.697145977017172 0 0 0
669 2 -0.6188480969444901 27.654748005017957 8.125941604349393 20.63172300006671 0 0 0
1221 2 -0.763756516446203 19.125331574806246 11.61341866636158 22.736003732356938 0 0 0
568 2 -0.7182595927581953 27.707081484731926 4.462907626873117 17.272841548025365 0 0 0
1228 2 -0.9652080598755016 20.778386580344634 13.75190226557293 22.777593393064635 0 0 0
1131 2 -0.8645929872038018 15.423028249907329 3.149659876223567 17.206527425267964 0 0 0
1213 2 -0.7339841227620381 20.549680009147327 10.98961335455807 17.214659527930408 0 0 0
1381 2 -0.6969826153547528 24.421399675053028 1.1365208221289205 17.282857119457617 0 0 0
1379 2 -0.859223010441528 22.52721012409138 2.5458046526239486 17.190809792934093 0 0 0
1200 2 -0.7135213415255547 15.222378800763192 9.307475177352865 17.3352034439752 0 0 0
1215 2 -0.7164214848953202 14.613530665763212 8.005797172871583 22.874187732074482 0 0 0
286 1 1.379468191647133 16.158060810197124 5.1963207536333345 27.243059440767432 0 0 0
287 1 1.674175103369954 19.708969936718884 1.2401076525537809 27.196216998534894 0 0 0
1163 2 -0.6880689330583223 19.92164927052297 4.33076339172976 24.832864511594845 0 0 0
1161 2 -0.8008646045715705 20.693908786541567 1.9448408470127612 26.262391588893887 0 0 0
1159 2 -0.6388185363059068 17.115236208187437 6.448648957865867 26.537497151676657 0 0 0
1100 2 -0.792773494108554 18.860549053250384 2.244526035655613 27.860847474795744 0 0 0
1099 2 -0.6014441480998269 17.371262280951488 4.214820619718457 27.333602066072977 0 0 0
1162 2 -0.6416602753156043 17.89144082289248 6.009492115420221 24.172996818922474 0 0 0
1158 2 -0.8720943140532821 15.221007985019986 5.853669763359492 28.28957656624417 0 0 0
1151 2 -0.653975939034788 15.237601574783874 4.433856876861625 26.1350554267949 0 0 0
1150 2 -0.5921841503885119 15.305376919339025 2.632123873187608 24.709173818894065 0 0 0
1160 2 -0.8257202597705807 20.437821475737216 0.33302474065343884 28.23997844084717 0 0 0
26 1 1.61338795069399 28.327410630775674 3.7473668373751488 24.88354476350941 -1 0 0
315 1 1.29365225047184 17.363490377070974 7.275610313510155 25.243926112172588 0 0 0
1164 2 -0.4515563418498776 20.570040981974966 6.089632449615314 23.01488863720454 0 0 0
1152 2 -0.6706488343967493 16.81656858043518 0.5630755551529385 24.319497513730223 0 0 0
672 2 -0.6350540553153494 27.456606596225104 9.583802452329415 25.558038048905043 0 0 0
388 1 1.056396942898994 25.083290582598508 3.4959197887034237 28.590031529372645 0 0 -1
410 1 1.483676078967874 21.10059627704369 3.281541840392044 25.315065194331638 0 0 0
1398 2 -0.8220159223962886 25.937963937021557 0.8116684363823253 25.712504092625842 0 1 0
1395 2 -0.7003184530365182 22.2451968891131 4.180218846129501 25.875460111988584 0 0 0
1394 2 -0.7059447690214942 21.675740448749156 2.71312148835059 24.07187715298319 0 0 0
414 1 1.310694367830039 22.823588423821015 5.230422366143109 26.98105087235813 0 0 0
415 1 1.674210200398159 26.772610770391193 1.7324456422231962 26.5577135680546 0 0 0
1403 2 -0.7072762224980516 23.815010285924956 6.247428653770926 26.178748436546655 0 0 0
1404 2 -0.6466611472593727 25.553480233739517 5.804130630139685 24.473424123605646 0 0 0
1356 2 -0.6924780593533354 25.730042803725155 2.127142096512523 27.586201063258624 0 0 0
591 2 -0.8227365033638506 27.572440480050194 4.516553644579437 23.676436248373392 0 0 0
515 2 -0.9141048278801968 27.662332940950275 0.79592262731974 27.41966525326989 0 0 0
590 2 -0.9022698580420461 27.587734742976295 2.671729116520637 25.515155333162426 0 0 0
1396 2 -0.6517331475606958 24.123921806747468 0.796525610165093 24.064075777901923 0 0 0
1355 2 -0.5794217100027821 23.83738949432309 4.621528951681701 28.227309067431854 0 0 0
1402 2 -0.6591551346036738 21.34232714790905 5.659485057129693 27.45236558501355 0 0 0
443 1 1.42737624191498 24.888484270145646 6.942266189259946 25.306232476641842 0 0 0
1447 2 -0.7062467821582773 25.884819765844554 7.547458710369417 26.451530979115066 0 0 0
413 1 1.26144140157685 23.085563238184953 1.929564660155782 23.365956864142213 0 0 0
292 1 1.485544938201142 17.819422463031323 10.88319027772882 28.37418753163951 0 0 -1
416 1 1.467722206340412 26.534486617495997 5.348622715132759 22.994081627682238 0 0 0
673 2 -0.7491547351245792 27.303077266737198 11.617293130088209 24.60060997156858 0 0 0
320 1 1.712172528743397 19.9918755257027 12.686454357047532 23.432688201530006 0 0 0
1216 2 -0.7214448721694934 14.526905273032844 9.954612048872757 24.162167895025114 0 0 0
1226 2 -0.7455906765886248 18.861753601861114 13.233708007622864 24.339068514932844 0 0 0
1223 2 -0.652055946758652 16.626847946693594 13.291428835650064 25.22812350156082 0 0 0
1219 2 -0.6110687139956228 18.845781707140215 8.121626217426195 25.745118633033133 0 0 0
1217 2 -0.64695148192276 15.041688487729335 11.547480503184792 25.904796940780873 0 0 0
1218 2 -0.7339702527543729 16.150655121423313 8.230175030061982 24.828328743292804 0 0 0
318 1 1.280320398088675 16.006636169779686 12.69515350046677 26.518786515793217 0 0 0
319 1 1.396244170481144 19.724712714983315 8.874097776241472 26.865991102700274 0 0 0
1172 2 -0.6364413867380925 17.137662830871086 11.700454962817851 27.10619451338557 0 0 0
1227 2 -0.7098254948044543 20.612605159281852 11.842304932475715 24.50354062172031 0 0 0
1225 2 -0.6124437280278419 20.51763330098488 9.999717803672695 26.086627606189015 0 0 0
1224 2 -0.6632794838465241 20.07851898803209 7.806869079929285 28.230490598269466 0 0 0
1173 2 -0.7069092111035865 18.869053738894213 9.84756967326576 27.590550480712462 0 0 0
1222 2 -0.6592648426084708 15.58548245613085 13.749666780767523 27.994066618540856 0 0 0
317 1 1.560949347216534 15.504403594877786 9.031064967650337 23.647042954288118 0 0 0
442 1 1.298952451980868 21.798833705466706 10.86751737180494 25.21572672897012 0 0 0
288 1 1.274976187989307 19.080661204224818 5.024436008852173 23.720425110831535 0 0 0
1413 2 -0.7652527620769661 26.148100693149555 10.088730766028922 27.53116538671927 0 0 0
1445 2 -0.8048745135598597 22.691138274200174 12.016589749901868 25.715841320385866 0 0 0
1220 2 -0.5467576882329336 16.61665949114206 10.118024335112418 23.215388770531654 0 0 0
448 1 1.58267951477691 26.77329243555806 12.56075793303757 23.442082770729687 0 0 0
1412 2 -0.8365115603022134 24.592918661009026 11.943329654834006 27.573914693444273 0 0 0
446 1 1.556682375215926 23.474207826077944 12.722810577765781 26.895003496902724 0 0 0
445 1 1.565127978017816 23.41537791153276 8.889147439847036 23.277410187494286 0 0 0
285 1 1.327398826349406 15.909149872471083 1.6398236341336467 23.5158526669569 0 0 0
1452 2 -0.9032807142068882 25.603756964641153 13.369077413721502 23.928451298916716 0 0 0
447 1 1.322981608721862 26.715196287197088 8.813393910426093 26.94769560846653 0 0 0
1450 2 -0.7820817124618109 22.377359463524844 13.406522042163687 27.77508229833519 0 0 0
1446 2 -0.7031552568442387 24.371922775439373 7.851565485903967 24.011272613078482 0 0 0
1451 2 -0.8036238351648576 24.26427212857081 14.009782165651805 26.20398878170346 0 0 0
1444 2 -0.7428293883912136 22.671843216649957 9.64753568544635 24.40028343703355 0 0 0
607 2 -0.708925162565862 27.98876340665526 7.838864224518642 27.726333156807744 0 0 0
58 1 1.521513446127717 28.456484645029015 10.717062862750815 25.119532349386745 -1 0 0
1153 2 -0.6721942272885522 18.909482863595617 0.3047598899723437 26.235232648231104 0 0 0
420 1 1.510009160877359 25.10381916520418 10.852701054148172 28.490963450487765 0 0 -1
325 1 1.457042297287552 15.89637703660508 15.945535697124681 1.728039290381517 0 0 0
328 1 1.513086607813464 19.651576374689355 19.55985254104558 1.8869563657818518 0 0 0
1239 2 -0.8010476733387846 17.265665082701666 20.8312338794007 4.988391790797185 0 0 0
1231 2 -0.7621523750123451 15.336368680214816 19.20098013447261 4.3895009950405255 0 0 0
1234 2 -0.7481516167342249 16.428901004751715 17.015525602924292 0.7079568905016135 0 0 0
1230 2 -0.6825725230871024 15.254938474219669 16.90074843192268 3.2203285941490942 0 0 0
1454 2 -0.6467049688865552 20.767216456630432 16.981825515972908 4.908798632795365 0 0 0
1232 2 -0.880515366627261 17.093317249278623 15.257911880204766 2.3020951715789346 0 0 0
1233 2 -0.8099680685536008 18.84795613953611 15.392918749004533 4.247646567383952 0 0 0
1235 2 -0.6410608830964445 18.431663983047258 18.618503013975545 1.3845930795377304 0 0 0
1297 2 -0.7007904263585181 18.889781591115664 20.685518369560807 2.8803963000502057 0 0 0
1246 2 -0.7844316853507755 20.338457246923983 20.06503683363588 0.7366539412048978 0 0 0
1244 2 -0.6507855978557398 20.167808417500797 18.706441986935385 3.105933153559018 0 0 0
1229 2 -0.7364156582763183 14.736695233133913 14.938432021554712 1.195016322961395 0 0 0
1397 2 -0.8154385274080383 28.477526000169906 27.94316794990514 0.8291752287126933 0 -1 1
327 1 1.47770603041325 19.385743560685786 16.243135286205106 5.410460384296285 0 0 0
355 1 1.650467639606433 17.973226647803894 21.595127467156264 3.76558822814093 0 0 0
484 1 1.175755099543371 25.087152325746956 25.33859759347246 0.5536848465355741 0 0 0
1504 2 -0.7359342567486955 24.671651105719516 22.082059038673258 2.3832104280956283 0 0 0
770 2 -0.6001433176059466 27.55819225757883 26.358099474777042 2.839141116485863 0 0 0
450 1 1.440014650936046 21.57171629289706 17.951127105336795 3.8150259473673245 0 0 0
766 2 -0.7643143256566062 27.61498797096981 20.53400301800386 0.8824099373852607 0 0 0
690 2 -0.5328062704303159 27.475192661953795 16.859865383787447 4.232798386343753 0 0 0
1456 2 -0.5769089827845133 23.55186190164867 14.84097624166833 2.6855797556059473 0 0 0
1459 2 -0.7049220595284516 25.50883559808869 18.851828481278023 0.8551550682291492 0 0 0
1457 2 -0.6864006693698673 25.770862836831643 15.329418523602984 4.120636791607626 0 0 0
1455 2 -0.8540795088021655 22.24058830575542 19.03006372933756 4.785212717604704 0 0 0
1245 2 -0.8540148995567675 22.021904500764812 17.359919555140536 2.5535956805009237 0 0 0
453 1 1.283499345740028 22.893262532916655 16.346709179414443 1.8141782078387823 0 0 0
456 1 1.327760597738085 26.681574275351835 19.59490065782268 1.7078729230451926 0 0 0
1505 2 -0.7021238678713037 26.04801120027383 20.128762657024215 3.2681873493652236 0 0 0
1458 2 -0.5838359150112107 24.28995083469291 16.71974597651012 1.0144880434331423 0 0 0
691 2 -0.6952618033586504 27.902420002367226 18.59668004197091 2.260667212589343 0 0 0
1453 2 -0.6329709463268171 22.082061719148015 15.811763054529527 0.4166199496725572 0 0 0
1466 2 -0.7910928135707762 23.752630937509732 21.01783282373111 4.458163319230482 0 0 0
454 1 1.572185529890019 23.091369245297365 20.051020526377087 5.438780736979328 0 0 0
455 1 1.281202945253271 26.65583869106841 15.96566334061446 5.350742605555949 0 0 0
323 1 1.745812197863372 17.99244392839666 14.546242963155414 3.289514891880283 0 0 0
358 1 1.561729308483024 15.91747139401432 26.81508688205481 5.3748618260395 0 0 0
1307 2 -0.6817019834123081 18.966266193990865 25.504422260131452 1.461548599017883 0 0 0
1294 2 -0.7560497457020205 15.430616616940776 24.448222103983586 2.6830958800459137 0 0 0
1095 2 -0.7457149452846007 17.11840026229318 27.62724815914778 4.5888957377746715 0 0 0
1298 2 -0.6254637604942136 17.22759200780885 23.76642037073342 0.654234370484278 0 0 0
1240 2 -0.7941141334764814 18.983173515508824 22.524151594011123 4.351559232000301 0 0 0
1296 2 -0.8295653921378483 16.980749613109 22.088576004918085 2.7666345446021174 0 0 0
357 1 1.360902489462225 16.29173656458537 23.205146548854426 1.8208594064284171 0 0 0
360 1 1.501774903522398 20.07220827079626 26.36556148366041 1.9797345075875392 0 0 0
1304 2 -0.6406616626360384 20.847791584317562 24.03656941901609 5.210782423470066 0 0 0
1295 2 -0.732449819442792 15.01631484188875 26.458093927218727 4.12187823747516 0 0 0
1293 2 -0.6703548840045245 15.281083887458097 22.293907778061953 0.8436923737919247 0 0 0
1306 2 -0.7648641482416745 21.271354208800545 27.257830088922844 1.187661953043809 0 0 0
1096 2 -0.7239065650887285 19.29651872557575 27.45418973226507 2.581464575384117 0 0 0
322 1 1.427957480810905 14.478262512001567 18.1250613693106 3.4671760066506674 0 0 0
1503 2 -0.6766327520223359 20.6283099034162 25.249713961951496 3.0170639577572467 0 0 0
482 1 1.19210074363007 21.776322073303504 24.770006841586156 3.9924961763377342 0 0 0
259 1 1.44545748527104 18.209703761401492 28.13168154998505 3.720969073807235 0 -1 0
1510 2 -0.6006065451038283 22.93328394673946 26.22847993427362 4.396801137279945 0 0 0
1506 2 -0.5194662012898384 24.235895677139354 23.881445110615793 1.1023237867134552 0 0 0
771 2 -0.703058476104753 27.589149834435087 24.101671466313565 4.521080655536552 0 0 0
1507 2 -0.5906423299899477 26.150832116399535 26.315482252005832 1.226150067903095 0 0 0
385 1 1.643098261138101 21.75819230543349 28.328125486871556 0.16463042332399389 0 -1 0
487 1 1.763787688092397 26.753219236840515 23.273465328365806 5.489602369335381 0 0 0
354 1 1.529775689016713 14.36047670569672 25.11923532321283 3.524957642044335 0 0 0
488 1 1.259486647072236 27.228594422987236 27.555700562500483 1.8075061618176087 0 0 0
483 1 1.527429382450443 25.226560305029192 21.368292772448182 3.7489149071848846 0 0 0
1501 2 -0.7079463505635084 21.99263857435077 22.447624710395505 1.303475244372478 0 0 0
485 1 1.415784323751222 23.321143903810867 22.78373234621573 1.9922677795293107 0 0 0
486 1 1.617120892547224 23.76649374670058 26.984844077252664 5.51182379433617 0 0 0
1502 2 -0.6452640838927074 22.76895297339748 23.92588548388943 2.7996208630095913 0 0 0
1351 2 -0.8468832117144753 24.714190679398882 27.956836892380966 4.9574240039346 0 0 0
1463 2 -0.8803423411795496 25.935674505778927 22.406542403582606 4.467838313580802 0 0 0
324 1 1.356134008259318 17.583070756951525 17.981319042784904 0.09107761949779256 0 0 0
326 1 1.501578296776424 15.917314771697614 20.167582900408732 5.479999226437094 0 0 0
481 1 1.345426192333333 21.358203839605686 21.277525556847692 0.13646974501020515 0 0 0
98 1 1.158891998567983 28.513178979057834 25.11776978563027 3.645296035503239 -1 0 0
1352 2 -0.7398819439482566 26.095600286735834 28.4785594237131 2.544315033167451 0 0 0
332 1 1.152117085463879 17.429912092717082 17.903883376555736 7.328110891165948 0 0 0
333 1 1.486489287327386 16.317880731525847 15.991709214253133 9.293248091018826 0 0 0
336 1 1.398350491371126 19.79749589417656 19.48263359714034 8.841814143250888 0 0 0
1253 2 -0.6323737714657655 18.62615765111833 18.969761893582685 7.885715083189557 0 0 0
1238 2 -0.6689325405303098 17.34992900077518 17.07306322152922 8.788991449625033 0 0 0
1248 2 -0.780646408295794 15.011145746144852 16.726508189608314 9.721677339342827 0 0 0
1262 2 -0.7154262070167955 20.917354562002124 20.532469909172306 8.608355571769387 0 0 0
1260 2 -0.6665381426512347 19.156501780569403 20.198063919238976 10.12329515294212 0 0 0
1247 2 -0.7401786630571043 15.691094423726602 15.149985008488299 8.049339855506048 0 0 0
1261 2 -0.7000365284294585 20.724823146833167 18.259470618125707 9.501436353711892 0 0 0
1242 2 -0.6964600281277056 18.185097560531265 16.93939702531237 6.048748649387204 0 0 0
1252 2 -0.7874511583930917 15.050305415151815 20.970163123005907 6.351509919161562 0 0 0
1241 2 -0.5791311405613718 16.483659169422832 19.26228334459292 6.809757383621015 0 0 0
1243 2 -0.6258178593901922 20.49221892789692 15.279501782038961 6.193631004445738 0 0 0
1250 2 -0.7803683886178961 17.142855627709885 15.03217960515976 10.289761560391648 0 0 0
1369 2 -0.84924513961503 26.05703637175886 27.47439824552985 9.727190146453946 0 0 0
1363 2 -0.7083977772116021 22.281922871549824 27.1730745301416 6.224142675392634 0 0 0
74 1 1.058243613398749 28.30768235402719 17.926870639284335 10.680041965396894 -1 0 0
458 1 1.492572902534044 21.386063485819612 17.530242344020273 10.661116388711196 0 0 0
359 1 1.482074279911187 19.513928237461997 23.287045321832007 5.724018265051922 0 0 0
785 2 -0.6592623391898296 27.54644527614208 20.364964527507144 7.621194467022973 0 0 0
1468 2 -0.6787031902807769 21.79725839959857 16.249852798784396 9.835955389400954 0 0 0
460 1 1.220393429464622 24.715418263813614 17.64271012806302 7.355450073948257 0 0 0
461 1 1.300736159655181 23.00271584073701 15.423844317933986 9.054134829188882 0 0 0
464 1 1.490656177173591 26.548134088579477 19.709642059463256 8.665121655741062 0 0 0
1472 2 -0.6378677311763763 23.865889693314553 16.589984110609215 8.458241208822955 0 0 0
1473 2 -0.6765209941482522 25.72519950318492 18.740808316294046 7.7576874506816 0 0 0
713 2 -0.6893410927329419 27.187626743752087 18.793273382599583 9.744399640706986 0 0 0
1478 2 -0.6981558998435861 25.620440379219897 20.608559565618588 9.550073003642893 0 0 0
1462 2 -0.5781739708482456 24.134030521462762 19.200290387266286 6.300640349284613 0 0 0
1470 2 -0.6630076781702694 24.18745375529723 15.09635397905288 10.201566118746337 0 0 0
709 2 -0.7983035645400322 27.8352097787821 15.194868515901327 6.085775058220033 0 0 0
786 2 -0.8236615953068246 28.00031553863526 22.522096732096397 5.874836290294725 0 0 0
489 1 1.337418969876065 21.36495190289557 21.60678980676951 7.467787323097963 0 0 0
1198 2 -0.6496312078058686 22.52438475205372 14.667034856403518 7.681476493360017 0 0 0
1465 2 -0.6371644579155885 25.61512978316264 17.05372450406347 6.218933656429236 0 0 0
1303 2 -0.79241462202505 18.686354089794374 23.96475821373901 6.927183661071425 0 0 0
1512 2 -0.6884091664489306 22.047564786722937 23.032344364631232 8.10515206526432 0 0 0
1111 2 -0.7639561774978307 15.070348009724778 27.897682062313706 6.099482348199811 0 0 0
1117 2 -0.7463951186069558 19.096277669488767 28.011503079349996 10.217250463314434 0 0 0
1305 2 -0.6948144832213518 20.114701174027598 22.17558117315417 6.417956112634737 0 0 0
1309 2 -0.7218903639514019 15.05355049816704 24.542725360611694 10.548067583977879 0 0 0
1308 2 -0.7049684069864232 14.838029692706025 22.837642406336304 8.826003011383152 0 0 0
364 1 1.463912885011655 17.770551895408342 25.100655200537798 7.515545707492903 0 0 0
365 1 1.512492063962499 16.0107338822777 23.84297558203563 9.552426083444931 0 0 0
368 1 1.410034631804304 19.735081213489572 26.971619519567316 9.224466176353669 0 0 0
1313 2 -0.8786919195764685 16.72795989655556 24.543242568585985 8.44371311200557 0 0 0
1314 2 -0.7677255869945335 18.75849189963061 26.196347253900605 8.220383579602284 0 0 0
1315 2 -0.6146223517922025 17.105141486764985 23.474816605410517 10.615876996043847 0 0 0
1320 2 -0.796092025771266 20.718708248404667 26.090774296374658 10.108620240973254 0 0 0
490 1 1.490696282604236 21.245555668190526 24.85549424839632 10.893776274241207 0 0 0
1319 2 -0.6252237672453752 20.57571937871711 28.228840479279626 8.416685376696023 0 0 0
361 1 1.363830545374951 14.45811886652474 21.861148043301938 7.694019413072322 0 0 0
1511 2 -0.8425951296763242 26.05929193147949 23.97363397354793 6.595251749108065 0 0 0
1471 2 -0.6945706298172856 26.314321298295624 15.101042301456449 11.357364018342016 0 0 0
1317 2 -0.7897279890490722 20.019789291007864 23.840926514238117 11.198130270866065 0 0 0
1469 2 -0.7285583344549149 22.4908338820777 18.585572058243407 11.157878530028455 0 0 0
393 1 1.340977775217339 21.63986739467141 28.27957022061324 7.14807711634484 0 -1 0
541 2 -0.7960894527082504 24.321832422034454 26.004054459051655 6.418270132701648 0 0 0
491 1 1.349379581720863 24.876752026413946 21.49710071879567 10.773242147643797 0 0 0
1517 2 -0.7594366929897757 24.232630728791094 23.715137368639944 8.093025884763637 0 0 0
329 1 1.55000530435403 14.580109328351108 14.406349837272316 7.106424686118824 0 0 0
1515 2 -0.7945171147540857 23.847593794447903 22.150858344742108 9.83498777931805 0 0 0
1518 2 -0.7250114983795402 26.2416156197233 25.397141074280572 8.613749308774917 0 0 0
540 2 -0.6514082607011451 27.594131749816913 27.24134042380557 7.889394955128192 0 -1 0
492 1 1.408696866918232 25.191656277717595 24.933183914756984 7.528269009437159 0 0 0
496 1 1.571644257649742 27.112580507697377 26.58391368329964 9.294351896527969 0 0 0
790 2 -0.8483719051603816 28.020583027375274 25.67150672783104 10.116172837105273 0 0 0
1513 2 -0.8313408900825542 22.470806846281977 24.109125766854746 10.228560021366551 0 0 0
493 1 1.605840704781883 23.198935718800023 23.319645954346726 9.111428153426504 0 0 0
265 1 1.532596664890801 14.45008074578429 28.514094114605324 7.39097650601659 0 -1 0
1302 2 -0.764037596943154 16.7488073891617 25.929441164736406 6.261367239510942 0 0 0
1464 2 -0.725166297124564 22.36962468871847 21.11535096238005 6.382762933270223 0 0 0
1368 2 -0.590847097901227 23.76914774891385 27.640437909664378 11.271048666770586 0 0 0
334 1 1.458447216174879 16.025360082481637 19.19261237885115 12.596704418313648 0 0 0
340 1 1.305810231152845 17.74605367959222 17.36992881897572 15.16107669316435 0 0 0
1254 2 -0.5519475373481326 16.58588553705961 18.394291716625016 13.780011942802425 0 0 0
1257 2 -0.6923605653812207 18.802625701370268 16.765868719144205 14.061025826798245 0 0 0
1268 2 -0.4332473558918103 17.77176399942346 15.322767704603992 15.972451015283264 0 0 0
1269 2 -0.7228345767934085 18.596905942552432 18.648584201846667 15.839196868459338 0 0 0
335 1 1.379345082754173 19.719269826968368 15.861840150074794 13.148346949899754 0 0 0
341 1 1.225858752741966 15.760741857820296 15.677941056350857 16.578078561064455 0 0 0
1278 2 -0.7425681451135275 20.345006455922512 20.676871163573836 15.369089013873626 0 0 0
1266 2 -0.5664933252011906 16.53197152656065 17.380544088529728 15.963303304106596 0 0 0
1256 2 -0.6003497955437622 14.93859947688351 20.190776490570784 13.19719184052424 0 0 0
344 1 1.580970046921379 19.564794593474126 19.78993869499553 16.347653812985072 0 0 0
1259 2 -0.7945483308158772 20.251965942939826 14.618237070335317 13.973202114613722 0 0 0
1255 2 -0.7002052919856406 17.32585625692328 19.988269360800675 12.042683975598099 0 0 0
363 1 1.184646749066069 18.706931875236293 20.57529679970195 11.696412712868213 0 0 0
1480 2 -0.7283644695568623 22.227984853530767 17.524389161208703 16.658443505152896 0 0 0
1312 2 -0.5784571016661902 20.0555548745288 21.282809518968733 13.065029755548073 0 0 0
497 1 1.466186243372861 21.162981314014754 21.262336504419686 14.173284821994644 0 0 0
367 1 1.382323730494334 18.65717059570822 23.54413910037486 11.857570554022306 0 0 0
113 1 1.460896132560411 28.398224642617613 21.10324877917568 14.293866332129653 -1 0 0
733 2 -0.5434455066836806 27.423488116203227 18.607015101283 17.033002339323154 0 0 0
729 2 -0.7148587137701427 27.99127661923655 14.774877640261607 12.842778295636753 0 0 0
1476 2 -0.6711928774858436 21.940486783129053 20.06904658125493 13.463929308300251 0 0 0
469 1 1.512323793219023 22.84071684007335 16.235040672334403 16.140633577330753 0 0 0
468 1 1.72002560147878 24.799171438210816 17.20819830674909 14.105942084815748 0 0 0
1474 2 -0.6017563301089602 23.931047785675595 18.47335507323506 13.174358156329836 0 0 0
1477 2 -0.8816411150641987 25.602453058533012 16.653049691245204 12.996467839233121 0 0 0
1484 2 -0.9074667460480385 23.713387241401875 16.580834331936995 14.8798885768288 0 0 0
1485 2 -0.831630761935463 25.62073337565731 18.22075624434197 14.792043094674943 0 0 0
462 1 1.393245725054431 23.017919011156874 19.540233623552098 12.335148432031131 0 0 0
472 1 1.435162551634181 26.348334857538713 19.388765657855156 15.64084434319377 0 0 0
463 1 1.578303359966565 26.90829608715749 15.956680814817732 12.488397373905183 0 0 0
802 2 -0.7546051898669327 27.70591698836983 19.873416329526925 15.042790487597506 0 0 0
1258 2 -0.646923636017228 20.522613741641436 17.11059517205031 11.913821974197452 0 0 0
1475 2 -0.6402193434505269 23.574171407113944 20.90418554513966 11.963780353141207 0 0 0
712 2 -0.7577316872986659 27.668931925654732 16.960785504169355 11.761887809627494 0 0 0
1479 2 -0.6911095411888739 21.77299563076123 15.106177254744152 16.191221562092288 0 0 0
1263 2 -0.6892098784981181 15.072257396242687 15.287121053679105 15.267696792906397 0 0 0
1514 2 -0.6285396659986608 21.846253252921716 25.406158750336562 12.239710669581951 0 0 0
1490 2 -0.8833441713529311 25.363414954611038 20.167400970022832 16.5532728217493 0 0 0
806 2 -0.8389343931470564 27.886607943813562 26.055104931248973 16.97117795021165 0 0 0
1311 2 -0.6105475234499335 18.284431939603262 22.107811533649283 12.237273184624017 0 0 0
1310 2 -0.6868130284804336 14.933864666435312 26.867486799435444 11.644905923446093 0 0 0
1251 2 -0.7209118815536285 18.943322255697343 15.266449363137635 11.96179414964263 0 0 0
1116 2 -0.6303172060860621 16.802683073831837 28.23626019287492 11.847862255666735 0 0 0
1333 2 -0.6702662210491948 20.853319308728665 26.09519660783436 16.637147505395582 0 0 0
1130 2 -0.6984296237037473 15.157216021623261 27.996546173683736 14.053893110999224 0 0 0
1321 2 -0.868914738405335 15.133443292827739 22.31092454630015 15.163069893450487 0 0 0
366 1 1.378802298984713 15.907849460027817 27.255584895275792 12.716984160038473 0 0 0
1318 2 -0.8038901127520778 18.28686512609773 24.509723173271865 13.01883343295162 0 0 0
372 1 1.546788853231241 17.674039076581465 25.192868293368512 14.266565534828912 0 0 0
376 1 1.422842153753303 19.576361954068236 26.96210447377432 15.918106018411022 0 0 0
1326 2 -0.7219650638696525 16.527584966990524 25.942353444884287 13.497068386925903 0 0 0
1327 2 -0.8247390485015886 18.469720503258934 26.336468574514544 15.096659305592075 0 0 0
373 1 1.576492119178769 15.672586340702615 23.586080990913864 16.074681252908206 0 0 0
1316 2 -0.7516331009355225 16.786013291913754 24.249109435535484 15.17055679555077 0 0 0
1332 2 -0.7470037747894333 20.688131778994602 27.969389509456658 15.312556393238047 0 0 0
1136 2 -0.7210542685309578 18.706689010698916 27.52049894059377 17.11459449091966 0 0 0
500 1 1.602992186250305 25.068101265673228 24.791194762328047 14.312995198156317 0 0 0
1322 2 -0.9117377642457167 14.929972050483215 24.573807246279596 16.8442087044017 0 0 0
1519 2 -0.6193186769078065 24.126936832075007 25.896639689801965 13.331636231761491 0 0 0
1520 2 -0.8407456868428966 25.976513470037787 23.980107075730945 13.538209949625474 0 0 0
494 1 1.231420098041986 22.998904525986774 26.812493707610034 12.448348022227409 0 0 0
1526 2 -0.7519943592771405 23.92613358027012 24.1502425915521 15.11936880631765 0 0 0
564 2 -0.7917853481915178 27.58572215826313 27.7285095874765 14.999615696236829 0 0 0
1521 2 -0.6045598372971405 22.213340072575726 21.811202576281435 15.09995291972712 0 0 0
1527 2 -0.6904152710533679 25.753222218855456 25.694096717837173 15.32772621980059 0 0 0
495 1 1.440787644311294 26.891425398269806 23.037379694716446 12.504349626124455 0 0 0
1378 2 -0.6472184527096078 22.05033814971894 27.901087848770683 13.078691805154362 0 0 0
504 1 1.552789811507411 26.976811953533254 26.841189763864683 16.044976313338346 0 0 0
501 1 1.352320439236303 23.05778927168331 23.261577243640907 16.147429728033096 0 0 0
803 2 -0.7234535016427259 27.35665964733274 22.195310731740218 13.69333930038009 0 0 0
1516 2 -0.7502162860726511 25.973892135205634 21.893706534261845 11.77922724279498 0 0 0
1324 2 -0.6051710796694233 16.85610942153451 22.81201636800309 16.903066837596842 0 0 0
1524 2 -0.7785908610028329 24.08273385766692 22.279605264773576 16.690341386375252 0 0 0
1249 2 -0.7414762506875263 15.378195524009538 18.185183948705806 11.58632882711361 0 0 0
1384 2 -0.7244302165045616 25.90058801989535 27.660500195052823 16.921535521045833 0 0 0
1482 2 -0.7827978129884866 24.012591755864424 15.464810372295174 17.057238056747714 0 0 0
789 2 -0.8375508773402183 28.184103120052058 23.52275492231661 11.655318946372697 0 0 0
342 1 1.649764487975155 15.781002321921804 19.704811013332623 19.71277104950051 0 0 0
343 1 1.381044688257164 19.844194603262345 15.909873380432016 19.462729015122676 0 0 0
348 1 1.276355036811943 17.89173177982468 17.937383350744486 21.02403953469276 0 0 0
1270 2 -0.7026110102094184 17.20433661950217 19.243490600628927 20.28105909321814 0 0 0
1271 2 -0.7483864195179526 16.36669906176682 20.733865916749565 18.771215470365043 0 0 0
1279 2 -0.6743104650565769 18.61364343825905 16.853340576023957 19.861391361957192 0 0 0
1275 2 -0.7534811886539126 20.373580702040677 14.959283954037948 20.72061422081788 0 0 0
1267 2 -0.6483207378948503 19.127876769487695 14.854810952281372 18.521986982344316 0 0 0
1075 2 -0.8639695785989564 15.14463137253241 20.50690126859272 20.803163860917664 0 0 0
1530 2 -0.6260877006026971 22.48432604505259 22.12025256709442 22.005942558922158 0 0 0
1274 2 -0.7647863979020405 20.877444093992565 16.7017321320129 18.466284599651964 0 0 0
1284 2 -0.6738369731864472 18.777278249389827 18.454175874936045 22.292985053871224 0 0 0
1265 2 -0.8394737398600954 14.789989361638337 18.59482812628804 19.234470876728178 0 0 0
121 1 1.570682743378382 28.49794384349159 21.680214597571666 21.338303445612787 -1 0 0
1032 2 -0.640641000457373 15.15712989116692 14.860572612676354 22.446906375479657 0 0 0
403 1 1.597791049481278 25.065727840799347 28.494616120464578 18.013148697221233 0 -1 0
1285 2 -0.6678827728381708 16.681663556441514 17.133318424086067 21.77077934715824 0 0 0
1522 2 -0.6988380534560433 22.120632578420864 24.061293507031596 17.323503672826753 0 0 0
371 1 1.151282900658599 17.457611312252226 21.766148066147267 18.100588589037475 0 0 0
1331 2 -0.7300963682466495 20.41843877487629 20.648380926754875 22.24347209369031 0 0 0
1264 2 -0.7800535958466681 15.306038953374012 16.59634285368478 17.726425788322288 0 0 0
466 1 1.45571508147605 21.408048886853855 18.070906199747277 17.964496719864638 0 0 0
467 1 1.558861263864207 24.715975761533308 14.545102147759287 17.980661649915973 0 0 0
1491 2 -0.8570246193062494 22.3070958683019 15.59435933632346 22.20857298651464 0 0 0
732 2 -0.6806957675773437 27.856091750557944 16.781574578796363 19.114842307837634 0 0 0
1483 2 -0.7572989472352155 25.76143618358729 15.421240537402314 18.77538605319328 0 0 0
1481 2 -0.6837511630562834 22.593630977574502 18.774354272248225 18.88242285956185 0 0 0
470 1 1.371255209889354 23.309601985220368 19.96674273277083 19.672602846279712 0 0 0
471 1 1.425112406231919 26.598897007151997 15.8802518035097 20.033426756611423 0 0 0
476 1 1.448466874387714 24.924243279557565 17.74809450185593 21.766373379825456 0 0 0
1486 2 -0.5936499312142256 24.279286121462622 19.060303370552244 20.909777598800176 0 0 0
1489 2 -0.8145618003636268 25.634855154543025 16.738873862925157 20.831261432570894 0 0 0
1487 2 -0.7222660994037536 24.175096888989625 20.812222498459224 18.7557854156624 0 0 0
749 2 -0.6656987957692055 27.447791277660972 14.64025615554533 20.74927903354174 0 0 0
1488 2 -0.7229960341549384 21.865925101762237 20.629764661555747 20.142936709999077 0 0 0
819 2 -0.7050475829083991 27.52499267090535 20.774787732332133 22.093189843807618 0 0 0
505 1 1.374712687965005 21.11183072535002 21.58681607330443 21.117654326031953 0 0 0
512 1 1.526785211562558 26.93862685897282 26.515799153831185 22.710187111851408 0 0 0
820 2 -0.7866350802451634 27.412587039657264 22.603205285310317 20.664478998289855 0 0 0
1272 2 -0.7835069006959393 14.737176956351938 22.24059874449193 22.5602172344196 0 0 0
1323 2 -0.7893536098379846 15.10045429388742 26.491830366524837 18.32057895500617 0 0 0
1135 2 -0.6188754534958968 16.944635758338794 27.99434132510331 18.81928408544863 0 0 0
1339 2 -0.7425488369440369 16.262423553673806 24.097919236964934 21.831431561872982 0 0 0
374 1 1.535421421770731 16.125675673875115 26.79178435020729 19.478617735540894 0 0 0
375 1 1.383873687571991 20.196663412266293 24.585150434478763 20.728732147219958 0 0 0
380 1 1.300406006189369 17.241371898631353 24.19453419990526 20.534315322207046 0 0 0
1325 2 -0.5811760759896454 17.429452385630686 22.867904748147378 19.587835029208442 0 0 0
1328 2 -0.6937805037872026 16.324847355419834 25.239152418252147 19.744526638933845 0 0 0
1340 2 -0.6730516937167553 18.768167685526176 24.964391509305223 20.84264407311861 0 0 0
1149 2 -0.7557951263910254 15.582843220562973 27.65633502454588 20.62932893449353 0 0 0
1292 2 -0.7835910739995083 20.56789584410568 23.10366752686339 21.018926692522193 0 0 0
1329 2 -0.6104791407758092 20.134778515318455 26.21629400233157 21.825866222754726 0 0 0
1330 2 -0.7532655473089505 20.461393654448237 24.834396136673046 19.26884531214054 0 0 0
1343 2 -0.6602147418507412 20.880575804967165 28.008832781607442 22.636995082522812 0 0 0
82 1 1.444232156227063 28.397773372617053 17.55793453550454 17.87076169484292 -1 0 0
498 1 1.459004446709682 21.373778251022138 25.3080198824308 17.92062550950075 0 0 0
508 1 1.596260546269661 25.064561850978752 24.77562754930577 20.980406146224333 0 0 0
281 1 1.573676553853486 14.427530321265175 28.387749308322963 21.409679536816537 0 -1 0
1536 2 -0.8014834857054262 26.011035737608818 25.723936713635254 21.555048173207783 0 0 0
1523 2 -0.7648231430443058 22.50925563106709 26.183661663694856 18.401088144448742 0 0 0
502 1 1.64570087915653 23.317756504905976 26.789351592345554 19.657022295328048 0 0 0
1383 2 -0.8721514064364984 24.402985955645274 27.616161870068915 19.128196759836857 0 0 0
807 2 -0.6305004777127032 27.36391361134347 24.137965868762613 18.144375972630787 0 0 0
1525 2 -0.7314601215483374 26.047885814852112 21.907467506224688 18.34876292728987 0 0 0
1528 2 -0.8854440710851783 23.934211167083827 25.59924987933336 20.486146800900944 0 0 0
587 2 -0.6232582290290628 28.257251367844596 27.249970052016284 22.1725846065249 0 0 0
1393 2 -0.7302308820154391 22.14234955685972 27.67259572284424 20.187336324630948 0 0 0
499 1 1.704051854293147 25.055285964941127 21.295410483084282 17.41957029992944 0 0 0
1529 2 -0.7012601407536238 25.740406543419343 23.993123192717583 19.71586046767164 0 0 0
503 1 1.425722409868251 26.93825429146605 23.11496483886039 19.298186176462384 0 0 0
1276 2 -0.6093918198605028 18.783437123365054 21.040165102995868 17.165415529931025 0 0 0
473 1 1.646209039122498 21.501709668403834 14.428448532431968 21.58305659174058 0 0 0
1497 2 -0.7416541196863256 26.17316647638651 18.497789829192815 22.443832880955593 0 0 0
1535 2 -0.670177015549395 24.84641496196748 23.723358673005585 22.316818152054964 0 0 0
1277 2 -0.8246545651345489 20.56789216121821 19.192951186122045 17.22298584431535 0 0 0
350 1 1.443740005182552 15.955844338619713 19.923011506782203 26.601023288171792 0 0 0
351 1 1.463029972187989 18.962589168388863 15.996144008612111 26.822236248220275 0 0 0
1289 2 -0.6930930152429839 19.508481674469685 17.134324068547517 25.6858620895444 0 0 0
1290 2 -0.6043043685747018 18.453480628725572 20.547933377447283 23.793317651655027 0 0 0
1492 2 -0.7246867348126239 20.34202084514002 18.688299777164477 24.238465300630534 0 0 0
1282 2 -0.6283412132715339 17.19432375632237 14.96893406291222 23.48171053544872 0 0 0
1287 2 -0.7739955359649218 16.780320239454745 20.81124233218816 25.68454996532441 0 0 0
1283 2 -0.7898987598825044 17.84791644101037 15.223991034864145 26.0461606269172 0 0 0
1237 2 -0.7514240012562751 18.47967376710071 16.999960223702857 27.904411778204384 0 0 0
1286 2 -0.6395409176614625 14.745963552656344 20.8782432215308 26.958507543579167 0 0 0
1236 2 -0.5865430342986406 17.119832890918914 19.454356259551098 27.876741097492097 0 0 0
1288 2 -0.81705746722908 20.14039185454654 15.104297630466352 27.344964055262245 0 0 0
352 1 1.420010444252066 19.61863785122003 19.603155412250842 23.111484264650827 0 0 0
475 1 1.743623128059259 25.072575239926977 14.369350742605384 24.99843952409572 0 0 0
511 1 1.467579574387672 26.623420050540123 23.516091305939238 27.03642681751218 0 0 0
474 1 1.449457420931663 20.898765976935127 17.640089174049503 25.153675893599406 0 0 0
1035 2 -0.7588257238785192 15.477601595932393 18.616648744185067 25.97245642855471 0 0 0
1280 2 -0.6351941627423418 15.446183757898858 17.24855633180167 24.00621188505112 0 0 0
752 2 -0.6859451890002182 27.704376401314438 16.995130440207532 25.764551091270576 0 0 0
1493 2 -0.5800534151311885 21.547169737728996 18.67008384291132 26.484771016926747 0 0 0
478 1 1.211120907898367 22.9834206995741 19.315964900681045 26.93915065345967 0 0 0
479 1 1.608074774778791 26.988783976597365 15.887860426783718 26.730083247684718 0 0 0
1500 2 -0.7209077625334395 26.14870782414926 20.70359675483823 24.12471096123637 0 0 0
1291 2 -0.8136545690717815 22.126775159986693 17.011504489246448 24.53664484119432 0 0 0
1499 2 -0.6457571231393627 24.088796736557754 20.07763483182648 25.91994863998717 0 0 0
1461 2 -0.7681573052075027 25.841657647480137 16.63597735931913 27.375516905075337 0 0 0
1495 2 -0.8107447040422178 26.361964643208943 14.896862985165587 25.70861219715456 0 0 0
1460 2 -0.6202064019843122 23.95236423032472 18.12246422421002 27.455173768952946 0 0 0
753 2 -0.7193500195986171 27.7565032241186 19.211148006863656 24.387603712382948 0 0 0
687 2 -0.7404340620086045 27.87994592627211 15.28066214054337 27.862894363513973 0 0 0
1494 2 -0.8354536294649456 24.223517902603728 15.359813271759974 24.25839018850935 0 0 0
1498 2 -0.6527398212067983 22.624360157785684 20.71452486610487 28.06838530879339 0 0 0
480 1 1.49911458318269 26.799805767702697 19.713818801379364 23.222342718184105 0 0 0
477 1 1.455793765857312 23.039479374025575 16.20701935358055 23.509421023244734 0 0 0
507 1 1.298284816937313 24.921011928969076 21.144006269521938 25.10990369082002 0 0 0
283 1 1.19925392132445 17.702520250181998 28.101400068655046 25.017316622454693 0 -1 0
379 1 1.406279241701752 17.69917440789438 21.626901819754217 24.751544005918692 0 0 0
378 1 1.742178379227544 14.40783170136042 24.85537827776305 25.13578654145626 0 0 0
1341 2 -0.7436315740317581 20.42524731467737 21.815661572237914 27.62465789892192 0 0 0
1299 2 -0.7744166113752072 18.870723476606322 23.688926407363798 27.58829345455858 0 0 -1
1336 2 -0.8513049904374 15.186713588415095 25.307289766143366 26.34171257140394 0 0 0
1337 2 -0.7742987641970647 17.074917733461042 22.349013589875053 23.40441974243209 0 0 0
1154 2 -0.7211468033919879 16.857465673964693 26.960609335832395 25.786842095457832 0 0 0
1300 2 -0.6687191764375786 17.196271660072693 25.902938321326328 28.046393251163742 0 0 0
1301 2 -0.6754111492744826 19.105924833572082 22.354860097728093 25.412149920776518 0 0 0
382 1 1.482589943446703 15.991950029433784 26.50161694879653 26.99201317505897 0 0 0
383 1 1.558118679542345 19.88747800402744 22.965846856524813 26.686031810106467 0 0 0
1338 2 -0.8480946443658622 20.87401093538184 23.84103507606946 25.901310551698845 0 0 0
1155 2 -0.5254806299625614 18.637920008307454 27.0375123205879 23.701242490237636 0 0 0
1335 2 -0.8086849030963257 15.012941935213897 23.890893308636585 24.172906745929705 0 0 0
1090 2 -0.7282556542929065 15.094802638087371 27.691324764826206 27.610074667968068 0 0 0
1344 2 -0.6708454033613367 20.998379531329185 25.838511233488422 24.353451979063415 0 0 0
381 1 1.631805056841199 15.860983630044167 23.147616821595186 22.964309851978502 0 0 0
452 1 1.321831142426723 25.17302094702465 17.61397347322139 28.415273139933202 0 0 -1
1532 2 -0.7219387550092666 24.501117609284062 27.333522983797792 25.58974243411041 0 0 0
346 1 1.295131878620887 14.337486428914218 18.09521129719646 25.009531080990097 0 0 0
1533 2 -0.6850517637078014 23.945827900821882 21.709726598810615 23.908207597528733 0 0 0
1399 2 -0.6955129428569371 26.167393618038663 27.587306920226776 23.32251629124019 0 0 0
510 1 1.429674617048032 23.406530536209257 26.877698892420934 26.58258658716417 0 0 0
122 1 1.527364520007331 28.39655476031252 24.778195151952765 24.957939061536806 -1 0 0
1534 2 -0.582371543659395 25.598940099115854 22.4830419687705 26.146132057997942 0 0 0
506 1 1.316275482715436 21.944350432614424 24.58778098425795 25.10947256912434 0 0 0
1509 2 -0.6228107054242211 25.65199682499725 24.161738609323468 28.04072994799621 0 0 0
356 1 1.286303293628368 18.23436020574334 24.81603987164017 28.529632384499312 0 0 -1
1508 2 -0.5067028660686463 24.62546836339339 26.121842941212588 27.789914304394983 0 0 0
1531 2 -0.652773117542961 22.99506290331832 24.157043025227885 23.68336209032167 0 0 0
824 2 -0.742145009077088 27.68266228022367 25.841852268823292 23.955221812171242 0 0 0
509 1 1.344968869010172 23.593019572292153 22.892041254896757 22.974808870364253 0 0 0
767 2 -0.7290189718787161 27.67842563682215 22.360892857411674 27.804541819181026 0 0 0
1346 2 -0.8691429489536909 22.75845851833331 27.7077597417215 27.770678855996557 0 0 0
1342 2 -0.746527459936323 22.845389372536083 25.652812684202505 25.8917421475059 0 0 0
449 1 1.455000261940408 21.49411956870509 14.659205579869802 28.065000518197785 0 0 -1
823 2 -0.8246950014969123 27.40870670808271 24.356064973663276 26.093926762083925 0 0 0
411 1 1.390851812683958 25.252242422217424 28.46293103020041 24.732496038457395 0 -1 0
384 1 1.313982212799562 20.21292957608084 26.640179417647257 23.20750836897607 0 0 0
347 1 1.44387537975912 17.74104521921443 14.325406223530456 24.72308262556951 0 0 0
1496 2 -0.7074334744616837 23.882658396836597 17.456969488465532 22.914604200365858 0 0 0
349 1 1.268268014172494 15.988626869177898 16.26221456336629 22.88170559564046 0 0 0

Velocities

5 0.003074230141572076 -0.002991591195148139 -0.0029866141859615706
8 -0.0016751461412786717 -0.002783945228086258 -0.0010835307115521164
521 0.0017994007884092544 0.010691490657263505 0.007628948511770457
536 -0.01005642779051974 0.007098292137375786 -0.0075398492345657
525 -0.00341293658556724 0.00127588041993427 -0.015046572432606257
513 -0.006269011276682223 0.019277847992948172 -0.004339927090774392
518 0.01058547341536826 -0.02795184114900543 -0.012874251331471473
537 0.02038294996140927 0.02045274252032732 0.00506504885760648
535 -0.013969261691680395 -0.0012780664986667206 -0.021328927454546807
522 0.006235653021135049 -0.015127803077414698 0.018840938051353742
516 -0.012140187911561231 0.021258255737407798 0.016898899381220352
530 -0.0024732633584664157 0.010182551950683539 -0.004245135302033548
517 0.002720071081800657 0.0057059962230380686 0.007370057393141304
623 -0.0068138706881241224 0.011821244775896307 -0.012400337292568956
161 -0.004381624495464376 0.008101197520658401 -0.01562614899589935
67 0.0005196078461694836 0.0010992069253933999 -0.0033426031772859897
913 0.01741345502748952 0.023777144839869434 0.010967456765928543
130 0.007205486157215057 -0.018517030179785277 0.008482352055646302
849 -0.010607783612726383 -0.005485933265739063 0.016387407244596197
841 -0.003629946821732048 -0.006303316605380528 0.009360226119652855
835 0.0022685183574501417 0.004788125401072579 0.006424822824010775
133 0.002740198835014752 -0.005561021319053408 0.010635123849918524
136 0.008508276992121228 -0.002542905440533073 -0.007528239972845535
851 0.002697819977316384 0.010560315575734478 -0.007352239672116984
842 0.005138344879971825 0.008732577864948205 -0.014584456643476818
846 -0.006246540423025919 -0.018661062949387772 0.0128431145849887
836 0.0004646787158096402 -0.007864419898311468 -0.014632180553065165
838 0.0019865952788097906 -0.01725123402178035 0.0051010871832746045
833 -0.009288209900915079 -0.01894526371775885 0.01572263664523752
837 -0.004082736958715128 -0.016276123340537362 0.0027147306512860423
1092 -0.00779148796298562 0.019106465209992162 0.015493942097664847
290 0.011454121165076426 -0.009569367926222786 -0.004364582501068213
926 0.0007063357122314839 0.008202926527805176 0.01740597569049872
131 -0.004225525128618157 -0.002633495929456744 0.01779057015406838
853 -0.0016443752650554947 -0.014104776587004245 -0.014292523631233312
925 0.0005498175862996556 0.019257218937931593 -0.011571696741478248
911 0.02048519136099981 -0.011833129898950126 -0.015578622948119996
39 0.0006740355584428339 -0.00893605233085721 0.0008618913366341248
38 -0.0034159785591643633 -0.006672549578027474 0.0013302559215593592
35 0.0180866888759565 0.0010935200362670342 0.004889954250365125
612 -0.008850690661844428 -0.00028944196128820294 0.011693689777945427
608 0.00029774994980425834 0.012153571571350271 0.017319486801798817
614 -0.007816397242243246 -0.018992773584915565 -0.007101109427123699
619 0.0049600762293827835 -0.003167868382294999 -0.0024976077314706703
609 -0.012422238459954063 -0.00925433335466365 -0.011206802023768425
37 -0.0026866500655163624 -0.0018815744172146266 0.0002583631407510042
40 0.00012124083855514791 -0.004170833435638903 -0.0008588332166588986
625 -0.011861119214694656 0.004028517382364704 0.004163554732943902
613 0.021463272868551635 0.01999563388925937 0.0022757866268655422
615 0.00869533856175708 0.00022362353243843196 -0.003246314420408333
624 -0.0032900759835866934 0.0076363424472863295 -0.003182272246889699
605 0.012430585343477093 0.006753127301573988 0.0035459332465735886
622 -0.0019914959189947764 -0.0006711746698104316 0.011706536955667007
626 -0.007584602922970109 -0.002572730663138035 -0.0017485964357071644
162 -0.0006674535648897077 -0.0006578519312558086 0.0008405318760243778
65 -0.0010823862625677545 0.011458380190383165 -0.0026208136910901045
912 -0.014674332938566077 0.01908623554420358 -0.0035583946278665876
167 0.016154192353824978 0.012108888441003763 0.0038387582101819307
922 -0.01762004411396058 -0.005922554179880549 -0.004264932807306318
289 -0.005287020210090729 -0.0023961019533626717 0.012383727554208123
163 0.010251720966182749 0.00836859734575248 0.0010647462458550966
910 -0.004295777298976152 0.002218651856323987 -0.005108923565073272
909 0.010882376673750329 -0.0030283938639541798 0.019865887420656335
920 -0.00392913145571042 0.0077296182452049585 -0.020342916734970094
166 0.011886193475085348 -0.003297082514211917 0.0027825787430577984
915 0.010051490341841647 -0.002353319089706519 -0.010471456267359451
168 -0.006203716236641768 0.010015731201586846 0.0050146762039765605
919 -0.0019726567180999013 0.012234938618595752 0.0038665709945229906
914 0.005621876595633236 0.0010038881178372173 0.01834037939347145
165 0.0018149540382030936 -0.010789156623868148 0.005547525005104211
34 -0.005464676319169966 -0.0015046665301907268 0.0030049344592122766
2 0.00803179749818488 0.019276594961540352 -0.008623113767289215
134 -0.01509744653119809 -0.015677482676888104 0.0004859179014466705
33 0.014247889077472755 -0.006142907009878125 -0.010225169413529337
132 0.001267939225209017 -0.00892893848410149 0.00831511237864614
12 0.005788560495663497 0.015160641981891817 -0.004079058204647777
13 -0.0026358882412046264 -0.0037920547405300023 0.009742032710439507
16 0.005123130798388007 0.005738715631077548 0.010018208774914772
550 0.021005529254269677 0.01236026628393735 -0.013483893488995152
551 -0.006267987113450664 0.001478814698876492 0.011823677249441203
558 0.002059161133608836 -0.013304392323676792 0.010925805485126602
559 0.004383489061705025 0.005116376669850655 -0.00907296654028323
546 -0.0002444218960042096 -0.014156053073511728 0.005533703970808515
560 -0.00403866606654772 -0.026361493960287887 0.002942602119206732
75 0.01974207892654748 0.010653707815825766 0.0014825922691456548
542 -0.0028500469075468018 -0.0012787519787381902 0.006254446801293051
531 -0.022774855885967622 -0.004490772315954828 -0.0021717001724140786
529 -0.0030092461013116033 -0.0017729676488712745 0.017953968295827467
538 -0.00795294281585262 0.0018797575915851545 -0.015935467013154934
532 -0.008293219074903782 0.020180933830887277 -0.006800751059360527
9 -2.846978957185416e-05 0.0022841167434079555 -0.0006462366021778154
169 -0.006024183378194631 0.0015660974893053712 -0.0017896795641875337
642 0.0002566233517045854 0.008361966216796576 0.010744517050399648
928 0.01165484217271232 -0.013654738419735857 -0.002882803800772748
848 0.0036173995216563716 0.010424006094842555 -0.009550639893353662
620 0.010258263310790494 -0.006693458518229323 -0.002457648793599438
138 -0.011829158558617424 -0.006356311836238203 0.008865442166319619
854 -0.0009566816413644413 -0.009513056891640814 0.008210557315240893
872 -0.006846645463747036 0.00921474606886383 0.001227237092694174
856 -0.006833348931867776 -0.011007970781072369 0.0207914580826781
140 -0.009556597540106232 0.001313138126747574 -0.004305302066291568
141 0.0023013528472586335 -0.0023762837278080125 0.0029777692319332555
144 -0.004167266430619749 -0.012504031089151647 -0.005555842595556727
862 0.004986338463330109 -0.018003407779071563 -0.02887077383039113
863 -0.011063943489549028 -0.0012833551334159692 -0.0025159129720262576
858 -0.00948138777849076 0.007868943296857155 0.014846721474667871
871 0.003448677185925716 -0.00850768945676106 -0.00817252715737025
870 -0.00310901666642519 -0.0022198141330725457 0.012856051943032541
845 -0.0244077879012786 -0.006576579026536907 -0.009093890301373645
847 -0.01044690901425812 -0.01995860897524242 -0.000468001310762875
927 0.004828049253979234 0.0006636414830117665 0.005708322231136962
137 -0.009371899370293738 -0.00039959966879865095 0.004219396667240366
43 0.0027075660885093147 -0.009992846023108098 0.010749791797453558
850 -0.007801775032201494 0.014462450638368672 -0.004788133492512329
942 0.021075960510521827 0.007873521253178138 0.023100019561744276
173 -0.003720803757405868 0.007227144775431147 0.00641489981649443
10 -0.0023975943197609767 -0.008262254685172242 -0.0018190728227750461
621 -0.00034516823259747847 0.0022975990339939704 0.008631155076706023
646 0.005513429871070099 -0.008776893121476132 -0.0013110170287841405
627 0.009505617908884993 -0.02046060815849048 0.015130232408039627
630 -0.001196571888868309 0.01847021821734776 -0.01922874810884085
634 0.0053568776561791496 -0.007777678968412056 -0.0017978336099733249
44 0.007097524768279362 -0.006584443175598793 0.008955554102846678
45 -0.008076506002512456 0.0028582562678434696 0.011046771184430293
48 0.010480432308972049 -0.003175706969721091 -0.017984591887659218
636 -0.00960805289150339 -0.004422939016573088 0.009087361881493719
637 0.0005955471195768166 0.0032537591076548843 0.0055165648413234335
644 0.0033089434750891485 0.003981621886656824 -0.004520711663888651
645 0.004147384049326564 -0.0019563277604140797 0.006964710396355412
170 -0.003841632918041004 -0.005922789305851676 0.0057664828652052484
135 0.0012339883465785574 -0.015073020371620885 0.008953106284262295
42 -0.011898003571132241 -0.005794635805853766 0.0015198270563807014
859 0.01363458895465306 0.004980464012391893 0.011157167266336742
172 0.009416303245541798 0.0013301323780289364 0.00659440570214504
171 -0.007970220644663406 -0.0032047872557220028 -0.0025980728242246233
921 -0.0014178475168515016 0.013384518736859627 -0.012000132494678961
933 0.006409209644732662 0.006751369224312039 0.0025212876482790824
923 -0.004500982423793231 -0.004854339924945191 -0.010356318483648286
932 0.014246435789901401 0.026673870557019662 0.007505220776130034
940 0.010286809460688518 0.005596384871762629 -0.01462791726873705
941 0.02050256008793604 -0.016753407423623554 0.004103542195853126
701 0.002799686118947709 -0.00899667781868953 -0.00483001753970006
918 -0.016353678714971287 -0.016485269711211403 0.004274604722664657
930 0.0009878392278681286 0.0062666768242339715 0.015250580421166973
176 -0.001953420865477957 0.006973846997937781 -0.0036703850890149508
139 -0.00657927889225656 -0.0026127932677525016 -0.0033755109714534875
533 0.006823906385949441 -0.000912784986221802 -0.005279627375174803
618 0.00630144056522714 -0.01589834029441465 -0.011583796131679749
935 -0.014833804174801976 -0.000651588968238461 -0.0048271891449456
639 -0.007109323251331467 0.012120988078943767 -0.01761244684562192
7 0.007156938185657523 0.016205528633282243 -0.010412986625433803
6 -0.001977680267985664 0.004783094715897803 -0.0024201081440498517
20 -0.0027117449556200587 -0.008869491809534244 0.006128696906447769
24 -0.01042598291940249 -0.0010887337610728453 0.00987811413780393
552 0.029542089022864718 0.010493729072729266 -0.0032286661488747995
555 -0.015469305914857965 -0.015509053072668172 0.013146649959297475
573 -0.00797344423923831 -0.00747025293398519 0.012732854209827463
574 -0.01182818374008727 0.0071770926062357625 -0.006837360285962247
14 0.005133789122549875 -0.012635228813814821 0.006236261957395729
21 -0.011102286309481822 -0.009309060772707808 0.0019379625068370236
15 -0.0012551191450164748 0.014631267944133193 0.007378863912887998
583 -0.003131451065328904 -0.016970338501908776 -0.022379901154799535
554 0.0018888490878469918 0.01442881138253375 -0.002068116918879982
557 0.011558852766299003 -0.009239089828900565 0.012004586679377857
561 0.012992083265251983 0.019202284986092576 0.0035032083571001397
547 -0.021006319668556553 -0.007807037575158415 0.0014738831225639577
556 -0.008595480833139825 -0.017813120009377802 -0.004015142682970737
145 -0.0034149396500995064 -0.011804490622932656 0.016772074279307318
650 0.012168438060710102 0.009714559704613416 0.011402240580302385
569 -0.02217710087360241 -0.0021007960505979727 0.0034841586405787973
273 0.002742000577515871 0.008687039097395103 0.006426711528765702
873 0.009203845527766895 -0.0023437453179292124 -0.004807651609753213
866 -0.00875980167581156 0.005013106986010419 -0.019883649990723548
148 -0.00872872284303347 -0.0041746244638739 -0.013126482449690986
149 0.013143735821774168 0.006080202097122857 -0.0011215840421312914
864 -0.0048474004972853925 -0.0023421292213981746 0.006380693465640714
867 0.005374993357895787 0.014084032236427488 -0.01684235024451272
881 -0.012569566392157639 0.010212209704665723 -0.022895667943915256
882 -0.0030165976199174544 -0.00320635931417997 0.007762266814309563
142 0.0035056852722006506 -0.009223433738959945 0.0023462127527581964
143 -0.023624541017346207 0.006852109246838511 0.009401844255217527
152 -0.0017307498897512577 0.0008172148359236996 -0.0024255315636038974
891 -0.014101071740225629 0.0037017505277466157 -0.006141553012190037
869 -0.001489957530288027 0.00958934979391583 0.00731399307988339
857 -0.01252551031365867 0.017426915433257216 -0.006557348233786985
868 0.0016335930966392433 0.00869204626416008 -0.023469598666800078
181 0.0037392795100443005 -0.0032392248331461525 0.006604185858794455
875 -0.012027877508304773 0.02043349908220375 0.02815517699926494
81 -0.003515587455414615 -0.016037848221072425 -0.02260958952633972
865 -0.009921486673703168 0.009994507143010659 0.012697639303784237
931 -0.008323179574500872 0.003982201542642568 0.010628875564222274
177 -0.0062054932341530245 0.002865080735339067 0.009437110440406018
934 0.003979335731117289 0.018678782241356395 -0.0007288560266098789
631 -0.004674205375982681 -0.004319030124544351 -0.001449868344037497
654 -0.008633639877045738 -0.011721282913924222 0.007869370709790968
666 0.021959923722619692 -0.016662733065568897 -0.006171996154340975
647 -0.004708605087849053 -0.013141972319503563 -0.01702796427907873
643 0.007689634485564476 -0.015416941909022042 -0.009578060717230965
640 0.0003019636864858867 -0.004133786670487245 0.013953871011669228
52 0.01024283061923991 -0.018744701300895665 -0.0071322457312897655
638 -0.010835814450474776 -0.0006559142983504404 -0.018223190720157916
641 0.002690086639351308 0.013497458069739366 0.01363303218241586
656 0.004336307483019132 -0.005692779407473499 -0.012359500026959892
657 0.011013901760900982 -0.009439915272680646 0.005176803140127114
47 -0.008539189208870935 -0.0041816531950477276 0.0013024764099857581
53 0.013421931058380271 0.009994422056570801 -0.006716972846316583
56 0.010678429038985164 -0.007552870936122189 -0.0025154329045901317
46 -0.003933250728847126 0.008954829015365118 -0.010512869116245379
889 0.0008139607496076903 -0.0011494928733051814 0.004294755534702515
948 -0.012165985295794638 -0.008444706961665008 -0.005456322154956019
665 0.011699232266843492 -0.0025730616521498005 -0.0011201241567718179
174 0.0006868783139572506 0.010389585386971094 -0.003360065645991222
175 -0.005851653920555598 -0.001894124745926112 -0.0014844741145606892
949 0.001555732080935926 0.013291066226979372 -0.0006606223244023609
209 -0.004542987161119162 0.002248560151092936 -2.1811267927952887e-05
929 0.01532855075140578 0.015555003400956198 -0.018049428391532694
958 0.00452414829117584 0.009887109719038856 0.02485400030602552
943 0.0012699960999359558 -0.0009391888623453098 0.005797406841643905
180 0.010171852910842098 -0.0006886565859523541 -0.0003006903590148849
184 -0.001419081717702616 0.008361033719264097 0.008846942229130678
936 -0.002987293778521665 -0.0009796894228657476 -0.00854340544304505
937 -0.011248189472662545 -0.0024302766436720994 0.008741552862713392
939 0.011904275141174956 -0.007738229102355532 -0.005275356294713674
938 -0.0020680083299283985 0.016788092326820422 0.0023308780087140006
944 -0.0057996249401793855 -0.010538887748296177 -0.015722867865883772
337 -0.0033508401707694328 -0.004416420437348514 0.00675568046262305
581 0.015417201416393913 0.010492345302492965 -0.004010862772121144
543 -0.013229626675079653 -6.293473948383197e-05 0.010212161464451891
877 0.01690084382959992 -0.027741506087125157 -0.0045617675654236346
582 0.00020074455090543736 -0.0021509113056483848 -0.0031825709019642568
890 0.031529351800296056 0.01887364628003526 0.004843075041873595
635 -0.018637485753419395 -0.0026532340541680225 0.008127133093522776
553 3.7935269926726866e-05 0.024733461617648514 0.016980743739729184
22 0.007021618580569387 -0.002622589652323136 0.003184608444879974
23 0.00840454055365077 0.00047617990004108606 -0.003803095383078578
28 -0.012168894216898355 -0.014697490184675624 0.0055245677819933696
575 0.003867986595677896 0.007227768836438363 0.007013434890162543
578 0.021434401328589966 0.0005178215909061163 -0.01827734433088744
579 -0.0010103696790971708 0.007109672499784871 -0.004219850752001855
580 0.008546732085041137 0.010704941513413859 0.00893073651544696
570 -0.0004671759901135195 0.0021158159155633743 0.00653516289817131
566 0.003389285937090793 0.0020387091311857785 0.0004477208427295418
577 0.005891189347208041 -0.0021367603791300686 0.00203743440038623
596 -0.011561232768832908 -0.004162976709349144 -0.00919277378894801
584 0.009786949097080057 0.003357767671652593 -0.0020620726756678635
576 0.010371248929943629 -0.02684640715138521 -0.01135921743420329
51 -0.00967929062517955 -0.01651367839070664 -0.011859269608649529
604 -0.002261830177154753 0.005895850001267152 0.008824014407709123
597 -0.0017322389790071326 -0.0038110040910920876 0.012158784266336167
188 -0.007300265723368101 0.003168972914965535 0.003076002336486539
952 0.018496498467510152 -0.02254157037453772 -0.0033483983197162477
955 -0.006044184675808272 0.0005339024208652674 0.008239284276205967
947 -0.0025781056145234636 0.0014763801807366375 0.01167388228259679
146 0.007902159948451058 -0.010598582160270811 -0.00310796218061341
892 -0.0058194726265518035 0.01241142725280315 -0.025559765566908425
888 0.007942565463741783 0.005608134764120006 -0.012783148745079756
885 0.006767575822124982 0.014605409615003947 0.011432757503655532
876 0.02596010664841385 -0.013311210352182723 0.004006112792774179
150 -0.0022921671699260167 -0.0025900290250486847 0.0022591211944051775
151 -0.021471065657468518 0.004897188856853605 0.022393551368817394
883 0.008506015471470809 0.01646967041806142 0.016604781103232345
886 -0.001201788076377714 -0.014616230939872773 -0.011750975502481376
884 -0.0032551921550368966 0.010519051646528 0.010672640596282633
156 0.0006952887174134379 0.0067837438580482115 0.004292616842148049
878 -0.0013303427279765562 -0.011771116955036293 -0.013821608004675068
887 -0.006691639350083026 0.011167432285687447 0.00851904709066089
901 -0.004693691705853804 -0.00429616734880676 -0.01115629652795383
956 0.0038820211916255083 -0.007645441013403331 -0.009136884796870762
900 0.00858156330553365 0.018013530719658995 0.01519812048891641
954 0.0001907763073078185 -0.0059492933490734486 -0.0016515796232907047
89 -0.011976298470423747 0.004121393499167926 0.009758852659451546
951 0.02522414317471276 -0.004901771025214688 -0.00434437853990177
185 0.005681183210069847 0.010183875922051765 -0.004315234497424752
964 0.005890369279487637 0.0016529507470299301 -0.011665271243556086
682 -0.017618380644380875 -0.00497530646007466 0.015855618441689867
676 0.009165975294046067 0.0005682125729294506 -0.004345417462027558
651 -0.022270983748594837 -0.0069763094448339865 -0.012562558646003353
659 0.0012577845717971375 0.017743234877538417 -0.0062399073074158535
663 -0.011667877225304745 -0.004733750105740848 0.013847090492466838
655 0.00262835525238665 -0.00933246738029569 0.00876479614515251
54 0.004558830284747898 -0.004302100324010693 -0.0032976867121649457
55 -0.009980198662133817 0.012965061912599754 0.002163272684106801
60 -0.008876707378759443 0.011553885757521457 0.003306232606602145
658 -0.007241713089156725 0.005983977143083891 -0.005569883812623049
661 -0.011705604927614415 -0.006577739082874759 -0.009841446259470714
662 5.6901521439323384e-05 0.014864169750826571 0.0007232254299112673
660 -0.0069694909937479035 0.0045783060215236916 0.002918996397974386
667 -0.007352774713437328 -0.0093273259505285 -0.0032952957411639225
178 0.010262874389377665 -0.004613675836952109 0.008397774976107143
677 -6.515935660159967e-05 -0.006006388505545096 -0.012148483568266978
313 0.0059559324244386974 -0.005548967013034612 -0.01680241643772239
182 -0.00018309198669427327 -0.015822668687629233 -0.003888060801886148
945 0.004111249700432816 -0.003893360312020876 -0.000860465348306909
950 -0.012565857124751861 -0.0010781502187186336 -0.01273245761269336
179 0.0074337099440231 0.0030022291702436607 -0.006303839082395405
953 0.00996573105765959 0.0152107257612224 0.006647407183871289
25 0.005957542655732693 0.0036986246952455605 0.015096931990921648
565 0.004506302775631971 0.00664047487236842 -0.0034301420147375677
345 0.00700200625735849 0.004748926610574041 0.009407956593089921
972 0.004304075556870245 -0.018857642447679675 0.0046486447718529595
959 0.0018479030827605266 0.002123328777720114 -0.017063972196845138
183 -0.00843731402883435 0.005233463038004751 -0.0016600193294698503
147 0.001013920756696112 0.014423917594066719 0.0037698975241711834
908 0.014399813842510928 0.0006268913239615803 -0.01040141098391098
274 -0.00024725724251280505 -0.007033437558971064 -0.014219476488657836
57 -0.0025204384074442123 -0.006781943670644277 0.00029135130558475197
946 0.0020052314649745885 -0.011164035687462402 -0.015968367499978847
957 0.0014465448325238846 -0.005458711742507614 0.012395859519451777
664 -0.020824199324669317 -0.023826270315776568 0.011425445758977098
30 -0.015041296046426225 0.007226890297922986 0.0017610182689405385
599 -0.013658588609418433 -0.019932039789071754 -0.000540053853810892
31 0.005611966177430528 0.014825098779219746 0.000265323089225004
527 -0.0001283896324445162 0.00030833684748777726 -0.009644958180642356
603 -0.012733476641297078 0.01925272067913889 0.004651484954531705
601 0.0036249385424534705 -0.006169967573928684 -0.0052140825109437605
602 -0.011309315313701131 -0.01826646518265262 -0.0009791465962785799
526 -0.005050621469291234 -0.006541031866536767 -0.0006102792030172625
588 -0.0024290656589793995 0.000156447904386264 0.004064909550984823
4 -0.00426609514218274 -0.006899382651402921 -0.004426999799212223
592 6.0842637979672344e-05 0.00844271169543192 -0.006875933386858581
598 -0.005399644984436908 0.009183613458144514 0.0074072392814699866
600 -0.0031483241713296667 -0.008334761066486122 -0.004700595266122534
528 0.02402946531331539 -0.006434122795969689 0.02453131858715612
154 0.010933366609513223 -0.003468753673209846 0.009706267153556592
164 -0.019203762726038905 0.005052908002459575 7.95999754618911e-06
593 0.014757846654607313 -0.0017256801761328685 -0.004088605731545278
589 0.005687228068648621 -0.0004646528918617313 -0.005259533997869469
29 -0.008282563744974492 0.0034486831608112603 0.002125523629894748
157 0.014471349931495573 -0.002861074094797209 -0.0001319407828486452
896 -0.02376618801753199 -0.019094479533284643 -0.007032274033215898
904 0.0002101015821073844 -0.0036016168536656436 -0.011222417599367684
902 0.009279721508071548 0.0023695378963491764 0.0017049408223020178
905 0.0003248588718608115 0.022922022785654653 -0.025018264605488318
897 0.0125594467450522 -0.005186212754463801 -0.001171790666174655
894 0.002255502084783843 0.007339557129751817 -0.011125583102378959
895 0.01922574317165113 0.007931105433089638 -0.0009657247804328759
158 0.005264962797986664 0.011250880857271417 -0.006756441882334763
159 -0.003269067319669836 0.004337739090684394 -0.003892866287478198
906 -2.2228802340977025e-05 0.008432260851025563 -0.014585598641171463
903 0.00038359391366390636 -0.0028614839806743926 0.006626829852673633
844 -0.007758266495676857 -0.023104125871942553 0.0027761055532791483
907 -0.004137309580890865 0.0023220350790443757 0.016675784749361988
843 0.0007069236249807763 -0.008583334334110213 -0.012321711464038
129 0.004696628913903311 0.015493359169995743 -0.0030432022138719298
189 -0.002170781213277157 -0.006204740530252619 0.009236299073371446
160 0.004190411123629891 -0.010943504822884908 0.00573685713569452
59 -0.00886554947478189 -0.002597336581162974 -0.003814289404390133
32 0.012923825275588238 -0.0013944030735246486 -0.00225584069976826
314 -0.009834716041244645 0.005950794891505538 -0.017049098966016703
680 0.007274971672471797 0.011355881572776465 -0.013194838580507821
91 0.007610963118994457 -0.004651063753618124 -0.010004148843371152
61 -0.00475542154594406 0.0051736741832843144 -0.0067250196839142365
616 -0.012024029067902883 -0.007351006956851991 0.0019285192695918242
675 -0.030606794465592016 -0.01552916070099547 0.0001733640887387514
679 -0.0023391644626531653 0.01203179623533446 -0.016707831063394036
670 0.005113299285980798 0.0082826887708853 0.02192537478628283
674 0.012532503719594138 0.012581399582178545 0.016201968449112217
62 -0.005446843626466914 -0.0016936613286803576 -0.0026004543172885976
63 -0.0014016190506845963 -0.0018721066010366231 -0.01028222466891821
684 0.013461566056734509 -0.0075523390560459204 -0.000791309797727357
681 0.0161831123131821 -0.001954786129194668 -0.024723526575588715
683 -0.00022365519981316516 0.0014109669435843418 0.00907265389150855
671 -0.003547444699901153 -0.0036183118322753566 0.000535561191587269
678 0.004879556697009301 0.001385260564155479 0.004802261422601151
617 0.00935803639548161 -0.0026056932823898256 -0.0023726105028205563
64 0.002907108410380113 -0.0067531189576368585 -0.002188555528120886
966 0.02404498644529556 0.009041742702683462 0.015393466596277765
187 -0.0016485820110427533 0.008814964686155346 -0.013191155597946506
186 -0.002047111277448473 0.00016991159570635368 0.009975647786469123
917 0.0098091256726364 0.005903803364437226 -0.005760949584444603
963 -0.0013131120134070075 -0.0005209634949883907 0.0016099579065419342
282 -0.00019906673405660263 0.0022256991757245406 -0.011897444739995069
916 -0.0019091260656037732 -0.013495213037448736 0.005153665674653818
962 -0.004057888353927311 0.00618560280969731 -0.006794152510158986
970 0.003451611701664849 -0.016116741574202377 0.03240566029762553
967 -0.006302331223931414 -0.008149489018924216 0.009795523526617899
971 0.01878897097485842 -0.009050304381549079 0.01876958062010618
192 -0.0038392234027739072 -0.006783238314598872 0.0006987551426752399
961 -0.0030907248918739397 -0.015700801754262996 -0.013752091570753494
968 -0.006501564087616466 0.0206298494898704 0.003332217421597969
960 0.0018465226481714113 -0.0009898449576516137 0.021117351862519246
969 -0.0010120504369285051 -0.02014583140096939 -0.003526466603083821
191 0.014026831200439582 0.010173355397798137 -0.0003464471510962547
190 0.0015873505238509856 0.0009039804530401272 0.003147185073960846
1 -0.0026564461081676 -0.006688073355343473 0.013380765418111295
193 -0.0016877380489337102 0.0029779133400359504 -0.014431334280366822
36 0.0015059371773404513 0.0027772010406757652 0.001682774335862994
965 0.004965209978771155 0.010166757783375993 0.0045281454805006505
69 -0.0017719596230573414 -0.003968670418036125 -0.002830126147333972
72 0.0021049795689196188 0.0015356138041242948 -0.0008470027830587848
704 -0.001988135297018761 -0.0063998972249244375 -0.011868466453248544
705 0.016394163647461227 0.002717331699630657 -0.002366227924498131
694 0.005166932942166029 0.005416918270182728 0.002356588394057717
706 -0.01511074915434079 0.000531961853080647 -0.002425991370493052
695 -0.018679461790560167 0.007197305373952403 0.009112643916826466
692 0.00150915988507437 -0.004430335817177109 -0.012127168287607367
699 -0.008000486054995313 -0.0002859333104233582 0.007075465233712644
685 0.012353898779688604 -0.00015535874219086367 -0.011795355156208581
703 0.024341717564608224 0.005824603838805698 -0.013245925452931174
688 0.0052920263001517785 -0.018883112250114898 0.0035068087911123034
689 -0.0006465157213049167 -0.018967047623787574 -0.005390095490034893
702 0.02192442942035286 0.002425595572359736 0.028240959822324684
194 0.004807115051425864 -0.006067415943912296 -0.013215468783447405
97 -0.00723762460117188 -0.005722397465931944 0.00024192373559835784
71 -0.003611003178320644 0.003907747385450075 -0.011864169989761622
70 0.014872969835330999 0.015944436370444053 0.004171252964015953
1048 0.037169792587318715 -0.0036791972388372663 -0.01903005092092258
1037 0.0047220591372627635 0.0019084086243329437 -0.0002073362509047527
979 -0.019646783078999235 0.008263147308767958 0.005180576396408419
973 -0.011801147573919086 0.0015227290930296985 0.02298788643906397
974 0.012167715270299194 0.009848122778269993 0.012547920830428806
200 0.004083218096638711 -0.0032070636537242948 -0.011301053426633472
975 0.008697968579341074 -0.009747356886543952 0.007200642155646245
197 0.005007498495722067 -0.011536408610825378 -0.008637687562788285
988 0.0017677603564387342 0.0007395886397179262 0.0021049619787326867
977 -0.0029523802072507245 -0.007559603368501107 0.016663261219347816
924 -0.0012004121820696214 0.01794353565319959 0.00857135712063804
976 -0.0043634130413359494 0.004703578702341204 0.003565309858407254
983 0.004871866028515348 0.006445549438172913 0.003150241283095607
986 -0.006909956648364955 0.0126922681644395 0.0014868987778986272
990 0.0053920973355654975 0.015376133689006052 -0.012480110892337566
199 -0.00594549911947231 -0.005766712129365241 0.004313078803099343
198 -0.010651278393487208 0.003652148747407514 -0.0008944042357788138
989 0.002651341615693231 0.002176376085242351 -0.0022503310722089983
231 0.004029790838504908 0.005897242774307389 0.015337863177038372
227 -0.0036642277784527956 0.004120143070134755 -0.011808555950626234
99 0.002149893615995969 0.005107981826870769 -0.00981297852102863
232 -0.0007523695197111657 -0.023184160260604075 0.003735011125859096
68 0.009516885632267519 0.0002541231881516571 0.004937695911142086
102 -0.01534589364634043 -0.0033584718462198694 -0.0004231558425964765
524 -0.005876701047376358 0.012574982795134913 -0.00408009984506492
523 0.0037511084559621825 0.015367452138069195 0.012851238944651044
782 -0.0001845025927166137 0.017631889682603152 -0.004355345352689458
765 0.00026362940281697425 -0.00012159542518419761 0.0011437798192710435
774 -0.008255227854959423 -0.007576487276169472 0.009509233612925978
773 0.012856838359365207 -0.001923919910968708 -0.009879490769464325
768 -0.007441004346895778 0.010957967529368534 -0.010423359907117104
772 4.9422174502560184e-05 -0.00021573402193900343 0.007809704122688947
769 -0.015873635926305085 0.025785072813408482 -0.0076950750644897035
101 0.007978148143143375 -0.003233688317430383 0.005336480072347195
104 -0.007916999659041035 -0.004511377028502263 0.006052950448741703
783 0.007146539654541538 -0.010601792251260804 0.00297356036805811
780 -0.005998881481530684 -0.026557921631477518 0.006260719434290295
775 0.010605010278763987 0.007060792048604747 -0.0025590569147289975
195 -9.257505610321916e-05 0.010542210701317518 0.005644438024296738
226 -0.00336818671490642 0.004617852552148601 0.00359477092526956
3 0.007894541810270808 -0.02620063254651991 0.008446479484489547
230 0.004769100714080147 -1.675660223685095e-06 -0.004689491917926352
1051 0.0032709202046008958 0.020519237010668132 -0.012097968627454015
1038 0.011366678867700535 -0.007858609692463353 -0.007964713577610182
1041 0.005609236045327973 -0.013465467340846114 0.008824261212150908
840 -0.018491013193106694 0.005747327111421303 -0.011946409280341394
229 -0.011229774517760676 -0.014036134768097994 0.001745109304134495
103 0.002420349940994468 -0.004939605789100857 -0.019820591918527142
1042 0.023763466427464283 0.008107244404000452 -0.020883708284488774
1043 0.022740859635111337 0.00476412693056631 0.001355181802278027
1040 -0.019530116458729336 -0.005090631964142305 -0.012814860089070604
1039 -0.001054571597296822 -0.005034822103273759 0.0027106564093868626
1050 -0.016170072363744303 -0.014063250700019842 0.009117923020776466
839 -0.008856414985979038 0.0005037824529051276 0.00731007721637528
984 7.031920128894976e-06 0.0019992173980697856 0.005612781366527352
257 0.003005570629397126 -0.001295734771482326 -0.0034178407840033823
66 0.010687789658803775 0.004364258225135372 -0.009135191753929536
77 -0.008980466442483548 -0.004754446308280032 -0.004965143152944754
80 0.016455029795029198 -0.0006776933652543312 -0.00083252913134949
716 -0.00568480397065848 0.0031497553913993363 -0.008768871162704448
724 -0.0010544891320646258 -0.0036320900853594744 0.004626666065043781
725 -0.00842203839698327 -0.00097613142451859 0.005340212108067798
76 -0.0031019483566500717 -0.021144298036355782 0.01716330289061083
726 -0.0012392437100087132 -0.020723353384322445 -0.0046830403513176775
710 -0.0025766502005660466 0.00753338543853051 0.002123224806139416
698 0.0126321944652894 -0.014377989103892527 0.00529330295441529
693 0.016502303600435687 -0.005332556265012063 -0.006612924237006817
700 0.002580627348059382 0.0009395207751491097 0.00426592951600979
11 -0.012718184165995827 0.002535585583705115 0.0025655032102722655
714 0.0012498535866257757 -0.008254623963413484 -0.011189222041330998
233 0.015244110130049135 0.002016916369529844 -0.004474496417008039
106 -0.003949304788619458 0.00171126437722125 -0.0005446313665384277
107 0.010705148668063469 0.0017923939879273666 0.0005223875654246741
861 -0.00966235096957745 -0.012029305478600007 -0.001524628476832969
1049 0.008745587810591525 -0.010050483706922261 -0.007061596636730922
707 -0.01584304458950597 -0.0012851964934941522 -0.006048660953950121
202 0.003935639373920112 0.0033410980678616237 0.009079902486802823
1006 0.008801745925875277 0.0015950240714037631 0.000638259613070321
987 0.0067222672992850166 0.0016930682868320935 -0.004385111574994198
994 -0.014590548417696234 0.004059503323921444 0.000982135560253371
992 0.0005281164747221577 -0.001182091426542442 -0.008376515147017892
204 0.006388291257849827 -0.0021352648808622816 0.007400357598811241
205 -0.001643067261584163 -0.004996071072553826 -0.0008775782487470507
208 -0.004676456133754444 0.0033708979402626888 -0.02082482831029128
996 -0.0056235554906298585 -0.0173860077408401 -0.020173477888199443
997 0.03176630960144918 0.01331727888304276 -0.002473168521427675
991 -0.005203430778090027 0.015934511167123196 -0.011606122500845846
1004 -0.017020543205268586 0.00010857114091305796 0.011757799293844918
203 0.0012255494413575766 0.00042050531849641094 0.015322351492841026
985 -0.006361130063152041 0.007677408307241613 0.024214876315067885
982 0.010096892859248599 -0.0012671567057294102 0.0022567787215281012
1005 -0.012331094181683365 0.015068940239147552 0.007139270549437834
855 -0.000923101966217327 -0.010883791696182258 -0.010356899988630907
1057 -0.015383632473380964 -0.025131637156534156 -0.002071417309441675
201 -0.011877859845293453 -0.00940901453507511 -0.006589665046313645
779 -0.0063040702735673556 0.009397779725303644 -0.008076362185100638
105 -0.01664373899946785 0.003823335184922116 -0.0026613111575178173
791 0.01810458561242926 0.003644368749342357 0.006360254443134205
108 0.002650632997647232 0.008475942266191692 0.005007011206562056
109 -0.01516250431837403 -0.006743365402494468 -0.0058080933372117016
112 0.01313254892253044 -0.0010712318201268035 0.013055494406102281
793 0.0051543821979776056 -0.009470631587020193 0.0010986513133325485
794 0.009938084409139203 -0.00014240121969421557 0.0007679022599290963
800 -0.028414779009013028 -0.012346474333088324 -0.0012719044007363943
799 -0.005479921974754639 -0.004206490497389232 0.01619785696573179
784 -0.001821610288371829 0.008478198455792152 0.005209441346855901
787 0.0031728631173599114 0.00891816457385408 0.00785182224924202
781 -0.003166127483801176 0.009606917494592885 0.0063762962434503806
534 0.0019593759571498092 0.0013493188888277486 0.008599949388761494
778 0.0020122101030012906 -0.0011536314393752502 -0.006257423055859212
234 0.004141429632128348 0.00743252265346545 0.01280822511175479
1063 -0.006253934237563509 0.011766092681185378 0.0028966921579298963
236 -0.0020489835751954133 -2.470237137304291e-05 0.003915221251413534
539 0.0007537280246897138 -0.004484671425571791 -0.014464220686898337
719 -0.015808077827634274 0.0027810833544172652 0.0017033741698821055
1047 0.0022945690412989567 0.0009744352497301861 -0.011300754466447249
362 0.006475674386291879 0.002978618642776423 0.01166322017002133
240 0.00571604262589679 -0.004976024965071682 -0.011355434933562876
235 0.004345583648662262 -0.011109692126806094 -0.016792485419911775
1052 -0.004358463755377146 -0.0007356070543897863 0.005983560814917717
1053 0.018116070524490678 -0.005027091321299128 -0.004275113188792995
237 0.002209281055970645 0.012388244343516463 0.0003288229831714148
1055 0.0034111336181975736 -0.009154067986888387 -0.013808544986322476
1046 0.01759293256583479 0.007694181841484997 0.009342352218293166
1058 0.003323467030710613 0.006771320086465026 0.013532089677707745
1064 -0.010481166180310218 0.005482995410982727 -0.011151533470385642
717 0.007398648706374029 -0.009327441503427682 0.005493803537794348
711 -0.009613671030722335 0.005671016836162863 0.013614253499739982
330 -0.007017078381574987 0.008306482289610968 0.0023654391952274453
84 -0.005275837837869412 -0.0029643641693755845 -0.008656521505553292
85 -0.0007834912612825842 -0.004135501067730481 -0.017915598229220682
718 -0.007916227893732369 -0.0010097932575714582 -0.013850205897812122
721 0.009276292175816131 -0.018109209103279168 0.013715345287339628
736 0.003935069329844043 -0.008920387931902756 -0.0016483908642323964
737 -0.005225006133149581 0.011006004673587576 0.003614665952973127
78 -0.011231950410559063 0.0017188915420611745 0.008389288564090167
88 -0.013609484471748992 -0.00911495771194894 0.010990773519936353
79 0.0020292570863978915 -0.014042131875793732 -0.010576982087645712
723 0.01172964549170704 0.011464745973792144 -0.006194620427148056
727 -0.006999753909681409 0.009172437986653681 5.3241811831059945e-05
746 0.002863639072023877 0.00595811890438438 -0.0027282099826760804
720 0.0038849842064390626 6.840767188562045e-06 0.02224446321505878
1070 -0.016012347178064927 -0.004402986929599721 -0.006596776941503033
369 -0.001302616586696303 0.012757213856381688 -0.0011306716977348336
1008 0.027193962363801262 -0.0010241910457365725 -0.0068881123952590825
715 -0.018356623789730592 0.005366052426422833 -0.0027229367201047337
995 -0.023000133092416008 0.025959091563156858 -0.010654413085787812
860 -0.006782588886825169 -0.008062294784768309 -0.020079992436920196
1056 0.0033498748531699315 0.00367206558367362 -0.000986502942893226
1021 -0.002866265369099609 0.018699532460666902 0.01554725050032709
239 -0.015286190104335204 -0.01462045937739816 -0.007736096216937968
993 0.009199454378597375 -0.03299973983758024 0.0018444021889951116
245 0.009426891958054578 0.002084630951689961 -0.004959124826686123
1065 0.005604220093321044 -0.007219403814846601 0.003364491417786175
1061 -0.014568784270052603 -0.0016032045020389703 0.0017479225113915824
1007 0.0035535947157024654 -0.004795814785292745 -0.005645367399740492
207 -0.009555724844189411 -0.006724859540651631 0.005266595762741224
206 0.0025741840200615477 0.001796722044504641 -0.008540959227543478
212 -0.026478374502415178 0.004311194987903298 0.010881318834579436
998 -0.02837321871282017 -0.010546230930598132 0.0044326037099227545
1001 -0.0025572859507259566 0.01277672006553374 0.0035246682447870104
1012 0.006744392296130058 0.005456812253406571 -0.007638419768151747
1013 0.015393573704939533 0.003151065530079326 -0.012066291171669383
213 0.021052781179252324 -0.011254687700981246 -0.00644299741766499
216 -0.00753226991656422 0.0104301469723388 0.009499524224943118
1000 -0.0034563253600737027 -0.007325225355709364 -0.0004124007989064723
1003 0.005048877982716412 -0.0233118837113328 0.01566815230206596
1022 -0.015851681649086548 -0.012033272698860014 0.004676584338344067
241 -0.0035682512645507864 -0.016628382657932834 -0.012868333696724821
1068 -0.005954329345046051 0.004410090097608728 0.0221588030020062
999 0.0012347236628405865 -0.017678462677878655 0.006238800854240036
788 0.007887300393904733 -0.02050973414155371 -0.003351378907733185
1002 -0.02708049333806641 0.019753208588654647 -0.0023468485758559345
1010 0.0029924561467803523 0.002276905371640079 -0.0008412750940271447
792 -0.004530516176438307 0.008112501114351238 0.006834104581528981
801 -0.02305063129198695 -0.01809578315505985 -0.008746264479403382
548 0.006066523047615836 0.006605039462972534 0.007633935319048695
798 0.0047605387239389105 -0.006340510100974873 0.005873384961276996
110 0.011073306349235612 -0.01787710512061191 0.00455022914956866
111 -0.005234645145426074 -0.004950609104286658 -0.007059427348804356
116 -0.007336520147112716 0.0069472023262289505 0.010703945211941965
117 0.0036260634987477225 0.010452132764726453 0.0029556046610883253
795 0.033691284567887905 -0.017698343349109375 -0.015885009910146842
796 -0.010705828864362431 0.005073056198052587 -0.008915327346211591
810 0.005466304178762863 0.007137232813885821 -0.008835442956083395
811 0.009521654113850956 0.002584012497044585 -0.008855554244401502
120 0.0011993656341161398 0.0074546232882228905 0.006001512477968151
816 -0.002331629704044149 0.00948458076959505 -0.0011530749243712692
734 -0.005124536587720062 -0.015493415299555953 -0.016982616065576342
804 -0.005238841268357056 -0.012393693823978019 0.017032908854737325
817 -0.0010826202243466507 0.019476100011691228 0.010499658318789013
1060 0.02929793435206645 0.016919904367914535 -0.009652230927395661
1059 -0.01431564719372556 -0.011253981609351512 0.0036096717278030783
248 -0.0027801615058267426 0.013243838957015383 -0.005040201433587468
797 -0.02076772828776373 -0.007276644750269692 0.007574037364284757
238 0.008103024510594697 0.008815396889771393 -0.0021833619387767278
1071 -0.00790639808559047 -0.004229890711629045 -0.005811491264982594
1054 -0.007944826440525974 0.00020696917124440238 -0.007467152082236791
1062 -0.01617949605334957 0.010777368577728217 -0.006358792273187658
244 -0.006455428958712154 0.004118619134179934 -0.004966602446982223
1076 0.012953563475551025 -0.011367480348999759 0.0018927453980870426
874 -0.011842343252536375 0.0044777871781820815 0.0018398976499542697
880 -0.0014374419509180522 -0.01203510153278794 -0.011588967259038754
572 0.017201103325655526 -0.0016345629870787649 -0.00033085660435605617
745 0.0005153403880123395 -0.003577216671829906 -0.011330517240966488
808 0.006371936331903581 0.006559073343268021 -0.006747840503177561
730 -0.00804936336908912 0.01100782536471183 -0.011574809013780251
722 0.0033041586169812644 0.005096200371191843 0.01923082336116195
549 0.018503918547672932 -0.0059959410374782795 0.00937238161880969
86 0.008040398291713702 0.001041207956191258 0.008098287000735343
87 0.009384882432313866 -0.0029091119098278995 -0.005239041548534153
92 0.00391056067739615 -0.0015577285616053783 -0.0030059608728338376
741 -0.00042896030736075543 0.0003140475329838814 -0.008606794511425542
738 0.020944645253037967 0.023197958688793877 0.00023260063429920205
742 0.0037186576214412706 -0.0004890572001406259 0.01114078397758075
739 -0.007651495900597293 -0.004985915627139325 -0.018168982627403615
731 0.0018158079247382474 -0.004968240536203397 0.0024987229362167015
743 -0.004849826561778317 0.0035595775400741425 0.020064583120380525
740 0.003890097468722996 0.003807508830204594 0.0036423923642487943
735 -0.00037387550736084704 -0.0024273449160834835 0.001426262222000025
747 0.0023769771210245937 0.001905144454652696 -0.013828516032839027
114 -0.004997254241508427 0.004905481241631942 -0.0056928376258987366
210 -0.001813655875729842 0.005638189972468798 -0.0019517565280030688
1083 -0.0031967679237829873 -0.007955529491479471 -0.004668118004689988
1084 0.011182378534582815 0.007479640934077759 0.008712282474706986
764 0.0038578804726463927 -0.0021144357366623956 0.0012067981861970734
115 -0.00771359268531147 0.009996907924796065 -0.00029977486026467486
217 -0.003364374537720918 -0.011154838884653042 0.0022930631703750332
19 0.0015289070261767159 0.004016702995117963 -0.007243802045023569
1074 -0.006410210689163072 0.028124687039084995 -0.009441083685305043
1077 0.0033515841275380044 -0.0035818278999070812 -0.001962465833311983
1019 0.0079011525591043 -0.002703870227402243 0.00466001210727456
1009 -0.01888331465030654 -0.009996016236592728 -0.009495979190949152
1016 0.022120189695720906 -0.023854018270261446 -0.015840618515837315
214 0.014192716327078726 0.004355444727425965 0.000928055077946031
215 -0.016836682542374103 -0.004007685693262893 -0.0028542943279418463
1017 -0.002762611966952705 0.020835020042273517 0.0037211029548791428
220 0.010628735933747193 -0.010557854665056043 0.005781308799499657
1029 -0.027864474427262767 -0.01253052638743494 -0.00496315089690373
1015 0.0032442016018450442 -0.012834090561708289 0.013910929016941662
1018 0.013383183288034506 -0.006034594560517819 -0.010829985607852071
1011 -0.00809498123601364 -0.013031503717133842 -0.02545271820466383
1033 0.0003825625356623097 -0.0018258586400697915 0.000979572872534872
1014 -0.016202855751747736 -0.007762649003044064 0.017528773346571748
377 -0.011192960705143206 0.00897783124144374 -0.005958139761411524
1036 0.021554918534229216 0.003348666132262425 -0.0002796205635454315
249 0.004510938021891551 -0.0002767197065454449 -0.00024106463518509526
83 0.007973352071164426 0.01130998571864685 0.0015674254481412807
756 0.019730861945490008 -0.0024945858262533627 0.005516708454754296
805 0.009740289513662565 0.008412123715783069 -0.0065732298392182625
585 0.013958417850747841 0.008682478499034973 0.019125374100544316
813 -0.004532979203581253 -0.0032847804030789306 -0.024285593606590338
571 -0.006234725094577542 0.0043930844502662325 0.0037269157952975374
815 0.003848441923779827 0.0021294999030977897 0.0015343744687263978
118 0.018211585918937265 -0.0028078949554575772 0.0043315805981218375
119 -0.002176160252410019 -0.0022812762272293916 0.0008821062027633528
124 -0.0063024390877703985 -0.001568390380253811 0.004245614440326949
812 -0.011718388397678808 0.00531876581328206 -0.0005267543405528448
809 -0.015314186994569086 0.00969744333091928 -0.016421569678481372
814 -0.0028479477200178114 -0.008771576528228289 0.00361097013110766
828 -0.01950994090056029 0.014465632309323014 -0.02375219879413926
831 -0.007839639206265526 -0.0002677950415039672 0.006992706039097492
827 -0.008749888169648019 -0.014868593680076885 -0.00845711707952245
744 -0.0035278378919451005 0.0023620313980829352 -0.013172977314109
242 0.0034244126658514863 0.0007382931711682505 -0.005112403609338249
757 0.014749524899465277 0.0008895528176965277 -0.0032160913900704286
1087 0.013612659439417496 0.005728462987699179 0.010621064178103289
246 0.0064681777028677 -0.002861302127099588 0.00018722969840295035
893 -0.0018065845498040454 0.002453339983292435 -0.010494178033949387
1069 0.00907091048542033 -0.010871769351790923 0.010511254960117636
370 0.021509908771103724 -0.0026326466942376 -0.0066165926864010655
247 0.00456111207612898 -0.0036745895858715993 -0.0025928561350142074
153 -0.004938908710213856 -0.002946531249454172 -0.011509610812714724
879 -0.005384775792267547 0.013890009339002229 0.012083482077583097
243 -0.007798226805033631 -0.0013408881695414346 0.006416790502360241
1066 -0.00038663948704667977 0.01693198125692546 0.012030485489984392
1072 -0.00747332087234603 -0.0059961869894394676 -0.001743249899093608
1067 -0.010231385154479867 0.005977705660980182 -0.0075105204659542645
1073 0.006881878420357709 0.008199693185014349 -0.007133602375752564
338 -0.00037529064989164367 -0.005973791390848652 0.0031405621856442053
252 0.009004564848288002 -0.007515017891530185 -0.007363875296889402
1334 0.019354446592151374 -0.0022558818123828536 0.012295126691126411
818 0.008692489027971694 -0.003814501404489083 0.004519788914335597
211 -0.0023678094051773693 0.012149387164478756 0.0027573658459730042
1023 -0.009706742057163325 0.002300920423727479 0.0079578501148823
1078 0.0022960114892883977 -0.0012191495614647784 -0.0009693314445849945
253 0.010879982216391429 -0.007873566397780363 -0.0023718489460432747
1020 0.007001875744855423 0.010065232875022548 0.012335727476076367
94 0.0010426671971372307 0.013618786256026093 0.008676951739624312
95 0.013323970688074178 0.003094778152064594 -0.009788475090183555
761 0.007186219370337048 0.022612785069343715 -0.0027389475277809785
759 -0.002361088032786016 0.015127068592627127 -0.0015238140036617708
696 -0.004396742163090243 -0.01197299634140737 0.00802995569196618
762 -0.02412782992221389 0.004800442954315393 0.002655483049145624
763 -0.011583796942768445 0.008622072976101828 -0.00325346617100117
750 0.008455497973427754 -0.0004207273183445939 -0.0012262182337401198
751 -0.0046176896227798385 -0.004665518446165549 0.004047437939096268
697 -0.02221035044324667 0.02310314438028825 -0.001319814334531763
760 -0.012397723159953033 0.00547251091908013 6.087517726963102e-05
754 0.024260303231466333 0.007525504804010369 -0.017679014988868907
758 -0.00034224042681073086 -0.002249403463909046 -0.0009537496181050832
93 -0.0011031968324094713 -0.0002520569679579134 -0.0035905006049109832
755 0.013821088770823699 0.002134920028310187 0.0049897073137951066
96 -0.004379688656860454 0.0008735242526072567 0.006128879395163037
256 -0.0031962588423628444 0.007553540919645348 0.0027664840388463793
218 0.0009356000361099716 0.003407377291023242 -0.010552734107546136
1027 -0.003566882330323567 -0.00340386302446134 -0.014816750928196828
1024 0.005942136958410165 0.006940538277133827 0.0019203391700854339
1025 0.0013989318018629024 -0.026263623356991034 -0.007748667364212397
222 0.0006777375000698219 9.000707045994752e-05 -0.0038296067697394433
223 -0.014778188158714253 0.016063383143056983 0.005000104178763203
1034 -0.0027403001202587025 0.002345925034810184 0.00024739545028208503
1031 0.02220069424137386 0.009188491557622604 -0.003143988949615016
1281 -0.001884214327438663 0.0011574908118764495 -0.0018936761759801618
1026 0.0009779053693021649 -0.00022165428015552 0.008060621487673131
978 -0.0069191458598039995 0.0036254320028300275 -8.64850875960103e-05
219 -0.005855906462096365 -0.01804462662255152 -0.010308130217857099
221 0.00872545369496399 0.01577961967164174 -0.0014464140611904254
1030 -0.001723583600757427 -0.013299172829175341 -0.0031244407491701934
224 -0.0022407446046972777 -0.008369096571675377 -0.00031038882665766965
1028 0.01194988059204604 0.015569991114107291 -0.00847668940274041
980 0.0020727849196289505 0.011245100813557491 0.006662910424649842
90 -0.005051649343679925 -0.0028822595619051533 -0.0035659084626766093
128 0.003201750505455167 -0.012729808519660223 -0.002080072645034627
123 -0.008053301724467535 0.00021530540341476706 0.0038483699022516843
27 0.001993806627531598 0.00440497005191506 -0.009311084863858952
594 -0.020939808086886207 -0.0017230899215402576 0.005409148272332336
595 0.0018429554417811061 -0.018299245027501843 -0.007744711634937206
832 0.009194393003607979 0.007975690964903552 -0.0006994041299715979
126 5.8667825380920206e-05 -0.0030767425621999944 -0.00212976011476348
826 -0.002712602624421646 -0.0026905604783871435 -0.0014978629927534586
127 0.011734372755928152 -0.006876588071965348 0.0032646440784603005
825 0.006737008891863809 -0.013164598336623898 0.0004337820502283017
830 0.0054704695692846675 0.014095313736774544 0.006171137912612674
776 0.009602138236054011 0.003919133179172638 0.00019654854754924417
822 0.004479144140940133 -0.02728333962401728 -0.008084022637143584
514 0.015034375470060446 -0.014098518217207633 -0.009374583786041408
821 -0.0023663903480210966 -0.007709141031136787 -0.023035518628552666
777 0.017473922064193785 -0.022026509932752972 0.008498795391837182
100 0.0035384959392398443 0.014272081881231302 -0.0007641218595705872
1082 0.0069977420284400415 0.009932867638557276 -0.005219830278510715
125 0.006667771490511008 -0.010511198156799262 -0.008052021697417892
225 -0.009414503995846686 0.01059037827964412 0.004860805444677484
981 -0.0019443726506473888 0.014272983271812836 0.013096165972949408
1088 0.0031656076278923423 -0.0033651980775824134 0.0010148027851771416
251 -0.006296376328419857 -0.0006193947240900426 -0.01308518874334865
1044 0.01665545286876713 0.0030571042167955604 0.03334195892898955
829 0.01197063578476676 -0.004563787161532133 -0.011714599111661625
834 -0.005709538669795212 0.007985126067137898 -0.015109667751807646
1086 0.019208609106138246 -0.014229439539382256 0.002933079887766671
155 0.0010089944260959047 -0.0003899408311411627 0.002109392416737737
898 -0.0035055303769006446 0.02364589491122306 -0.010953961360830322
1085 -0.00030056347737944213 0.004332646684685121 0.013606942865337491
899 0.002745085326824036 -0.02231924401951762 -0.0043873311608878165
1080 0.0007032542752988178 0.001969553414213206 0.013256173737828949
250 0.0004969532369605921 -0.003652484076119664 0.00633584163333957
255 -0.002314205117057406 0.0004568352487550124 0.008147578900299313
1081 -0.002462946648047696 0.00406157338898065 0.005950539550198751
254 0.00690656032978476 -0.01350053217160149 -0.00034047068448414823
1045 -4.351870137571256e-05 -0.002279605853197058 -0.00891936802248306
1079 0.007261014887391883 0.0016210989234570893 -0.018614661464803013
228 -0.008537251618655595 -0.010662858023919914 0.005834974457125164
353 -0.010073334987052603 -0.000371428869972933 -0.005559818023873719
321 0.002220033752386087 0.008673969162563291 -0.007427300707843675
196 0.007344815878672974 0.0096400417604007 -0.008365944467326008
261 -0.005906478601285929 0.015752621633087188 -0.007868492131926872
264 -0.011028636745672725 -0.012354095452600475 -0.0036133208516321473
1169 -0.015566405055082624 0.00331642031996524 0.0021141057323927847
1102 0.004076407994304913 -0.0030555366306686035 -0.02389193781258102
1094 0.011236714762480256 -0.0031624512088735102 -0.0021933718892950304
1107 -0.016458766251136372 -0.017191991923941927 0.022610257493427523
852 0.0026859626000065493 -0.01067293567444556 0.00016659692822758288
1108 0.0009290235665714583 0.026925879769652664 -0.0010119994904716268
1109 0.0045069617399447455 -0.01780627991393436 -0.007630648549739536
1091 -0.005956044745177009 0.0034540839090031372 -0.010604395391661702
263 -0.007005071511588382 0.0019529134749506482 0.004001736298658637
1097 -0.011499269205348371 -0.009753137776247776 -0.026936222768116698
422 -0.014619465040084411 0.0034460408218928004 -0.0014968995617009168
1089 0.028907796272539584 0.011392545038668147 0.013154639287365112
262 0.006213158344241921 -0.0045167155740292045 0.0075013814540384515
386 2.2960781345448535e-06 -0.0008286948668195469 -0.00618024163986048
291 0.015598780463511748 0.004529440722527608 -0.0036855537533189743
451 -0.0020007894166369712 -0.0013317717098764682 -0.008245922927471908
258 0.002952339993361511 0.002569228026976254 -0.010659093461657384
1098 0.006272371553690992 -0.00019637242864837382 -0.0016068545906564905
391 -0.0027322455035313146 -0.012091905210399 0.0124706339838566
1349 0.0015242368799999579 0.007840352577818952 -0.004822294773844063
519 0.0049239453751474685 -0.013325988247126372 0.010292558147019425
1105 0.02270868268342801 0.014152071195298318 0.0027211736152312318
1354 -0.02992860248202367 0.004258150305884344 -0.015745096870702767
1353 -0.020620303194881225 -0.000553312500903882 0.00439838398577017
1347 0.0014043709470594747 0.014975357484732443 0.0036579477500550224
389 -0.0007840862865513546 -0.0012590879281995477 0.00021267517120625358
392 0.006042092624288368 0.007500535788194263 -0.002050213701590108
1350 -0.01248576788850002 0.013584941322962424 0.020853683266585564
1348 0.01837444339361811 0.009874274347044501 -0.004862073529667155
1361 0.005019227186248028 0.010523825873429123 -0.004107036095422269
606 -0.00492024656063441 -0.0004030295986673567 -0.005929664636340306
520 0.005152654152479032 0.0064099709434876015 -0.015357967978798737
1345 0.00031620228848828265 0.000798679126586555 -0.004099503386952734
390 0.0009360699384104411 0.011361345037479525 0.006296999286969569
419 0.006435877442218216 0.0003652180308229153 -0.0033122138343174966
424 -0.005125115537138634 -0.00281823799041698 -0.00297081147634274
294 -0.008475648391913114 0.010964465489357852 -5.631232623495973e-05
260 0.012493491134600796 0.005046730622244424 -0.0046031093243003906
686 -0.0036448920034085953 -0.01894145101265514 0.0018168636418901343
295 0.011538714226023029 0.008987596077125333 -0.001918386942292001
1166 0.01968759063033138 -0.0009520156427528333 0.01552489243367856
1165 -0.008609507217669512 0.012247890220475507 -0.01177754546240617
1170 0.007371537080902382 -0.014736645263297045 0.001328707417729025
1175 -0.008472197978880564 -0.007647318571990656 0.022437433543623094
1178 -0.009232167105538919 0.0075315698850262295 0.01092545588837378
1167 0.014639479422840714 -0.0036182166835727397 -0.017147993203543915
1168 -0.0019300131183618429 -0.012235539354100915 0.004594486953161497
293 -0.011212016399334926 0.000389289767424617 0.0054651837112468385
296 -0.005432760749354072 -0.004107239306039926 -0.00602251208069345
1171 0.0026479092516717654 -7.833765047623702e-05 0.009257330697697875
1179 0.0075083639726664705 0.018651258551130638 -0.0025736991217433914
1181 -0.009588429731847453 -0.0013981093687137755 -0.01065576384967103
1180 -0.0017542853388250645 -0.0016637255122653046 -0.0038323631112022866
1182 0.007642819434920335 -0.003764573931829298 -0.0090425240306502
610 0.00807787073972619 -0.019059273443444498 -0.010942342645382547
1174 -0.02277619769377615 0.008393771027078653 0.002822873673445412
423 -0.019336758195083948 0.017464381446993835 -0.002038086109494804
1415 -0.009810538664151706 0.0021695712767412535 0.012612139944672232
421 0.013293341190893473 -0.0023763109203707067 -0.0002617821759838989
418 0.012202929802406047 0.0069139289001346705 -0.001191968098125375
1406 0.0008454758822021105 -0.0062775783975170625 -0.002094297732884396
1411 0.006265654459168762 -0.017058593135108355 -0.0128832705114086
1418 0.007549371036483262 0.005809708594451364 -0.004764540195453956
1405 -0.0015408143320841839 -0.0013865239497951667 -0.00274801179416183
629 0.005420209826851675 -0.004758153708474417 0.0056789448431027794
1408 -0.007755803096762807 -0.01901505571198403 0.008533911943251739
1407 -0.003964630566669352 0.009699443123710062 -0.0003073322649178449
1409 0.0066606408078754425 -0.024498973951430848 0.005103371908077874
1410 -0.003379680673324816 0.009135181934680629 -0.0010496715664028177
1093 -0.0064888373290852746 0.009081428521432166 -0.004296692328688813
387 -0.009217380412795873 0.008037160656694858 0.0006827765008077217
417 0.002715098969894933 -0.0005457833649128772 0.0018572638927533496
268 0.008711075448344712 0.0048660561107388405 -0.01243172499505933
269 -0.0044130775174984135 0.016519113976133384 -0.0061166769847921885
272 -0.006149176050596547 0.008129353744927247 0.0050394095215436875
1118 0.008327138879860264 0.009854997573193238 -0.0017572275721640977
1119 -0.0075414884811483346 -0.0054031513179201894 0.012412897869532131
1126 -0.015604592650934309 -0.004576034686714312 -0.019902341527073174
1127 0.01567782429451339 0.008113508670482912 -0.008081908674549505
1128 0.007937071108426149 0.004705994767013278 -0.003670713176184948
1112 0.01013702543349649 8.474489073360325e-05 0.01757620902646369
1114 -0.00945186034820112 0.0005840433095121073 0.01778654254303727
1110 -0.008525681464459438 0.007690591844159764 0.0076584143228820714
395 0.012928614182507467 -0.007485109103796311 0.007851511541410746
425 0.007529680245471718 0.009122829339301081 -0.005817557636961088
1106 -0.005452991917471555 0.0010584021837454305 -0.006417412405426554
394 0.005576824968255955 -0.00017217598814481163 0.009741744111129701
299 0.0020912553313732055 0.01730049032004868 -0.003725134821826493
266 -0.01055292206031263 -0.004300483065952416 0.003269521782665614
297 -0.01023175262210149 -0.004606327955515779 -0.0029516663866690092
73 0.017319127253671508 0.01331439192158682 0.002267299034346336
1370 0.00991912363132592 3.592249106196609e-05 0.011883422854952964
1366 0.006742468906773372 0.017378197470722712 -0.009547617090163244
545 0.018152693500360507 0.008083527646429634 0.008633672997438325
1372 0.00840439627495165 -0.002811415517137475 -0.010499729888118382
1364 -0.013734661294124387 -0.001682450388250962 0.008289023812517305
396 0.01226496490521881 0.0017424116988897533 0.0017345781113210005
397 -0.014170901945252083 -0.01087090572731361 -0.00042595938312408753
400 0.0031915014801904063 -0.01364374097293273 0.00761778138555668
1371 0.005933521861861863 0.003894402364201508 0.0030703887921790757
1376 0.010783227406215545 -0.009658433895095709 0.011834701636809535
1362 0.011643622218826572 -0.0020649097908854016 0.006696163901720991
628 -0.00531854218984043 -0.011900507653563352 -0.004629512778120443
1359 0.012445181968999259 0.002657795650292859 0.004360087123472434
1423 0.012632656360290494 0.006906644155594252 -0.008890451242008265
1360 -0.009136188258849917 0.004561256900512338 0.011356465694451876
1357 0.00803144428106001 -0.014978538115994663 -0.0029580344029734623
427 0.018100694870666362 0.0019473123655129167 0.008893141693352685
331 0.0049169497568494905 0.006390352062562879 0.0009539385507373533
459 0.01482508030622065 -0.019227704382641323 0.004198399548746134
1121 -0.006601147350308413 -0.005483322780920906 0.009364200096613711
1358 0.004798117396501045 0.009422613765100316 -0.01988107682392434
1176 -0.003682777833761987 0.015798402860460952 0.003817305684732178
1196 -0.005164122963233915 -0.01336969779621288 0.0002475873574555413
1414 -0.0009030558338901412 -0.010612086376171313 0.0027877012208019935
1186 -0.004858338325646179 0.02236270509584421 0.009134830737136881
300 0.0024412164613943055 -0.007714755663226813 0.0003583517984686846
301 0.00017219262189838267 -0.003269807247262328 0.007576164189321615
304 0.005600434430382426 -0.0034664349753118153 3.0478769433671957e-05
1188 -0.008395827311307762 0.005901851640005909 0.02328859716957952
1189 -0.008623020524664692 -0.0028514735325664846 -0.006971631135125134
1197 0.0009148192381437519 -1.53269884533396e-05 0.003537485542975143
1184 0.004814676265557135 -0.00750009621940621 0.0023468960773301113
1183 -0.0043882990979503276 -0.008249421538471987 -0.005979036769300059
1177 -0.011093339623106685 -0.006018630112040632 -0.008666384038997704
1365 -0.015013731622353333 0.008991890712099302 0.0024112025095899534
267 -0.00672300951955156 0.012726175834946023 0.003097704277376784
1103 0.002219513589558356 0.016516921227464773 0.02353664954188137
1416 -0.009438147509950598 -0.009310227793343884 0.011015222446987641
1424 -0.00814538749562378 0.01175320837179752 -0.004953523299988326
1419 0.026089099323293636 -0.01231289810206793 -0.02550470421548491
298 0.006279886681771355 0.004456890079357808 -0.002088212253708166
1104 0.006193602080498925 -0.013378966407676992 -0.015160458507302623
611 -0.009114884646682144 0.017848200987903753 0.006809485549197846
1425 0.0005869118608939529 -0.007258955517378592 0.002308277783691243
1420 -0.009973889897537879 0.012790064739462904 0.02017792982914307
633 0.00028980945960514564 -0.002746425593106244 0.018532336151142897
428 -0.005677888713677015 0.0009561310743872059 0.005111795845204651
1422 1.3838887830397363e-06 0.0006989758555295574 0.015549148270379037
426 0.009706488361199491 -0.017654122925764282 0.010575794587393814
1467 -0.004239520017980004 0.017496863150997133 -0.00778240519349585
429 -0.009543288255036447 0.005540822585852958 0.003982915251514006
1430 -0.00971590948421663 0.01077845097905241 0.007845041665738257
457 -0.0006703752010644447 -0.01637515906318871 -0.006838348926253815
708 0.005884470756036123 -0.02463997161084305 0.02095935483188846
432 0.010863267962114172 0.005971643990138905 0.008373322600408595
41 0.011994911001205361 0.006360093242420233 0.001991108449198868
1417 -0.020842742359591906 -0.0006270553410403043 -0.007389137928954511
544 0.0015789773680499786 -0.012063444925321635 0.01631515961235428
1115 -0.006923225612129436 0.003912487181022309 -0.006923805091606667
1101 -0.002170858524307725 0.01638626672353438 0.01700204193955405
276 -0.008417263720552058 -0.0046695000022880925 -0.013028504172942735
1120 -0.0056159594144887135 0.0009560166463791992 0.017329312885443104
1123 0.005763150042821468 -0.01780617225452752 -0.00687385279118143
1137 0.01768064072635595 0.006113548910418778 -0.01624740727055638
1138 0.016345221098876733 -0.005421151693905093 0.00227878688546889
270 0.015451636778569002 -0.0035897956552136444 0.013883701896253018
280 -0.004621708842577956 -0.00012522544922589256 0.004609821527366961
271 0.0033066277647575424 -0.008739137365996923 -0.0064558073176691376
277 0.008983471549415157 0.002932114562183813 -0.006888270873729251
1147 0.00964240268318142 -0.004776383476606006 0.0123644041690961
1122 -0.014704043835670859 0.005130632954049225 0.0076193404573572645
1129 -0.0033410810763455706 -0.0076268816307116 -0.0031912923921505153
1429 0.0008937811495118371 0.0009248264895163047 0.01005067455663417
49 0.004186590737969885 0.002100425185609794 0.012041517568089324
1373 0.002541228158176153 0.01215601719498123 0.009950942817766435
1124 -0.00840170915258376 -0.0014003321355054667 -0.009643819832162987
1191 0.010589941987218151 -0.011750580794902505 -0.014478062238168422
1125 -0.007104175491473127 0.006290530809636066 0.0015631397171742977
465 -0.015192587818599843 -0.006780449744064507 0.0037709470606374293
1113 -0.0031185694451532015 -0.0034673455501500736 0.014514357526402394
1421 -0.0058045671899555 0.007814589199939914 -0.0017591627730403616
430 -0.004840142017752513 0.006723099623532192 -0.0035004603183310195
1377 -0.013331359088969564 0.003929719318932535 -0.014935256722680488
562 0.026122271648764257 0.005081481570426693 -0.02210019811372409
1374 -0.0073139267911432534 0.00015311373274304473 -0.0018632776287146923
408 0.0027377621414760678 0.007273227691655292 0.0013188361839246952
563 0.008700609014524435 -0.010991246024878273 0.004321166681523196
404 -0.003197268025430484 0.0013975435114556578 0.004901483691901857
1375 -0.012386143933739708 0.01828665011267468 0.014765817002826547
1385 -0.006389645935910573 -0.0012612405018252349 -6.8273982627305e-05
1386 0.002076844195204595 -0.016989096402588263 0.004327521714362058
405 0.0010693222467117072 0.0008429009415821186 0.020660296585528263
398 -0.003297894284375362 0.008225448514942458 -0.010314407583310403
399 0.008302463568706299 0.014254579233592336 0.006185583417488797
648 -0.0025654505986454205 -0.0156928882356658 0.008790895592923962
433 -0.005548730440675368 0.009753656181437406 -0.002061666549162993
1133 -0.014738091196911766 -0.01117608901881376 -0.010530598576985082
1187 0.006334784060864414 0.006725680827682418 0.0027534672509022784
632 0.0012790258851400251 0.01817682214216343 -0.006179303572824893
1194 0.01838159622309946 -0.007512289399603203 0.0031189658001721443
401 -0.005312429923491489 -0.008270888711385677 -0.00635329575779423
1427 0.00528199743252285 -0.0007860473642157966 -0.01034259539628704
1185 -0.012598158999713794 0.01001802143522517 -0.010475674158497582
17 -0.010476454094540765 -0.004799446322713662 -0.0026290225749880914
1442 -0.012961078824623513 -0.003130284068454133 -0.006359597032664415
305 0.006017647802993306 0.007029300371910742 -0.008262886736488846
431 0.0009958615018251357 -0.009102950119302025 -0.0018610484415080562
1192 0.00696016958028216 -0.012483208973667205 -0.020619479070322903
1195 -0.011066681237019543 0.0015014641077952208 0.017397993706665754
302 -0.0036475573952847633 0.005836167821713753 -0.004673540056878377
303 0.005632654231810411 0.009732822447572875 0.010907256720863984
308 0.0034835115442857787 0.007934671244251653 0.001065571129258468
312 0.0005677982800668291 -0.016952177699201078 -0.01287749616009773
1190 -0.016473895861022644 -0.019418305845240364 0.011567818533447774
1193 -0.00412804218614264 -0.012886088618297167 0.006710369945884528
1204 -0.007720868002401417 0.007961942422431393 -0.01993844747447119
1205 0.005007732450498948 -0.0027842026177501743 0.010485346575442147
309 -0.0017537058301444197 0.020086430248049326 0.003051357635520389
1214 -0.001273285666524348 -0.0035624382902036005 -0.0014694707693592413
1199 0.02930631229888944 -0.0019083318170719274 -0.0008139231572684855
728 -0.009408506139676831 -0.0005822475986127865 0.005973320627954056
440 -0.0030977692136556476 -0.009805963430097398 -0.00304274575804363
649 0.0005130349054019937 0.013361396280647997 0.005748591293986966
1146 -0.01801449854907855 0.0009037008750211991 0.003117695113195004
437 -0.0025674809556276664 0.0034903186785134876 0.017755623186874982
1431 0.002038061576316669 0.01764884802016713 0.012147117554613259
1437 -0.004023184120826726 -0.013655209112340937 -0.010357449268785233
1434 -0.006447264965461844 -0.018106623252134545 -0.002937628807271557
1436 -0.0035595200715455976 -0.005758007159858924 -0.015046974078497035
436 0.002913557446069923 -0.0013753256104417134 0.006165954496127902
1426 0.012353759529158492 -0.008698773215002118 0.006014238457169237
1428 0.0006347118064061712 0.0016277020715535272 -0.012068043802326064
1273 0.0011027307368605996 0.008618778422407092 -0.011534792709420618
653 0.020804795488886668 0.001004086030109564 0.014991610985834939
1367 -0.0008949753934810033 -0.011237967992232556 -0.0023288333467663645
278 0.0035086443245861457 0.00224727294119544 -0.005113443728109496
279 0.002844227976963866 -0.000499895188867305 0.0003104190487302803
284 0.009035801436678573 -0.0037144845486246545 0.008612679798403943
1139 0.021684641780118682 -0.008341881020218765 -0.008654956147276873
1142 0.03190825374775584 -0.015051396881285534 0.0054855952247083424
1143 0.00028005948049495294 -0.01228567880820679 -0.0146431116915785
1140 -0.0051424931938839746 -0.01415947386014112 -0.005055400621524798
1144 -0.027223872887657517 -0.003828575883547206 0.025129350159683143
1134 -0.0015900059178253826 -0.0006752863718432168 -0.0026677523652943024
1132 -0.018903261613157484 -0.010995048971583644 0.011307230161028898
1141 -0.009123501569511767 0.026212504214500786 0.023420590215949572
1202 0.005650478651699696 -0.012062400013298818 0.028045311665468694
1157 -0.010784586384649287 -0.01845694092579333 -0.0023607900236273676
1148 -0.008481770580794919 0.010360802717212955 0.005249242135241842
409 0.002652724676394052 -0.00936910406330276 -0.012324381502734726
1156 0.023090611172861264 0.0004038825411112708 -0.005040379481986101
1432 -0.0032910789750393173 0.008008199968468504 -0.004901146707449067
1145 -0.001065234118012205 -0.00039109479559214325 -0.006978366692617819
339 -0.0007902568807327509 0.0007033650738918196 -0.007433633751487812
50 -0.012400433379920563 -0.006964101535773911 -0.0021766246835824505
402 -0.02045792759851244 0.015373783596742525 0.009362163745559806
668 -0.007137194565156091 -0.0019664492947913267 0.015386091172044912
1380 0.002364775810704423 0.024941168407459316 -0.005234319075742343
567 0.008792904455853536 -0.010388999839597898 0.011384278462358071
586 0.010522643541503096 0.0022203107020509743 -0.010719967287455341
1389 0.004730385293715588 -0.00493762173343914 0.01199092037217903
406 -0.01600483724391712 -0.0034405151994369716 0.01352571869984126
407 -0.003454278753620801 -0.022724164509207674 0.002694951555050002
412 -0.0075639631464357315 0.008204592971882278 -0.004677645635099592
1387 0.008650579515485639 -0.01019803686640128 -0.026686981494702725
1390 0.008751518883657555 -0.0036474522672005315 -0.006617204452938087
1388 -0.007558050615926835 -0.009983716812497583 0.026494743365997896
1382 0.015475775028108088 0.0018675025066508713 -0.008510555042262833
1401 0.009497813948498864 0.004542346825046725 0.013907169499045873
1400 -5.6615982252809064e-05 -0.004585118757409941 -0.0022531128309651017
1392 0.005099527977003451 0.005800518439213122 -0.01300724349813706
306 -0.0013523399620160065 0.008049643949043905 0.012530254694298281
307 0.009196091140797143 -0.0009649559396673762 0.006520642737457895
1207 -0.003412992688415411 -0.007105081594982067 -0.009962265911601523
275 0.01099217059757341 0.01416154657122666 0.0010586998908950185
441 -0.0011045034210414282 0.006764903851376542 -0.010309359795697803
1208 -0.003658502756784783 -0.0045692019520217515 0.005839366018541464
1201 -0.002862237363559196 -0.011204932119069947 -0.0051716518417017675
1211 -0.012707883130284512 0.011731595904910833 -0.00826096428868461
1203 0.00771450781195616 0.00024993744949899243 0.00037015757489681855
310 0.0006450067952911425 -0.015442448015676659 -0.0019610827966484094
311 -0.0005063118159862209 0.005554775469999872 -0.010170909713575633
316 0.004637404339969574 0.007483421642533374 -0.014121597924045005
1206 0.007049112958593797 0.004369594185610383 -0.011012309724699642
1209 -0.013167121576644117 -0.0029016284770342973 -0.00540068091284475
1210 -0.00018344383101841945 -0.001210520580444953 -0.0024853620594246055
18 0.0011208420277942022 -1.0139838387731815e-05 0.0005175585836698713
444 -0.006119625298071401 0.014094884609605654 0.0005936653110134193
1391 0.010123061483692982 0.00669586300335504 0.0022363565256329457
434 -0.005344656731870419 0.016972213684653053 0.001049297668943995
1212 0.012668940296639368 0.0010686304242190693 0.00797349891324
748 0.000999314404165684 -0.008901219165914675 0.0012008048745917668
1443 0.007686362031800931 -0.009056922352689586 0.014281113109255872
439 0.02382816606891049 0.007045643824689751 -0.004618473738838081
1438 0.0038143730584607053 -0.013867116686082537 0.004522310142190272
1448 -0.004959499918340103 0.012457169722925454 -0.009017862227701625
1435 -0.005908793512562119 0.02041143195200422 0.0039247642324425035
1441 0.010758659124495907 0.002861124471117443 0.006303095330664947
435 -0.0030532355888185604 -0.012780910239464498 -0.006988575834382705
1439 0.0070671821811310815 0.010400125063551202 0.011765783001951179
1433 -0.014631200182941706 -0.0024517004870202534 0.009975141183565085
1440 0.016221040788590293 0.010227730690595134 -0.010145669775884415
1449 0.0038010186786465445 0.010527107038144703 0.0019203037942752354
438 0.007925401805091875 -0.005065440144367378 -0.005223790576361248
652 -0.0019365243676354948 0.006494066638942609 0.006364977411675743
669 -0.010115577322832674 -0.014016264824572059 -0.001969266556743883
1221 -0.001848503244185061 -0.006960090871488115 -0.00569991384450835
568 0.007284693980770026 0.00793851843172761 -0.005649801410286208
1228 0.003742636905690156 8.390341027784493e-05 0.0030468112537812776
1131 -0.009067692318106686 -0.004124242653160701 0.0015663936801077595
1213 -0.03261615873220717 -0.00970001352090053 0.013488837080526828
1381 0.006647260779390236 -0.015108046901427873 0.001216757561776321
1379 -0.007157796765929612 0.011590634824950104 0.008634623637930031
1200 0.0023266888826339958 -0.02252076243743007 0.010364873209046901
1215 0.006898232744431238 0.023070021888148006 -0.008537386664657183
286 0.0029343593261449757 -0.0002667224827566474 -0.0162494797367622
287 0.008764767263703399 0.004304803251304978 0.006249495480688079
1163 7.929041238686299e-05 -0.01214977301931135 -0.01625548030682693
1161 -0.013882259643154 -0.00026447767766421093 0.013055984774383224
1159 0.018447562943573127 0.005294409623517325 0.01622037996296569
1100 -0.007008776333281499 -0.00019568489442743457 -0.005884161973444612
1099 0.029095617193544896 -0.014261220636394803 -0.0030800807070680346
1162 0.00792719358189695 0.0062175368439146604 0.021427032020237373
1158 0.010835669409839849 3.47423544099834e-05 -0.01564500927502771
1151 -0.00864110889134765 0.006076096594671908 -0.007035127703360352
1150 -0.0017739174937134402 -0.0015145367180914267 0.020719260027952435
1160 0.006155590112729802 -0.0024992266419040857 0.026307391681911527
26 -0.008083209485078444 0.012554659268731 0.004028912908523935
315 0.004583666075994791 0.009659859128497273 0.006657878811397499
1164 -0.005891694551451228 -0.006668492909540354 0.004811545470557669
1152 0.002760908126113386 0.028702961077471844 0.0020846262150880654
672 0.007781313047172407 -0.001477383558066295 0.013028413865629508
388 -0.0011089226429395437 -0.011981743145059325 0.011727823969971057
410 -0.005206522707390619 -0.011935942896264894 0.005475184426533936
1398 0.0016825676516910432 -0.017178908497301332 0.0020239092046822754
1395 0.011763981067367613 0.00793673333819664 0.005366322573509642
1394 -0.0077548053513337815 0.008061251931197293 -0.011527430703674492
414 0.008404385383956759 -0.009631597223703945 -0.019352281877521083
415 0.006071787995202648 -0.0064098801143600784 -0.010322820210757668
1403 0.0029451064820464694 0.0014940220823562468 -0.013905342417558256
1404 -0.00985040689655123 0.002671020817834155 -0.0040702507747788375
1356 0.003029558519524793 8.064960222897862e-05 -0.0008196252641762506
591 -0.01722906314424138 0.0058427195139460495 -0.006708490916393435
515 0.0029842511558545613 0.016862211301485356 0.001639757288112876
590 0.01889370474982648 -0.014505007661602032 -0.013491842483726027
1396 -0.007995503649458674 0.004649340361280577 0.01531463200042618
1355 -0.0020673582418524335 0.014441646181324031 -0.01259550067011964
1402 -0.0028006358668675323 -0.010532509014852077 0.0020419254531200697
443 -0.017086189493988057 0.006547182179812479 0.00998193792125836
1447 -0.00086626716925315 0.011170546280586741 0.0016128310939910982
413 -0.010104650502425932 0.008608721236490775 0.003488446886881959
292 -0.002601290069978712 -0.004854779318850448 0.01106576313055996
416 -0.012263821447052849 0.010639042152148654 -0.0013336673866965762
673 0.013685993491739962 0.010654502805123428 2.6555985995598613e-05
320 -0.008535205735376097 0.0003429213120448748 -0.009903132299701092
1216 -0.0016062304896306697 -0.01654425619942776 -0.0036553415631802597
1226 0.011573763830422187 0.013978381159591083 0.004961085436051844
1223 -0.008667638525950117 0.005945215964545474 0.016119644578925632
1219 0.007458080899391923 0.006591389597804694 0.008807533042481086
1217 -0.0015134206573355234 -0.004146553366814386 -0.006084007698792012
1218 -0.015735797050267737 0.006756619586451714 0.010127118976624288
318 -0.0010294845356345307 -0.008231135484214397 0.006592451833850078
319 0.0013638278913373617 0.002762556711738477 8.351126113879902e-06
1172 -0.008761509222470067 0.013510969144006043 0.004581357117029895
1227 -0.008039370107180652 0.012994834113539242 -0.007824317703428778
1225 0.0074221185895337605 -0.023089167787031652 -0.021079044401039155
1224 0.0006035855356438774 -0.009342421613045512 0.018604871484552685
1173 -0.01181727733675871 0.0077254331748582965 0.02935980678751771
1222 -0.005392290135934431 0.006476127736337575 0.015580084591122268
317 -0.006696655530060259 -0.0011745724971609613 -0.0019746321720470815
442 -0.005744360323186065 0.007374576506602916 -0.0003672187574995624
288 -0.0017744067640924769 0.0031276509670781338 -0.013123446777373612
1413 -0.0015086826239069236 0.008511362225063355 0.005527625776299424
1445 -0.009691637144503204 -0.016190193551878625 0.015377642066462326
1220 -0.011016933673783307 0.013750507376905684 -0.001162894598264832
448 0.001187328313791409 -0.004454579021648711 -0.001405894288383155
1412 0.011400335136342952 0.01633315038024402 0.013726668675081896
446 -0.004608212362576111 -0.005975538250058 0.0004654187027814661
445 0.0022566332947923044 7.536167460297534e-05 -0.007315046232990056
285 0.010397111328704533 -0.008774607452074201 0.002506197926556583
1452 0.012823423311101815 0.0024788976524217224 -0.006129436976398696
447 0.007902652717888713 -0.0026968567428947007 0.00015595306002204085
1450 0.002830456604407199 0.0020776457521328325 0.005849695971127154
1446 0.0004970290524892749 0.012548745984908755 -0.0016510616925830123
1451 0.004051153513313936 -0.001874163201660215 0.00818700627542758
1444 0.012356246046233584 -0.00011060831189045027 -0.008064997181158853
607 -0.004898618378290895 0.015104250733465963 -0.0012227111568453822
58 -0.01927132182704342 -0.0023868698220424075 0.006848068642389178
1153 -0.0003367947448491466 0.02332852597835047 -0.013205795426279131
420 -0.005789539381987389 0.009013791809571379 -0.0153363951622754
325 -0.0032948071314326563 0.014256774706067996 0.0034770733999855297
328 0.003914713041849746 0.0060950584785176695 0.0042562797036687855
1239 0.00866414649345163 0.009936443398048412 0.008576062061513531
1231 -0.020160517818219623 0.0010514225227869801 -0.0076407171639074414
1234 0.00647347015093353 -0.01668829971505197 -0.005287624011096753
1230 -0.0002046355655030855 0.007546934393920301 -0.02532864553642431
1454 -0.011700417865899461 -0.007518213589906689 -0.007476697338467632
1232 0.00568841722832671 -0.008298158471934247 -0.008985593480557347
1233 0.011253812198347372 -0.011943430768414209 -0.008884076170520826
1235 -0.0019134502047979862 -0.011862836243595746 -1.3090293933863887e-05
1297 0.017091601531988115 -0.008470404488933927 -0.0057327258527199295
1246 0.01819244187980997 0.008434849836311945 -0.021706756974537788
1244 -0.013799931839242142 0.007368603929558695 0.01608784620391645
1229 -0.0013830300543746243 -0.012282772135126662 -0.024501163275342748
1397 -0.009293848307211637 0.003838125676356196 -0.0023800116779600228
327 -0.016379266173146608 -0.004092725506711401 0.011549509307315405
355 -0.00024734153657430695 0.004117629317111705 0.005588880340650126
484 -0.007759859675247577 -0.00040131812401731655 0.006391353328061726
1504 0.006400497821956466 0.0014379101530637517 0.011118353753714165
770 -0.016582820907315287 -0.010035899725423387 -0.012720840623644238
450 -0.009315022510006125 -0.00941880631527621 -0.013888825228633193
766 -0.003556679996116248 0.006443017332003316 -0.011576159704509405
690 0.010864438363904333 -0.001733014297787659 -0.007365381312892559
1456 0.004472305060583865 -0.0009043296506435572 0.005346272897628346
1459 0.00260240104118686 0.021144105191868552 -0.00048166082776901123
1457 0.0020345645695643813 0.015586764845785658 0.0029691764522732245
1455 -0.009126995149976657 -0.011720405014269564 0.0009414431876808263
1245 -0.02529886191742356 -0.0052264653383115355 -0.011631396787942972
453 0.00608742333581076 -0.003103808401371945 -0.002162275584682294
456 -0.007280847583311375 0.0011750598743430355 -0.014576345242718142
1505 -0.0031238773490273285 0.0033428432294859292 -0.01890461712305868
1458 -0.012557667441138311 -0.008757266278263351 -0.006837376592090942
691 0.007403408097825234 0.0007359114473880452 -0.010870587273719862
1453 -0.013744720987370077 -0.013856786944932802 0.012587866556358882
1466 -0.0031567400394444 0.0032343667547231375 -0.01240440668931226
454 -0.008142558811763867 0.007101128804654536 -0.006584798427301245
455 -0.01368621430851637 -0.0059238695627451725 0.012102663209184598
323 -0.011829810298586818 0.0028911386490118158 -0.005080952315135931
358 0.007998203074598505 0.010125640756344777 0.007861053346794709
1307 0.008972320725504218 0.01042920669605745 -0.010190032349522794
1294 -0.004709716519649594 -0.010033118140011245 -0.0013670547402431673
1095 -0.019319525113507107 -0.006944136264676265 -0.02223819796095111
1298 -0.0011809293566003884 -0.012090926779890071 0.010387941867303439
1240 -0.001910997319903389 -0.00756263807035823 -0.003628361479130261
1296 -0.0033990973338620836 -0.019462885566518102 -0.014034217521797107
357 -0.016024215261289904 0.010152891371216102 0.006938664801015769
360 -0.008068766519665553 -0.006710107322320291 0.00960794019632771
1304 -0.014057464488814694 -0.008991542071592655 -0.0029485011394052626
1295 -0.0008557873849163596 -0.002005836428883645 -0.009768665255086365
1293 0.015945438665329756 -0.0018375181169270045 0.0037300934049507455
1306 -0.00012914008192822148 0.016192151735056674 -0.0037323676651986304
1096 -0.015489641519479274 -0.007820226335762934 0.0015929476266789918
322 -0.001541170585235051 -0.00632913387381749 0.020573644561220527
1503 0.011083323851526843 -0.006137813560606942 0.01208647600111432
482 0.002462936997997634 -0.006105158013933729 0.012983232933596116
259 0.005342601776814879 0.004201118561482899 -0.005562201600343021
1510 0.015284477971296187 0.0012286721532021334 -0.019337164779891544
1506 0.001733798647696231 -0.016807401822096914 0.00753019555840354
771 0.002916585053416211 0.0006381196293677052 0.0101313964192069
1507 0.0007793951993709402 0.0011465556492174186 -0.0006555099632421849
385 -0.003754875723138141 -0.0025299600837225805 -0.010121777504926256
487 0.002829425964652951 -0.00287148988477393 0.016009010847337794
354 0.016033225212869713 0.004524184683536603 -0.007599550022298205
488 0.0014980910313737137 -0.0013067060281341844 0.0005884503289252949
483 0.006383640393255189 0.009986267588960113 -0.003159769098477612
1501 0.0025205921672897705 0.007457504408572801 0.016237646691099665
485 0.0052067971965104876 -0.0044642092385792816 0.0025271235232927724
486 0.008514955254683414 -0.004609374482813029 0.014434811227080336
1502 -0.011804837754536342 -0.013855476447634468 0.018222877266327812
1351 0.008261648253676483 0.0062889094552878175 0.0051928110951630566
1463 -0.009402733302125238 -0.004735465978020389 -0.011627808875448294
324 0.0041895089740443215 -0.011813505607593061 0.005819780846305518
326 -0.010213936658286456 0.008945516291333727 -0.007570997597520745
481 -0.005403557660657584 -0.0024664880342982753 -0.005464606917489931
98 -0.0048986913787704076 -0.0005912884168746456 -0.0008150758193843124
1352 0.0003964726154162484 -0.015920371684623964 0.02467562178051005
332 0.0022156823083205137 0.018859587178657 -0.0022706209966223243
333 -0.010283034242128865 -0.004002644139751737 -0.012284469044985036
336 0.004617015995853871 0.0006848456018345266 0.004376326199634599
1253 -0.01224566800497811 -0.009763824935581393 -0.009728288229929542
1238 -0.015376166771389052 -0.01988072246233782 -0.003997880952983905
1248 -0.009039541850686403 0.01852224518257904 0.002872424268327641
1262 -0.01283753361193286 -0.00603774164462137 -0.004822897383082778
1260 -0.003777641545703137 0.007364357734436404 0.002649857236727768
1247 -0.009800770965404913 0.015916357711465306 0.002793952778297765
1261 -0.01602565692605019 0.005138946417060109 0.004594158389849596
1242 0.0017685895102212959 -0.007813923334223798 0.01572289852525195
1252 -0.027571575877841998 0.0035401143415872433 -0.006654176674068275
1241 0.00965911745857136 -0.005824457349377525 -0.009269231595275065
1243 -0.02235351391716071 0.0009640913800917306 -0.006388836581452378
1250 0.014345012471510047 0.012271258878545688 -0.0006787378370478158
1369 -0.005836745255996232 -0.0044393772301625275 -0.016213146164548102
1363 -0.03359865048779929 0.0018636226607478344 0.02163031820444148
74 -0.005476395210569955 -0.0024585628268090146 -0.007584613988859149
458 0.006005181708485842 0.00701906521841167 0.004244557263127542
359 0.005508611947044987 -0.0038840021631877495 -0.01849808598502566
785 0.0008262544876276233 0.0061748421671579245 0.004025422486986303
1468 -0.0014020658681019394 0.0018091482617603352 -0.0017191208056585785
460 -0.004001987070960245 -0.014261297518453914 0.005340709112208671
461 0.0031317584066339497 -0.009986788395995778 0.001078449233042964
464 -0.007353436354427311 -0.00862901508811313 -0.005690196396584563
1472 -0.00748557437018087 0.01832580786072079 0.019891959364814697
1473 -0.005169448527489814 -0.010520568765846635 0.0067734937353151016
713 0.013556071994030335 0.01693298674258538 -0.006156601646934634
1478 0.00530127994254087 0.008848562452820214 0.010076707354868781
1462 0.020967068839647867 0.01590684888674547 0.002318931714382152
1470 0.004664544326140089 0.007766082958738368 -0.0017115305663901288
709 0.0013480087529176416 0.0032605244873921383 0.007882519575186283
786 -0.00877527115115209 -0.02030361176239527 -0.007762868410665289
489 0.004229898476323632 -0.003688936919904958 0.009906646356375667
1198 0.021634723590481564 -0.0026239347515192354 -0.010123531019980484
1465 -0.0011208207743597935 -0.002741340274604433 -0.008579421766891106
1303 -0.0013250948120239552 -0.026773809218521596 0.0026355604039639577
1512 -0.0006239310558266694 -0.008162857158854038 -0.012472939319842804
1111 0.005043264850588865 0.009307068979738372 -0.022485797172350573
1117 0.010503349651351652 0.008092353428710494 0.01585015800578995
1305 -0.007479133967172856 -0.01203256500604901 0.011823638367394739
1309 0.011781834312577524 0.0028899238799237337 -0.003567900861667981
1308 -0.010242767181243015 0.0035096028951701395 -0.015465399941652358
364 0.0014514664907530667 -0.010128457084733537 0.002105712401450495
365 -0.010456409554519926 -0.0024428054242191786 -0.008107935109650638
368 0.009056043280613525 0.00012130217152576734 -0.0025268368363578395
1313 -0.00819793003414474 -0.004976049587489714 -0.0074439744504459365
1314 0.03166046213481241 -0.006874716723545227 0.015827230781145424
1315 -0.02007536353430458 -0.01205592599111959 0.01785437648884008
1320 0.007818466875906756 -0.0029596370249602593 0.016615342590163288
490 0.003399867383314912 0.008215402168754292 0.006693499188408954
1319 -0.006857516884334007 0.015995581967678328 -0.009724142655417491
361 -0.019593564942688806 0.009409593229038454 -0.0007292319700146408
1511 -0.009561293520689173 0.01681616377520842 0.01031041283859186
1471 -0.013257037005772423 0.0069289933781645704 -0.013049842235752498
1317 0.01102689329078038 0.009493502018477956 7.384616629435652e-05
1469 -0.009396313056130862 0.013263600519837085 0.014320438804164006
393 -0.011503338933808312 -0.006164959301196855 0.00324698511830636
541 0.0028594828231867063 -0.010683355619378733 -0.010867153983386321
491 0.0008641746248248453 -0.005294873954144146 -0.0010352041729508694
1517 -0.02180507210456183 -0.0015391702435124238 0.006654559320371071
329 -0.004470690165090633 -0.008124000011595012 -0.002973802315309781
1515 0.007432168751681467 -0.0021403009325414147 0.011638028585200275
1518 0.009965510475064106 0.004779369230607362 -0.008149995425438364
540 -0.007190963325818513 0.0076834575499903105 0.0039056760182786337
492 0.01020805485852052 -0.0005577223147904051 -0.003910753695755004
496 0.007682105133196619 -0.0082521619615531 -0.005168565150756327
790 0.010282616861210523 0.002669566506663392 0.006966361814260358
1513 0.0069753707136785935 0.007742817230446859 -0.01975336153937257
493 -0.00554392596840249 0.008295614721334912 -0.01044806864734429
265 -0.0024149400633121736 0.0002975947233158497 -0.013557789815715503
1302 -0.008344067246621257 -0.014727150920807792 0.0041156652260892134
1464 -0.020160845052451422 -0.0016448928304710064 -0.003320212681828746
1368 0.010925158472517961 -0.022568795507890413 -0.0028664871992450866
334 -0.007210428059274162 0.0026069280235666123 -0.00025402639726315393
340 0.0013327016956819942 -0.01190500118856351 0.002166590565122399
1254 -0.003904213272484022 0.008052467068428715 -0.004729476171515853
1257 -0.009052711123981882 -0.0027851987447415055 -0.004024946400323615
1268 -0.0029401872521632767 0.0013526081872435663 0.007931563825366096
1269 0.005668518370096583 -0.011255248987413709 -0.005569580710711135
335 0.0020401621892988087 -0.001395549788403326 0.016212155887864302
341 -0.007988623794803902 -0.0032117809271079004 -0.005936802798743985
1278 -0.005921194833518774 -0.009936113272648817 0.005500309442973448
1266 -0.007711878524098506 0.013622233897873448 0.013905857469888108
1256 0.00365696701530468 0.005071285700259463 0.005940763303928458
344 -0.0005870524780084414 -0.01852870338920587 0.0016314131632406352
1259 -0.015362695486594042 -0.007326531399115627 -0.009729254517391709
1255 -0.010635701649567432 -0.0068317323246249164 -0.008912801312398905
363 -0.005366156731446127 0.0039127861417524125 0.0030481219037801345
1480 0.007674029422670125 -0.0029132212034891146 -0.004896348684057193
1312 0.011176250171281982 -0.00974060711864674 -0.004970227049724885
497 0.008556775658168583 0.0031680438873922627 0.005565041085190029
367 0.015356504011856969 0.010865117203321124 0.006802182880018876
113 -0.018842529034121768 -0.0053054320385887465 -0.0011316113670106246
733 0.007875585322516209 -0.010626156528502653 -0.011706022761138274
729 0.01142100844837069 0.010460875666781576 -0.006227933257533566
1476 0.005311313246338349 0.0017727092888435386 0.0053899300803611295
469 0.004172597246486555 -0.009520076274949567 -0.0005440701589836667
468 -0.01955173891435493 0.002053108466168184 -0.004773704247427002
1474 -0.0023633202574036365 0.0020469819571259117 0.017630553762876172
1477 -0.013371475400762375 0.0028972402425375423 -0.002939331504738027
1484 -0.002761868311182157 0.0069870988609151904 0.00848483833669721
1485 -0.0012001538125896685 -0.019952805010583954 0.015814138450372255
462 0.022319848530048782 -0.011483334391051285 -2.4904497902139383e-05
472 -0.001818280230863264 -0.0024637882861876514 -0.0009011651614339163
463 -0.012377663664706818 0.0013274062785468984 -0.005388200851398121
802 0.01671128466970748 0.012007187740623438 -0.01251835160587023
1258 -0.012958998774076367 -0.012568446207708124 0.012833685866683854
1475 0.012623525092253654 -0.002627501816595268 0.011259033795451467
712 0.004773100751705786 -0.0024161765662653726 -0.0023829943154029744
1479 -0.014696268983136036 -0.0009642744066201054 -0.006815041362996238
1263 -0.017928444767585983 -0.015727039612727332 0.01413587814654813
1514 0.0015961524574018525 0.009647747775966845 0.0023356193676592196
1490 0.003860483635335344 -0.006817046243626047 -0.014819512712825441
806 -0.0032215825581346437 0.0015594234351204144 0.008977076833297013
1311 0.006566109377588359 0.013110578936738487 0.009207230600668744
1310 0.005738174181589072 -0.000840389119647804 0.005659966894885096
1251 0.022169850460036004 -0.007083692822846665 -0.0025154915231358783
1116 0.017905702758036733 -0.009515747142036988 -0.01309948216264669
1333 -0.007376675189715135 0.005108330403251611 -0.009009212581906246
1130 -0.006723045690422982 0.00748472628350853 0.006539417731919227
1321 -0.004145697536204469 0.005155126168730032 -0.021299958518660015
366 -0.0031575928505903636 0.004947666035803475 0.0004856737116033501
1318 0.001730454622752953 -0.010585361877688835 -0.021336312014851117
372 -0.007794671427151244 0.0018601289168299264 0.009762530285727784
376 -0.0077272680362446165 0.010339577388360945 0.0001039928796881026
1326 -0.016316571721915578 -0.0018413427026099485 -9.162717428569519e-05
1327 0.02594689100779136 0.015699686185346236 0.013724815400794566
373 0.003730115443552863 0.004226316114769509 0.019072826229562908
1316 0.0011943498623070122 -0.003587207224914399 -0.014468468947975504
1332 -0.006200052421429913 -0.021000572006259648 -0.019337681997265717
1136 -0.0026465267982389825 0.0054123864730395805 0.019418425255383117
500 -0.008118013556755175 -0.005012947475232622 0.010225007381271158
1322 -0.018701638021105638 -0.0033323650913623833 0.0006242381954777918
1519 0.0037840608252985995 -0.01706456166160503 0.010133671510418952
1520 0.006341464987903457 0.008099696933654475 -0.008647773204666179
494 0.0014377426784404266 0.010556304704508208 0.004368110322780325
1526 -0.012306739501730965 -0.012772776119440344 -0.0016077338722508235
564 -0.009466268010391299 -0.016909493274772272 -0.016000312891215358
1521 -0.021756306944464773 0.016714077571182175 -0.009645517636632111
1527 0.003623127078622272 -0.001871651505924205 0.004201192632834601
495 0.001718417041144013 -0.004925849894427881 0.003419998532667502
1378 -0.006232321028092735 0.01797147257392639 -0.005724197472801178
504 -0.005847021459706769 -0.011288614138686632 -0.014837492925325527
501 -0.005895160937371675 -0.01115097100104992 -0.024243389181483464
803 -0.007899914554130149 -0.004327834060618526 -0.0004986231887824675
1516 -0.004632834595478566 -0.006605007352082923 0.005717727882800057
1324 -0.0015633422003749032 -0.007462111047678221 0.005982990811165527
1524 0.01232671818341377 0.005944407365463734 -0.010156385367773892
1249 -0.0016102037321155714 -0.01175392940982714 0.011549420222984962
1384 -0.006863409493197235 0.021583368229629724 -0.0029560028038145897
1482 -0.005856996542698724 -0.004724165466368302 -0.0056985571050944305
789 0.012796772824505651 0.006965965529669835 0.016271146085830936
342 0.01379821548468832 0.003363808006820551 0.0018374635309109375
343 -0.008769917933648135 -0.003554432414418541 -0.013792072636942893
348 -0.009043859937806632 -0.009568775932258548 0.00040560630156308953
1270 0.01926797926232321 -0.012443893666847328 0.0018057965262824334
1271 -0.005359966370446661 0.008096224856641738 -0.01833644567767342
1279 0.004591613232080571 0.0026260251630557544 0.019092670997680895
1275 0.006286549621007192 0.0007436005001731477 0.0037317463475066617
1267 0.002229035627201305 0.013502730182511295 -0.007440556437938756
1075 -0.010719433445518286 -0.009551785454132258 0.02711148618784761
1530 0.001253188863014703 -0.005530340046026099 0.007147572737858144
1274 -0.0002962318318618123 -0.0033142525748336765 -0.00887158480689292
1284 -0.00034978000831904473 -0.008430609745789738 -0.0036169278798427146
1265 0.007972430365975898 1.2234489154772387e-05 -0.0008913812545884495
121 0.014998797331383464 0.00410283170351873 -0.01269251069998092
1032 0.009288834396732908 -0.010156468004211402 0.01853269205652841
403 -0.012884300217572666 0.005294241003021886 -0.001682272902150053
1285 0.002818619255694073 0.014953224035155081 0.0004479866761774977
1522 0.0069940079653258705 0.0020497301178859016 -0.0013528813824363515
371 -0.0072708006417512615 -0.009190337732298982 -0.0036122458284445994
1331 -0.01306469705338095 -0.005653018224915191 0.013473002102637289
1264 0.006698984000754918 0.0024604417549080764 -0.0028105280482109427
466 0.01731213289532059 -0.0008245041793996676 0.014010236658827882
467 0.013568912311597436 -0.0046299965940448645 0.0024139455316629973
1491 0.010191585708707243 0.0067905220591439625 0.015796441826388855
732 0.009011635579179455 0.005188823124769618 0.0034162092598413792
1483 -0.012464609518246366 0.00996611098785228 0.01807007438783034
1481 -0.0012949344994591936 -0.008162743491229004 -0.014890896677376008
470 -0.005557019346376736 0.006328313595297516 -0.0011742528867197495
471 0.003164870198444483 0.009507924189769902 -0.00341149331767328
476 0.0006786603510438854 -0.0006321108460278134 0.009552427703737713
1486 -0.0037410717060359765 0.005045562695577316 0.002783285409175199
1489 -0.0051414014225011715 0.0019933950736491846 0.011011248727540215
1487 -0.006236814832006542 -0.00025998495724662127 0.0061774797822255825
749 0.01787503166537219 -0.012685362535123361 0.0016842193070576426
1488 -0.005064955701617284 0.0154395609138559 -0.0029535690874637
819 0.0033708034730816003 -0.023419513926852122 -0.0019127901453767032
505 0.000941585361801454 0.0033894987521941007 -0.005420884914093444
512 -0.005159121119475736 -0.0005268996140829003 0.0012432044730044684
820 -0.00664588562798378 -0.010696269296216858 -4.400861877801814e-05
1272 0.022500189628464947 0.017820941731744668 -0.011852431034053281
1323 0.0031641658217671136 -0.001525477323531647 0.013341126016769405
1135 0.005296554287217893 -0.010100495108675896 0.006254252009549896
1339 -0.0014521241812768114 0.0017547850099679926 0.017225809992324363
374 -0.021377414495652326 -0.007035713774186796 -0.011079341868637878
375 0.0083983189211683 0.00680135670143575 -0.000781477056653267
380 -0.0037859774902507253 0.0037188450873829226 0.0004819532123400438
1325 -0.005090325121925593 0.006925214727634349 -0.009550983658717668
1328 -0.00441635444021289 0.017567367285070953 0.008925821253885243
1340 -0.015718155135249837 0.010978486660856124 -0.004279645761471441
1149 0.01949620600974302 0.012300167728953162 0.012167044028218759
1292 0.008988417986847009 0.022945861062858244 -0.007163451663722885
1329 -0.01645330343051386 0.01383613767623975 0.0195235805921709
1330 -0.0022207935736256847 0.0027673417416502026 0.0015857875263125519
1343 0.009787142393077621 0.015822164414273907 -0.003953181872734847
82 0.011348183593690022 -0.004549481592199657 -0.0067712058280395004
498 0.013762636688617963 0.019338284174971118 -0.005821427089368636
508 0.006102810843491822 0.0047979498334061324 -0.00602101620583556
281 0.0008380003799329393 0.003272180299205306 0.007473448845833889
1536 0.006943655340947713 -0.006548345004760152 0.017108573347881073
1523 -0.01140912832159281 0.0042630222382495815 0.014403909393134452
502 -0.001659522516455331 0.014982717112976057 -0.004627421682848552
1383 0.012604516712993036 0.02401923392172928 0.0016944922729484454
807 0.011413299340848622 0.0003836379387564233 0.000817174102002635
1525 0.009301433740354715 -0.003548222433619425 -0.005593806739244741
1528 -0.010039954244687685 0.01582180224419465 0.02260132104825004
587 1.0403273532217123e-05 -0.006471878804389289 -0.016736613101987315
1393 -0.013716925904346746 0.00740679593041573 0.01934936741143979
499 0.01662082323882838 -0.013312971238233082 -0.012479374087426746
1529 -0.015424272849717119 0.027668876487638543 0.004022246891877169
503 0.0025609473519661893 0.0249855584332123 -0.0042002062178441955
1276 0.014610471702713734 0.00433570645184319 -0.014924245159692696
473 0.010693129411310683 -0.006363722418727479 -0.013222139251130473
1497 -0.02542512842531735 -0.023599812981225664 0.012028076731098002
1535 -0.008088378222949255 -0.006108494856189235 0.012298417629295786
1277 0.005601190765826308 -0.0015039203515647803 0.02402984009237342
350 0.010849171947114359 0.001448021810794652 -0.006843226179287731
351 -0.009453682898893371 0.0021338934825350943 0.006438350208051035
1289 -0.002060142493650525 -0.00718712071681751 0.01894556128522284
1290 0.002585414687123038 -0.029572466278905717 -0.009096909493529612
1492 0.007140582748980686 -0.006299052059079686 -0.008916450232173913
1282 -0.01324997922289749 0.017963613822451794 0.003834346809801029
1287 -0.002381027471757552 -0.006221529336375258 -0.013482376569505782
1283 0.021675344598274495 -0.005022734607932261 0.016548971696556596
1237 -0.023192499621910417 0.0026994671386584646 -0.00823177698774168
1286 0.012591960803818884 0.010321660104715415 -0.021373863835424885
1236 0.0046833461962312375 -0.00718592168763195 -0.010089394826779894
1288 -0.008341576266837153 0.012132278234360454 -0.010205163143059567
352 0.0039043786888211017 0.0012823763551594264 0.0006868040957355457
475 0.0023527449341390204 0.013450521298559549 -0.001600727269184395
511 -0.0111650026393179 -0.0031723008297850188 -0.0060351913721846525
474 0.0006308929295638935 -0.013753151287273663 0.0051377118753794405
1035 -0.013025203042425399 -0.020121525564336207 -0.010133069027095695
1280 -0.010977047754111654 0.009277947846763451 0.004488352607389539
752 -0.004826625404955437 -0.007439027996870164 -0.00473435027605436
1493 0.010733873435066568 0.0024672523737724163 -0.018930429596216033
478 0.003113738402383515 0.006862441751105726 0.005943366623952477
479 -0.0027824941992583567 0.006424847538687505 0.012636868522445107
1500 0.004737871387382958 0.03133930976102724 -0.0008768781005811698
1291 -0.0009303530889445867 0.0032957725873962113 -0.003059056381248003
1499 -0.009275491303145453 -0.0020783886240751405 0.00956778748526602
1461 0.012729602586069083 0.014333893835194856 0.008266417545069725
1495 0.0014537429073978468 -0.022818356014091445 0.009065218219095304
1460 -0.0007812577110488185 0.006321085838418424 -0.011319802761659857
753 -0.022163048173384565 -0.004411377377194771 -0.008264317721917717
687 0.015051996930480342 0.014008930827588717 -0.005430297813903345
1494 -0.006676674283821479 -0.005010504465676457 -0.004259535579316115
1498 0.0007585807837283694 0.0002729038425179784 0.008306441715599754
480 0.004914761991876932 -0.0057002163013026375 -0.008252270335695722
477 0.012908111046996814 0.008620569063914472 -0.008956535386444059
507 0.006734993312818356 0.0014948135359459749 -0.007749803571269732
283 0.009094020318751573 -0.004491248641561086 -0.00312249468360729
379 0.0011415211425010706 -0.0013122646995718768 -0.00019870981121594225
378 0.0010495370339659651 0.0032733927760660217 -0.006221290692602994
1341 0.014534564951979533 0.00469742006659205 -0.012644261281626662
1299 0.024551382078870244 -0.014456025708708338 0.0005459346486678033
1336 0.0015069986858735084 -0.014772383832562982 -0.00035965459357264904
1337 -0.009601254205230081 -0.007893055530277826 0.006998941180146246
1154 0.0012847574879256045 -0.0030008096801481267 -0.0017122144656092648
1300 0.002076513349184612 0.02276843450797475 0.019444681253215596
1301 -0.008094237554576042 0.011366695024414482 0.005133051571962142
382 -0.0006804525556409135 0.007958069256391238 0.010235060742129345
383 -0.01006161366825911 0.0047237917506226315 0.004034302730445333
1338 -0.004298249680921695 -0.020023241432166244 0.003124365283389766
1155 0.0037436879138362748 -0.0012571500808061535 0.005550444592112431
1335 0.018194786122569508 0.0023028051439547077 -0.024907541626108063
1090 0.004031228619661168 -0.00735003239547143 -0.004221788239427207
1344 0.013662489304428281 -0.012465447906619938 0.005277507989782254
381 -0.0011232140227703255 0.0020295601115558532 0.007811299218377902
452 -0.011561019920174356 0.004358864330187891 -0.005346690947528356
1532 0.010240767249427447 0.005894352816572182 0.007845998989877043
346 -0.012135202478422277 -0.008300474375126562 0.004156172337947158
1533 -0.014926234198224288 -0.0016304929497470404 -0.0008522033279725269
1399 0.004153480606849333 -0.006020703484218922 0.016136985799916494
510 0.007794364090230522 0.005810312877219098 0.005606779122263215
122 0.005787239297028793 0.0021254653580007753 0.004854511548767221
1534 0.019955661892422063 -0.0024639162184055085 -0.004504746695899414
506 -0.00958927824984191 -0.011555081782413984 0.005178208073754556
1509 -0.02181845395286585 -0.013367484218919293 -0.021090264945945222
356 -0.010193249303764734 0.00295811616184275 0.004597140491090222
1508 0.011285134808301504 -0.002639414825842228 -0.0038246786381116197
1531 0.014935641203554005 -0.012928845234250459 -0.0006924414584909388
824 -0.005179451560159833 -0.01730709604915626 -0.004969122011857561
509 0.011853963429480748 0.003958882391512855 -0.009385028686305532
767 -0.0067413786466509725 -0.0029358418061183242 -0.016556505833744007
1346 -0.0003932510190314847 0.0022242035839299423 0.012866470996028966
1342 0.0041385945004513746 0.0063153802002850045 -0.004348594616310742
449 -0.00573334480439379 -0.003552665332625875 0.0018057578557002896
823 0.0011768157372232053 -0.00023564312567281456 -0.006903338834201077
411 0.014130171420306599 0.00029682133594973045 -0.006572805023184836
384 -0.0029355268178893152 -0.0012793599166661057 -0.003919194717081686
347 -0.014542254958458902 -0.0045189605518822056 0.0034876902754933394
1496 0.007643760389791795 0.005885855042174202 -0.00561681478926104
349 0.0008282638522059871 0.0038529208510637764 -0.0007609264523861535
