ITEM: TIMESTEP
0
ITEM: NUMBER OF ATOMS
222
ITEM: BOX BOUNDS pp pp pp
0.0000000000000000e+00 1.7160000000000000e+01
0.0000000000000000e+00 1.7160000000000000e+01
0.0000000000000000e+00 1.7160000000000000e+01
ITEM: ATOMS id type q x y z
1 1 0.894146 17.1516 17.1028 0.0401068
2 1 0.887338 2.1839 2.13983 2.1315
3 1 0.911573 0.0309376 4.33556 4.25245
4 1 0.858821 2.11954 6.47004 6.44972
5 1 0.881983 4.34568 0.0156081 4.3492
6 1 0.922339 6.42779 2.13862 6.41006
7 1 0.885441 4.28026 4.34338 17.1389
8 1 0.763107 6.4345 6.4091 2.11419
9 1 0.866551 0.0465359 0.0129189 8.52542
10 1 0.848381 2.13239 2.17114 10.6828
11 1 0.809782 17.1001 4.27465 12.8227
12 1 0.876696 2.15219 6.4865 15.0649
13 1 0.894545 4.31718 0.0338286 12.8238
14 1 0.899444 6.43698 2.15468 14.962
15 1 0.92561 4.25059 4.31501 8.58787
16 1 0.912041 6.4647 6.38623 10.7826
17 1 0.900168 0.01131 8.58367 0.0594465
18 1 0.868836 2.08672 10.7643 2.17342
19 1 0.899721 0.00882319 12.8969 4.2519
20 1 0.873158 2.18078 14.9883 6.4532
21 1 0.868722 4.34998 8.55459 4.23541
22 1 0.872151 6.4845 10.665 6.46394
23 1 0.918571 4.335 12.8246 0.01522
24 1 0.892381 6.49102 15.0348 2.09805
25 1 0.854785 0.0524816 8.55249 8.56546
26 1 0.895973 2.09903 10.7556 10.6954
27 1 0.903526 0.0069227 12.877 12.8416
28 1 0.884854 2.20479 15.0555 14.9735
29 1 0.82007 4.29697 8.62595 12.852
30 1 0.889767 6.47907 10.7656 15.0379
31 1 0.877181 4.28853 12.9248 8.57146
32 1 0.881448 6.41546 15.0573 10.7549
33 1 0.876961 8.56271 17.1004 17.1163
34 1 0.869122 10.7357 2.15924 2.13684
35 1 0.869448 8.54774 4.31228 4.28574
36 1 0.839564 10.7233 6.42133 6.4103
37 1 0.899496 12.8235 17.1549 4.26928
38 1 0.900209 14.9877 2.08842 6.39837
39 1 0.867668 12.8637 4.25896 17.1136
40 1 0.88468 15.0401 6.43523 2.18315
41 1 0.880552 8.60074 0.0266974 8.54369
42 1 0.893791 10.7206 2.09916 10.7685
43 1 0.877115 8.58895 4.34528 12.9101
44 1 0.902787 10.6789 6.41597 14.9571
45 1 0.881989 12.8294 17.1134 12.8551
46 1 0.882882 14.9576 2.18222 15.0679
47 1 0.848278 12.821 4.3425 8.52772
48 1 0.904235 15.0742 6.46586 10.7001
49 1 0.872898 8.56209 8.6078 0.00629861
50 1 0.895443 10.7052 10.752 2.19617
51 1 0.916172 8.54553 12.8445 4.23075
52 1 0.89014 10.7474 14.9768 6.44853
53 1 0.888945 12.8309 8.60106 4.26945
54 1 0.876332 15.0322 10.7625 6.47067
55 1 0.890524 12.8526 12.9064 17.1413
56 1 0.888844 15.0039 15.0263 2.11276
57 1 0.89931 8.54299 8.58833 8.57826
58 1 0.914956 10.6963 10.7677 10.6789
59 1 0.880001 8.56197 12.8421 12.9296
60 1 0.889122 10.7766 14.9894 15.0172
61 1 0.863262 12.8305 8.55122 12.8825
62 1 0.899123 14.996 10.6744 15.0061
63 1 0.891478 12.8379 12.8867 8.5773
64 1 0.88833 15.0123 14.9674 10.6743
65 2 -0.443268 1.07117 1.065 1.02003
66 2 -0.430057 1.06503 16.0682 16.0802
67 2 -0.432813 16.069 1.08005 16.0477
68 2 -0.467129 16.1364 16.1181 1.10738
69 2 -0.441674 1.07158 3.19589 3.25586
70 2 -0.435316 3.23633 1.12442 3.21039
71 2 -0.438788 3.20333 3.26938 1.10839
72 2 -0.453385 1.02172 5.36413 5.37699
73 2 -0.43596 16.1127 3.17072 5.37414
74 2 -0.468773 16.1346 5.35321 3.24456
75 2 -0.472946 3.24845 5.32859 7.47068
76 2 -0.437319 3.15856 7.56654 5.34616
77 2 -0.517475 1.10994 7.5267 7.52055
78 2 -0.468839 5.36544 1.11467 5.40684
79 2 -0.448201 3.26883 16.082 5.34758
80 2 -0.430651 5.40136 16.0958 3.21658
81 2 -0.43217 5.38323 3.2361 7.48332
82 2 -0.439786 7.50913 3.17352 5.30325
83 2 -0.443359 7.4631 1.08378 7.5294
84 2 -0.447572 5.30594 5.40576 1.10877
85 2 -0.461173 3.22842 5.40026 16.1413
86 2 -0.434531 5.36835 3.22166 16.0337
87 2 -0.481768 5.38253 7.56008 3.19462
88 2 -0.633609 7.46145 5.30359 3.22719
89 2 -0.524937 7.55359 7.52177 1.03617
90 2 -0.410022 1.09506 1.1038 9.70791
91 2 -0.457437 1.0378 16.1199 7.46195
92 2 -0.468647 16.0709 1.0859 7.55844
93 2 -0.4112 16.1042 16.075 9.68507
94 2 -0.488733 1.09498 3.2029 11.8183
95 2 -0.426536 3.20944 1.03165 11.7615
96 2 -0.469216 3.24804 3.16963 9.65195
97 2 -0.452695 1.06788 5.40253 13.9681
98 2 -0.454069 16.0849 3.21918 13.9977
99 2 -0.475584 16.0496 5.33282 11.7664
100 2 -0.466267 1.09781 7.52227 16.1006
101 2 -0.452943 3.26358 7.47798 13.969
102 2 -0.454281 5.30612 1.04385 13.9873
103 2 -0.444244 3.19588 16.1299 13.9682
104 2 -0.470655 5.40565 16.0931 11.782
105 2 -0.431243 7.53384 1.06325 16.0318
106 2 -0.448803 7.54456 3.24204 13.9984
107 2 -0.424055 5.41481 5.3489 9.62314
108 2 -0.442301 5.34584 7.508 11.7398
109 2 -0.462481 7.46303 5.40795 11.8081
110 2 -0.431289 7.5608 7.5669 9.6445
111 2 -0.45383 1.02936 9.67715 1.07903
112 2 -0.444199 16.0334 7.46162 1.01578
113 2 -0.439414 16.1358 9.64426 16.1446
114 2 -0.489459 1.05922 11.7859 3.27598
115 2 -0.446489 3.26343 9.67728 3.18439
116 2 -0.436666 3.23319 11.8429 1.05657
117 2 -0.44777 1.0224 13.9328 5.39197
118 2 -0.459392 16.0928 11.8414 5.31734
119 2 -0.441109 16.1404 14.001 3.21869
120 2 -0.473602 3.17646 13.9097 7.51046
121 2 -0.465615 5.41786 9.65529 5.30849
122 2 -0.431431 5.33401 11.7683 7.48
123 2 -0.455054 7.55247 11.8482 5.30801
124 2 -0.485513 7.50201 9.66152 7.47972
125 2 -0.451957 5.30977 13.9028 1.07423
126 2 -0.433687 3.24388 13.9453 16.147
127 2 -0.461796 5.33785 11.7461 16.0654
128 2 -0.471131 7.53611 16.043 1.06371
129 2 -0.45493 7.552 13.979 3.1995
130 2 -0.443342 1.0236 9.66503 9.64452
131 2 -0.505747 16.1083 7.54737 9.63636
132 2 -0.501079 16.0509 9.62382 7.47154
133 2 -0.457721 1.01359 11.7677 11.8148
134 2 -0.43088 3.20513 9.64077 11.7848
135 2 -0.437906 3.16694 11.7657 9.66028
136 2 -0.433119 1.08528 13.9918 13.8919
137 2 -0.437711 16.1147 11.8072 13.9738
138 2 -0.44678 16.1358 13.9845 11.8467
139 2 -0.501477 5.39781 9.68992 13.9591
140 2 -0.523354 7.48605 9.63549 16.1095
141 2 -0.473943 7.45185 11.8458 13.9215
142 2 -0.444452 5.32499 13.9382 9.66828
143 2 -0.435842 7.48693 16.1465 9.62543
144 2 -0.432771 7.54617 13.9217 11.7688
145 2 -0.408331 9.71038 1.07544 1.11477
146 2 -0.440509 9.71025 16.1417 16.047
147 2 -0.477005 9.66956 3.20134 3.20201
148 2 -0.45389 11.8481 1.01324 3.1725
149 2 -0.480022 11.8077 3.17728 1.04345
150 2 -0.491694 9.60228 5.31973 5.34422
151 2 -0.475157 11.741 5.37522 7.51117
152 2 -0.477821 11.8281 7.45292 5.31455
153 2 -0.438534 9.68629 7.55877 7.51819
154 2 -0.443657 13.9631 1.11522 5.36912
155 2 -0.44619 11.8031 16.1192 5.41482
156 2 -0.43655 13.9547 16.0894 3.24162
157 2 -0.440754 14.0021 3.21328 7.52377
158 2 -0.402521 13.9279 5.31727 1.10835
159 2 -0.457484 11.7613 5.38894 16.0785
160 2 -0.540827 13.9231 3.27334 16.0344
161 2 -0.443012 13.8997 7.50555 3.16722
162 2 -0.451519 9.69801 1.12124 9.62223
163 2 -0.445797 9.61626 16.0902 7.44899
164 2 -0.438248 9.63647 3.19147 11.8006
165 2 -0.455135 11.8402 1.11296 11.7841
166 2 -0.41302 11.8315 3.22357 9.67926
167 2 -0.488287 9.69501 5.39405 13.9994
168 2 -0.472402 9.61108 7.48522 16.1446
169 2 -0.482248 11.7827 7.4786 13.9261
170 2 -0.419151 13.9293 1.12499 13.9455
171 2 -0.464057 11.7482 16.1433 13.9218
172 2 -0.42607 13.9851 16.0862 11.7477
173 2 -0.433238 13.9744 5.37765 9.69791
174 2 -0.467423 13.9439 7.46603 11.7838
175 2 -0.445908 9.63665 9.68883 1.02514
176 2 -0.478994 9.66326 11.8092 3.20861
177 2 -0.456502 11.8526 9.63297 3.21646
178 2 -0.421145 11.8235 11.7388 1.13115
179 2 -0.431893 9.64171 13.9491 5.31693
180 2 -0.469331 11.7947 13.9437 7.50434
181 2 -0.442265 13.9724 9.67383 5.34127
182 2 -0.443341 13.9385 11.7678 7.45839
183 2 -0.453959 13.9034 13.9411 1.08549
184 2 -0.479971 11.8195 13.9201 16.1128
185 2 -0.430418 13.9824 11.7449 16.1273
186 2 -0.44751 9.67336 9.69021 9.70465
187 2 -0.447466 9.70346 11.7935 11.787
188 2 -0.423125 11.8309 9.59308 11.8126
189 2 -0.45841 11.8481 11.7515 9.71116
190 2 -0.451987 9.67616 13.9349 13.9823
191 2 -0.464195 13.9583 9.70924 14.0011
192 2 -0.463766 13.918 13.9187 9.61378
193 2 -0.601987 2.94605 4.92222 10.3593
194 2 -0.581626 7.00169 7.80824 14.0607
195 2 -0.587296 15.884 6.68719 6.30717
196 2 -0.58644 8.23421 4.92238 0.935186
197 2 -0.575712 12.604 3.64792 4.0434
198 2 -0.544826 0.204844 2.58674 9.82043
199 2 -0.571233 14.6782 5.71993 16.653
200 2 -0.570242 1.89316 9.57965 6.76273
201 2 -0.564966 14.4749 5.08579 12.2236
202 2 -0.578633 6.77882 6.46244 5.26161
203 3 0.364741 2.23644 4.49735 10.8467
204 3 0.358057 2.59325 5.78311 10.1227
205 3 0.396327 7.41017 8.13134 14.8671
206 3 0.405108 6.1082 8.15836 14.0869
207 3 0.372407 16.193 7.57523 6.50067
208 3 0.369604 15.244 6.49959 6.99776
209 3 0.39639 8.04603 5.74378 0.475296
210 3 0.427025 8.13554 5.1395 1.86509
211 3 0.379829 12.1793 3.65455 3.18248
212 3 0.374865 12.0846 4.25789 4.57235
213 3 0.375815 0.033613 2.66 8.87867
214 3 0.315566 0.864109 3.26158 9.99808
215 3 0.338518 14.5167 5.81275 15.7112
216 3 0.374967 15.2277 4.93621 16.7266
217 3 0.368127 1.18448 9.22633 6.22002
218 3 0.372368 2.19123 10.3604 6.29037
219 3 0.36229 14.9478 5.57178 12.9031
220 3 0.364843 13.6262 4.87964 12.6222
221 3 0.438394 6.82693 6.08455 4.38042
222 3 0.379063 6.96466 7.39552 5.13347
ITEM: TIMESTEP
121
ITEM: NUMBER OF ATOMS
222
ITEM: BOX BOUNDS pp pp pp
0.0000000000000000e+00 1.7160000000000000e+01
0.0000000000000000e+00 1.7160000000000000e+01
0.0000000000000000e+00 1.7160000000000000e+01
ITEM: ATOMS id type q x y z
1 1 0.951242 0.0685388 17.0926 0.0262429
2 1 0.942288 2.13227 2.07891 2.13657
3 1 0.998885 0.0176422 4.22246 4.30057
4 1 0.878675 2.23213 6.33894 6.2956
5 1 0.927786 4.27534 17.1116 4.27279
6 1 0.959804 6.45392 2.13327 6.58861
7 1 0.873619 4.20771 4.19983 17.1364
8 1 0.918922 6.32594 6.23586 2.08108
9 1 0.968825 -0.0112856 16.979 8.49225
10 1 0.798361 2.2558 1.89834 10.6457
11 1 0.846664 17.1042 4.37033 13.1573
12 1 0.931151 2.12679 6.46128 15.1075
13 1 0.868968 4.36541 17.0977 12.8815
14 1 0.90036 6.44763 2.11086 15.0078
15 1 0.940479 4.36521 4.40568 8.65256
16 1 0.936897 6.47955 6.47799 10.7147
17 1 0.932523 0.00281129 8.59022 0.0551364
18 1 0.931134 2.10958 10.6773 2.19179
19 1 0.931756 0.000219935 12.8314 4.29226
20 1 0.871798 2.16244 14.9322 6.38823
21 1 0.813567 4.26853 8.45981 4.17834
22 1 0.843657 6.57512 10.7141 6.43682
23 1 0.946956 4.38127 12.9239 -0.00176882
24 1 0.924213 6.48652 15.0201 2.17052
25 1 0.811931 17.1861 8.54235 8.72855
26 1 0.869217 2.12394 10.7442 10.7155
27 1 0.938668 -0.000375854 12.8605 12.8452
28 1 0.948301 2.24013 15.028 15.0622
29 1 0.884778 4.18129 8.53826 12.7904
30 1 0.83749 6.4917 10.9224 14.9469
31 1 0.868108 4.2715 12.8912 8.61784
32 1 0.870676 6.46564 15.0194 10.738
33 1 0.910528 8.62019 -0.0203357 0.0156522
34 1 0.810466 10.819 1.97312 2.19171
35 1 0.874376 8.58445 4.22233 4.57345
36 1 0.922133 10.724 6.45091 6.51359
37 1 0.871596 12.9417 17.065 4.31934
38 1 0.920598 15.0319 2.09163 6.43053
39 1 0.907812 13.2042 4.35315 0.0123292
40 1 0.945681 15.1079 6.4714 2.25734
41 1 0.884247 8.58481 0.0437007 8.69577
42 1 0.903135 10.75 2.19465 10.7439
43 1 0.93282 8.54536 4.32383 12.8305
44 1 0.797984 10.581 6.697 14.7768
45 1 0.913337 12.8884 17.1411 12.8483
46 1 0.979038 15.0752 1.99995 15.0659
47 1 0.909602 12.886 4.29365 8.52262
48 1 0.940317 14.9836 6.50336 10.8803
49 1 0.859895 8.77229 8.9178 17.0071
50 1 1.00087 10.8671 10.8252 2.16019
51 1 0.930935 8.66657 12.883 4.28922
52 1 0.936528 10.7832 14.9871 6.44153
53 1 0.870256 12.8916 8.60177 4.31371
54 1 0.909246 14.9601 10.7438 6.42808
55 1 0.932619 12.942 12.9284 17.155
56 1 0.936036 15.0787 14.999 2.15232
57 1 0.944808 8.65066 8.62706 8.63816
58 1 1.00031 10.7496 10.8134 10.7394
59 1 0.937071 8.6409 12.9846 12.859
60 1 0.873552 10.7735 15.0573 15.0261
61 1 0.881729 12.8655 8.73768 12.8362
62 1 0.986647 15.0486 10.7478 15.0349
63 1 0.88033 12.8783 12.8818 8.57525
64 1 0.934394 15.0109 14.9673 10.7074
65 2 -0.475952 1.07489 0.819105 1.02805
66 2 -0.474565 1.1622 15.9094 16.005
67 2 -0.47777 16.1834 1.12837 16.0035
68 2 -0.468093 16.1939 16.2293 1.04496
69 2 -0.470899 0.952149 3.27859 3.21736
70 2 -0.472727 3.17697 1.19788 3.1359
71 2 -0.463448 3.04648 2.99494 1.05635
72 2 -0.485934 1.07603 5.092 5.27458
73 2 -0.47376 15.9387 3.12476 5.44926
74 2 -0.469225 16.3162 5.36685 3.38988
75 2 -0.523577 3.27525 5.39557 7.21632
76 2 -0.504245 3.16991 7.2297 5.24174
77 2 -0.528889 1.24809 7.61229 7.46257
78 2 -0.431714 5.32847 0.955299 5.50629
79 2 -0.463878 3.31971 16.0225 5.17141
80 2 -0.464699 5.35385 16.2332 3.29697
81 2 -0.45865 5.48989 3.21507 7.41802
82 2 -0.478666 7.71842 3.16554 5.51703
83 2 -0.466126 7.34912 1.1983 7.66153
84 2 -0.437522 5.14103 5.37752 1.2554
85 2 -0.46626 3.32202 5.21314 16.148
86 2 -0.445982 5.44397 3.16097 15.9346
87 2 -0.488694 5.214 7.56469 3.16841
88 2 -0.543667 7.29766 5.3822 3.61709
89 2 -0.563588 7.6319 7.53568 1.00767
90 2 -0.526237 1.11522 0.722596 9.37821
91 2 -0.472083 0.904552 16.0316 7.42775
92 2 -0.495298 16.2769 0.951404 7.52234
93 2 -0.472339 15.9353 15.9667 9.73257
94 2 -0.549952 1.3575 3.20544 12.0409
95 2 -0.45215 3.28983 0.950222 11.5789
96 2 -0.470568 3.45267 2.98847 9.5096
97 2 -0.489547 0.827265 5.35965 14.1494
98 2 -0.550334 15.8794 3.21958 14.212
99 2 -0.523274 16.1891 5.41375 12.1968
100 2 -0.471471 1.25557 7.52204 16.0761
101 2 -0.463602 2.99776 7.392 13.9614
102 2 -0.460105 5.29348 1.01831 13.7713
103 2 -0.466645 3.15531 16.0846 14.1084
104 2 -0.454377 5.56247 15.9266 11.8068
105 2 -0.450174 7.54836 0.969641 16.2525
106 2 -0.445045 7.49154 3.13268 14.0887
107 2 -0.44169 5.67726 5.43214 9.66157
108 2 -0.462956 5.14755 7.54199 11.7946
109 2 -0.458119 7.3397 5.4502 11.7272
110 2 -0.462973 7.73124 7.64908 9.66922
111 2 -0.4747 0.897627 9.54149 1.09881
112 2 -0.462953 15.9704 7.44288 1.17911
113 2 -0.468916 16.2361 9.66357 16.2586
114 2 -0.474909 1.11772 11.5783 3.21438
115 2 -0.497753 3.03209 9.70423 3.22013
116 2 -0.432293 3.22492 11.898 1.14078
117 2 -0.45439 1.03991 13.6933 5.31015
118 2 -0.458837 16.0988 11.969 5.29445
119 2 -0.470722 16.1167 14.0607 3.09741
120 2 -0.447944 3.1383 14.0903 7.4707
121 2 -0.49691 5.54384 9.39462 5.33032
122 2 -0.412523 5.4595 11.9022 7.49756
123 2 -0.459436 7.79549 11.8261 5.31016
124 2 -0.46935 7.49996 9.84379 7.51421
125 2 -0.467585 5.40834 13.8044 1.00884
126 2 -0.481014 3.43927 13.9888 16.2666
127 2 -0.471331 5.45952 11.7474 15.9494
128 2 -0.462306 7.54527 15.9169 1.18903
129 2 -0.458357 7.44825 14.0972 3.23185
130 2 -0.452905 0.923852 9.65547 9.58539
131 2 -0.489503 16.1006 7.39652 9.96413
132 2 -0.493863 15.9222 9.43273 7.58402
133 2 -0.459454 0.976389 11.9758 11.7881
134 2 -0.459631 3.29106 9.52309 11.7574
135 2 -0.445561 3.13422 11.6365 9.7022
136 2 -0.4367 1.20546 13.8864 13.9125
137 2 -0.474593 15.9743 11.6686 13.9398
138 2 -0.463074 16.2244 13.9289 11.9169
139 2 -0.501856 5.44428 9.64045 13.8504
140 2 -0.539888 7.77898 9.73679 15.9607
141 2 -0.473195 7.54951 12.1176 13.7777
142 2 -0.447875 5.2363 13.8143 9.66528
143 2 -0.454305 7.63079 16.2683 9.70619
144 2 -0.459126 7.71461 14.0038 11.8797
145 2 -0.457579 9.82137 1.1542 1.11643
146 2 -0.45173 9.5489 16.2292 16.0854
147 2 -0.521446 9.7953 3.20898 3.36799
148 2 -0.462123 11.947 0.745308 3.28837
149 2 -0.485343 12.0048 3.2235 1.25068
150 2 -0.480596 9.57763 5.16629 5.53745
151 2 -0.461287 11.7691 5.45294 7.34208
152 2 -0.441307 11.6573 7.47245 5.40676
153 2 -0.46007 9.66401 7.6085 7.76074
154 2 -0.457991 14.0698 1.16779 5.3781
155 2 -0.463376 11.7484 16.0352 5.52752
156 2 -0.462745 14.0897 15.8633 3.21968
157 2 -0.456712 13.8567 3.20501 7.62981
158 2 -0.464615 13.9792 5.1933 1.23036
159 2 -0.556944 11.9124 5.49964 15.8955
160 2 -0.529625 14.1634 2.85977 16.1615
161 2 -0.456187 14.1525 7.53136 3.18794
162 2 -0.456913 9.8491 1.12432 9.80215
163 2 -0.424906 9.58146 16.0405 7.5529
164 2 -0.461939 9.525 3.3914 11.7944
165 2 -0.470855 11.7163 1.25167 11.8099
166 2 -0.463248 11.9728 3.33679 9.6236
167 2 -0.46396 9.57106 5.37116 13.6607
168 2 -0.510181 9.70145 7.96054 16.0251
169 2 -0.484281 11.6024 7.55356 13.7968
170 2 -0.484954 13.8679 0.840734 13.927
171 2 -0.455764 11.9225 16.1031 13.7767
172 2 -0.460361 14.0132 16.0234 11.6147
173 2 -0.493986 14.061 5.61103 9.45731
174 2 -0.455275 14.0286 7.69926 11.6292
175 2 -0.478754 9.94339 10.0363 1.0078
176 2 -0.469831 9.77442 11.7774 3.07182
177 2 -0.469933 11.9255 9.51916 3.29399
178 2 -0.472844 11.8664 11.8641 1.27524
179 2 -0.469908 9.71494 13.7616 5.26757
180 2 -0.466308 11.8186 14.1197 7.44638
181 2 -0.470326 13.9382 9.86 5.43064
182 2 -0.459401 13.9482 11.6398 7.44715
183 2 -0.469607 13.9741 13.8977 0.896788
184 2 -0.450298 11.9026 13.9622 16.2602
185 2 -0.471943 14.0573 11.8249 15.916
186 2 -0.470358 9.85744 9.73862 9.74988
187 2 -0.475725 9.67046 11.7468 11.6766
188 2 -0.478648 11.9725 9.78746 11.9233
189 2 -0.472453 11.6524 11.8623 9.74887
190 2 -0.460014 9.83294 14.0289 14.1028
191 2 -0.464896 14.0016 9.75268 14.1117
192 2 -0.465241 13.9198 13.7644 9.52885
193 2 -0.539634 3.36988 5.34711 9.48442
194 2 -0.558598 7.09346 7.75168 14.4078
195 2 -0.55738 14.7224 7.0636 7.34093
196 2 -0.564753 7.33382 5.18024 1.3514
197 2 -0.538386 12.0383 4.43457 3.48383
198 2 -0.576218 1.03952 3.12956 9.28807
199 2 -0.567715 14.2687 5.1357 16.2158
200 2 -0.563324 1.91067 9.81563 6.19187
201 2 -0.599239 13.7903 5.10212 12.0963
202 2 -0.561509 6.96568 7.18553 5.58226
203 3 0.376651 2.09435 3.8053 12.128
204 3 0.400138 2.86655 5.88134 8.76849
205 3 0.41019 7.63333 8.32437 15.0287
206 3 0.40838 6.35929 8.40176 14.0192
207 3 0.41205 15.1099 8.00321 7.49662
208 3 0.425847 14.5435 6.60305 8.25158
209 3 0.390398 8.08936 6.76087 0.651451
210 3 0.395393 7.73322 4.6635 2.14741
211 3 0.421358 12.2809 4.08388 2.51844
212 3 0.410485 11.0849 4.04684 3.67428
213 3 0.398638 0.809298 2.1945 8.81356
214 3 0.385512 2.01203 3.42122 8.93246
215 3 0.395055 12.7056 5.87072 15.4739
216 3 0.412931 14.8223 4.36477 15.8119
217 3 0.411282 1.67219 8.89808 6.67751
218 3 0.394191 2.18806 9.60858 5.29635
219 3 0.368784 14.7753 4.85193 12.5491
220 3 0.363648 13.1931 4.396 12.4312
221 3 0.42597 6.94191 6.61011 4.76141
222 3 0.417279 6.41283 8.06019 5.41308
