ITEM: TIMESTEP
0
ITEM: NUMBER OF ATOMS
216
ITEM: BOX BOUNDS pp pp pp
1.5543057471768877e+00 1.5605694252823191e+01
1.5543057471768877e+00 1.5605694252823191e+01
1.5543057471768877e+00 1.5605694252823191e+01
ITEM: ATOMS id type q x y z vx vy vz
1 1 1.92238 1.65946 15.5169 15.6054 -0.00421967 -0.000485718 0.00284809
2 1 1.87204 3.2337 3.31683 3.36586 -0.00719107 0.00173541 0.0052891
3 1 1.76696 15.4111 5.09378 5.00368 -0.00506836 -0.00543424 -0.00139414
4 1 1.61642 3.26401 6.68829 6.87488 0.00323199 -0.000542904 0.00123933
5 1 1.76879 5.02507 15.5123 4.97851 2.4553e-05 -0.0039331 -0.00190657
6 1 1.74153 6.71806 3.25676 6.75966 0.0002715 -0.00174853 0.00313575
7 1 1.77133 5.01662 5.07187 1.66891 -0.00172841 0.00575173 -0.000712398
8 1 1.83123 6.6383 6.97925 3.36869 -0.00337183 -0.00449848 0.00251217
9 1 1.9009 1.60772 1.56002 8.55844 0.00342813 0.00077661 0.00025232
10 1 1.75417 3.32995 3.29874 10.3794 -0.00116887 -0.00197226 0.00418354
11 1 1.7733 15.5355 4.98228 12.1252 0.00397739 0.00497419 0.00466056
12 1 1.82288 3.31482 6.68059 13.8184 0.00220111 0.00282886 0.00135539
13 1 1.7971 5.08457 15.4851 12.1594 -0.0102329 0.000217181 -0.00128678
14 1 1.8186 6.72227 3.31582 13.8603 0.00265251 -0.00583486 0.00170895
15 1 1.7796 5.20673 5.0604 8.69026 -0.00281647 -8.15075e-06 0.00327806
16 1 1.91461 6.88301 6.86033 10.3087 -0.00478927 -0.000262337 0.00134583
17 1 1.76688 15.5517 8.48361 1.56716 0.00367104 0.000692287 -0.00369652
18 1 1.67539 3.18578 10.3635 3.33589 -0.00676177 0.0009537 -0.00495926
19 1 1.82937 15.4971 12.1931 5.07534 -0.000980473 0.00331062 -0.00418394
20 1 1.88867 3.26865 13.8017 6.77516 0.00284499 0.00277894 0.00660302
21 1 1.82975 4.91105 8.65923 5.1702 0.00265201 -0.00271876 0.00172383
22 1 1.85996 6.83011 10.3842 6.79217 0.00256738 -0.00233507 0.000404133
23 1 1.80339 5.20614 11.8247 15.5959 0.00331203 -0.00515938 0.00189503
24 1 1.68948 6.74969 13.8506 3.08284 -0.00304051 0.00306948 -0.00552923
25 1 1.66787 15.4993 8.55925 8.66239 -0.000723994 0.00322114 -0.00112687
26 1 1.87895 3.3246 10.2458 10.2809 0.00136831 0.00228976 0.00416179
27 1 1.76539 1.596 12.0703 12.005 -0.000536855 0.00287769 -0.00287185
28 1 1.7481 3.40691 13.6461 13.9048 0.000602472 0.00258991 -0.000462582
29 1 1.82673 5.03716 8.50814 12.064 -0.00317687 -0.00134277 -0.00233264
30 1 1.77674 6.98711 10.238 13.7411 0.00166122 -0.000493336 0.00081934
31 1 1.72627 5.0676 12.1095 8.59989 0.00162617 -0.00437491 0.00243807
32 1 1.77041 6.89891 13.8459 10.3212 -0.0036403 -0.00580656 0.000478611
33 1 1.7541 8.6623 1.63268 15.5014 -0.00189946 0.000250529 -0.000190633
34 1 1.74601 10.3076 3.51899 3.22964 -0.00106921 0.00240511 -0.000590808
35 1 1.72762 8.44007 5.19198 5.08054 0.00557636 0.000260501 -0.000641741
36 1 1.7412 10.2226 6.76257 6.94169 0.00835548 0.001024 -0.00463971
37 1 1.90608 12.041 1.75268 4.97761 -0.00192474 -0.0032236 0.00456689
38 1 1.88639 13.7611 3.30718 6.89987 0.000988277 0.00177479 -0.00171148
39 1 1.78679 12.0043 5.16 15.3848 0.00263841 -0.00137907 0.00166364
40 1 1.85122 13.5954 6.84452 3.26826 -0.00499156 -0.00170328 0.0014283
41 1 1.70301 8.61084 1.79752 8.60062 -0.00439462 -0.0028891 -0.00289862
42 1 1.92072 10.2778 3.35783 10.5404 -0.000801674 -0.00178719 0.00270755
43 1 1.81263 8.44726 5.09447 12.1047 -0.000528549 0.00724287 0.000721347
44 1 1.83208 10.2391 6.96455 13.8424 0.0024063 -0.00347599 -0.0019923
45 1 1.82265 12.0482 15.505 12.0872 0.00165613 -0.00311947 0.000298072
46 1 1.80764 13.7995 3.18069 13.8789 -0.00255628 -0.00116315 0.00490698
47 1 1.70013 12.0348 4.98021 8.71271 0.000206574 0.000564718 0.00283272
48 1 1.7767 13.7434 6.80345 10.5185 0.00113143 -0.00222002 -0.00159067
49 1 1.94113 8.57545 8.61913 1.6465 -0.000823351 -0.00529479 -0.000122538
50 1 1.83302 10.3542 10.3925 3.34553 0.00130418 0.00200752 -0.000562306
51 1 1.83964 8.52437 12.2085 5.01823 -0.00190439 -0.000155946 0.000577582
52 1 1.68579 10.3971 13.9769 6.73168 -0.00309888 -0.00393968 -0.00238655
53 1 1.83229 11.9297 8.52941 5.1394 -0.00715814 0.00434754 -0.0065496
54 1 1.77175 13.8235 10.2641 6.79142 -0.00324535 0.00352092 -0.00192838
55 1 1.79409 12.221 12.0688 1.62007 0.000220538 -0.0012324 0.00102211
56 1 1.85707 13.7939 13.9838 3.4105 -0.00160222 0.00566684 -0.00169307
57 1 1.85069 8.58388 8.67375 8.62338 0.00462371 0.000283261 0.00226913
58 1 1.81307 10.5431 10.4783 10.2011 -0.00286649 -0.000154523 0.00436962
59 1 1.93314 8.70514 12.0733 12.0298 -0.000898762 0.00169934 6.99177e-05
60 1 1.82552 10.3886 13.7504 13.9236 -0.00175086 -0.00549513 -0.000520827
61 1 1.84961 12.0223 8.69181 12.1363 0.000239055 -0.000861881 -0.00254246
62 1 1.85037 13.9075 10.3011 13.8381 0.00195624 0.00217295 -0.00104811
63 1 1.81699 12.254 12.2476 8.40529 -0.00203723 0.00349732 0.0043926
64 1 1.87581 13.9094 13.8573 10.2852 -0.00428511 -0.00113328 0.000760193
65 2 -0.952337 2.45481 2.42314 2.35006 -0.00363656 0.00198414 -0.00282538
66 2 -0.954545 2.61348 14.7032 14.69 -0.00587394 0.00707368 -1.30626e-05
67 2 -0.934951 14.7067 2.22786 14.6893 0.0040319 -0.00424766 0.00577255
68 2 -0.930614 14.9084 14.629 2.45734 0.00104421 0.00604307 -0.00185008
69 2 -0.889002 2.16552 4.24042 4.04213 0.00230719 0.00315884 0.0013646
70 2 -0.897467 3.9704 2.38004 4.28004 -0.00879166 0.00287972 0.0045208
71 2 -0.905784 4.27551 4.21553 2.6679 0.00253803 0.00120131 -0.000919254
72 2 -0.817418 2.45756 5.98299 5.65582 0.00517188 0.00547669 0.00112826
73 2 -0.935609 14.7499 4.13334 6.02932 -0.0016138 0.0053558 0.00213958
74 2 -0.905564 14.3165 5.96686 4.27785 0.00366478 0.00470196 -0.000875427
75 2 -0.796332 4.34385 5.83884 7.64582 -0.00165706 0.00372218 0.00359586
76 2 -0.798006 4.31535 7.51714 6.04726 -0.00011684 0.00355589 0.0014367
77 2 -0.813706 2.48883 7.88663 7.57568 0.00292816 -0.00098246 -0.00182574
78 2 -0.909 6.08194 2.41152 5.63964 0.00594704 0.00058815 -0.00164173
79 2 -0.94038 4.25068 14.6858 6.00415 0.00564715 -0.000772528 0.00383401
80 2 -0.856624 5.61753 14.688 3.77403 0.00344299 0.0016965 5.65193e-06
81 2 -0.890199 5.78083 3.95293 7.79443 0.00163331 -0.000233274 -0.00326821
82 2 -0.922666 7.72221 4.18251 5.99115 -0.00149502 0.00487188 -0.0020891
83 2 -0.927099 7.56257 2.26184 7.58123 -0.00164749 -0.00136872 -0.00436711
84 2 -0.902235 5.71222 6.2839 2.35885 -0.000536404 0.00213549 -0.00262566
85 2 -0.900398 3.89428 5.67072 14.7402 -0.00415409 9.78195e-05 -0.00101683
86 2 -0.895844 5.96595 4.0571 14.9678 0.00155703 -0.00708828 -0.000258778
87 2 -0.917385 5.89078 7.96378 4.26881 -0.00403917 4.37067e-05 0.0101545
88 2 -0.913958 7.42322 5.81587 4.08724 0.00278844 0.00637609 0.000169181
89 2 -0.919511 7.7117 7.81996 2.64807 0.00404255 -0.000743738 -0.00354407
90 2 -0.919346 2.53684 2.49587 9.30038 -5.96545e-05 -0.00120017 -0.000954252
91 2 -0.898088 2.46197 14.9135 7.53326 -0.00670117 0.0030945 0.000424546
92 2 -0.936571 14.5959 2.29214 7.72653 -0.00560391 0.0031256 0.00580082
93 2 -0.917877 15.0393 14.5812 9.51313 -0.00266033 -0.00662124 -0.00204459
94 2 -0.948512 2.40135 4.01343 11.4222 -0.000840042 -0.000515116 0.00402813
95 2 -0.870532 4.29335 2.30909 11.1445 0.000403434 -0.00377384 0.00859352
96 2 -0.883949 4.23902 4.36279 9.67787 -0.00418266 -0.00387927 0.00328519
97 2 -0.917228 2.39759 6.08235 12.7674 -0.00559633 -0.000656886 -0.0036944
98 2 -0.95231 14.7787 4.08271 13.1551 0.0043784 0.00166199 0.000137913
99 2 -0.940095 14.534 5.67925 11.1284 0.00348501 0.00157959 0.000358909
100 2 -0.882554 2.36706 7.44788 14.853 -0.00161159 -0.00102665 -0.00387724
101 2 -0.97302 4.23754 7.68877 13.1327 -0.000856132 0.00140987 0.000440153
102 2 -0.930015 5.72624 2.37938 13.2037 -0.00515056 0.00187919 -0.000325444
103 2 -0.974194 4.23722 14.4243 12.8193 0.00292208 -0.000454521 0.00192038
104 2 -0.937311 6.18368 14.7317 11.3345 0.00282045 0.00173494 -0.00264067
105 2 -0.924543 7.90163 2.49565 14.4441 0.000819377 -0.00189808 0.00473027
106 2 -0.933016 7.38959 4.33428 12.8971 -0.00506512 0.00515846 0.00399909
107 2 -0.93824 6.19851 6.11984 9.1867 -0.00204748 0.00138519 -0.000901279
108 2 -0.92027 5.75909 7.46315 11.1314 0.000924538 0.00389276 -0.00768935
109 2 -0.958253 7.75006 5.7791 10.9631 0.0109944 0.00106789 -0.0140219
110 2 -0.945303 7.78075 7.94449 9.71407 0.00133907 -0.00371893 -0.000656502
111 2 -0.86501 2.49263 9.46927 2.24745 -0.00397473 -0.00108855 0.00055629
112 2 -0.905398 14.5845 7.85229 2.62787 -0.000301599 -0.000204742 -0.000423187
113 2 -0.984582 14.7993 9.38895 14.6633 0.00186861 0.00302446 0.00267643
114 2 -0.895648 2.19396 11.4658 3.95573 -0.000413483 -0.00691575 8.04268e-05
115 2 -0.87162 3.80017 9.33406 4.32311 0.0053692 0.00340524 -0.00129162
116 2 -0.827354 4.43985 10.9542 2.62964 -0.00188394 -0.00139846 0.000310587
117 2 -1.00471 2.43127 13.0502 5.81474 -0.00515437 0.00149241 -0.00497538
118 2 -0.874677 14.949 11.1277 6.12711 -0.00320306 0.00726414 -0.00232476
119 2 -0.938837 14.3527 13.0129 4.45211 0.00980506 -0.00134373 -0.000476479
120 2 -0.951751 4.03358 12.9412 7.82345 -0.000823133 0.0012621 -0.00259999
121 2 -0.929878 5.80295 9.65455 5.93732 0.00608897 -0.00561289 0.00228307
122 2 -0.968936 6.16088 11.4419 7.64057 0.00160267 -0.00377388 0.000667507
123 2 -0.915706 7.69775 11.1611 5.76597 0.00325219 -0.00179395 0.0015849
124 2 -0.936405 7.82281 9.46817 7.55759 0.00156178 0.00144072 0.00496662
125 2 -0.880483 6.18558 12.5952 2.3991 0.00116994 0.00399489 -0.00318724
126 2 -0.947793 4.38029 12.8648 14.8657 -0.00129784 0.00151308 0.00869487
127 2 -0.900127 6.05434 10.8151 14.7765 0.0011752 0.00236584 0.00089166
128 2 -0.856544 7.56279 14.8885 2.20415 -0.0054873 -0.00438651 -0.00179994
129 2 -0.877777 7.67595 13.1812 4.20578 0.000560654 0.00153441 0.00165417
130 2 -0.922569 2.28944 9.58436 9.38546 0.00166841 -0.0041508 -0.000889908
131 2 -0.921022 14.8275 7.58756 9.69308 -0.000822964 -0.00128393 0.00671806
132 2 -0.866519 14.399 9.34194 7.87385 0.00129187 -0.00469796 -0.00237675
133 2 -0.979915 2.66585 11.2586 11.1746 0.000363464 -0.000477542 -0.00353696
134 2 -0.971795 4.10284 9.28356 11.1261 0.00846558 -0.00301789 0.0030253
135 2 -0.880892 4.40362 10.9489 9.339 -0.00164527 -0.000133535 0.00542798
136 2 -0.945668 2.36434 12.8054 13.1687 -0.00180045 0.00111915 0.00376663
137 2 -0.930113 14.8354 11.0459 12.8719 -0.00665908 -0.00351437 -0.00503674
138 2 -0.925249 14.645 12.8535 11.1789 0.00185522 -0.00762261 -0.000891987
139 2 -0.855829 6.19751 9.2728 12.6453 0.00250917 0.000548639 -0.00681183
140 2 -0.909528 7.68515 9.19771 14.661 0.00367656 0.000832397 -0.00349312
141 2 -0.952871 7.98672 11.1428 12.9503 -0.00987263 -0.00354109 -0.00131274
142 2 -0.927803 5.79128 13.118 9.56732 -0.00384082 0.00759383 -0.0027889
143 2 -0.90239 7.89936 14.739 9.40451 -0.00316327 0.00506353 -0.00504781
144 2 -0.919615 7.68015 12.7971 11.0563 0.00446349 -0.0038837 -0.0058763
145 2 -0.937214 9.34366 2.63145 2.4141 -0.002736 -0.00571156 0.00502952
146 2 -0.936498 9.68884 14.6969 14.8445 -0.00298693 0.00602052 -0.00265603
147 2 -0.92828 9.3732 4.22778 4.24025 0.00629603 0.00513688 0.00512436
148 2 -0.918713 11.4134 2.71746 3.97698 0.00388681 -0.00384965 -0.00370329
149 2 -0.961407 10.9693 4.5238 2.2283 0.0029037 0.00421776 0.00425142
150 2 -0.898572 9.30883 6.25988 5.7692 0.00668865 -0.000823567 0.00535697
151 2 -0.854027 10.9457 5.64373 7.72278 0.00461722 0.000117751 -0.00180689
152 2 -0.881064 11.2878 7.7465 6.29813 -0.00365653 -0.00385586 0.0123614
153 2 -0.886508 9.34008 7.51682 7.91842 0.00111932 0.000395013 -0.004612
154 2 -0.96473 12.7274 2.55557 6.08703 -0.00839517 -0.00262447 -0.00542601
155 2 -0.907421 11.28 14.6791 5.67512 0.00563181 0.00130516 0.00105585
156 2 -0.936821 13.069 15.1137 4.11303 0.00309431 -0.00197431 -0.00857165
157 2 -0.970197 13.1314 4.29366 7.82478 0.000983534 0.00355218 -0.000641803
158 2 -0.926005 13.0481 5.96231 2.15955 0.00508302 -0.00162578 0.00502444
159 2 -0.927067 11.4237 6.09642 14.2776 -0.00142771 -0.00237968 -0.00445287
160 2 -0.895911 12.8059 3.97587 14.7273 -0.0043826 0.00476756 0.00166423
161 2 -0.943559 12.5215 7.5344 4.12095 0.00198664 0.000934471 0.00116678
162 2 -0.939431 9.22638 2.82124 9.5515 -0.00248132 -0.00728206 -0.00495392
163 2 -0.83013 9.67791 15.1167 7.59563 0.00253611 -0.000750348 0.00201731
164 2 -0.959543 9.56847 4.17007 11.5996 0.00371025 -0.00251633 0.00033292
165 2 -0.94962 10.9507 2.29274 11.3198 0.00127392 -0.00280625 -0.00668914
166 2 -0.938359 11.3837 3.96959 9.67214 -0.00322072 0.000658272 -0.000683728
167 2 -0.86059 9.16258 6.21422 13.0603 0.00323719 0.00129247 -0.0045524
168 2 -0.988833 9.57814 7.80614 14.969 0.0090964 0.00653058 -0.00834003
169 2 -0.873725 10.8578 7.84127 12.7551 -0.00372012 -0.00598779 -0.00136742
170 2 -0.928671 13.0923 2.26718 12.7944 0.00226651 0.00734128 -0.000872259
171 2 -0.899801 11.4899 14.5014 13.1336 0.00530182 0.00570889 -0.00187985
172 2 -0.92626 12.8496 14.682 11.0313 -0.00193842 -0.00207764 -0.00150855
173 2 -0.869419 12.7288 6.16333 9.51244 0.00129672 0.00144988 -0.00256335
174 2 -0.926341 13.0096 7.66062 11.5541 0.00328331 -0.00251846 0.00774435
175 2 -0.901167 9.30193 9.76382 2.41056 -0.000387073 -0.00170284 0.00225432
176 2 -0.872997 9.40145 11.4045 4.06313 0.00207526 -0.00422682 0.00101696
177 2 -0.938938 10.9531 9.50749 4.42728 0.0110612 -0.00317289 0.000402175
178 2 -0.916584 11.4567 11.0452 2.4852 0.00450879 0.000518172 -0.00601722
179 2 -0.962081 9.41854 12.9612 6.0368 -2.87807e-05 -0.00672242 -0.00148767
180 2 -0.93458 11.3435 13.2391 7.72612 0.00241375 0.0024898 -0.000808076
181 2 -0.897978 13.0303 9.37674 5.73562 0.000821809 -0.00765703 -0.000831045
182 2 -0.930286 12.817 11.194 7.45159 0.00567808 -0.00502172 -0.00036511
183 2 -0.921671 12.872 13.1784 2.49275 -0.0038627 -0.00101848 0.00410176
184 2 -0.878416 11.1406 12.6473 14.7636 -0.00622971 0.00496105 -0.00411005
185 2 -0.897217 13.2922 11.359 14.7346 0.00688552 -0.00696965 -0.00356195
186 2 -0.887697 9.66642 9.62086 9.15181 0.00408162 0.00311454 0.00328401
187 2 -0.939334 9.67547 11.2873 11.2005 -0.00451589 0.000525985 0.00249148
188 2 -0.935692 11.4309 9.53024 11.02 0.00134415 -0.000878132 -0.00213722
189 2 -0.927342 11.3736 11.5426 9.49811 -0.00170569 -8.85524e-05 0.0022896
190 2 -0.949343 9.44615 13.0947 12.8646 -0.00112343 0.00457733 -0.00424661
191 2 -0.946304 12.7262 9.49339 13.2233 0.00152544 0.00759498 -0.00464352
192 2 -0.898769 13.3897 13.0113 9.14034 0.0037811 -0.00460255 0.00722531
193 2 -0.60674 8.76419 1.59104 4.94082 0.00103152 0.00420297 -0.00404371
194 2 -0.607875 1.62338 15.5154 12.0557 -0.0040043 -0.00200768 -0.00554818
195 2 -0.662641 1.88496 5.33833 8.1958 0.00163994 0.00354426 -0.00495968
196 2 -0.598626 8.51976 5.16575 15.5875 0.00146358 -0.0012944 0.00011328
197 2 -0.62548 3.4322 10.2425 13.859 0.000574959 -0.00017745 -0.00145333
198 2 -0.656545 6.85943 13.9129 6.86624 -0.00340111 0.000734589 0.00245777
199 2 -0.608116 5.26188 11.9908 12.2057 0.00422841 2.37511e-05 0.00189793
200 2 -0.615936 8.75599 12.1681 8.49555 0.00375891 -0.00337181 0.0028257
201 3 0.43236 8.30297 15.2021 5.63844 0.00646295 -0.00227697 0.00345197
202 3 0.439913 8.44816 2.4993 4.98871 -0.0107241 -0.0276777 0.0106127
203 3 0.423405 15.5433 2.37148 12.3264 -0.00774583 0.00998893 0.00157735
204 3 0.419138 1.82385 15.1583 12.8729 -0.000484102 -0.000911861 -0.00919744
205 3 0.415541 15.0943 5.10447 7.84152 -0.0252133 0.00353732 0.0103146
206 3 0.39129 1.63426 5.87455 8.97788 -0.0131104 0.0129554 0.0108631
207 3 0.419215 8.69955 5.2093 2.44136 -0.0175198 -0.0245387 -0.0327391
208 3 0.400026 8.7492 4.23083 15.3217 -0.00620085 -0.0052465 0.0117784
209 3 0.411036 3.46941 9.29386 14.134 -0.00579579 0.00379025 0.00786991
210 3 0.425364 2.48361 10.4577 13.8371 -0.0187506 -0.00178429 0.0139087
211 3 0.417193 6.94025 14.2468 7.7504 -0.00771731 -0.00089964 -0.0156244
212 3 0.395761 6.129 13.2659 6.81398 -0.00274206 0.0184526 -0.0228239
213 3 0.417661 4.33492 11.869 12.2982 0.0173581 0.0479001 -0.00903814
214 3 0.41571 5.3838 12.9537 12.0076 -0.0311276 -0.000464771 0.0144886
215 3 0.414896 9.68254 12.1327 8.37743 0.0108808 0.00405378 -0.00674597
216 3 0.417278 8.40759 12.4624 7.69886 -0.0183597 0.00434209 0.000707119
ITEM: TIMESTEP
2000
ITEM: NUMBER OF ATOMS
216
ITEM: BOX BOUNDS pp pp pp
1.5459502956200266e+00 1.5614049704380001e+01
1.5459502956200266e+00 1.5614049704380001e+01
1.5459502956200266e+00 1.5614049704380001e+01
ITEM: ATOMS id type q x y z vx vy vz
1 1 1.7391 1.514 1.60038 15.6004 -0.00847051 -0.000527416 0.0101887
2 1 1.7971 3.2667 3.41781 3.19102 -0.00435335 -0.0036666 0.0031921
3 1 1.72136 15.3936 4.84029 4.9794 -0.00318188 -0.00994929 0.00205042
4 1 1.84259 3.2936 6.76518 6.5491 -0.00264076 -0.00346567 0.00365575
5 1 1.82609 5.07514 1.72487 5.00736 0.000779447 -0.00321105 -0.00073438
6 1 1.80911 6.90182 3.3496 6.85279 0.000359799 -0.00436109 0.00261056
7 1 1.71197 5.12521 5.23219 1.59378 -0.00068435 -0.00192201 0.00229468
8 1 1.83251 6.96544 6.82028 3.55129 0.000234748 0.00426722 0.000994021
9 1 1.76034 15.5025 1.56415 8.62578 -0.00201937 -0.00119569 -0.00145499
10 1 1.84364 3.34422 3.46966 10.2326 0.000796516 -0.00281988 -0.00123586
11 1 1.92987 1.74707 5.17059 12.2097 -0.0050763 -0.0019855 -0.00291614
12 1 1.83984 3.45279 6.99401 13.8524 0.00534997 -0.00469098 0.000606427
13 1 1.76262 5.03551 1.67258 11.9878 0.00125188 -6.82112e-07 -7.09178e-05
14 1 1.60752 6.75699 3.22937 13.9568 0.000549535 -0.00140686 -0.000656513
15 1 1.88327 5.04879 5.08062 8.37066 -0.00171532 0.00273537 0.000433318
16 1 1.75778 6.69537 6.85225 10.09 -0.00332791 0.00934123 0.00178807
17 1 1.7538 15.5909 8.60928 1.60018 0.005877 0.0058117 -0.00295456
18 1 1.75901 3.38117 10.414 3.33841 -0.00545776 8.55112e-05 0.00718439
19 1 1.72542 1.53739 12.0816 5.15224 -0.00418781 -0.000846355 -0.0050946
20 1 1.77457 3.28207 14.0867 6.74778 -5.86975e-05 9.03319e-06 0.00733052
21 1 1.8161 5.10863 8.55827 4.99998 -0.002628 0.00257405 -0.00402969
22 1 1.6674 6.50927 10.2951 6.90176 -0.00353279 0.00160069 0.00103159
23 1 1.78512 5.06281 12.1587 15.5528 0.00295229 0.00143807 -0.00594885
24 1 1.76959 6.80449 13.8517 3.46432 -0.00531225 0.00715652 -0.00256824
25 1 1.73268 1.65614 8.50613 8.43399 -7.50976e-06 0.00500686 0.00248349
26 1 1.7313 3.20531 10.3721 10.2979 0.00452976 -0.000811573 0.00339736
27 1 1.81841 15.5459 12.1106 12.0773 -0.00379101 -0.000790634 0.00109323
28 1 1.80894 3.28503 13.9196 13.8257 -0.00267411 0.00558521 -0.00294294
29 1 1.81471 5.15758 8.72205 12.023 0.00101668 -0.00465703 -0.00153126
30 1 1.75341 6.8861 10.351 13.942 0.00125351 0.00622364 0.000119176
31 1 1.69166 4.95315 12.2376 8.56354 0.00213919 -0.00174916 0.00231397
32 1 1.9279 6.86729 13.9256 10.3117 -0.00613942 -0.00192026 9.88224e-05
33 1 1.84185 8.59588 15.3855 15.6129 0.00437354 0.00470911 0.000295768
34 1 1.66371 10.368 3.12889 3.26409 0.00389115 -0.00452161 0.000927126
35 1 1.62644 8.89787 5.02082 5.20194 0.00253643 0.003764 -0.000981058
36 1 1.79728 10.4057 6.84496 7.03507 0.0052239 -0.00104557 -0.00123183
37 1 1.73261 12.3038 15.4853 5.00959 -0.00369368 0.000561789 0.000495909
38 1 1.80607 13.6231 3.34428 6.96678 0.0015027 -0.000153187 -0.00219506
39 1 1.72038 12.03 5.14631 15.6057 0.00235651 -0.00033808 -0.000846599
40 1 1.8597 13.8618 6.78786 3.29502 0.00085851 0.00519194 0.00390402
41 1 1.82512 8.67859 15.5162 8.44964 0.00285395 0.00743667 -0.00476792
42 1 1.75338 10.1832 3.13676 10.4481 0.00161532 0.00154755 0.00141759
43 1 1.78527 8.33997 4.97866 11.9705 -0.00408664 0.00241804 0.00247636
44 1 1.77615 10.2314 6.74885 13.5462 0.00174845 -0.00588764 -0.00240742
45 1 1.75421 12.0461 1.50872 12.213 0.00266425 -0.00261413 0.000689831
46 1 1.6936 13.8901 3.54089 13.9101 -0.00657896 0.00669827 -7.93202e-05
47 1 1.7877 11.9764 5.12326 8.91444 -0.000848741 -0.0094109 0.00182917
48 1 1.69845 14.001 6.84938 10.4325 0.00881224 -0.000644391 -0.00144643
49 1 1.77599 8.67596 8.40583 15.5936 0.0111142 0.00135448 -0.00956112
50 1 1.8713 10.3455 10.1031 3.3595 0.000558851 0.00210332 0.00166943
51 1 1.84121 8.4937 11.8032 5.08891 -0.00336973 -0.00184254 -0.00386722
52 1 1.71103 10.325 13.7218 6.60026 0.00412382 -0.00012379 -0.000734297
53 1 1.676 12.2345 8.55037 5.14343 0.00115273 -0.00300319 -0.00949483
54 1 1.80943 13.9102 10.3003 6.82349 0.00084292 0.00303018 0.00668688
55 1 1.82712 11.9945 12.0822 1.76846 0.0020294 -0.00114818 0.00520841
56 1 1.75805 13.9699 13.7986 3.24235 0.00293204 0.00201791 0.0077373
57 1 1.58556 8.54579 8.65204 8.48221 -0.00580759 0.000659502 -0.00348022
58 1 1.71443 10.2744 10.3611 10.3579 -0.00115916 -0.00237604 -0.00112246
59 1 1.77113 8.55309 12.1092 12.1854 -0.000999484 0.00320807 0.00541443
60 1 1.92483 10.3934 13.7494 13.8488 0.00136977 0.0024221 -0.00375634
61 1 1.76623 12.0805 8.61954 12.0542 0.00217637 -0.00146869 -0.000304145
62 1 1.79013 13.7569 10.3917 13.9768 -0.0059924 -0.00511547 -0.00194922
63 1 1.74376 12.1018 12.0886 8.59281 0.0035542 3.2922e-05 -0.00456162
64 1 1.9258 13.7929 13.8768 10.3483 -0.00707295 0.00444615 0.00638045
65 2 -0.914045 2.37404 2.69709 2.21253 0.000976459 0.00133335 -0.00207884
66 2 -0.922961 2.49542 14.9865 14.6163 0.00929793 0.00618506 0.00759019
67 2 -0.84152 14.4582 2.49383 14.9456 0.00425903 0.00176884 0.000802592
68 2 -0.928098 14.8515 14.5118 2.19251 0.000873459 -0.00497426 -0.00860074
69 2 -0.859845 2.46972 4.00229 4.38367 -0.00557286 0.00398468 -0.0084115
70 2 -0.867972 4.2173 2.45104 3.97187 -0.00104658 -0.00122683 2.7974e-05
71 2 -0.875929 3.94924 4.54929 2.38997 -0.00482399 0.00714164 -0.00649212
72 2 -0.808214 2.27092 6.03638 5.70597 0.0124441 0.00057427 -0.00212939
73 2 -0.937633 14.5763 3.94225 6.00386 -0.000341475 -0.00472042 0.00133158
74 2 -0.978638 14.6374 5.66168 3.97855 0.00166504 0.00673164 0.0046355
75 2 -0.865926 4.06054 5.66992 7.34776 0.00846204 0.00817192 -0.00524984
76 2 -0.943506 4.24173 7.49518 5.56165 -0.00163793 -0.00576565 0.00113601
77 2 -0.874516 2.77419 7.71722 7.62285 0.000302801 0.00586562 -0.00749419
78 2 -0.908286 5.99315 2.73934 5.66493 -0.00497731 -0.00370301 0.004937
79 2 -0.905622 4.04812 15.2101 6.01994 0.0059473 0.00275199 0.00123621
80 2 -0.941205 5.69694 14.6755 4.19473 0.000772191 0.00561461 0.00649822
81 2 -0.984515 5.79758 4.00857 7.65271 -0.00444095 0.00445656 -0.00469429
82 2 -0.901582 7.88644 4.27264 6.16586 -0.0034681 -0.00801158 -0.0108831
83 2 -0.979522 7.77157 2.32955 7.53315 -0.004962 0.00336342 0.00116526
84 2 -0.873164 5.90898 6.2001 2.65321 0.0129267 -0.00632807 0.00229036
85 2 -0.866913 4.65072 6.16426 14.5464 -0.00424591 0.00759703 -0.0120088
86 2 -0.883511 5.9568 4.15006 15.0149 -0.00147418 -0.00361732 0.00443493
87 2 -0.915592 6.36023 7.9789 4.36057 -0.000981749 -0.00165125 0.00348318
88 2 -0.842778 7.78233 5.94778 4.50678 -0.00344607 0.00317616 0.00964312
89 2 -0.885277 7.92054 7.54745 2.57801 0.00279743 -0.0039168 5.81835e-05
90 2 -0.918398 2.37422 2.67559 9.2481 0.0075261 0.00785273 0.00133264
91 2 -0.87819 2.15763 14.7734 7.52815 0.00843681 0.00630879 0.00504404
92 2 -0.867273 14.5101 2.61672 7.99389 0.00493065 0.00137328 0.000629549
93 2 -0.9674 14.7953 14.7134 9.5824 0.00510048 -0.0036575 -0.000339027
94 2 -0.938294 2.46037 4.10096 11.3272 -0.00706263 -0.000907755 0.000914007
95 2 -0.967751 4.27636 2.59995 10.9954 0.00505286 -0.0083455 -0.0117749
96 2 -0.959517 4.12723 4.50057 9.48073 0.00482969 5.03316e-05 -0.0036089
97 2 -0.952428 2.69496 6.13773 12.8314 0.012886 0.0046677 0.00612418
98 2 -0.957302 14.9787 4.40649 13.1987 -0.00344653 0.00116676 -0.00363468
99 2 -0.925806 14.9871 6.04221 11.29 0.00978247 -0.00607142 0.0112702
100 2 -0.937116 2.44162 7.73755 14.6988 0.00720567 -0.00379606 -0.00229533
101 2 -0.917697 4.16902 7.90218 12.9394 0.00123093 -0.00303704 0.00722044
102 2 -0.856844 5.70896 2.43933 13.073 0.0020424 0.000250947 0.00237569
103 2 -0.916951 4.00048 14.8129 12.7409 0.00231211 0.00775535 -0.00343598
104 2 -0.902014 6.13553 15.0171 11.1019 -0.00176934 -0.000675897 -0.000494849
105 2 -0.7805 7.5875 2.00506 14.5832 -0.0048905 -0.000558486 -0.00122025
106 2 -0.89593 7.58761 4.24571 13.1617 -0.000720349 0.00112681 0.00228556
107 2 -0.929179 5.83634 6.25797 8.93316 0.00432012 -0.00442779 -0.00356649
108 2 -0.878144 5.96696 7.6911 11.1742 0.00942144 -0.00600301 0.00171801
109 2 -0.875206 7.46151 5.78048 10.9218 -3.69026e-05 -0.000372373 0.0122123
110 2 -0.826153 7.9079 7.54591 9.47629 -0.00217238 0.000441935 -0.000682108
111 2 -0.881711 2.60766 9.34284 2.44641 0.0103929 0.00206152 0.0055902
112 2 -0.936244 14.6806 7.70562 2.43695 -0.00589391 0.000829601 -0.00390512
113 2 -0.956811 14.7817 9.55229 14.7451 0.00298319 -0.00208634 -0.0069445
114 2 -0.875506 2.44429 10.9508 4.39043 -0.00484733 -0.00118191 0.00301211
115 2 -0.881936 4.46868 9.63739 4.01366 0.00359422 0.00540501 0.00434593
116 2 -0.918628 3.99261 11.4365 2.30381 0.00155044 0.000887359 0.00977979
117 2 -0.860692 2.453 13.2277 5.77788 -0.00192845 0.000565264 -0.00800515
118 2 -0.860988 14.7535 11.4197 6.20774 -0.00211867 -0.00805364 -0.00165498
119 2 -0.85688 14.6593 12.6137 4.10245 0.0032008 0.000215954 0.0112126
120 2 -0.949717 4.31337 13.2087 7.52355 -0.00390323 -0.0110464 -0.000389672
121 2 -0.826999 5.36842 9.47218 6.21473 -0.000334543 0.00343652 -0.00778135
122 2 -0.887859 5.76147 11.1107 7.96773 -0.00165747 0.00548765 0.000767838
123 2 -0.95408 7.352 11.1685 5.84102 0.00580813 -0.00115618 0.00716071
124 2 -0.842131 7.28929 9.31159 7.81132 -0.0057447 0.00127178 -0.00359749
125 2 -0.85939 6.0405 12.8865 2.45728 0.0105878 -0.00391613 -0.000255081
126 2 -0.955832 4.18545 13.11 14.7094 0.00128289 -0.00539275 -0.000409559
127 2 -0.92772 5.76464 11.0553 14.6943 -0.00806271 0.00587387 -0.00647803
128 2 -0.925607 7.62397 14.7333 2.49492 0.003823 -0.00179709 0.00506762
129 2 -0.902558 7.75852 12.9673 4.28078 -0.00849078 0.00900985 0.00783425
130 2 -0.861158 2.28252 9.37649 9.63196 -0.0120286 -0.00276218 -0.00456145
131 2 -0.865607 14.8053 7.45904 9.15017 -0.00727234 -0.00269466 0.00087716
132 2 -0.974076 14.895 9.36143 7.50804 -0.00331163 0.00733992 -0.0106618
133 2 -0.957359 2.30901 11.0922 11.3747 0.00678973 -0.0082836 0.000277047
134 2 -0.936686 4.36151 9.63231 11.1432 -0.00953819 0.00131567 0.000310418
135 2 -0.859966 3.78456 11.4085 9.32236 -0.00154514 -0.00630319 -9.0858e-05
136 2 -0.9348 2.27011 13.0035 13.0953 -0.00272751 0.00515307 -0.00143876
137 2 -0.849093 14.5492 11.3104 12.9835 -0.000373836 0.00593691 0.00465613
138 2 -0.959634 14.5423 12.9282 11.2499 0.0107508 0.00997119 -0.00483506
139 2 -0.91229 6.23226 9.43256 12.8802 0.000597362 -0.000794343 -0.00183943
140 2 -0.812202 7.61321 9.30531 14.9204 0.00411532 0.00135486 0.00733624
141 2 -0.970793 7.84649 11.323 13.2795 -0.00478195 -0.00507072 0.00152005
142 2 -0.954525 5.91824 13.1775 9.37954 -0.000329897 -0.00216523 0.00715986
143 2 -0.96242 7.79447 14.6771 9.34308 -0.00227991 -0.00842586 0.00198241
144 2 -0.933076 7.65117 13.1399 11.266 0.00453513 -0.00173912 0.000370576
145 2 -0.895159 9.5108 2.35458 2.13312 -0.00107592 0.00613212 0.000282106
146 2 -0.958143 9.3213 14.5148 14.6364 -0.00307834 -0.00634535 -0.000807464
147 2 -0.88193 9.40665 3.93602 4.19843 -0.0054553 0.00421873 -0.00625231
148 2 -0.879789 11.3174 2.1169 4.03846 -0.000832178 -0.00913059 0.00391436
149 2 -0.869905 11.0582 4.17623 2.36811 -0.00524011 -0.00136506 0.00419957
150 2 -0.896421 10.0283 5.86219 5.91879 0.00105734 0.00846941 -0.00708525
151 2 -0.980615 11.0288 6.05892 8.17971 -0.00324741 -0.00257364 -0.00701451
152 2 -0.85996 11.4064 7.78039 6.31421 -0.0101623 -0.00777402 0.0100014
153 2 -0.874747 9.32588 7.84155 7.40972 0.00895484 -0.00861536 0.00197103
154 2 -0.903538 12.863 2.27089 6.1792 0.00368705 0.00518268 -0.00207413
155 2 -0.795293 11.4304 14.3026 5.5996 0.0123676 0.00565416 -0.00138156
156 2 -0.888151 13.4403 14.8472 4.17403 -0.0045825 -0.0111396 -0.00187501
157 2 -0.920649 12.7061 4.2426 7.93231 -0.00378138 -0.000914732 -0.00100287
158 2 -0.881252 12.6639 6.25755 2.38644 -0.00814961 0.00449091 0.00618195
159 2 -0.875555 11.1818 5.85381 14.5062 0.00310532 0.0048752 0.00756373
160 2 -0.912269 13.1016 4.35349 14.882 0.0101358 -0.0102618 0.00814016
161 2 -0.896934 13.2601 7.66664 4.36112 0.000513039 0.00345705 -0.00157336
162 2 -0.892738 9.71833 2.31523 9.24343 -1.23364e-05 -0.00335345 -0.000310024
163 2 -0.904813 9.53011 14.786 7.3794 -0.00271811 -0.00250182 0.00697472
164 2 -0.88038 9.05774 3.81566 11.3368 0.00580608 -0.00844515 0.0016166
165 2 -0.834814 10.8208 2.17504 11.4898 -0.0102154 0.00497593 -0.00873887
166 2 -0.86645 11.1888 4.13544 9.89076 -0.00185449 0.00834613 -0.00737684
167 2 -0.94126 9.38578 5.79174 12.6897 -7.67298e-05 -0.00229666 -0.00269907
168 2 -0.916836 9.422 7.72011 14.4005 -0.00485806 0.0036907 -0.00157831
169 2 -0.897818 11.0719 7.58503 12.6024 0.000787647 -0.00528965 0.00186184
170 2 -0.825307 12.9951 2.59923 12.8962 3.70992e-05 -0.00184708 0.000496165
171 2 -0.931219 11.4962 14.5871 13.2643 -0.00256485 -0.00495806 -0.00229593
172 2 -0.884412 12.7184 14.7814 11.1211 0.00247772 0.00661422 0.00431918
173 2 -0.910066 13.028 5.78873 9.86518 -0.00409296 -0.00663173 -0.00137647
174 2 -0.869867 13.3151 7.86518 11.3312 -0.00168878 0.00897171 -0.00351624
175 2 -0.900316 9.56779 9.43901 2.22915 0.00620035 0.00270712 0.00729828
176 2 -0.960857 9.342 10.8185 4.32531 -0.00485543 0.00249991 -0.00236816
177 2 -0.870332 11.348 9.12207 3.98547 0.00238042 0.00164547 -0.000921117
178 2 -0.927165 11.2236 11.0704 2.61853 -0.00628414 0.00493887 0.00456833
179 2 -0.952956 9.43816 12.6269 5.95434 0.00747297 -0.00170981 -0.00465653
180 2 -0.86853 11.1673 12.9519 7.65592 -0.00100552 -0.000612936 0.0104942
181 2 -0.88448 12.9819 9.76436 5.72719 0.00682386 0.00562415 -0.00825085
182 2 -0.865792 12.9569 11.2218 7.65812 0.00186008 -0.000169491 -0.00927066
183 2 -0.88642 12.6915 13.1184 2.66898 -0.00462962 -0.000980552 0.0044122
184 2 -0.91765 11.1683 12.721 14.7315 -0.00403442 -0.00696402 0.00276135
185 2 -0.882019 13.0441 11.3153 14.9043 0.000152742 -0.00473197 -0.00563166
186 2 -0.905508 9.61711 9.63981 9.14702 0.00242061 0.00612465 -0.0131288
187 2 -0.92343 9.14122 11.0677 11.1687 0.00721571 -0.00677354 -0.000441981
188 2 -0.905063 11.3126 9.52189 11.146 -0.00170836 -0.00184018 -0.00495096
189 2 -0.872829 11.2973 11.2954 9.70514 -0.00842173 0.00260381 -0.00447213
190 2 -0.932022 9.57674 13.0531 12.8071 -0.00496468 0.000318367 -0.00660791
191 2 -0.848124 12.6927 9.47954 13.201 -0.010034 -0.00723044 -0.0048857
192 2 -0.904324 13.0094 13.0864 9.3499 -0.0031297 -0.00654096 0.0105079
193 2 -0.615052 8.45973 1.55329 5.07404 -0.00189721 -0.00582479 -0.00227423
194 2 -0.599763 1.36305 1.5949 12.2481 -0.0124505 -0.0008274 -0.00655849
195 2 -0.594967 15.557 5.26648 8.04928 -0.00110062 0.00976142 -0.00158533
196 2 -0.583421 8.56022 5.12888 15.7089 0.00325189 -0.00187424 0.00512737
197 2 -0.617592 3.32463 10.4571 13.9426 0.00128809 0.00756045 -0.00955152
198 2 -0.668265 7.01621 13.8322 6.86156 0.000238739 -0.00596613 -0.00637927
199 2 -0.587024 5.01005 12.0931 12.0139 -0.000597822 -0.00331194 0.00115332
200 2 -0.659675 8.53538 12.0336 8.41224 -0.0035537 -0.0110259 0.0016446
201 3 0.429207 7.95109 14.974 5.69506 0.0263539 -0.0254768 0.0108784
202 3 0.436066 8.44327 2.4644 5.27132 0.00200208 0.0041874 -0.00782572
203 3 0.415009 2.31674 1.62249 12.0227 0.00986042 0.00990282 -0.0269479
204 3 0.399943 15.299 1.70537 13.1652 0.0101861 -0.0120528 -0.00861321
205 3 0.444562 15.782 4.36077 8.21966 0.00688449 0.0298463 0.0107374
206 3 0.408693 14.9285 5.55219 8.76646 -0.00236571 0.00752078 0.0289012
207 3 0.402318 9.38488 5.09632 15.2069 0.00224147 -0.00298161 0.0170733
208 3 0.394121 7.93454 4.71049 15.0954 -0.0200033 0.0104572 0.0194737
209 3 0.418215 2.81066 9.64968 13.861 0.00487514 -0.0347457 -0.0226212
210 3 0.416091 2.93414 10.8702 14.7333 -0.0157356 0.0302884 0.0184457
211 3 0.437468 7.3569 12.9238 7.02213 -0.000342363 0.00803323 -0.0094366
212 3 0.419971 6.15022 14.0509 7.24726 0.00647268 0.0107657 0.0311776
213 3 0.40281 4.19012 11.4358 12.2449 -0.0146964 0.0170721 -0.0161596
214 3 0.3771 5.76184 11.7314 12.4902 0.0116139 -0.024093 -0.00333841
215 3 0.404098 9.42258 12.0376 8.04835 1.55123e-05 0.0117012 -0.0121209
216 3 0.405365 8.51713 11.3337 9.0472 0.0305259 0.0486189 0.0138645
ITEM: TIMESTEP
4000
ITEM: NUMBER OF ATOMS
216
ITEM: BOX BOUNDS pp pp pp
1.5045411316905941e+00 1.5655458868309452e+01
1.5045411316905941e+00 1.5655458868309452e+01
1.5045411316905941e+00 1.5655458868309452e+01
ITEM: ATOMS id type q x y z vx vy vz
1 1 1.68925 15.3978 1.41947 15.5138 -0.000690577 0.00190687 -0.00511191
2 1 1.54767 3.11293 3.04703 3.11342 0.00202303 0.00936138 -0.00424905
3 1 1.80102 1.64901 5.03007 4.91495 -0.00354302 0.00451348 -0.00668941
4 1 1.7852 3.02564 6.83992 6.72829 0.00766482 0.00723573 -0.00131989
5 1 1.68634 5.15111 1.56634 4.88769 0.00396842 -0.00813289 -0.00221224
6 1 1.65575 6.81376 3.40647 6.67588 -0.00410473 -0.0141781 -0.00224388
7 1 1.75854 5.00418 4.80883 15.656 -0.00568238 0.00176439 0.00374335
8 1 1.70443 6.61664 6.77268 3.14487 -0.00306685 0.00441197 -0.00257628
9 1 1.5925 1.61439 1.60594 8.48773 -0.001018 0.00162027 -0.000157588
10 1 1.64291 3.39361 3.28111 10.3261 0.00685988 0.00580065 -0.00397348
11 1 1.62016 1.60683 4.90227 12.1783 -0.0018598 -0.000583643 0.00208209
12 1 1.65407 3.23026 6.73042 14.0904 0.00958652 0.000160863 -0.00044378
13 1 1.65429 5.14045 15.704 12.1398 0.00341438 0.0110951 0.00435865
14 1 1.74557 6.94744 3.33186 13.8118 -0.00551437 0.000451923 0.000994651
15 1 1.56028 5.00566 5.14611 8.46836 -0.00627922 -0.00520491 0.0102921
16 1 1.71124 6.77745 7.05855 10.4297 -0.00105595 0.00198693 -0.0067099
17 1 1.63455 15.5737 8.60859 15.6601 -0.00769945 -0.00702183 -0.00586813
18 1 1.7957 3.25375 10.1442 3.45605 -0.00507763 0.00459171 -0.00285292
19 1 1.64156 15.5849 12.2072 4.93985 0.000565696 -0.00200955 0.0115888
20 1 1.51029 3.2807 13.9692 6.64597 0.00933404 -0.0059536 0.00317133
21 1 1.83536 4.97543 8.40288 5.121 -0.00231125 -0.0129418 -0.00528276
22 1 1.53788 6.83826 10.1096 6.84192 -0.0131789 0.00245582 0.00534762
23 1 1.52809 4.95236 12.2397 1.77719 0.0108696 0.00369399 -0.000228181
24 1 1.48383 7.04906 13.9943 3.27422 -0.0125775 -0.0051849 0.00529619
25 1 1.72874 15.4563 8.40604 8.5424 0.00115951 -0.0105596 -0.00512753
26 1 1.66507 2.96689 10.1023 10.417 0.000277189 -0.00147418 0.00441785
27 1 1.71004 1.52229 12.1216 12.2789 0.00105599 0.00565219 0.00101754
28 1 1.66338 3.28721 13.93 13.9989 -0.00812309 -0.0104805 -0.00030738
29 1 1.77771 4.99153 8.69982 12.2072 -0.00621652 0.00747456 -0.0115204
30 1 1.7596 6.65791 10.4134 14.0065 -0.00264373 -0.00954873 0.0031327
31 1 1.4047 4.73708 11.8371 8.61772 -0.00105049 -0.00119124 0.00230251
32 1 1.35272 6.85649 13.8615 10.5481 -0.00764383 -0.00473362 0.00466365
33 1 1.66724 8.80967 1.60753 15.4637 0.0027808 0.00137659 0.0035685
34 1 1.83278 10.334 3.43445 3.14334 -0.00688631 0.00309974 0.00567685
35 1 1.68926 8.65765 5.33105 4.92253 -0.0057906 0.00194051 0.00212655
36 1 1.75727 10.4853 6.81923 6.8621 0.0173889 -0.00601141 -0.00720665
37 1 1.7297 12.1519 1.62241 4.84513 -0.00569641 -0.00153971 -0.00881878
38 1 1.51414 13.9455 3.40694 6.83405 0.00371757 0.0136732 0.00544874
39 1 1.72663 12.0872 5.22044 15.434 0.00838428 0.00383164 0.000915317
40 1 1.66871 13.8507 6.66406 3.13078 0.0112419 0.00475854 -0.0013868
41 1 1.39817 8.29461 1.46869 8.45488 0.000966214 -0.00289711 -0.00449682
42 1 1.65776 10.2929 3.22243 10.2357 -0.00979398 0.00585283 0.00563608
43 1 1.60307 8.62735 5.18994 12.0051 0.0122923 -0.00468216 -0.00915338
44 1 1.51151 10.3301 6.97046 13.8054 -0.00193463 -0.00617489 -0.00020663
45 1 1.72023 12.1765 15.4872 11.8949 -0.00648829 0.00495627 -0.00333918
46 1 1.61816 13.6037 3.24144 13.8507 1.04313e-05 -0.00256014 0.00369542
47 1 1.73263 12.053 5.00962 8.64771 0.0095422 -0.0128097 -0.00509818
48 1 1.69279 13.6778 6.59591 10.6473 0.00144277 0.00168982 0.00332223
49 1 1.67513 8.4447 8.66334 1.539 0.0131931 0.00804578 0.00139212
50 1 1.684 10.3082 10.0066 3.47957 -0.00279343 0.00174657 -0.0115772
51 1 1.51119 8.66219 12.0805 5.19046 -0.00297073 0.00696698 0.0106745
52 1 1.61511 10.5976 13.9638 6.825 -0.00452238 0.000419381 0.00449706
53 1 1.73069 12.415 8.61682 5.13332 -0.00333871 -0.0048732 -0.000908166
54 1 1.83658 14.141 10.4233 6.8595 0.00922276 0.000144069 -0.00216268
55 1 1.80042 11.8125 11.9369 1.57396 0.00284225 -0.00350922 0.00220859
56 1 1.72357 13.6883 13.7507 3.17128 -0.00411414 -0.00843949 -0.000361957
57 1 1.72406 8.69247 8.41337 8.65912 0.00877244 -0.0068266 -0.00365216
58 1 1.45974 10.2606 10.4466 10.1645 0.00569367 -0.00275701 -0.00171061
59 1 1.70027 8.6537 12.0699 12.2328 0.000775629 -0.00124518 0.00020272
60 1 1.92552 10.5031 13.8498 13.8082 -0.00338793 0.000129605 0.00592629
61 1 1.71846 12.1004 8.69652 12.1598 -0.000217228 0.000473331 0.00545161
62 1 1.73313 13.7496 10.4755 13.904 0.00461329 9.70017e-05 0.00180149
63 1 1.79567 12.3516 12.2583 8.60837 0.00382596 0.0115203 -0.0086934
64 1 1.80716 14.237 13.8267 10.3219 -0.00376387 0.00883896 -0.000720382
65 2 -0.837066 2.2554 1.90174 2.31296 0.00368857 -0.00866003 -0.0049257
66 2 -0.866089 2.20921 14.846 14.4668 -0.00957837 0.00928193 0.0103359
67 2 -0.923105 14.4448 2.46437 14.915 0.0110804 0.00109085 0.0072544
68 2 -0.802311 14.5506 14.3928 2.11537 0.00330062 -0.0134852 0.0040331
69 2 -0.874017 2.44572 3.9514 4.2075 0.00581509 -0.000877229 0.0164768
70 2 -0.782953 4.44849 2.41797 3.84159 -0.00550613 0.0105932 0.00904744
71 2 -0.77919 3.73889 3.92915 1.9665 0.00260515 0.00496 0.0030051
72 2 -0.958942 2.64125 5.87536 5.64666 -0.0144625 0.00551835 -0.00959026
73 2 -0.837285 14.8777 4.35474 5.94559 0.0042836 0.00438932 -0.00974985
74 2 -0.829411 14.944 5.98848 3.96337 -0.00191253 0.00805179 0.00268602
75 2 -0.741773 3.8573 6.24428 7.9271 0.0148948 0.00331335 0.00360523
76 2 -0.893629 4.1394 7.88185 6.2556 0.00259164 -0.00791188 -0.0195219
77 2 -0.917679 1.92723 7.5132 7.47107 0.0097427 -0.00708508 -0.00443996
78 2 -0.846094 5.92528 2.44565 5.90421 0.0111653 -0.00192949 -0.00738979
79 2 -0.851109 4.29401 14.6368 5.74112 0.0125217 -0.012101 -0.00512239
80 2 -0.816243 6.15832 15.0377 3.94365 -0.0108501 -0.00811915 0.000495154
81 2 -0.787175 5.61436 4.30899 7.3328 -0.0148127 -0.0138457 0.000799993
82 2 -0.788754 7.65381 4.36868 5.66742 0.0131544 0.001506 0.00507934
83 2 -0.833804 7.70523 2.65 7.61315 -0.00289321 -6.4453e-05 0.00825553
84 2 -0.928003 5.84318 5.51658 2.55651 -0.0108 0.00421947 -0.00483312
85 2 -0.859831 4.29136 5.90401 14.8582 -0.00215029 -0.00837353 0.0051788
86 2 -0.900109 5.83839 4.03725 14.6619 0.00710477 0.00349884 0.00231288
87 2 -0.897052 5.64696 7.4362 4.22427 -0.00385555 -0.00166474 0.0141332
88 2 -0.883691 7.80521 6.26068 4.00158 0.0154748 0.00503192 -0.000872128
89 2 -0.897413 7.30201 7.75245 2.24457 0.00389155 0.0148744 -4.31821e-05
90 2 -0.930546 2.34819 2.4514 9.53206 -0.0016092 -0.0050958 -0.00530888
91 2 -0.762557 2.75731 15.2208 7.57145 0.00026638 -0.00663818 0.00172284
92 2 -0.752112 14.5233 2.0855 7.5651 -0.00465324 -0.00841555 0.0074462
93 2 -0.838734 14.9995 14.5854 9.12621 -0.00785418 0.00148216 -0.014048
94 2 -0.871408 2.71604 4.41819 11.1243 0.00394659 0.0144205 -0.00897116
95 2 -0.873153 4.31462 2.21253 11.0714 0.00261113 0.00782818 0.00205022
96 2 -0.796006 4.38462 4.11034 9.4162 -0.00127274 0.0169517 0.00755786
97 2 -0.810628 2.18584 5.81119 13.2214 -0.0162632 -0.00697887 -0.00810872
98 2 -0.79689 14.846 3.91517 13.0879 0.00521569 -0.00187874 -0.00337272
99 2 -0.875788 14.6617 5.69794 11.3974 -0.0195021 0.00521759 0.00314766
100 2 -0.848748 2.51634 7.74899 14.9648 -0.00928466 -0.01238 0.0124668
101 2 -0.744668 4.09061 7.56453 13.0161 0.00657565 -0.00294168 0.00550651
102 2 -0.83405 6.05717 2.64487 12.8052 0.0125769 0.000788609 -0.00699537
103 2 -0.817162 4.16515 15.1426 13.2558 0.00264894 -0.00518721 -0.00246151
104 2 -0.833383 5.99878 14.4931 11.6015 -0.013062 0.00590068 0.0068776
105 2 -0.81966 8.20327 2.66681 14.4996 0.000974229 -0.00906446 -0.00922934
106 2 -0.778986 7.68603 4.29686 12.8987 -0.00968577 0.00512341 0.00101435
107 2 -0.741875 5.95187 6.19818 9.24289 -0.00197535 -0.0110173 0.00192298
108 2 -0.876983 5.76651 7.74987 11.2998 0.00401455 0.00187292 -0.00501161
109 2 -0.828369 7.48878 6.05347 11.2555 0.00343164 -0.00915837 5.74563e-05
110 2 -0.874321 7.9816 7.93382 9.96287 -0.00776933 0.0096443 0.00674959
111 2 -0.836235 2.06517 9.66061 2.51926 -0.00300237 0.000177234 -0.00202111
112 2 -0.789675 14.9024 7.54601 2.44151 -0.000327931 -0.00488507 0.00663355
113 2 -0.834064 14.6162 9.32587 14.5922 -0.00731788 -0.00611796 0.00213708
114 2 -0.803428 2.48222 11.0494 4.44732 0.00698602 -0.00740456 -0.00347111
115 2 -0.956371 3.98716 9.09992 4.1638 0.00129485 0.00115462 -0.0040646
116 2 -0.877387 4.11636 11.1634 2.71925 -0.00858862 0.00484767 -0.00568834
117 2 -0.782487 2.12071 13.0755 6.14214 0.00215991 0.0116814 -0.0038046
118 2 -0.901292 14.6274 11.3673 5.73846 0.00943526 -0.000793198 -0.012172
119 2 -0.870141 14.8689 13.0018 3.83982 0.00669062 -0.00151641 0.000405883
120 2 -0.708176 3.9443 12.7124 7.57463 -0.0072641 -0.00483684 -0.00104395
121 2 -0.84327 5.98323 9.49884 5.66499 0.00274271 0.00570573 -0.000779401
122 2 -0.747776 5.7946 10.9427 7.71062 0.00640914 0.00372823 -0.000413071
123 2 -0.804566 7.96506 11.2123 6.26717 -0.0104612 0.00677023 -0.00141891
124 2 -0.861717 7.62759 9.11437 7.73978 0.00985406 -0.00490695 -0.000691164
125 2 -0.762198 6.08953 12.9892 2.50901 0.000236745 -0.00554391 -0.000990663
126 2 -0.878461 4.03096 13.2057 15.1326 0.00841709 -0.00855001 0.0124994
127 2 -0.811893 5.95128 11.4705 14.8202 0.000372822 0.00345114 -0.00569833
128 2 -0.712334 7.55053 15.1219 2.08321 0.00737107 0.00551195 0.00766725
129 2 -0.819998 8.08532 13.2082 4.22397 -0.00658767 0.00269631 0.00638731
130 2 -0.856978 2.36788 9.06156 9.46302 -0.0102674 0.00702631 -0.00977182
131 2 -0.798878 14.6088 7.16894 9.47264 0.0020812 -0.0155019 0.00546176
132 2 -0.980045 14.8014 9.50607 7.80771 -0.0144992 0.00620859 0.0108841
133 2 -0.885459 1.97124 10.84 11.4802 0.012607 0.00853056 -0.00301848
134 2 -0.90838 4.12002 9.40594 11.192 0.00172789 0.00480178 -0.0102049
135 2 -0.822274 3.65768 11.1669 9.52045 -0.00632953 0.0103731 -0.00804634
136 2 -0.914976 2.6217 12.8539 13.0504 -0.00364822 -0.01357 0.00631227
137 2 -0.892192 14.5027 11.5911 13.221 -0.00593271 -0.0050771 -0.00140621
138 2 -0.916458 15.0821 13.1854 11.4098 0.00118758 -0.000152766 -0.00255897
139 2 -0.966435 5.93374 9.40701 13.1749 0.00553823 -0.00475681 0.00037546
140 2 -0.835298 7.6677 9.86562 15.0669 0.00672188 0.000992094 -0.00100347
141 2 -0.850622 7.6406 11.1661 12.9562 -0.0148131 0.00845609 -0.00568727
142 2 -0.689461 5.76786 12.5785 9.70805 0.00022684 -0.0115745 0.00113239
143 2 -0.672376 7.24972 15.1615 9.57033 0.00558647 -0.0107133 -0.00256663
144 2 -0.782178 8.02714 13.3098 11.5012 0.00396006 -0.00207013 0.0152337
145 2 -0.915547 9.48748 2.67008 2.12358 -0.00541591 0.0115938 -0.0110437
146 2 -0.930605 9.7334 14.6718 14.8063 0.0107252 0.0014347 0.000395164
147 2 -0.886079 9.56666 4.37369 4.04077 -0.0158053 0.0203215 0.0108288
148 2 -0.908597 11.2286 2.47848 3.84627 -0.0100351 -0.00591901 -0.00495471
149 2 -0.857399 11.3256 4.46473 2.43634 0.00120256 0.00686875 -0.00332721
150 2 -0.899861 9.55283 5.95843 6.02107 -0.00695819 0.00748076 0.0122596
151 2 -0.868179 11.5489 5.91431 7.58754 0.00118582 0.00606314 0.00100905
152 2 -0.830883 11.1653 7.9037 6.02098 -0.00695586 0.00490391 -0.00584198
153 2 -0.896898 9.65232 7.45502 8.03349 0.00323039 -0.00559009 -0.00281273
154 2 -0.723677 13.1749 2.58662 5.60126 -0.000821651 0.00403976 -0.00318954
155 2 -0.901385 11.2713 14.9321 5.73318 -0.01641 0.00054453 -0.00147699
156 2 -0.883848 12.9352 15.0379 3.83674 0.00172674 -0.00544198 -0.00589278
157 2 -0.794873 12.7292 4.0141 7.64394 0.000867383 0.00817795 0.00378608
158 2 -0.894112 13.2551 5.8104 1.95798 0.0121693 -0.00890243 -0.00595528
159 2 -0.837568 11.1679 6.43755 15.0721 0.000561627 -0.00125356 0.00337353
160 2 -0.869243 12.6129 4.33811 14.3068 -0.00658652 -0.00192035 0.00626732
161 2 -0.860817 13.0482 7.55951 4.24547 0.010195 0.00812389 -0.00408835
162 2 -0.684461 9.31038 2.23616 9.50438 -0.010638 -0.00184961 -0.00408211
163 2 -0.807914 9.73105 14.7168 7.76726 -0.0139068 -0.00462291 -0.00488489
164 2 -0.769743 9.32358 4.08211 11.1289 0.0125097 -0.00226403 0.00380066
165 2 -0.805979 11.3988 2.42516 11.0766 0.016687 -0.0019342 0.00173618
166 2 -0.842994 10.9342 4.0471 9.15362 -0.00484564 0.00638624 -0.00193172
167 2 -0.740823 9.89155 5.77876 12.7134 -0.0168729 0.000101634 -0.0152778
168 2 -0.814246 9.22095 7.92866 14.6232 0.000690626 0.00292693 0.00200652
169 2 -0.859132 10.9746 7.84597 12.7924 0.00451414 -0.0100111 -0.0103918
170 2 -0.825509 12.7791 2.50983 12.7438 -0.00074696 0.00785013 0.000682174
171 2 -0.97443 11.2354 14.5808 12.721 0.00262527 -0.0041558 -0.0106428
172 2 -0.889522 13.207 14.5895 11.1649 -0.00347582 0.00237082 -0.00219474
173 2 -0.900797 12.5246 5.82287 9.84614 0.0101279 0.00817753 0.00645921
174 2 -0.892202 13.0856 7.68294 11.4444 -0.00405416 0.00331522 -0.00797777
175 2 -0.856752 9.35405 9.02144 2.74337 0.00193148 -0.0147052 0.000747843
176 2 -0.768149 9.43018 11.0785 4.21744 -0.00826211 -0.0120761 -0.00101213
177 2 -0.872742 11.5994 9.47192 4.11022 -0.0136142 0.00224315 0.0114549
178 2 -0.8154 10.7822 11.0564 2.4168 0.00896732 -0.00593257 0.00587035
179 2 -0.838666 9.75414 12.9921 5.96605 0.00671036 -0.010235 0.00662178
180 2 -0.876352 11.7507 13.3104 7.8007 0.00791286 0.00182946 0.00912256
181 2 -0.899228 13.2292 9.41566 6.08135 0.00583198 -0.00405071 -0.0127215
182 2 -0.858085 13.1566 11.2323 7.84564 0.000429805 0.00803115 0.014001
183 2 -0.852934 12.7466 12.7217 2.58437 0.00629044 -0.00353961 0.00508002
184 2 -0.940038 11.3465 13.0225 14.782 0.00820724 -0.00396439 -0.0106992
185 2 -0.864086 12.8674 11.1231 15.0926 -0.00927857 0.00367146 0.00367295
186 2 -0.810162 9.60154 9.58875 9.08166 -0.00999599 -0.000588552 0.00220643
187 2 -0.895265 9.43295 11.1281 11.2859 -0.00208356 0.0167044 0.00450209
188 2 -0.707761 11.4566 9.48478 10.9384 0.00494253 -0.00128961 0.00806321
189 2 -0.76558 11.0139 11.4241 9.06527 -0.00975297 -0.00704728 -0.00224596
190 2 -0.901847 9.51318 12.8231 13.2534 0.00431352 -0.00347564 -0.00855971
191 2 -0.929435 12.7465 9.73608 13.0483 -0.00301079 -0.0202736 -0.00432702
192 2 -0.930174 13.2819 12.8891 9.63394 -0.00630043 0.0149842 0.0114157
193 2 -0.613248 8.7278 1.96884 4.65454 0.0151084 -0.00419132 0.0110674
194 2 -0.573342 15.7554 15.6583 12.2749 0.00226185 0.00194022 -0.0117873
195 2 -0.668947 15.1088 4.68549 8.33178 0.00469187 0.00262212 -0.00723462
196 2 -0.588955 8.56454 5.55442 15.2505 0.0108551 -0.0153113 0.00377292
197 2 -0.606813 3.33084 10.2448 14.1626 0.0103565 0.00485531 -0.00233536
198 2 -0.683351 7.10693 14.2207 7.23906 -0.0207449 0.0152172 0.00681581
199 2 -0.645394 5.08057 11.619 12.414 0.00418217 0.00807099 0.0164347
200 2 -0.687259 8.35875 12.7126 9.2362 -0.00645571 0.002974 0.00173029
201 3 0.393618 9.49577 1.44157 4.42552 0.015144 -0.015352 -0.00366665
202 3 0.401922 8.32908 1.55194 5.36206 -0.0376386 0.00936236 0.00648603
203 3 0.383939 15.3663 2.02663 13.0924 0.0450588 0.0593434 0.0475373
204 3 0.415481 2.54811 1.55687 12.2511 -0.0113744 0.0426847 0.0482856
205 3 0.381837 1.46477 4.18513 8.98731 -0.00380259 0.00599762 0.0550577
206 3 0.400573 14.6802 5.45045 8.80275 -0.0324158 0.0202359 0.00905466
207 3 0.406585 9.1206 5.8921 1.80139 0.00543113 0.0352187 -0.0167181
208 3 0.355883 7.54138 5.64789 15.517 0.0206111 0.0419823 0.0178277
209 3 0.370419 3.43634 10.9074 14.9239 0.00491417 0.0186337 -0.0517535
210 3 0.407513 2.97605 10.6278 13.4031 0.0435597 0.00454616 -0.0232357
211 3 0.391752 6.62904 13.5091 7.6802 -0.00153878 0.0235354 0.00866764
212 3 0.339224 7.78449 13.6927 6.77626 0.0292507 -0.00256736 -0.0472126
213 3 0.390979 5.76831 12.2692 12.5558 -0.0129206 0.0290499 0.0141145
214 3 0.408583 5.05821 11.659 11.4789 -0.0195016 0.00396931 -0.00708261
215 3 0.395222 8.90613 11.9134 9.41203 -0.0392578 -0.0101753 0.0237027
216 3 0.386785 8.90213 13.3553 8.82488 0.0384563 0.00450208 -0.0189921
ITEM: TIMESTEP
6000
ITEM: NUMBER OF ATOMS
216
ITEM: BOX BOUNDS pp pp pp
1.5248675000982468e+00 1.5635132499901818e+01
1.5248675000982468e+00 1.5635132499901818e+01
1.5248675000982468e+00 1.5635132499901818e+01
ITEM: ATOMS id type q x y z vx vy vz
1 1 1.72575 1.69204 1.59786 1.60175 0.00938176 -0.000366561 -0.00179959
2 1 1.82532 3.51423 3.26474 3.27149 -0.00155839 0.00632755 -0.000338835
3 1 1.58475 1.73712 4.96862 5.01937 0.00818671 0.0010445 0.00154357
4 1 1.56523 3.61107 6.85584 6.90694 -0.00162416 0.00658235 -0.00923864
5 1 1.63639 4.95517 15.6452 5.24101 0.00103204 0.00507033 -0.000423537
6 1 1.63402 6.87041 3.41551 6.88876 -0.00595767 0.000230195 -0.00332691
7 1 1.53223 5.21916 5.19597 1.71186 -0.00296228 0.00735247 0.00332454
8 1 1.55077 6.92073 7.00358 3.50434 -0.010037 -0.00471522 -0.000302534
9 1 1.85125 15.2573 15.6377 8.69115 0.00556516 0.00441047 -0.00359731
10 1 1.71783 3.16459 3.17268 10.4106 0.00501809 -0.010685 0.000948412
11 1 1.74745 15.485 5.16984 12.0265 -0.000408754 -0.00287307 -0.0116198
12 1 1.46833 3.18262 6.81564 14.0067 0.00533029 -0.000649767 0.00313099
13 1 1.78428 5.18048 1.73478 12.1974 0.00111281 0.00689386 0.00504096
14 1 1.65542 6.90469 3.60597 13.7072 0.00802431 -0.0063842 0.00207038
15 1 1.69109 4.98995 4.89471 8.69737 -0.00419227 -0.00863447 0.00356985
16 1 1.75523 6.81711 6.69173 10.2155 0.00668863 -0.00120264 -0.00379563
17 1 1.7127 15.4371 8.48392 15.6039 0.0012824 0.0129751 0.000193937
18 1 1.7698 3.13072 10.2103 3.27603 -0.000352585 -0.0157636 -0.00264019
19 1 1.90384 1.56127 12.1693 4.95866 -0.00666264 -0.00155134 0.00282662
20 1 1.88481 2.98697 13.9916 6.94894 0.0153579 0.00860689 0.0109677
21 1 1.71315 4.99483 8.76169 5.11 -0.00342676 0.00939231 0.00423859
22 1 1.65064 6.65565 10.5881 6.82648 -0.00265536 -0.00824972 -0.00492879
23 1 1.53311 5.05383 12.0367 15.5433 -0.000902606 -0.000539454 0.000636211
24 1 1.53752 6.7626 13.7798 3.40947 -0.00595372 -0.00347777 0.00124624
25 1 1.61351 1.62234 8.60303 8.24213 0.00359983 -0.00425257 -0.00172022
26 1 1.55272 3.38818 9.95824 10.4058 0.00275326 -0.00486023 0.00376889
27 1 1.36762 1.74493 11.8184 12.1762 0.00415805 0.00571734 0.00474312
28 1 1.73581 3.40694 13.9729 13.7001 0.010133 -0.00325935 -0.0015692
29 1 1.79758 5.01988 8.12993 12.0791 -0.00876174 -0.00596981 0.00823368
30 1 1.6144 6.68018 10.1112 13.9085 0.015073 -0.00605074 -0.00813324
31 1 1.47653 4.79753 12.2307 8.82064 0.00476346 0.000144497 -0.000930736
32 1 1.6145 6.88305 13.7652 10.826 -0.00290546 -0.00136916 0.0116695
33 1 1.64228 8.41467 15.554 15.5724 -0.00893812 -0.00442194 0.00522833
34 1 1.6561 10.3247 3.12131 3.20027 0.0122782 0.0059931 0.00237882
35 1 1.55781 8.48813 4.92444 4.88998 -0.00640632 0.00466708 -0.00425168
36 1 1.68345 10.1131 6.72726 6.61045 -0.00921538 0.00650439 -0.00979035
37 1 1.71094 12.1919 1.74566 5.11523 0.007595 0.000951553 0.00397981
38 1 1.6623 13.8542 3.48787 6.86567 -0.00269316 -0.00422811 -0.0106725
39 1 1.64457 12.1348 5.05923 1.59176 -0.0106044 0.0060223 -0.000859292
40 1 1.62113 13.9205 6.6282 3.2922 0.0020586 0.00352287 -0.00248766
41 1 1.41098 8.3273 15.5198 8.59543 0.00741789 0.00180032 0.00918134
42 1 1.56249 10.4644 3.2461 9.95098 0.00566823 -0.00779088 0.00667354
43 1 1.74257 8.75882 5.13502 11.8989 -0.00324741 0.000527371 0.00469211
44 1 1.57743 10.3891 6.87493 13.8167 0.0021228 -0.00335336 -0.0104472
45 1 1.88705 11.9845 15.5209 12.0068 -0.00732485 -0.00356805 0.00592939
46 1 1.39789 13.8875 3.11972 13.6714 -0.00476345 -0.00391988 0.00872492
47 1 1.69718 12.0421 5.40573 8.46417 -0.00139149 -0.00107469 -0.0125121
48 1 1.77588 13.9101 7.03258 10.2505 0.000489363 -0.00167712 -0.00886419
49 1 1.54089 8.55819 8.65732 1.52317 0.00787753 -0.00267245 -0.0115496
50 1 1.72816 10.3247 10.3783 3.28443 0.00121554 -0.00117315 -0.00815727
51 1 1.76694 8.69581 12.1012 5.11355 -0.00258541 -0.0040669 -0.00095335
52 1 1.70726 10.4503 14.1097 6.82347 0.00177293 0.000842371 -0.00411135
53 1 1.60606 12.073 8.44513 4.91847 -0.000676541 -0.00963149 -0.00175598
54 1 1.72005 13.9562 10.5609 6.72715 0.000967036 7.11125e-05 -0.0044279
55 1 1.77419 12.0074 12.2396 1.66659 0.0138585 0.00677691 -0.00285992
56 1 1.77225 13.8755 14.0403 3.23167 -0.000373291 0.00851353 -0.000468787
57 1 1.56737 8.47123 8.47884 8.33419 0.000832644 0.0109627 0.00298693
58 1 1.67335 10.2875 10.182 10.115 -0.00166733 -0.00360229 0.00385019
59 1 1.69789 8.62741 11.7872 12.3168 -0.0221566 -0.0053369 -0.0042606
60 1 1.70439 10.3059 13.7828 13.9962 -0.0038068 -0.00089663 0.00300222
61 1 1.64677 12.1272 8.60741 12.007 0.000897949 0.00170055 -0.00479504
62 1 1.58759 13.874 10.5999 14.0461 0.00459284 -0.000824074 0.000307016
63 1 1.72343 12.0957 12.0542 8.57497 -0.00418521 0.00757857 -0.00890228
64 1 1.76486 13.8232 13.6948 10.4178 0.000649108 -0.00158234 0.00392359
65 2 -0.955982 2.58203 2.54946 2.27242 -0.00371221 -0.00579767 0.0133892
66 2 -0.899371 2.44459 14.7479 14.5558 0.00914563 -0.000972035 0.0131491
67 2 -0.829671 14.8119 2.38877 14.8228 0.00904544 -0.00170722 0.00134018
68 2 -0.876849 14.8994 14.6461 2.29317 -0.0109344 0.00624716 0.00685287
69 2 -0.812975 2.58282 4.36213 3.7959 0.00590679 -0.00853976 -0.00298984
70 2 -0.93143 3.97165 2.37195 4.37596 0.0125368 -0.0101605 0.0195221
71 2 -0.825004 4.7073 3.99504 2.61848 -0.00675805 -0.000492186 -0.000769047
72 2 -0.743481 2.78903 5.78768 5.7866 0.014406 0.00307323 -0.00761707
73 2 -0.828245 14.8946 4.02002 5.68617 0.00493983 -0.0146607 -0.00325816
74 2 -0.780543 14.8317 6.16122 4.43342 -0.00284959 -0.00163217 -0.00496216
75 2 -0.810724 4.17945 6.11697 8.17329 -0.0239006 -0.00307434 0.0179734
76 2 -0.834462 4.66168 7.58854 5.95833 0.00989877 -0.0122317 -0.000129121
77 2 -0.890243 2.56336 7.86297 7.24393 0.00654222 0.00080653 0.00367079
78 2 -0.851543 5.81792 2.60661 6.0364 0.00415482 0.024286 0.00424862
79 2 -0.881684 4.19117 14.797 6.29655 0.00682147 -0.00386827 0.000108011
80 2 -0.882231 5.92144 14.6592 4.44893 0.0108531 -0.0171767 -0.00329916
81 2 -0.859166 5.98465 4.43703 7.67289 0.00169962 -0.00903025 0.0171488
82 2 -0.854724 8.0269 4.14962 6.13136 0.0151074 0.00942037 0.000518405
83 2 -0.785333 7.21636 2.33151 7.96662 -0.000775928 0.0021066 -0.00815871
84 2 -0.792124 5.82203 6.35793 2.54628 0.00887689 0.0127144 0.000745334
85 2 -0.674664 3.8302 5.70735 15.0968 -0.00135517 -0.00317585 0.000582331
86 2 -0.843503 6.21729 4.54815 14.7544 -0.00417794 0.0101695 0.00141191
87 2 -0.717284 6.35051 8.12645 4.49508 -0.00874583 0.00228811 0.0037433
88 2 -0.81298 7.2999 5.66855 4.09091 -0.00409999 0.00651412 0.0137572
89 2 -0.772271 8.15223 7.77932 2.77091 -0.0039279 -0.0153229 0.00234574
90 2 -0.863527 2.34241 2.21354 9.4943 0.00597622 0.0108643 -0.00253922
91 2 -0.90494 2.04038 14.8131 7.7153 -0.00359668 -0.00217171 -0.00141213
92 2 -0.958509 14.4555 2.42041 7.80588 -0.00415118 0.00116561 -0.004036
93 2 -0.957135 14.612 14.5141 9.44167 0.00887402 -0.0120415 -0.00377972
94 2 -0.907449 2.42642 4.25671 11.2708 -0.0098868 0.00939435 0.00315267
95 2 -0.941127 4.09336 2.4085 11.3501 -0.00349014 0.00854795 0.00269465
96 2 -0.825923 3.77919 4.01338 9.2771 -0.00948511 0.00512374 4.69878e-05
97 2 -0.731036 2.05918 6.12515 13.1717 0.00261018 0.00339045 0.00652668
98 2 -0.819834 14.6631 4.35683 12.961 0.010391 0.0121663 0.00438714
99 2 -0.935651 14.7895 5.94039 11.006 0.003117 0.00489567 0.00394254
100 2 -0.853585 2.536 7.83487 14.9503 -0.00288133 -0.00746004 -0.00373148
101 2 -0.874505 4.1935 7.07269 12.6967 0.019274 -0.00120183 -0.00423277
102 2 -0.894464 5.7619 2.84251 13.0846 0.00327176 0.00846986 0.00426763
103 2 -0.918527 4.50031 14.8346 13.1005 0.00577856 -0.00444441 -0.0106832
104 2 -0.852439 6.34834 14.9618 11.5619 -0.00664008 0.00204604 -0.00538261
105 2 -0.750191 7.72448 2.64707 14.7565 -0.00489708 -0.0178454 -0.00636456
106 2 -0.912116 8.04188 4.11668 12.8205 -0.00351844 -0.000851649 0.000906437
107 2 -0.843305 5.90011 5.56182 9.76715 -0.00445509 -0.00234044 0.00864385
108 2 -0.955887 6.14567 7.63778 11.249 0.00355169 -0.0150564 0.00106421
109 2 -0.91344 7.80433 5.76727 10.9054 0.0112465 -0.00987365 -0.00839082
110 2 -0.794062 7.34029 7.58259 9.00991 -0.0012514 0.00562798 0.0203554
111 2 -0.933143 2.1043 9.43516 2.48525 -0.0144211 0.00488567 0.00691746
112 2 -0.858216 14.7063 7.25742 2.06632 -0.00699478 0.00574214 0.00545073
113 2 -0.869295 14.7402 9.45698 14.6135 -0.00416583 0.00398709 -0.000739209
114 2 -0.967558 2.54575 11.163 4.24672 0.00405179 0.000978127 0.00145846
115 2 -0.902124 4.17787 9.27843 3.88889 0.000405279 -0.0164566 -0.000486017
116 2 -0.783478 4.02691 11.1094 2.19057 0.00116029 0.0118073 -0.0104347
117 2 -0.933298 2.29421 13.1502 5.89253 0.00752945 0.00839838 -0.00997882
118 2 -1.01149 14.9367 11.3346 5.92755 0.00745053 -0.00125227 -8.6697e-05
119 2 -0.923162 14.8708 13.1063 4.0582 0.00642595 -0.0032143 -0.00885431
120 2 -0.830373 3.70038 13.13 7.94671 -0.00775187 0.0102202 -0.00675738
121 2 -0.864642 5.59297 9.83622 6.01471 0.00566853 -0.00711054 -0.00545741
122 2 -0.82118 5.69633 11.3658 7.94221 -0.00902411 0.00675668 -0.00434012
123 2 -0.949657 7.61472 11.5213 6.12646 -0.00552364 0.00797232 -0.00554644
124 2 -0.804294 7.50376 9.56409 7.6824 0.00372744 0.0182789 -0.0113895
125 2 -0.729807 5.64419 12.9594 2.60077 0.00404693 0.00240911 -0.00263386
126 2 -0.799386 4.17756 12.817 14.4996 0.0106502 -0.00256089 -0.00461203
127 2 -0.731384 6.3547 11.2826 15.0615 0.00419081 -0.00489747 -0.0112399
128 2 -0.82782 7.31235 14.7718 2.34131 0.0098174 -0.0098333 -0.00326178
129 2 -0.869558 7.86658 12.7719 4.01748 -0.00173819 0.0165986 0.00223925
130 2 -0.782418 2.65288 9.08239 9.33057 0.00427374 0.00409303 -0.00403152
131 2 -0.850263 14.9383 7.59629 9.24079 -0.00836945 0.00585899 0.00350026
132 2 -0.907484 14.6322 9.5078 7.56631 0.00775639 0.00133266 -0.000322795
133 2 -0.690772 2.04091 10.4727 11.4112 0.000163015 0.000140694 0.00223109
134 2 -0.972169 4.22434 9.12153 11.2949 -0.00262128 0.00894929 0.00502409
135 2 -0.804336 3.90649 11.3152 9.80161 -0.0014023 -0.00788962 0.00350193
136 2 -0.746811 2.71229 13.2129 12.5732 -0.00212864 0.0141725 0.00100695
137 2 -0.809228 14.8854 11.5499 13.3678 0.0120041 -0.008803 -0.00171903
138 2 -0.701678 14.7399 12.6229 10.9857 -0.00597424 0.0114123 -0.0143937
139 2 -0.819075 5.62834 9.1679 13.2254 -0.016288 0.00564633 -0.00379364
140 2 -0.812517 7.27079 9.11375 14.8821 -0.00117487 -0.00394772 -0.0037458
141 2 -0.897666 7.85588 10.7638 13.189 0.00753835 -0.00293099 -0.00329086
142 2 -0.830398 5.7277 13.0998 9.87243 -0.0130353 -0.000401953 -0.00430044
143 2 -0.727678 7.85195 14.5245 9.86945 0.000972161 -0.00855159 0.000904824
144 2 -0.9433 7.72762 12.8896 11.7687 0.0161456 0.00858491 0.00204951
145 2 -0.806345 9.5804 2.07057 2.20096 -0.00730389 -0.00177475 -0.00492549
146 2 -0.865582 9.24672 14.7125 14.6175 -0.000823126 -0.00108696 0.00385411
147 2 -0.840679 9.13883 3.90625 3.90174 -0.00298637 -0.00211229 0.00503196
148 2 -0.85615 11.3222 2.28942 3.92897 0.00648626 -0.0177938 -0.00460287
149 2 -0.852149 11.1192 4.16294 2.337 0.00193981 -0.00191928 0.011827
150 2 -0.772809 9.61475 6.01797 5.2901 -0.00829572 0.00119128 0.00829803
151 2 -0.901778 10.7196 5.87358 7.65626 -0.00674165 -0.00656911 0.00957839
152 2 -0.804723 11.2477 7.58481 5.97836 -0.0131813 -0.00632961 -0.00233103
153 2 -0.826649 9.00298 7.70204 7.07314 -0.00591677 0.015377 0.00780662
154 2 -0.846328 12.6922 2.85882 6.08192 0.00174152 -0.00406763 0.00561358
155 2 -0.909772 11.3444 14.8789 5.89468 0.00704186 0.00803388 -0.00625274
156 2 -0.827418 13.2857 15.1775 4.14439 -0.0115972 -0.00172166 0.00917251
157 2 -0.86291 13.0523 4.67026 7.65417 -0.00140491 0.01274 0.00170846
158 2 -0.79194 12.894 5.48336 2.84695 0.00524593 -0.00112211 -0.000589737
159 2 -0.719445 11.6234 6.26436 14.8752 -0.00351281 0.00499662 -0.00602841
160 2 -0.647067 12.7113 4.28922 14.5289 -0.00302562 0.00769239 0.00586044
161 2 -0.853074 12.9049 7.58252 3.94286 -0.00154123 0.00949251 0.0017507
162 2 -0.72187 9.16545 2.55209 9.48939 0.00771382 0.00219754 -0.00196939
163 2 -0.858077 9.51803 15.0531 7.50018 -0.00360277 0.0103925 0.000729977
164 2 -0.716459 9.79527 4.26082 11.1903 -0.00496523 -0.00582511 0.00255825
165 2 -0.805013 11.4079 2.34959 10.9083 -0.00183076 0.00460539 -0.00918983
166 2 -0.80449 11.4046 4.07902 9.16606 0.00950363 -0.00961351 -0.00665601
167 2 -0.852497 9.53774 6.2511 12.6322 -0.00592544 -0.00244224 0.00852066
168 2 -0.768212 9.63834 7.99131 14.5703 0.00303268 -0.00442415 -0.00197932
169 2 -0.78078 11.4351 7.64493 12.9244 -0.00765524 0.0133216 0.00471563
170 2 -0.838426 12.7635 2.38699 12.7789 -0.0016019 -0.0128259 0.0024475
171 2 -0.849813 11.0239 14.7131 12.8531 0.0060777 0.00249962 -0.00166821
172 2 -0.934499 12.9941 14.6585 11.3254 -0.00716682 -0.0134981 0.00653283
173 2 -0.918407 12.7137 6.30178 9.47612 -0.0127037 0.00117129 -0.0136692
174 2 -0.905822 13.3125 7.89426 11.2505 -0.00327525 -0.00822299 0.0112523
175 2 -0.783676 9.37843 9.85337 2.14457 0.00284974 0.00762353 -0.0110979
176 2 -0.871203 9.59772 11.078 4.3745 -0.00490203 0.0137927 0.0101356
177 2 -0.82467 11.1031 9.19557 4.01 -0.0101467 0.00149458 0.0129152
178 2 -0.892661 11.0527 11.6306 2.66025 -0.00723423 0.00105988 -0.0157339
179 2 -0.90925 9.56483 13.012 5.91581 -0.0100568 -0.0214711 -0.0151997
180 2 -0.809253 11.4393 13.2149 7.54293 0.00608401 -0.00622689 -0.00189967
181 2 -0.700406 12.6995 9.67709 5.79188 -0.00174496 -0.00162578 0.00650027
182 2 -0.863655 12.9464 11.3774 7.51125 -0.00820417 0.00618182 0.00613013
183 2 -0.912932 12.8417 13.3265 2.40291 0.00109731 0.00462598 -0.00148394
184 2 -0.910672 11.4828 13.0933 14.5925 -0.00538309 -0.00214158 0.00339006
185 2 -0.862148 12.8582 11.1053 15.2028 -0.00256368 0.00116372 -0.00656284
186 2 -0.878377 9.31994 9.19033 9.45324 0.00877351 0.00482185 -0.00357095
187 2 -0.806367 9.6044 11.0619 11.1776 -0.000889916 0.00305623 -0.00390302
188 2 -0.846071 11.0971 9.36161 11.1371 -0.00161032 -0.000674589 0.00101075
189 2 -0.836113 11.1818 10.8217 8.93002 -0.00648712 0.0068555 -0.000841261
190 2 -0.799502 9.53639 12.5879 13.1774 -0.00621123 0.000832224 0.00294844
191 2 -0.677754 13.0018 9.72464 13.0103 -0.00107694 -0.0049867 -0.00272339
192 2 -0.909991 12.6897 12.7579 9.68103 0.00286976 -0.00624482 0.00781664
193 2 -0.64166 8.23954 1.83908 4.92167 -0.000782237 0.0017676 -0.0120311
194 2 -0.647967 15.2802 1.8347 12.4091 -0.00638014 -0.00550137 0.00757928
195 2 -0.608477 15.5754 4.88564 8.1204 0.00729302 -0.0043139 0.00610592
196 2 -0.690489 9.08256 5.38999 14.9422 0.00081816 -0.0194876 -0.00523237
197 2 -0.600592 3.08349 10.5563 13.6664 -0.0148653 -0.00281961 0.011046
198 2 -0.720442 7.24153 13.9031 7.34716 0.005051 -0.00416796 0.00562179
199 2 -0.610837 5.50171 11.6289 12.3465 -0.00116766 0.00821923 -0.00406627
200 2 -0.642868 8.73244 12.0247 8.51268 -0.0121475 -0.00558842 0.00997235
201 3 0.411509 8.57774 15.1578 5.11166 -0.0236063 0.0158064 0.00941285
202 3 0.398584 7.29993 2.04481 4.84267 0.00540867 -0.0154009 0.0243012
203 3 0.380893 1.80757 2.51223 12.5165 -0.0276392 0.00910637 0.0108582
204 3 0.408492 15.2799 15.5166 13.2859 -0.00530973 -0.00235639 -0.0341294
205 3 0.404509 15.4681 5.7752 7.85486 0.0512733 0.0642017 -0.0486774
206 3 0.393701 15.3629 4.61318 9.10434 -0.00258798 -0.0120823 0.0366037
207 3 0.422622 8.36209 5.31816 14.4666 0.0391971 -0.0314106 -0.00204479
208 3 0.407544 9.32675 4.89869 1.79379 0.0479762 0.0512383 0.0471038
209 3 0.405529 2.95936 9.79055 13.0436 0.0509599 -0.0341026 -0.013067
210 3 0.422702 2.79808 10.2792 14.5603 -0.0317714 0.0334435 -0.0409336
211 3 0.396509 6.59698 13.7844 7.97698 0.00830881 -0.0404892 -0.0489309
212 3 0.391108 6.74522 13.9317 6.54118 -0.0482514 0.0318783 0.0213683
213 3 0.383726 6.245 12.2786 12.5826 -0.0335823 -0.0520419 0.038117
214 3 0.388907 5.46075 11.4348 11.3645 -0.0245565 0.000199264 0.0333883
215 3 0.40687 8.43637 11.2243 8.15246 -0.0282912 0.00592326 -0.0114764
216 3 0.418745 8.75223 12.6803 7.80334 0.0202239 -0.0319772 0.0406901
ITEM: TIMESTEP
8000
ITEM: NUMBER OF ATOMS
216
ITEM: BOX BOUNDS pp pp pp
1.5399812347568345e+00 1.5620018765243190e+01
1.5399812347568345e+00 1.5620018765243190e+01
1.5399812347568345e+00 1.5620018765243190e+01
ITEM: ATOMS id type q x y z vx vy vz
1 1 1.65538 15.3564 1.57716 1.72995 -0.00447124 0.00340709 -0.00301746
2 1 1.82774 3.19327 3.399 3.28531 -0.00357373 0.000438135 -0.0017056
3 1 1.82864 15.473 5.18067 4.98005 0.00226124 0.0047118 -0.00370328
4 1 1.72612 3.03474 7.06852 6.67377 -0.00176747 -0.0178534 -0.00597342
5 1 1.59898 4.92342 15.3922 4.77734 0.000109848 -0.000820769 -0.00160108
6 1 1.55048 6.55683 3.41626 6.544 0.000599646 0.0113188 -0.00428446
7 1 1.89105 5.29732 5.19564 1.81036 0.00165893 0.00135769 0.00218573
8 1 1.63545 7.07942 6.8446 3.54062 -0.00538768 -0.0107248 -0.0111217
9 1 1.69543 1.74215 15.5205 8.56999 -0.00254472 -0.0108674 0.00459482
10 1 1.72291 3.46538 3.35783 10.2346 0.0171533 -0.00647205 -0.00338869
11 1 1.61882 1.84725 5.13278 12.226 -0.00813883 -0.00144479 0.00500377
12 1 1.66025 3.63346 6.84062 13.9759 -0.00223211 -0.00491534 0.00562741
13 1 1.91992 4.98172 1.64209 12.221 -0.00999092 0.00381184 0.00990424
14 1 1.63475 6.74503 3.31255 13.9836 0.000241696 0.00386214 0.00159113
15 1 1.80173 4.82099 5.17998 8.2177 -0.00204304 -0.00814396 0.00165179
16 1 1.79838 6.75145 6.53574 10.1025 0.00686982 0.00956939 0.000953379
17 1 1.73103 1.60821 8.58933 15.5282 0.000632282 0.00547717 0.00816409
18 1 1.64039 3.30776 10.2039 3.37431 -0.010573 0.000383612 0.00399743
19 1 1.67541 1.55887 11.7784 5.26903 -0.00968273 -0.00473811 -0.0047083
20 1 1.73308 3.41199 13.715 6.74613 -0.00675045 -0.00448821 0.00297278
21 1 1.75627 5.14668 8.63091 5.09794 0.00644294 0.000690032 0.00200521
22 1 1.52136 6.85643 10.2826 6.98855 -0.00593626 -0.0175597 0.000162913
23 1 1.62325 4.93819 11.9666 15.598 0.00933857 -0.0057917 -0.000168876
24 1 1.33582 6.8942 13.6884 3.07614 -0.00632965 -0.00180398 -0.000437588
25 1 1.69172 15.2686 8.69354 8.53567 -0.00355054 0.0106407 0.00132564
26 1 1.67377 3.16558 10.3046 10.1756 -0.00302264 0.00182291 -0.00438117
27 1 1.47973 15.5786 11.8373 12.2203 -0.000720698 -0.0108384 0.000706106
28 1 1.74531 3.29176 14.09 14.1107 -0.007623 -0.00664201 -0.00180334
29 1 1.70851 5.0579 8.57883 11.8032 0.00817292 -0.00157547 -0.00666535
30 1 1.40903 6.77712 10.488 13.6648 -0.014988 -0.0034644 -0.0065974
31 1 1.66944 5.09202 12.1042 8.7593 0.0120157 0.00658308 7.48012e-05
32 1 1.58014 6.83261 14.2576 10.2268 -0.00124544 -0.00122188 0.0149036
33 1 1.57934 8.77244 1.59187 15.5112 0.00594527 0.0106306 -0.000518409
34 1 1.55473 10.5274 3.25257 3.3284 -0.00536658 0.00413141 0.0138244
35 1 1.68116 8.78759 5.07107 5.21629 0.00429592 -0.00141414 0.00230536
36 1 1.85769 10.5664 6.77826 6.9038 0.0124332 -0.0135211 -0.00783808
37 1 1.46839 12.1939 15.4538 5.08016 0.0117393 -0.00936255 0.0122889
38 1 1.6053 14.0243 3.20441 6.89036 -0.0100914 0.00737284 -0.00623482
39 1 1.65745 12.1214 5.07956 15.4682 0.00413733 -0.0057859 0.00497356
40 1 1.95128 13.9025 6.7361 3.00008 0.00436187 0.00642215 0.00176241
41 1 1.76594 8.47126 1.98934 8.53171 -0.00401086 0.0047319 -0.000982851
42 1 1.7762 10.1718 3.51147 10.3248 0.00458205 0.0154382 0.00634321
43 1 1.88888 8.40089 5.04665 12.0997 0.000152567 -0.000295699 0.00612567
44 1 1.67298 10.1816 6.88809 13.8568 -0.000444996 0.00941094 -0.00678793
45 1 1.49038 12.1518 15.5091 11.9094 -5.5496e-05 -0.00220378 -0.00406831
46 1 1.49214 14.0142 3.05916 13.537 -0.00304497 -0.0152248 0.00200897
47 1 1.68868 12.1798 4.96092 8.66201 -0.00645922 0.00795689 0.00833107
48 1 1.51195 13.9212 6.74362 10.5704 -0.00129427 0.00656507 -0.0092078
49 1 1.6015 8.38407 8.64093 15.5665 0.00276257 -0.00155763 0.00021681
50 1 1.4696 10.1891 10.3082 3.24044 -0.00280034 0.00639901 0.00133245
51 1 1.54534 8.60966 12.0438 5.20061 -0.00323446 -0.00376043 0.00616871
52 1 1.42669 10.2057 13.9203 7.06772 0.000678144 -0.00214089 0.00808103
53 1 1.65978 11.9564 8.30544 4.67551 0.00800275 0.00382361 -0.00401741
54 1 1.68063 13.4655 10.2201 6.67267 0.00342024 0.00101934 -0.00675561
55 1 1.52647 11.999 12.2636 1.76761 -0.00241335 -0.00278458 0.000528818
56 1 1.64785 14.0565 13.6102 3.44546 0.00281145 0.00329363 -0.00212485
57 1 1.63346 8.73182 8.45351 8.72834 0.00453089 0.00957477 0.00214977
58 1 1.68195 10.3298 10.3757 10.4095 -0.00651072 -8.69088e-05 -0.00517105
59 1 1.58024 8.58137 12.3349 11.9581 9.69923e-05 -0.00457628 0.00720038
60 1 1.55537 10.4321 13.8577 13.7579 -0.00198685 0.000988047 -0.00151023
61 1 1.69245 12.0428 8.54718 12.1745 3.76237e-05 -0.00737837 7.28495e-06
62 1 1.69113 13.5874 10.3484 14.1406 -0.00395434 -0.00595721 -0.00383889
63 1 1.64933 12.0541 11.9552 8.58853 -0.00196525 -0.00316774 -0.000682332
64 1 1.56275 14.025 13.4928 10.1836 0.00883422 0.00143006 -0.00615191
65 2 -0.875333 2.28769 2.64673 2.37586 -0.00278909 0.0197412 -0.00218627
66 2 -0.895107 2.08502 14.7379 14.8211 -0.0129782 -0.00452138 -0.00171485
67 2 -0.809233 14.2613 2.30965 14.9035 -0.000222251 -0.000387516 -0.00104993
68 2 -0.850833 14.9123 14.743 2.86774 0.00509095 0.00952738 0.00750425
69 2 -0.883772 2.42584 4.14984 4.28266 -0.00369382 -0.00787875 0.011134
70 2 -0.761958 3.72746 2.2585 4.24322 -0.0116187 -0.00340111 -0.00406744
71 2 -0.897081 4.19508 4.36745 2.58821 -0.00274176 0.000146662 0.00456424
72 2 -0.913929 2.17965 6.31322 5.51359 -0.0151042 0.00258277 0.00803218
73 2 -0.869624 14.7809 4.29058 6.06758 -0.0102974 -0.0160816 0.00613014
74 2 -0.990801 14.4497 5.7891 4.04968 0.00679466 0.000952452 0.0021319
75 2 -0.883877 3.67302 6.19416 7.78283 0.00108677 0.00481905 -0.00598072
76 2 -0.872485 4.30205 7.60726 5.95939 -0.00429022 0.012426 -0.00125633
77 2 -0.907492 2.13759 7.91291 7.50178 -0.00541732 -0.0060702 0.00256117
78 2 -0.79843 5.85741 2.37116 5.45763 -0.0111273 -0.0137844 -0.000277901
79 2 -0.775361 4.30244 14.81 6.04901 0.00936805 -0.00139887 0.000538649
80 2 -0.787805 5.58699 14.3737 3.85669 0.00807143 0.00306684 0.00222251
81 2 -0.842945 5.45634 4.26353 7.15212 -0.00909893 -0.016824 0.00411011
82 2 -0.835502 7.47506 4.4757 5.73921 -0.00432984 0.00110844 0.00484986
83 2 -0.825595 7.25371 2.62499 7.8126 0.00946753 0.00139943 -0.00578327
84 2 -1.01791 6.20036 5.94668 2.7349 -0.0026506 0.00806823 -0.00252418
85 2 -0.965415 4.5588 6.01656 14.9026 0.00904577 0.00147471 -0.012317
86 2 -0.895236 6.08243 4.06626 15.2443 -0.010547 0.00457475 -0.00163887
87 2 -0.835624 6.27562 7.81735 4.49794 -0.00443817 0.0027743 0.00165148
88 2 -0.776399 8.25417 6.30968 4.43696 0.0065683 0.0067688 -0.00156141
89 2 -0.775632 8.13001 7.4378 2.34744 -0.00866806 0.00286355 0.000108364
90 2 -0.960491 2.49358 2.49241 9.35448 -0.00166318 -0.00295827 -0.0133025
91 2 -0.829387 2.54959 14.6968 7.44905 -0.00390829 0.0138408 0.00422631
92 2 -0.846757 14.846 2.07498 7.62983 -0.00326737 -9.23638e-05 0.00443737
93 2 -0.848519 14.9963 14.5357 9.57251 -0.00244646 0.0101682 -0.000656962
94 2 -0.909321 2.73694 4.30631 11.1554 -0.00341012 -0.00458023 0.00127341
95 2 -0.970948 4.25368 2.25874 11.0935 0.00730035 0.00650925 0.000854314
96 2 -0.931594 4.21569 4.31588 9.23537 -0.00068386 -0.000419867 -0.00459703
97 2 -0.820907 2.65588 5.81681 13.275 0.00146623 -0.00157331 -0.0143332
98 2 -0.722906 14.9837 4.22518 13.2438 -0.00225898 0.000604654 0.00571943
99 2 -0.803815 15.1429 6.21916 11.4951 0.00190045 0.0028212 0.0186316
100 2 -0.885771 2.49894 7.6736 14.663 0.00487998 0.00858084 0.00737047
101 2 -0.859009 4.34152 8.00922 13.1276 -0.00552143 -0.00151561 -0.0012951
102 2 -0.971288 5.70797 2.50101 13.2135 0.00542846 0.00381216 -0.00594396
103 2 -1.00375 4.01625 14.8724 13.0907 0.0166988 -4.54022e-06 0.000851687
104 2 -0.875902 6.02914 14.9245 11.5186 0.00151185 -0.00758012 -0.000360461
105 2 -0.876201 7.9509 2.69672 14.6866 0.0113839 -0.00556 0.00172497
106 2 -0.887905 7.34702 4.59016 13.0928 0.0113407 0.00194127 0.00847175
107 2 -0.903546 6.00496 5.77884 9.02976 0.00840434 -0.00946491 -0.00678875
108 2 -0.853666 5.7595 7.63285 10.8181 -0.000929246 0.0108815 0.00797435
109 2 -0.959372 7.52341 5.65338 11.0128 0.00742334 0.00228869 0.00121981
110 2 -0.849258 7.76172 7.60368 9.52772 -0.00734935 -0.00305175 -0.00220946
111 2 -0.843299 2.34717 9.6903 2.13052 0.00335134 -0.00254155 -0.0169901
112 2 -0.894058 14.9773 7.67714 2.59809 -0.00415318 -0.00764734 -0.0117719
113 2 -0.829946 14.5439 9.36469 14.9286 0.00563303 -0.00668723 -0.000744129
114 2 -0.874219 2.66373 10.8545 4.61254 -0.00906058 -0.00067396 -0.0191559
115 2 -0.864948 4.40961 9.17544 3.8489 -0.00154436 -0.0132948 -0.0123348
116 2 -0.811274 4.03064 11.198 2.49576 0.00241682 -0.0091991 0.0144628
117 2 -0.814489 2.47719 12.9429 5.73663 0.00500477 -0.000191758 0.0111202
118 2 -0.834525 14.4696 11.3261 6.09527 -0.000298908 -0.00122765 -0.00028703
119 2 -0.812586 14.7688 12.4214 4.07421 0.000394524 0.00525195 0.0034729
120 2 -0.865702 4.2829 12.7467 7.56015 -0.0130039 0.0108085 -0.00791977
121 2 -0.838622 5.80244 9.65311 5.98132 0.023623 -0.00166279 -0.00255922
122 2 -0.775495 5.97502 10.8871 8.30828 0.00295312 -0.0165967 -0.00404634
123 2 -0.859448 7.58756 11.3552 6.16003 0.000131669 0.0049007 0.00692878
124 2 -0.762959 7.72564 9.13638 7.66558 0.00537079 -0.00268649 0.00470498
125 2 -0.735869 6.18574 12.3838 2.28095 -0.00972747 0.00656505 0.0167394
126 2 -0.858162 4.17296 13.2744 15.1245 -0.0140046 -0.000778829 0.00597741
127 2 -0.749994 5.4607 10.8543 14.6208 0.0166275 0.0112263 0.00554733
128 2 -0.809239 7.94502 14.7827 2.4284 0.0042426 -0.00371349 -0.0138989
129 2 -0.722703 7.5993 13.0351 4.42 -0.00704593 0.0119717 -0.0128381
130 2 -0.859448 2.19944 9.63745 9.19939 -0.00774371 0.011406 -0.00438536
131 2 -0.776117 14.295 7.90466 9.57142 0.000591451 0.0002742 0.0103968
132 2 -0.885897 14.2255 9.44753 7.79989 0.00180961 0.0161164 -0.0104463
133 2 -0.807818 2.11001 11.1657 11.0239 -0.00607208 -0.00214113 -0.00584517
134 2 -0.970706 4.1391 9.54359 11.161 -0.00712012 -0.0133814 0.000527559
135 2 -0.863098 3.90167 11.3554 9.2988 0.010324 0.00325196 -0.000889507
136 2 -0.761122 2.80367 12.8866 13.2931 0.000151997 0.0101147 0.00483089
137 2 -0.784296 14.3691 11.214 13.0512 0.0129701 -0.0126175 0.00616266
138 2 -0.781045 14.8074 12.9155 11.4341 0.0102978 -0.00581411 0.00855825
139 2 -0.695668 6.23407 9.21433 12.5089 0.00128919 -0.00160717 -0.00357488
140 2 -0.755989 7.44518 9.35079 14.5742 -0.00898795 -0.00235165 0.000290927
141 2 -0.76855 7.72701 11.6297 13.0758 0.00151899 0.0063488 0.00163825
142 2 -0.949847 5.95452 13.1973 9.26385 0.00100258 0.0161896 0.0107427
143 2 -0.960522 7.76178 15.2064 9.54495 -0.0101533 0.016019 0.00203062
144 2 -0.88783 7.59181 13.2087 11.0735 -0.00190212 -0.000556444 -0.00537079
145 2 -0.79201 9.96349 2.39192 2.10609 -0.00249125 0.0049039 0.00538352
146 2 -0.82431 9.32705 14.8408 14.3731 -0.00107276 -0.00709954 0.000510067
147 2 -0.854971 9.64111 4.19767 4.18942 0.0062936 -0.00419739 0.00291394
148 2 -0.812978 11.4014 2.09642 3.92531 -0.00382766 0.0109501 -0.00137154
149 2 -0.82084 11.3004 4.34911 2.39783 -0.0056688 -0.0109402 -0.00739973
150 2 -0.932804 9.72363 5.72918 6.24457 0.0109699 -0.00744543 0.00976711
151 2 -0.908268 11.6195 5.94239 7.74804 0.00299795 0.0147389 -0.0148914
152 2 -0.922516 11.3726 7.55134 5.8409 -0.00414699 0.00790421 0.00169674
153 2 -0.891744 9.88301 7.64316 7.93006 -0.000405488 0.011594 0.016029
154 2 -0.744306 13.1056 2.40549 5.85212 0.00870361 0.00633221 -0.0150211
155 2 -0.633813 11.5497 14.3496 5.96546 -0.00419459 0.000727729 0.00766747
156 2 -0.657248 13.3895 14.4144 4.55057 0.00585297 0.000727379 0.00374021
157 2 -0.845348 12.9891 3.8246 7.94492 -0.00864986 0.00713694 -0.00415832
158 2 -0.91447 13.2845 5.89366 1.9464 -0.00444228 -0.00566876 0.00735405
159 2 -0.786603 11.2138 6.20925 14.7758 0.00582318 0.00319449 -0.0155696
160 2 -0.594705 12.8164 4.21489 14.2643 0.0233902 -0.00949622 0.0108665
161 2 -0.879374 12.8518 7.71375 3.42615 -0.00119312 -0.00593427 -0.00867352
162 2 -0.912917 9.20888 3.11326 9.19464 -0.0025677 -0.000678576 -0.00236414
163 2 -0.897404 9.41131 15.1981 7.6832 0.00748097 -0.0161324 0.0114799
164 2 -0.941694 9.26739 4.02843 11.4587 -0.00568927 0.0111692 -0.0122178
165 2 -0.762124 11.0375 2.35005 10.9006 0.0111524 -0.00435166 -0.00832346
166 2 -0.867703 11.0371 4.58508 9.73464 0.00581161 -0.0108858 -0.0126766
167 2 -0.861327 9.37468 6.02887 12.7357 0.0100285 0.00885171 0.00295433
168 2 -0.804466 9.49919 8.03841 14.7044 -0.00385515 0.0163458 -0.00764816
169 2 -0.820476 10.9236 7.67455 12.704 0.0108473 0.00612868 -0.00260852
170 2 -0.839368 13.0328 2.58926 12.4781 -0.00502257 -0.00993065 0.00909743
171 2 -0.795086 11.7178 14.5435 13.0267 0.000445762 0.00668437 0.0032599
172 2 -0.707677 12.7622 14.4454 10.9713 0.0156392 0.00392815 0.00781218
173 2 -0.801024 13.2166 5.70095 9.67019 0.00119212 0.00549896 -0.0235568
174 2 -0.720619 13.2624 7.64308 11.7554 -0.00721881 0.00374846 -0.00939173
175 2 -0.718944 8.78376 9.86197 2.48271 -0.0230056 -0.010096 0.00435671
176 2 -0.722507 9.62625 11.18 4.48495 -0.0025818 0.013754 1.21892e-05
177 2 -0.763969 10.8198 8.98762 3.89172 0.00208054 -0.00945182 -0.0145521
178 2 -0.725747 11.1353 11.4594 2.84927 -0.00743031 -0.00646755 -0.00242385
179 2 -0.756705 9.68646 12.8177 6.07595 0.0109663 0.0117336 0.0153102
180 2 -0.734349 11.2112 13.1119 8.00158 0.00754237 -0.00583721 -0.00256509
181 2 -0.820526 12.6701 9.41236 5.5437 -0.00744658 0.000502882 0.00356702
182 2 -0.850926 12.5068 11.1248 7.41413 0.0133234 -2.29209e-06 0.00376798
183 2 -0.816492 12.7134 13.3617 2.57103 -0.000120679 -0.0239655 -2.52861e-05
184 2 -0.725659 10.7296 12.7994 14.8767 -0.0105208 0.00829411 0.00242486
185 2 -0.902799 12.7729 11.133 15.1346 0.000221455 0.005845 0.00713395
186 2 -0.910261 9.38889 9.69939 9.48828 -0.00265634 0.00255389 0.00834744
187 2 -0.794167 9.20079 11.1414 11.2421 -0.00312999 0.00278526 -0.0125921
188 2 -0.88345 11.4169 9.5959 11.2647 0.00347812 -0.0132485 0.00501362
189 2 -0.84412 11.076 11.5717 9.75822 0.00993014 0.000602883 -0.00409933
190 2 -0.793004 9.86762 12.9698 12.7134 0.00695937 0.00287696 0.00367657
191 2 -0.782375 12.8946 9.23642 13.3082 -0.00349024 0.00610799 0.00953004
192 2 -0.803439 13.4047 12.4226 9.35022 -0.0109998 0.00204153 -0.00516292
193 2 -0.666717 8.33781 1.62181 5.20811 0.00292866 0.00550086 0.000561497
194 2 -0.671539 15.5879 1.969 12.3151 0.00248281 -0.00578157 -0.00735403
195 2 -0.640198 15.4419 5.03768 8.43084 -0.0115062 -0.00368869 0.0105465
196 2 -0.572634 8.96675 5.41025 15.2636 -0.00756389 -0.0070116 0.00392146
197 2 -0.640581 2.73356 10.3249 13.3716 0.0103031 -0.0022105 -0.00574554
198 2 -0.628499 6.77013 14.0823 6.82195 0.00538725 -0.000508261 -0.0117549
199 2 -0.657938 5.41531 11.9842 12.3893 0.0125816 -0.0166421 0.00152102
200 2 -0.67577 8.88062 12.6857 8.37647 -0.0216804 0.00588961 -0.0157433
201 3 0.415874 7.34532 15.4892 5.25965 -0.0222529 0.0389358 0.0455131
202 3 0.410112 8.87309 15.0487 5.03549 -0.0569601 -0.0200622 -0.0636326
203 3 0.335578 14.9264 15.3735 12.6273 -0.0172312 -0.0197222 -0.00812753
204 3 0.423601 1.86785 15.652 11.5692 -0.0366359 0.0509309 0.0242381
205 3 0.38688 15.4417 4.12922 8.39786 0.0366378 0.0138218 -0.0174289
206 3 0.432857 2.01403 5.2091 8.97476 -0.0410329 0.0438696 -0.0403598
207 3 0.391652 9.0282 4.43262 15.0412 0.0249821 -0.0351895 0.00353363
208 3 0.385247 7.91799 5.43066 15.4249 0.0426984 0.0013381 -0.019265
209 3 0.433533 2.87568 9.37677 13.658 -0.00664685 0.0440729 0.0550038
210 3 0.406503 3.65978 10.6314 13.1179 -0.00409003 -0.00451864 -0.0618846
211 3 0.399135 7.30852 14.4843 7.33548 0.0441838 -0.0057381 0.0204138
212 3 0.400402 6.60258 13.124 7.11443 0.0239901 -0.00932561 -0.00229095
213 3 0.42092 5.9561 12.3756 11.695 -0.00796546 -0.0368578 -0.0115365
214 3 0.382342 4.48159 12.4386 12.5203 0.0207169 -0.0292899 0.0306215
215 3 0.416205 9.28917 11.7713 8.28397 0.0236111 -0.0295213 -0.00229958
216 3 0.402529 8.24537 12.8724 9.05845 0.00782271 -0.0193408 -0.0164659
ITEM: TIMESTEP
10000
ITEM: NUMBER OF ATOMS
216
ITEM: BOX BOUNDS pp pp pp
1.5259712896970390e+00 1.5634028710303014e+01
1.5259712896970390e+00 1.5634028710303014e+01
1.5259712896970390e+00 1.5634028710303014e+01
ITEM: ATOMS id type q x y z vx vy vz
1 1 1.66868 15.5311 1.64956 15.5127 0.00292753 0.00348508 -0.00522166
2 1 1.4017 3.24058 3.33633 3.15672 0.00256973 -0.000283862 -0.0153234
3 1 1.51575 15.4661 5.12455 4.78561 0.00698663 -0.00677844 -0.00517938
4 1 1.6851 3.26136 6.83533 6.40398 0.00770732 -0.00175649 0.00485646
5 1 1.46556 4.62836 15.5158 5.34813 -0.00126026 0.00089074 -0.0093761
6 1 1.46962 6.62847 3.11599 6.91483 -0.00250056 -0.00255838 -0.0102239
7 1 1.541 5.059 5.21843 15.4559 0.00277631 0.012018 -0.00589233
8 1 1.4439 7.03044 6.76048 2.97208 0.00367961 -0.000456852 0.00275279
9 1 1.52143 1.50937 15.663 8.68026 -0.00861184 0.00272219 0.00317301
10 1 1.84068 3.09771 3.58538 10.2404 0.000658741 0.00512231 0.00241046
11 1 1.73164 1.70402 5.33278 12.2197 0.00135146 -0.00781978 0.0031987
12 1 1.59769 3.14716 7.31773 13.9203 6.03136e-06 0.00078402 -0.00284376
13 1 1.79523 4.89727 1.75284 11.7044 -0.0044526 -0.00429363 -0.00209513
14 1 1.70014 6.69221 3.33656 13.6806 0.00658217 0.00910532 -0.00508925
15 1 1.73318 4.83663 5.24195 8.48384 0.000467804 0.00882272 0.00269865
16 1 1.62745 6.65027 6.83186 10.4614 0.00718976 -0.0042243 -0.00217533
17 1 1.71799 15.383 8.76164 1.66896 0.00504809 -0.00185194 0.00575902
18 1 1.77203 3.32216 10.4405 3.26294 0.00578207 -0.0118896 -0.00372181
19 1 1.76617 15.5792 11.9233 5.06795 0.0060324 -0.0107771 0.0125108
20 1 1.6511 3.05061 13.6039 6.99328 0.00225652 -0.00453861 -0.00308627
21 1 1.51647 5.04729 8.55897 4.72551 0.007926 0.0105815 8.14455e-05
22 1 1.50598 6.84014 10.0192 6.87827 -0.00155231 -0.00103217 0.00303656
23 1 1.80797 5.11735 12.2439 1.67639 -0.000797953 -0.00450415 -0.000928173
24 1 1.40944 7.05239 13.789 3.49936 -0.00870039 -0.00772361 -0.00460221
25 1 1.65622 1.60006 8.54056 8.32403 0.0071641 -0.00251821 -0.000980782
26 1 1.59763 3.29671 10.2061 10.3229 -0.0100744 -0.0129277 0.0040362
27 1 1.48411 1.555 11.8114 12.1727 -0.000258992 0.00125948 0.0101638
28 1 1.47869 3.6329 13.9234 13.7792 0.000720331 -0.0055909 0.00211491
29 1 1.83197 5.17933 8.72735 12.2288 -0.0127337 0.00325959 0.00152867
30 1 1.71389 6.73082 10.5498 13.9991 0.00495037 -0.00108162 -0.00474536
31 1 1.58889 5.01831 11.8879 8.56134 -0.0122005 0.00988936 0.00725358
32 1 1.6396 6.75401 13.8805 10.2245 -0.00757109 -0.000690294 -0.000935545
33 1 1.6327 8.32521 1.66615 15.551 0.00356011 0.00526406 0.00073987
34 1 1.79957 10.3157 3.09593 3.34474 -0.00505021 0.00121004 -0.00552747
35 1 1.63789 8.58721 4.82061 5.21146 0.000930545 -0.00824627 -0.0108355
36 1 1.76832 10.1961 6.62474 6.9177 0.00420936 -0.00524371 0.0141336
37 1 1.65053 12.2183 15.5 4.90305 -0.00231468 -0.000986723 0.00716601
38 1 1.68985 14.0648 3.07876 6.6184 0.000737262 -0.00292433 0.00277791
39 1 1.66461 12.013 5.09656 1.62439 -0.00493547 -0.000945709 -0.0181067
40 1 1.76786 13.5514 7.0078 3.37986 -0.00376264 -0.00112836 -0.0106031
41 1 1.64692 8.74272 15.4671 8.53916 0.000900576 -0.00384926 0.000539037
42 1 1.59784 10.4358 3.28978 10.1885 -0.0117399 -0.0126662 0.00930181
43 1 1.59617 8.50895 5.10553 12.0794 -0.00411529 0.0015363 -0.00066797
44 1 1.66319 10.5144 6.75687 13.642 0.0028233 0.000372965 0.00368704
45 1 1.68937 12.1164 1.7879 12.254 0.000589812 -0.00228713 -0.00519736
46 1 1.73732 14.0274 3.586 13.8287 -0.00901517 -0.00563552 -0.00923837
47 1 1.72424 12.1971 4.84583 8.34194 -0.00801195 0.00869404 -0.0180192
48 1 1.54311 13.8905 6.70725 10.0583 -0.00539729 0.00943447 -0.00337578
49 1 1.6532 8.86272 8.77697 15.4 -0.00533335 -0.000298982 -0.00347413
50 1 1.74204 10.6263 10.2727 3.33261 -0.000965599 -0.00251616 0.000454676
51 1 1.54661 8.96901 11.9669 5.30278 0.00958135 0.00490118 0.000915597
52 1 1.72926 10.659 13.853 6.82258 -0.00105118 0.00432481 0.00307354
53 1 1.75218 12.0364 8.43912 5.4316 1.94979e-05 0.00385464 0.00569967
54 1 1.59665 13.708 10.4926 6.90817 -0.00557059 0.00566017 0.00123763
55 1 1.60878 12.0913 12.222 15.5341 -0.000731644 0.00619914 -0.00369523
56 1 1.78338 14.0873 13.6698 3.18111 0.00841863 -0.0073524 0.0040624
57 1 1.63105 8.68003 8.33505 8.76508 0.00102048 0.000695112 0.0156802
58 1 1.4595 10.3011 10.3687 10.3096 0.00189868 -0.00826932 0.00542265
59 1 1.67656 8.61468 12.2351 12.282 -0.00218591 0.0123625 0.00903466
60 1 1.65966 10.1956 14.1767 13.8515 0.001011 0.00543032 0.00601324
61 1 1.68321 12.1415 8.42224 11.8003 0.00392793 0.00456994 -0.00511433
62 1 1.67025 13.6738 10.1907 13.6811 -0.00218414 -0.00479294 -0.00610732
63 1 1.78803 12.1951 12.2885 8.82635 -0.00361929 0.00234378 0.010883
64 1 1.74166 14.004 13.9494 10.698 -0.00210767 0.00103762 0.000162155
65 2 -0.811885 2.06262 2.61445 2.4538 -0.00974804 0.00946392 -0.00434595
66 2 -0.651603 2.65422 14.9268 14.8241 0.00877826 0.00855855 -0.0117174
67 2 -0.86252 14.5624 2.36874 14.6344 -0.00347993 -0.00478796 0.00918773
68 2 -0.778506 14.6605 14.6532 2.01137 0.00164297 0.00415699 0.0141859
69 2 -0.660578 2.53592 4.60547 3.73407 -0.00991469 0.00400215 -0.0129422
70 2 -0.690801 4.17707 2.68103 4.34957 -0.00148102 0.0199279 -0.00584971
71 2 -0.644252 4.36319 3.92967 1.92106 -0.00774868 0.00116024 -0.00594214
72 2 -0.889549 2.30549 5.92636 5.69526 0.00661811 -0.0116914 -0.0014816
73 2 -0.823851 15.0592 3.81053 5.64606 -0.0184487 -0.00317239 -0.00644459
74 2 -0.786518 14.4399 5.69391 3.74377 -0.00400018 -0.0110601 0.0104688
75 2 -0.848732 4.02394 5.73395 7.31607 -0.0207042 -0.00558069 0.0074126
76 2 -0.873467 3.82855 8.00125 5.62882 0.005001 -0.00698368 0.00275482
77 2 -0.867578 2.51163 7.5487 7.6092 -0.00761942 0.0161169 0.00118576
78 2 -0.813451 5.56085 2.06056 6.31904 0.00707782 0.00431498 -0.00125077
79 2 -0.866839 3.4766 14.6102 5.92819 0.000532345 -0.00170276 -0.00357205
80 2 -0.647402 5.58935 14.5194 4.47492 -0.00333229 0.00629951 -0.00491286
81 2 -0.731338 5.69047 3.97665 8.0222 0.0167077 0.0187252 -0.00325838
82 2 -0.803796 7.35159 4.04311 5.88589 -0.00585034 -0.0022478 0.00177349
83 2 -0.784107 7.74723 2.27462 7.7084 0.00111635 -0.00725717 -0.0122049
84 2 -0.83828 5.92832 5.90401 2.48105 -0.00501758 -0.00781013 0.00175413
85 2 -0.705478 3.84845 6.02424 14.8436 0.00272598 -3.26419e-05 0.0017037
86 2 -0.823804 5.88687 4.49788 14.3472 -0.00657689 0.0069415 -0.00146589
87 2 -0.671818 6.14892 7.69902 4.06117 -0.00917709 0.00344071 0.0015659
88 2 -0.661248 7.76276 5.73809 4.30831 0.0156387 0.000110185 0.00345319
89 2 -0.707225 8.07046 7.90343 2.38655 -0.00510827 -0.00125762 0.00219406
90 2 -0.928029 2.51697 2.54359 9.30482 -0.00715719 0.000560932 0.00287569
91 2 -0.767803 2.23784 14.2551 8.10503 -0.00581924 0.00993226 -0.00542237
92 2 -0.818815 14.5323 2.22046 7.81179 -0.00153941 0.000325978 -0.00289982
93 2 -0.821027 14.7452 14.9777 9.98788 0.00635524 0.00707402 -0.00612258
94 2 -0.982708 2.07718 4.31839 11.2155 -0.000177751 -0.00125423 0.0148187
95 2 -0.974023 4.04098 2.84477 11.1384 0.00166682 0.00255562 0.000381154
96 2 -0.915726 3.89547 4.70442 9.54044 0.0127757 0.00855351 0.00673577
97 2 -0.834398 2.3136 6.49043 12.9971 0.0113645 -0.00778003 -0.0119175
98 2 -0.890125 15.0456 4.60112 13.3032 0.00592198 0.00121295 -0.00117225
99 2 -0.740266 14.7137 6.30092 11.306 -0.00613696 -0.00645634 -0.00560522
100 2 -0.762259 1.88224 7.72654 14.8132 -0.0104662 -0.00199739 -0.00102758
101 2 -0.916291 4.36645 8.01979 13.34 -0.00150863 -0.00877456 0.00509332
102 2 -0.865631 5.83692 2.47565 12.7249 -0.00702451 0.00847544 0.00574987
103 2 -0.82346 4.23536 14.7965 12.5627 -0.000532984 -0.00658132 -0.00211723
104 2 -0.861814 5.65871 14.8798 10.7354 0.000259304 -0.00981363 -0.00498947
105 2 -0.862223 7.26318 2.66914 14.9856 -0.00309617 -0.00592355 -0.0107744
106 2 -0.898597 7.79586 3.97649 12.8407 -0.00379092 -0.00393632 -9.96537e-05
107 2 -0.836884 5.808 6.221 9.17959 0.0081562 0.0056131 0.0143784
108 2 -0.899109 5.71938 7.59578 11.4209 -0.000817584 0.0168018 0.00376429
109 2 -0.91026 7.55145 5.94918 11.3302 -0.00330165 0.00043471 -0.00284373
110 2 -0.758795 7.82634 7.87171 10.0357 -1.26981e-05 -0.00297557 -0.00109013
111 2 -0.94093 2.37431 9.45236 2.517 -0.00110522 0.00382545 0.00520634
112 2 -0.894765 14.2616 7.94817 2.49064 -0.00891228 0.00665175 0.00170074
113 2 -0.850872 14.6583 9.58159 14.7401 -0.00807089 -0.00538015 0.00133274
114 2 -0.923342 2.51443 10.9925 4.47731 -0.0172401 0.00388631 -0.000445967
115 2 -0.86702 4.47446 9.68664 3.77544 0.00951713 0.000535601 -0.000147444
116 2 -0.916095 3.96745 11.5866 2.38412 0.00796008 -0.0039708 -0.00707303
117 2 -0.844243 1.90674 12.7808 6.3584 -0.0128833 -0.00319383 -0.000939701
118 2 -0.8647 14.4939 11.0826 5.57453 0.00050917 0.00010713 -0.0140157
119 2 -0.988261 14.9839 12.826 3.95253 0.0185812 -0.00192155 -0.00104068
120 2 -0.91421 4.33063 12.8857 7.57871 -0.00412524 0.00410076 0.0138413
121 2 -0.718214 6.19965 9.19897 5.74734 -4.46227e-05 -0.00330867 -0.00213234
122 2 -0.849721 5.78033 10.9639 7.6393 0.00117528 -0.0104639 -0.00599082
123 2 -0.704369 8.14118 10.8856 6.35759 0.0117838 -0.0110693 0.0127014
124 2 -0.750096 7.56095 9.11186 7.98241 0.00751789 0.00535774 0.00333938
125 2 -0.804152 6.1157 12.7596 2.65029 0.0106627 0.00113026 -0.000595513
126 2 -0.886956 4.47603 13.2802 14.9047 0.00896296 9.20407e-05 0.00713809
127 2 -0.930627 5.62883 10.9871 14.9271 0.00601384 -0.0107659 -0.0033357
128 2 -0.726793 7.54447 14.6505 2.24384 -0.000447057 0.00963529 0.00486406
129 2 -0.749746 7.95754 12.7635 4.30104 0.00759909 0.00492469 0.00677979
130 2 -0.814186 2.5881 9.15358 9.29257 0.00847715 -0.000959963 0.00591938
131 2 -0.820402 14.7835 7.56199 9.11786 -0.0144598 -0.00235124 0.00500524
132 2 -0.795138 14.4942 9.41679 7.72237 -0.00558316 -0.00700087 0.0114879
133 2 -0.826505 2.27022 11.1268 11.0034 0.00509361 0.0114308 0.00852619
134 2 -0.920659 4.11074 9.33018 11.4032 -0.000360622 -0.0117786 -5.85155e-05
135 2 -0.918995 4.26872 11.2707 9.76109 0.00531589 0.0104941 0.00503277
136 2 -0.626087 2.27156 13.106 13.3884 -0.00770201 -0.0101208 0.00238772
137 2 -0.854861 14.5035 10.9118 12.7057 0.00572691 -0.000842926 -0.00522603
138 2 -0.770779 15.1367 13.0784 11.396 -0.00126965 -0.00786378 0.0104419
139 2 -0.964191 6.23431 9.71446 12.7853 0.00237055 -0.0159314 0.0128212
140 2 -0.855645 7.77211 9.53451 14.6974 0.00911292 0.00591337 -0.00100594
141 2 -0.883867 7.60224 11.6133 13.3671 -0.000411275 -0.00823894 -0.0184108
142 2 -0.886953 6.23463 12.8306 9.3364 -0.00912223 0.00137508 0.00129135
143 2 -0.874881 7.77582 14.553 9.28871 -0.00523859 -0.0122071 0.00917145
144 2 -0.774482 7.80896 13.3216 11.4027 0.0109037 0.0103178 0.00420827
145 2 -0.924001 9.40339 2.44888 2.30582 0.0104113 -0.000558377 0.0115138
146 2 -0.844677 8.945 14.7809 14.5804 0.00910148 -0.000874836 0.00592586
147 2 -0.924895 9.31917 3.83657 4.28249 0.000836213 0.00387565 0.00986836
148 2 -0.908395 11.4111 2.34788 4.02197 -0.00582523 0.017245 0.00723413
149 2 -0.8826 11.1393 4.14126 2.53288 -0.00571737 0.00588187 -0.0157559
150 2 -0.873117 9.50841 5.36377 6.3403 0.00663795 0.0078064 0.00358565
151 2 -0.898631 11.3356 6.06678 7.72322 0.00122086 0.00769376 0.00371753
152 2 -0.895894 10.7878 7.63322 5.9217 0.00884655 -0.010239 0.00403734
153 2 -0.875193 9.05796 7.32541 7.65971 -0.00281426 -0.00529161 -0.0122851
154 2 -0.840221 13.0585 2.07773 6.05436 0.00626861 0.00318559 0.00306917
155 2 -0.898717 11.1566 14.5774 5.58401 -0.0079119 -0.012022 0.00364518
156 2 -0.83895 13.1957 14.7253 3.82252 -0.00282286 0.000602749 0.010486
157 2 -0.832789 13.094 4.10509 7.23416 0.0147604 -0.018312 -0.00308042
158 2 -0.813112 12.4682 6.14053 2.73584 0.00376088 0.00221224 0.0078028
159 2 -0.852178 11.3744 6.02679 14.7303 0.00609062 -0.0154509 0.00223051
160 2 -0.813788 13.0919 4.34349 14.8166 0.00709797 -0.000468642 -0.00833691
161 2 -0.947246 13.1176 7.65332 4.66257 -0.00205135 -0.00387508 0.00153624
162 2 -0.789227 9.34167 2.23389 9.68749 -0.000778462 0.00347906 -0.00202727
163 2 -0.835098 9.86435 15.026 7.53273 0.00403341 -0.000115121 0.00874597
164 2 -0.728171 9.58007 4.36538 10.9058 0.00102134 0.00236567 -0.00115916
165 2 -0.849342 11.508 2.63385 11.1789 0.00736623 0.00555458 -0.00186492
166 2 -0.844185 11.3431 3.73763 9.02005 0.000500834 0.0179371 0.00276813
167 2 -0.847273 9.73824 5.54807 13.0248 -0.00060319 0.00277626 0.0202924
168 2 -0.824723 9.78068 7.75081 14.6599 -0.0100715 -0.00442655 0.000193976
169 2 -0.922514 11.0464 7.71553 12.5817 0.00959797 -0.00463263 -0.00949963
170 2 -0.859068 13.1607 2.83749 12.796 -0.00726829 -0.0073714 -0.00424376
171 2 -0.907962 11.1819 15.178 13.1965 0.00406573 -0.00326861 0.00947861
172 2 -0.819534 13.1624 14.6313 11.7399 -0.0121419 -0.0203949 -0.00431827
173 2 -0.897894 12.9879 5.54934 9.33467 0.0133822 -0.00716716 -0.00929924
174 2 -0.794304 13.0362 7.88654 10.7257 0.0029244 0.00404902 -0.00441805
175 2 -0.835951 9.63106 9.71613 2.30283 -0.00153495 -0.00298809 0.0115717
176 2 -0.791769 9.83528 10.9029 4.53719 -0.00279121 0.00215842 0.00111184
177 2 -0.828558 11.4164 9.28431 4.2135 0.00185052 0.00835881 -0.00257486
178 2 -0.832931 11.3374 11.3956 2.61916 0.00731843 -0.00179145 -0.0167982
179 2 -0.92324 9.57475 12.8847 6.28409 -0.00554765 -0.00846137 -0.0215119
180 2 -0.976232 11.2542 13.1301 8.0361 -0.00149591 0.0130943 -0.00827413
181 2 -0.859322 12.6535 9.42516 6.36589 0.00936416 0.00477495 -0.0101696
182 2 -0.837262 13.2096 11.5959 7.87403 0.00279452 0.00206188 -0.00444394
183 2 -0.847501 13.2296 12.7704 2.26073 -0.00581111 -0.00634691 -0.0146059
184 2 -0.752819 11.0877 13.4015 14.9638 -0.00763784 0.00261324 0.00418796
185 2 -0.815756 12.6611 11.2001 14.5121 0.00816499 -0.000556503 0.00426925
186 2 -0.843233 9.73185 9.21369 9.43164 0.00436234 -0.00485788 0.00308649
187 2 -0.794647 9.34926 11.1871 11.4233 0.00111792 -0.00296127 0.010123
188 2 -0.691213 11.704 9.75607 11.3193 0.00168794 0.00787227 0.00368562
189 2 -0.801547 11.4843 11.1308 9.5354 -0.00593374 0.00162372 0.0119783
190 2 -0.883228 9.63772 13.0866 12.8879 -0.00276562 0.00156309 -0.00901203
191 2 -0.731753 13.0554 8.85256 13.0565 -0.00630701 0.00917198 0.00356192
192 2 -0.852706 13.2074 13.1911 9.57488 0.01335 0.000633357 -0.00359355
193 2 -0.650481 7.98734 15.3829 4.79018 -0.0109103 0.00213572 0.00107339
194 2 -0.606632 2.04801 1.91094 12.2645 0.00486722 -0.00100969 0.00530897
195 2 -0.578531 15.4774 4.94968 8.47823 -0.00106113 0.0136665 -0.0115253
196 2 -0.64064 8.49952 5.39015 1.75572 0.0115542 0.00663951 -7.55867e-05
197 2 -0.66075 2.93757 10.6317 13.455 0.00137914 -0.0062529 -0.00361194
198 2 -0.600259 6.92459 13.6946 6.67123 0.0141008 0.00551516 -0.00330601
199 2 -0.690281 4.72529 12.3913 12.3131 -0.00523878 0.00327076 -0.00974993
200 2 -0.619156 8.84449 11.5053 8.98711 -0.00691839 0.00534072 0.00108492
201 3 0.426812 8.38213 15.4941 5.69106 0.00153109 0.0353636 0.014128
202 3 0.385969 7.55792 2.1784 4.62951 -0.0318292 0.00371108 -0.00873515
203 3 0.419854 15.3858 2.38812 12.0629 0.00425429 0.00856212 -0.00351703
204 3 0.421749 2.23449 15.5113 11.5325 -0.0358285 -0.0145116 -0.0183706
205 3 0.379291 15.3763 5.82491 7.91077 -0.0269849 -0.0431247 0.0227038
206 3 0.377295 15.5428 5.43155 9.23181 0.0133619 -0.0408635 0.0167716
207 3 0.39728 8.35821 4.78176 15.2102 -0.0325334 0.0281687 -0.0611669
208 3 0.377218 9.39006 4.91787 1.97107 0.00454752 -0.0279507 0.00574668
209 3 0.342348 3.83735 10.8363 12.9671 -0.0391871 0.00901812 0.000327266
210 3 0.408238 2.84457 10.9954 14.3358 -0.0360885 -0.00324533 -0.0023545
211 3 0.410865 6.23227 13.6734 7.40713 -0.0211055 -0.0232155 0.0253356
212 3 0.409722 6.40469 13.34 6.01604 0.00430889 0.0688241 0.0480356
213 3 0.344809 5.39818 11.6222 12.3204 0.0103409 0.00592575 -0.0775589
214 3 0.408989 4.19652 12.1497 11.6464 -0.0254555 0.0153644 -0.0230476
215 3 0.401038 8.11548 12.2671 9.16024 0.0251703 0.0233605 -0.0245759
216 3 0.435846 9.0832 11.573 7.99867 -0.0462518 -0.0122078 -0.0185353
