LAMMPS data file via write_data, version 29 Aug 2024, timestep = 200000, units = real

216 atoms
3 atom types

1.5141871015338966 15.645812898466296 xlo xhi
1.5141871015338966 15.645812898466296 ylo yhi
1.5141871015338966 15.645812898466296 zlo zhi

Masses

1 28.0855
2 15.9994
3 1.008

Atoms # charge

2 1 1.930708332414575 3.3691066816972874 3.5059117367550123 3.2268577817227433 0 0 0
4 1 1.526430289127184 3.4507925170098366 6.818317372696523 6.935314610410876 0 0 0
6 1 1.226492098930801 6.700531617892315 3.1689701726969175 6.8167448546157665 0 0 0
8 1 1.85470336346336 7.010631333041192 7.0232095007839765 3.0008646524735516 0 0 0
65 2 -0.9400022305848473 2.65028244797322 2.5283047490746533 2.379822334645158 0 0 0
69 2 -0.8989608254013274 2.282778086939124 4.153191169148974 4.059206560884186 0 0 0
70 2 -0.7791733519581641 4.234120342331558 2.645309531200712 4.21277341281671 0 0 0
71 2 -1.017189803708097 4.333643696505819 4.478403082273168 2.587168564378799 0 0 0
72 2 -0.6721956905216278 2.499203357387546 5.503790980384062 5.981217947515382 0 0 0
75 2 -0.7363568745522663 4.164202824693772 5.935914793793651 8.140564688040383 0 0 0
76 2 -0.8407086477878836 4.456700850562259 7.491393689849615 6.114602676336655 0 0 0
77 2 -0.8462533669732101 2.3581727070567586 7.8029652235864075 7.391668066262803 0 0 0
78 2 -0.7242167052741292 5.492430295310548 2.291660813833285 6.313806722366523 0 0 0
81 2 -0.6039708803748538 5.78258430037758 4.303662138410441 7.590813740185171 0 0 0
82 2 -0.6471818781095432 7.1496967486393 4.505319996434601 5.346201460264454 0 0 0
83 2 -0.7670598230783955 7.427887775566049 2.3315264046354542 8.005375189578993 0 0 0
84 2 -1.022596564763099 6.27194837896694 6.144666347641673 2.0430382853114466 0 0 0
87 2 -0.9005599111060337 6.053686160708776 7.620912465553777 4.139874886813741 0 0 0
88 2 -0.8177817137962357 7.972166417309 6.0833516093486795 3.7030478198845436 0 0 0
89 2 -0.9235585577931708 7.90540351465012 8.141557735946865 2.5605813459234836 0 0 0
208 3 0.3950971709938573 7.317655728528231 2.8249881916350077 2.683851694027506 0 0 1
196 2 -0.6188951072691747 6.64538613938531 3.0409549589161156 3.4245248131954793 0 0 1
207 3 0.4308698466723082 7.091965732875038 3.6417063408856833 4.072972805234771 0 0 1
193 2 -0.660963305797817 8.190786341975045 2.142067189526224 5.516085886525847 0 1 0
5 1 1.493102776765712 4.803231256454441 15.585254262488476 5.070017673917785 0 -1 0
15 1 1.505081423264208 4.888075211286862 4.698583578052082 8.878506906029239 0 0 0
17 1 1.559048063767886 1.6631354375162974 8.432204805438529 15.638890001337192 0 0 -1
3 1 1.673080316389088 15.529191978777614 5.006019199746653 5.015719525599973 -1 0 0
35 1 1.327428673208474 8.49130917472561 5.293535244984797 4.999494309378848 0 0 0
34 1 1.674067072599384 10.368760515194545 3.55324410059039 3.186288063167174 0 0 0
36 1 1.711748112269728 10.289299705704508 6.763471094647837 6.969696425374253 0 0 0
38 1 1.899299411295068 13.773218090947452 3.165453898117522 6.7265429696640915 0 0 0
40 1 1.722606542048152 14.00079027650218 6.928745709406396 3.2936562926769577 0 0 0
73 2 -0.8530109500544523 14.792419329948249 3.9874377534573244 5.962514298616223 0 0 0
74 2 -0.8708592510397055 14.419549069678155 5.890945042390476 4.363558791563291 0 0 0
92 2 -0.8722580023237786 14.44182030119558 1.9729652813134182 7.609593871343117 0 0 0
112 2 -0.9082020180129278 15.191683006152317 7.769064901307246 2.752293708043882 0 0 0
145 2 -0.8864092007993457 9.340690005729233 2.5608606662907523 2.558206138018528 0 0 0
147 2 -0.8182090374341614 9.464622763007501 4.107255885006906 4.343539979940145 0 0 0
148 2 -0.9203989535422225 11.503644240190642 2.6325087232297015 3.8498323637567666 0 0 0
149 2 -0.907941603062241 10.985075006737308 4.581231468370509 2.2698803798706058 0 0 0
150 2 -0.7540731670238381 9.154100693644441 5.834619018758688 6.384635064023478 0 0 0
151 2 -0.8197903218138328 10.975598716393193 5.545567780351504 7.691547787528182 0 0 0
152 2 -0.8670804791881472 11.215149531013836 7.417206026311299 6.037472350773169 0 0 0
153 2 -0.8077604841517241 9.637777553532015 7.662018060256512 8.009069632592048 0 0 0
154 2 -0.9576878624810891 12.919571239643556 2.4644527107248964 5.777584871399787 0 0 0
157 2 -0.932379013591918 13.064146385007557 4.144544787977765 7.630506900854676 0 0 0
158 2 -0.9382788572764701 13.076137268815124 6.2277494023980635 2.282567885581957 0 0 0
161 2 -0.8611806431389897 13.01981269477766 7.772114708587953 4.173830368579095 0 0 0
47 1 1.680735274023773 12.028491405086747 4.838835644861415 8.567811917508964 0 0 0
49 1 1.729709071457444 8.523447318215528 8.917045631043187 15.510147450533154 0 0 0
25 1 1.703197106043957 15.610170920964869 8.530368523965492 8.425971688455121 0 0 0
39 1 1.791757752836448 12.101538662964678 5.422929756226614 15.588928431421603 0 0 0
21 1 1.813922081381901 5.227624728113769 8.457906975518458 5.093337114951503 0 0 0
201 3 0.3515188095257999 7.713907448322431 2.0735139194999874 4.629399445214483 0 0 0
18 1 1.630036034441128 3.3700735955570114 10.162312985508937 3.348939656151715 0 0 0
20 1 1.492412953694056 3.1497068562062056 13.639037113074036 6.754680030487785 0 0 0
22 1 1.678513110052557 6.930692117039554 10.361555665399383 6.711290561642434 0 0 0
24 1 1.738042796285108 6.827234369477462 14.07779439160269 3.2648493972300474 0 0 0
79 2 -0.7529457956386623 3.669381517152585 14.65138753575426 5.5492984575679785 0 0 0
80 2 -0.8164344964519907 5.603999553267949 14.572793907293516 4.155358981703041 0 0 0
91 2 -0.7326590643011623 1.9467080778853056 14.204365334000546 7.4342665261007825 0 0 0
111 2 -0.78843225977594 2.866703370802912 9.37550949465906 2.1551993021719795 0 0 0
114 2 -0.8236319838413295 2.281700776771962 11.028661669656785 4.068163671467113 0 0 0
115 2 -0.8591271524112596 4.040958202149941 9.199828081952782 4.3033700130712695 0 0 0
116 2 -0.762825677983861 4.22854251320397 11.436605378511963 2.5837169187169087 0 0 0
117 2 -0.7900460855584233 2.480144311424098 12.395953896968912 6.025600537783803 0 0 0
120 2 -0.7368087800258181 4.226911361395095 13.373664338454823 7.918342499405489 0 0 0
121 2 -0.8638653288050112 6.0516681873156655 9.473714889170513 5.72618984631019 0 0 0
122 2 -0.7241453321936773 5.923708475188345 10.749205403825162 7.760525792842585 0 0 0
123 2 -0.8030834121664241 7.705590442577527 11.0989107393398 5.576216277550225 0 0 0
124 2 -0.8467685921238127 7.769960365502718 9.29615034370692 7.455454381909956 0 0 0
125 2 -0.8295822480569376 6.1867939509944 12.95204817641844 2.5267304894617544 0 0 0
128 2 -0.8906430536898581 7.584718166579848 14.811114720819127 2.1829329309702636 0 0 0
129 2 -0.8669641581007035 7.782035506109964 13.332168630893236 4.231185939128053 0 0 0
198 2 -0.6289726038221013 6.235439473020069 13.23144943356423 6.7607235159135 0 0 0
211 3 0.3399541131693535 6.782425107657646 13.88784011165514 7.2983172906558895 0 0 0
212 3 0.3486715734856798 5.5762715772055635 13.963060176763737 6.649510825349144 0 0 0
31 1 1.253996786169856 5.220423130559828 12.223831950809188 8.559500043892172 0 0 0
51 1 1.614509034702212 8.605963157777428 12.256358389320404 4.895113037429773 0 0 0
200 2 -0.6431668384110006 8.660069453769657 11.7580949892597 8.640271480752778 0 0 0
53 1 1.695796109946604 11.923204019401133 8.50463430334904 4.955419889329264 0 0 0
202 3 0.3782446478468813 8.639386768161708 3.075453568990778 5.58845853216931 0 1 0
215 3 0.3963109416481131 8.064843590735599 11.23906350239562 9.109317649203028 0 0 0
37 1 1.898692682801902 12.083719664734968 1.608639344881912 4.795694054561903 0 1 0
19 1 1.813172701141741 15.599478651191244 12.024327269246129 4.930791650170373 -1 0 0
50 1 1.530121640509562 10.352838770761082 10.407413926745853 3.2165305547990624 0 0 0
52 1 1.515763981107116 10.450339937645037 14.076451233173586 6.770410128170838 0 0 0
54 1 1.818151939199037 13.757477343001067 10.19051693476359 6.627020417504439 0 0 0
56 1 1.791361125157209 14.028282917314161 13.992253293307325 3.2505057324474755 0 0 0
68 2 -0.945338822939109 14.706963067112586 15.071447716291889 2.4963315656187564 0 0 0
118 2 -0.8480745656128839 14.59590221327089 11.121039382198862 5.549340447807972 0 0 0
119 2 -0.8842880558432588 15.154556041544598 13.175339900956654 4.041581659655846 0 0 0
132 2 -0.8931643189941776 14.668488592287204 9.324395186375032 7.405068912106635 0 0 0
155 2 -0.8853060487579714 11.201332217615874 15.0228191529241 5.828258654914695 0 0 0
156 2 -0.9243267329570216 12.932795129863784 14.673535371648654 4.221089231770739 0 0 0
163 2 -0.8200294527142471 9.592755362640027 14.787894543183725 7.920185498691452 0 0 0
175 2 -0.7839860639903496 9.491625631040755 10.02139815244282 1.9542718118072664 0 0 0
176 2 -0.7499780226062117 9.47267592496628 11.679832164307939 3.7186694204685278 0 0 0
177 2 -0.8251674441136722 10.723396335757592 9.159515444534447 4.1889864408048805 0 0 0
178 2 -0.7872419501166624 11.684206734007944 10.94708389520888 2.645802624803089 0 0 0
179 2 -0.7578796266857588 9.522331340223058 12.917132025011952 6.001183935926979 0 0 0
180 2 -0.757103055152261 11.536089202839104 12.955396593285776 7.4310658450521725 0 0 0
181 2 -0.9302595870707244 12.651930969307198 9.483119734845824 5.814086389855744 0 0 0
182 2 -0.91055664840892 13.212548806334869 11.308585339203535 7.480521704640005 0 0 0
183 2 -0.8814021265810519 13.357984232834863 12.95917061434874 2.3557176180239874 0 0 0
63 1 1.792063123627647 12.255663588168037 12.055210724146836 8.434910144931868 0 0 0
7 1 1.945365167002287 5.2140425795149605 5.147679950344157 1.6190442830293674 0 0 0
10 1 1.641938558163628 2.959831287438946 3.0486644784100267 10.460308089303918 0 0 0
12 1 1.665552552733569 3.370574652721864 6.723632941771034 13.77178012328833 0 0 0
14 1 1.711182779524091 7.001671490407508 3.4942929243916767 13.837018585580854 0 0 0
16 1 1.5424068533736 6.63502063756804 6.636445830190857 10.334555302409097 0 0 0
85 2 -0.8891110950655694 4.212036050898808 5.93294463514512 14.878261127638677 0 0 0
86 2 -0.8557552431379293 5.813196904438591 4.128161378680056 14.803202537587033 0 0 0
90 2 -0.8097539160599599 2.217107572789447 2.113629224762442 9.393346871822304 0 0 0
94 2 -0.985955123301392 2.240942860335057 4.230142844023411 11.20696752146689 0 0 0
95 2 -0.89616913787528 3.969659716220942 2.203161389463597 11.34292629654028 0 0 0
96 2 -0.8390665225819743 3.9639789316297644 3.676161728642287 9.410669829386258 0 0 0
97 2 -0.859689252744925 2.356233521997068 6.049822492493457 12.783363933639173 0 0 0
100 2 -0.8004757364280389 2.572913154478202 7.645114271649447 14.663824869959779 0 0 0
101 2 -0.8763782782101802 3.8735311945007025 7.923797699211989 12.853081485710565 0 0 0
102 2 -0.9303866929661244 6.119784888463959 2.5444477403086037 13.101170377911615 0 0 0
105 2 -0.878865158291201 7.719170168064741 2.6485614025192494 14.814260364296992 0 0 0
106 2 -0.8110012174009136 7.96739985814288 4.639735764123495 13.301892934834843 0 0 0
107 2 -0.7522768271774578 6.015677036419694 5.289757169864508 9.921864320377082 0 0 0
108 2 -0.8920847599390266 5.610088047994165 7.284578179783805 11.444778457829376 0 0 0
109 2 -0.8222413661073762 7.957227425935301 6.156893166600286 11.128110134725766 0 0 0
110 2 -0.779461977601929 7.093851418621077 7.483597265176771 9.092009555559887 0 0 0
195 2 -0.6125233936143475 15.42219780784735 5.066435392520747 8.421776499062268 0 0 0
43 1 1.660266065008971 8.833248755319971 5.376253858215923 12.031860801455345 0 0 0
194 2 -0.5856269825267573 1.6621650747914556 1.5438119365710614 11.921225632060754 1 1 0
11 1 1.746249439485913 15.527832837219044 5.184922335605622 11.954140057037769 -1 0 0
204 3 0.359742599436864 15.599271709384812 2.5317952235176753 12.16610904369045 0 1 0
1 1 1.71646244153698 1.5502612811016847 1.7129647893402602 1.6347552420399278 1 1 0
9 1 1.67769657194794 15.448922292973457 15.382073484967243 8.450362103926441 0 0 0
205 3 0.4149392644568446 14.711737795324687 5.553069963150508 8.47393669239479 0 0 0
206 3 0.391348240226478 1.8505029133290156 5.431135536906172 9.077140192741702 1 0 0
203 3 0.4074119649764173 2.0840064889886705 15.353305227488363 12.717629496074867 1 0 0
42 1 1.580452921345794 10.282628459195887 3.181593021154155 10.53584414140671 0 0 0
44 1 1.880593916761664 10.493066211227223 7.195311857559673 13.834935872288288 0 0 0
46 1 1.684098245569353 13.818459438071688 3.3988493356183973 13.940512198098371 0 0 0
48 1 1.764682640020026 13.690272515322171 6.983843764035981 10.313603660445573 0 0 0
67 2 -0.9150630544501123 14.699007223513846 2.7315515656998257 14.88415258770916 0 0 0
98 2 -0.8173476921109902 14.915146822215899 4.257340142852891 13.100276751908314 0 0 0
99 2 -0.959600691753728 14.645560287269962 6.072065878725634 11.00290234820769 0 0 0
131 2 -0.9478681469734325 14.662246367731754 7.86529730328585 9.469294095331675 0 0 0
159 2 -0.9672163560603573 11.41349653271557 6.394359595549142 14.750962734352168 0 0 0
160 2 -0.8606301830280426 12.923315961259995 4.447278723002077 14.544461558371069 0 0 0
162 2 -0.7138223189900043 9.083864759306474 2.428632475542098 9.652671341611509 0 0 0
164 2 -0.8313392847480136 9.362253185945407 4.273499844568507 11.130175370521432 0 0 0
165 2 -0.7108123852568754 10.819469987496912 2.19293628059373 11.628999856048072 0 0 0
166 2 -0.8207877424799012 11.305476942189944 3.7730579476916946 9.548034498833271 0 0 0
167 2 -0.8660531226098471 9.943279377450576 6.244460350003235 12.775333238467102 0 0 0
168 2 -0.9047747391508381 9.400176001236845 7.957444957984899 14.647350796287569 0 0 0
169 2 -0.8931338471750616 11.197192655764006 8.180843305061384 12.955658675897922 0 0 0
170 2 -0.8192399805241933 13.102399102289656 2.7013064087984615 12.723347696607803 0 0 0
173 2 -0.8388264404617335 12.788098995929822 5.867033466582021 9.44120980840012 0 0 0
174 2 -0.987517677403393 12.658667434539566 7.751770614580452 11.075295904783303 0 0 0
45 1 1.365315894985224 12.25430657135962 15.546871019337214 12.34762722179191 0 -1 0
61 1 1.901559687671625 12.110108092940155 8.880772793679164 11.872586830781398 0 0 0
23 1 1.677102445913946 5.224578721750311 12.054022764268868 1.6176713097564477 0 0 0
13 1 1.746835181338729 5.08801932581083 1.7815922356867433 12.245109662019917 0 0 0
216 3 0.4271706539369489 9.018405922890572 12.535547765180276 9.159311919847529 0 0 0
29 1 1.794128680148737 4.827387013551497 8.47113289374961 11.854091577727537 0 0 0
26 1 1.668250259354556 3.291426243109565 10.309068899126771 10.041640981280853 0 0 0
28 1 1.636879799307595 3.4876252983963916 14.155243319674131 14.15656614302996 0 0 0
30 1 1.702999225693445 6.6489243127110225 10.33573125723606 13.648703581588407 0 0 0
32 1 1.481897531421179 6.940616619706708 13.864084151242498 10.715047278144944 0 0 0
66 2 -0.8970573334269655 2.4964110255757337 14.826204565022259 15.00525332040661 0 0 0
103 2 -0.9358743308452132 4.424996368750103 14.991618597138448 13.213266091540444 0 0 0
104 2 -0.8435136447218939 5.878338871187971 14.75836053003928 11.364757565385535 0 0 0
126 2 -0.8262142474068576 4.155196822788576 13.00049225930611 15.026728838715897 0 0 0
127 2 -0.8954782017231993 5.691140883856259 11.133286385030033 14.665343062784448 0 0 0
130 2 -0.8433192379593597 2.5526434325791794 9.470472081688188 8.987069174140522 0 0 0
133 2 -0.7030214636584632 2.353759816503682 11.164657967963763 11.103755478556476 0 0 0
134 2 -0.9199213472903429 4.190252286803292 9.228252603813434 10.751573153421365 0 0 0
135 2 -0.7674254179827181 4.005635082705454 11.425079600405038 9.415050793755046 0 0 0
136 2 -0.7615204894762002 2.470857165995994 13.487228104151978 13.180093900958056 0 0 0
139 2 -0.8663306883744527 5.768095438643837 9.585068096733924 12.612795188633715 0 0 0
140 2 -0.8920498751143662 7.344848396748313 9.405957977674323 14.670186401469 0 0 0
141 2 -0.8544169318355943 7.766241673496221 11.316417575922742 13.164409726080148 0 0 0
142 2 -0.7146688085641357 6.239309531116929 12.626798471574531 9.784810788836158 0 0 0
143 2 -0.8606293281648748 7.832311677650961 14.356271109731285 9.555705397075684 0 0 0
144 2 -0.77267800281558 8.093008536459202 13.29204641085439 11.741996468975 0 0 0
197 2 -0.635293533403216 3.128625680860182 10.884505654263023 13.41352448235292 0 0 0
199 2 -0.6149883198746992 5.433744227750449 12.459797415682424 12.02041192395529 0 0 0
209 3 0.4519633230289894 3.7159144129352764 10.260067464414462 13.869750551696278 0 0 0
210 3 0.3955338661460366 3.00043370272392 11.634406073373441 14.040195610775694 0 0 0
213 3 0.4292180292712918 5.2376359795284255 13.276869524467525 12.432924313263058 0 0 0
214 3 0.4110981847449485 4.813742683355021 12.346888550635082 11.222748926026128 0 0 0
57 1 1.6303588621253 8.345991903434506 8.440570565585855 8.614446390085291 0 0 0
55 1 1.602047424250905 12.387355130162188 11.923904150650209 1.6138159889462949 0 0 0
33 1 1.606318815515303 8.63037771262545 1.5891979589900216 15.59968494039785 0 0 0
41 1 1.559831317324816 8.428520577392298 15.515830575418718 8.701917774803071 0 0 0
27 1 1.430854125440279 1.6377284269219894 12.100375953167994 12.255575694398345 1 0 0
59 1 1.738990040491065 8.873927080957047 12.062949829280871 12.3166307684493 0 0 0
58 1 1.665792833063093 10.077459661227756 10.359351024113046 10.181752983253837 0 0 0
60 1 1.618361699552002 10.506865847729383 13.785934855109783 14.144941340232442 0 0 0
62 1 1.74408397615692 13.883647203791458 10.286754254130859 13.837845211190853 0 0 0
64 1 1.684918430398856 13.976225519614264 13.613413097861631 10.376007148255216 0 0 0
93 2 -0.8633983701101325 14.85733668694499 14.329732241104477 9.388805846670321 0 0 0
113 2 -0.822119400970972 14.868534154325271 9.310758593765353 14.608107777121024 0 0 0
137 2 -0.8118102820111956 14.769623878524257 11.309169090723024 13.191405767671505 0 0 0
138 2 -0.7914948192587389 14.686521735561442 12.631322550046619 11.237208723739506 0 0 0
146 2 -0.87416278037365 9.472830236471362 14.69232010963323 14.818996378482577 0 0 0
171 2 -0.7687418778580195 11.787389966395601 14.501710445077435 13.482934939327691 0 0 0
172 2 -0.7163502333759886 13.111297488267141 14.717825555273215 11.260941960858705 0 0 0
184 2 -0.7286800238641432 11.238308057448403 12.896055796248472 15.27901425617448 0 0 0
185 2 -0.870106926033128 12.72198240954172 11.002048143602604 14.545106550225992 0 0 0
186 2 -0.8881339424549271 9.123337948132571 9.192747383680873 9.602338929857293 0 0 0
187 2 -0.962625650227136 9.323183710575137 11.217383631018123 11.129370188400749 0 0 0
188 2 -0.8939645098190238 11.10255173543948 9.73483238555097 11.09097847372541 0 0 0
189 2 -0.7993861158335485 11.200456602321228 11.195404442992615 9.047633371782162 0 0 0
190 2 -0.8551536305219847 9.963344789083123 12.745880780388688 13.125374866058742 0 0 0
191 2 -0.9125682563952828 13.188538097009324 9.589440726910151 12.663017200374341 0 0 0
192 2 -0.8570145566771955 12.807297482833306 12.797493584912544 9.627430043596036 0 0 0

Velocities

2 0.0015920864479234131 0.0029688021228931267 -0.014638773544480161
4 -0.005643274746217807 -0.005618784764214652 0.012806744153598122
6 0.00039168924212499483 0.0036088923057137562 -0.0016393975729217555
8 -0.000976833727822813 0.006520343462079223 -0.003965865267433814
65 -0.004681186575280527 -0.0018362433923856999 0.011402550351297497
69 -0.014183949316434049 -0.011214982515326774 0.0005714249789020663
70 0.017496229104999497 -0.012740712624586412 0.005849252473533916
71 0.0010816851770894553 0.0009627463405665007 -0.004719341188259515
72 0.00017082369582137856 -0.007597873682628353 0.007501351293579948
75 0.014377345386017117 0.0079250916703277 0.004803543434373635
76 0.025294396999215884 -0.0077228197349331 0.0040947170391464685
77 0.009032532516069043 0.0044966575666666965 -0.011654045087815966
78 0.006245981978803676 -0.014719670753026697 -0.011469561070411348
81 0.006080563867289806 -0.0045592798957001576 0.004014109765543528
82 0.006959658279307719 -0.010097451033508556 -0.007316967372337007
83 -0.00016131699027135068 -0.006540075228935357 -0.0024472347560159187
84 0.0016638835056945371 0.0006947305040759423 0.0076938776431728795
87 0.0070654598706088294 0.005430442869604056 0.003981255467555362
88 0.00022386901682023538 0.0011411290092725706 -0.018547275356923378
89 0.0026389769386732168 -0.010621648471938288 -0.001475799984212738
208 -0.006425836760120677 0.018078921766777892 0.007537240330922414
196 0.007031240501021235 -0.000826136256541827 -0.003817998452647247
207 -0.011010623748155073 -0.0027367452265191026 -0.026360067648257126
193 0.004580187766321526 -0.013827365459297723 0.00887716010799293
5 -0.0012464664454602708 -0.0033788696139676814 -0.00019804775435109146
15 -0.006167345701774712 -0.003188393262121504 0.00871474779114232
17 0.006447424361764547 0.010890554605222902 -0.0033851982493296883
3 -0.01523311625732193 -0.004019957819498918 0.0020781451769598482
35 0.00036231758848985935 0.00023883505713049948 0.000579578218871567
34 -0.0018175531635104092 0.00933450345107898 0.01702534674814238
36 -0.0012507374107997953 0.008142699167883414 -0.0020133541335573286
38 -0.000688803562694926 -0.003641512298733172 -0.0071795706940236265
40 0.003094551664658483 0.006547819574510617 -0.00019392681060405765
73 0.0006851198554019747 0.0035328299544047396 -0.0023492352817458717
74 0.0038467276770123744 -0.00022897919733660819 0.002395288885145722
92 0.009943011540421952 -0.0018482930810095298 0.00038391671039475587
112 -0.003778977998918133 0.0072333018154184334 0.0009186741082704045
145 -0.0032031575159684107 -0.00039576874100122073 0.0024623503057503637
147 -0.00036906475970971945 0.009347416014544953 -0.003195190032453443
148 0.010881064889131332 -0.002210928162102011 -0.009770693951892236
149 0.002534712933739533 0.008233786790504233 0.0009573403970695383
150 -0.012335206934081076 -0.015434448253459588 0.00118953835679707
151 -0.008435684450461698 0.009288640190643752 0.00043284353465715517
152 0.004817798726634199 -0.0006255289425560134 -0.002135769137777752
153 -0.0006121213382058871 0.003790124585738234 -0.005960202174865315
154 0.003621587890825581 -0.003056143487327368 -0.0001346707141796597
157 -0.012010334928646928 -0.0005313712124196358 0.008486801053295492
158 -0.00026569764898370127 0.012767484163845377 -0.003279495042961439
161 0.008530061816205569 0.017761056052208766 -0.0010784029667557876
47 -0.0044446891932827335 0.005386905107659385 0.0014107555480110036
49 -0.007332111273042935 0.00771777644289345 -0.0011398619892271388
25 0.0030911192931922077 0.0016433872554972467 0.003787703754562832
39 -0.00867280296377629 0.00540650698127243 0.011808455918165804
21 0.01763194099784273 -0.004293506127629552 0.00778827565216418
201 0.010849057758993846 -0.027283141629620075 0.011776178809666183
18 -0.004904096177490173 -0.0041797970322354295 -0.0020435533012755107
20 -0.00040157313553138165 0.0009634641283492275 0.00951771503046014
22 0.009651954270462818 -0.00697002663885996 0.0012070798979375449
24 -0.0007606508130752522 -0.0004406851331928316 0.0018877619447634408
79 0.0018794161847858922 -0.01082290818241509 1.1366038599237817e-05
80 0.00640472434130718 -0.0024611011566107997 -0.004103639983283514
91 0.0036839084755026846 -0.00782629582207238 -0.00678305841634308
111 0.008800652032648086 -0.006495716361728373 -0.009041307569263761
114 -0.01258290123141753 -0.00629507246465216 -0.002308206701236845
115 0.010971385433483928 0.004231228490053542 -0.010147588177349105
116 0.012361157289742866 -0.007122423180408451 -0.01281866067828472
117 -0.006484133362650003 0.0025079589270182103 -0.005457249964810331
120 0.006530218449280647 -0.0045890781494556535 0.007860053881078782
121 -0.0018340598191656828 0.005942544354132186 -0.001975986988835686
122 0.006832360030244754 0.0024432891186026077 -0.00028484492192519095
123 0.000771258114388895 0.0004309435790251452 -0.0020787620299560806
124 -0.005248729390877604 0.006749334543864393 -0.008860144666389186
125 -0.008843926972089721 0.009391614899122597 -0.010510192920848366
128 0.006210545880312961 -0.0005142098510536698 -0.008028864891922121
129 -4.768409281527991e-05 0.003203439647161979 -0.0045983304177147945
198 0.008926509018579163 0.008872999331264687 0.007824365225605747
211 -0.007846818181441515 -0.01432243481299098 0.048823594503303695
212 -0.0032069148028451952 -0.023711532051798576 0.03156524720499719
31 0.013345028664181045 0.000828302028754473 -0.0029793351361826056
51 0.003995579233539258 0.0071681012882453005 0.006898508581372553
200 0.009521224271458328 0.012415053865902668 0.003516217216013623
53 -0.006782383605140577 -0.003598633669064911 0.007116584058172451
202 -0.058107793247368464 0.003859857761522456 -0.025924882147896892
215 -0.03893873026965638 0.008850104566265863 -0.02838830122682596
37 -0.0010730697261545634 -0.004556641220067641 0.007092978652750516
19 0.0010532911000539396 0.01622823047742352 0.006728386119215414
50 -0.00614482494503618 -0.004335230965321282 -0.008100606430841203
52 -0.0012079822342086859 -0.006424753894328361 0.0038938843527335713
54 -0.0031924509693134315 0.0005239308995976822 -0.0009114030279034952
56 0.005446302129408816 0.0018188108563098955 0.006276029134358156
68 0.0009283809993821842 -0.004280765124584385 -0.0033655713059362645
118 -0.021097452450242783 -0.0020626928608207043 -0.002502541166665893
119 -0.0014751975637387151 0.00926096693465097 0.0026509684894162867
132 0.0007162605211942469 -0.004756313963103224 0.00620004914315922
155 -0.0020670941876132034 0.0020822722535615247 0.0017375195184602705
156 -0.010249443901029772 -0.010497299611273983 -0.01750034226679525
163 0.004921121977934981 0.0026026626307205066 0.0016292648722858612
175 -0.0016900434124178716 -0.010857459238712928 -0.0038229465584955183
176 0.007678746410835115 7.759898805332758e-05 -0.0011741718694768045
177 -0.009482403563518366 -0.00029275638283267314 -0.008429531315289496
178 -0.006523492719523661 0.011670187559741283 -0.013723246471796985
179 0.002595055600883801 0.002561405089568044 -0.00963348078455058
180 0.0006954433485104198 0.001283899524460974 0.011401612365009778
181 0.014740630065201871 0.009226585523020964 0.014854727957298567
182 0.005586995351191239 -0.010692289570999476 0.004707905931938777
183 0.0033182006188416957 0.001100897959057287 0.005026062409015682
63 0.001700551611328751 0.0067343931305921135 -0.0023148679244740285
7 0.001213712858384959 -0.0011690842156211875 -8.984502725940761e-05
10 0.01112946498079997 -0.00017045433882578072 -0.0011533642435469862
12 0.0017167703248622134 0.0004237147508012385 -0.0037442475754231918
14 0.004731514686961212 -0.005449219883428487 -0.0036249888662143077
16 -0.0044885020772720725 0.009172422546597404 0.000946704468868761
85 -0.0012235467372654243 -0.004076352062115161 0.0069157372438172346
86 -0.006051288811075456 -0.00479169941371865 0.004117094290086646
90 0.0107059674139379 -0.010615283834057514 0.010783456355416823
94 0.0091081870842788 -0.015289833436486877 -0.014607527637871978
95 0.010462165928254209 0.00914455864560791 0.005319417319283716
96 -0.0037679027513093993 0.0047835322356314745 0.0011941814179712133
97 -0.013560954652953486 0.001668630094929335 0.004779947877484984
100 0.011669209902237002 0.0045946943807753824 0.0021288601566811787
101 -0.004114058674888957 -0.0018061746996465718 0.00011409142366746835
102 -0.014952173965840032 0.0005579269480188314 -0.005299096072964065
105 0.0021307539469208625 -0.0005466520302469042 0.0012186705508929177
106 -0.01097773230604062 0.0009987068531219446 -0.0061436943361548495
107 -0.0035963860432205695 0.008699675919629873 -0.005906311723364285
108 -0.01433123130090238 -0.008811671730047174 0.005020776056428828
109 0.011370162406187876 0.0020463457459249487 -0.005059856090859676
110 -0.013542417777269845 0.0013686534071499256 -0.005666925658840032
195 0.005917424839898055 0.0023659099872820008 -0.0061105258179453125
43 -0.0022396781930205394 0.003199081639725496 -0.002735855276061091
194 0.0029317201310095535 0.007934954390387754 -0.011960558180026863
11 0.0093654980546928 0.0023013914066548195 0.004830508133149907
204 0.05625840754616172 0.0042793142733727725 0.009220413181685858
1 0.0022337287531536045 -0.0012543651076667205 0.0027199924927600646
9 0.0013397869795477284 -0.014909998854884908 0.0018996383902234392
205 0.032736245158392366 -0.05523066023216415 0.017691184104230397
206 -0.028392894415199793 -0.015850204288424295 -0.03437517355418035
203 0.014479705592104512 -0.032411901686099885 0.025771394780732756
42 0.0071778740290199495 -0.011892446752555868 -0.002140568612222112
44 0.005923118693073346 -0.003284586597565134 0.00024589046871489515
46 -0.003561449689700045 0.0006872372716171989 -0.011698833760102872
48 -0.012308782943345383 -0.0020795871033336836 0.012298096672979063
67 -0.005553117138430791 -0.0034493459816842737 -0.003005337924886067
98 0.006107784558967251 0.0014305851255765494 -0.000351213577248131
99 -0.00891946482955393 -0.006568340625447551 -0.0061062575497478734
131 0.010021647112949686 -0.004059335551664798 -0.00018469891394945414
159 0.004350364596876296 0.0016445080593711634 0.013236090230591056
160 0.0030466855085271097 0.0013092696954571897 0.008308924483853536
162 -0.0035768497521363593 -0.009953025066772552 -0.010325881268563345
164 -0.0025542253202475596 0.005198200940120089 0.007438133013760573
165 0.00298618933311282 -0.006708406663284946 0.0001174709037503338
166 0.0038988719374349876 0.00337387743762988 -0.004017469028767951
167 -0.00229537789011642 0.007314182301441298 -0.005963812495315428
168 -0.0014363109194636622 0.006786854235063038 -0.0034045577626204376
169 0.00667491828725206 0.00853680191824175 0.009486968487980623
170 -0.003452431708331795 -0.012322139352303639 -0.0022174094104890256
173 -0.0038515772530397416 0.0032965694745421504 0.014816349576575709
174 -0.0012107794077326015 -0.0031182895728458595 0.012463805053164564
45 -0.003976212149267307 -0.004130650430395323 0.0037182904682391197
61 -0.005798614756013616 0.006027337919201137 -0.001863984550086935
23 -0.007944550062523998 0.0006252999455370253 -0.006298281836759487
13 -0.004809193020877584 0.00979868706064493 -0.00243933778524199
216 -0.028396750490853318 0.007248331400089675 -0.0389075461259787
29 -0.011176690774031616 -0.004544352691579466 -0.004185781335913437
26 -0.0005275760029037294 -0.0021722657332926064 0.0014746809004280647
28 -0.0004915503911118814 -0.00012199946613087478 0.009441194564856068
30 -0.004198147680382051 -0.004646854878381488 0.0019157711313486597
32 0.007959858001852371 -0.0015062755999602974 0.006378030743778169
66 0.0033043235936368273 -0.006802052394795837 -0.002093348619598091
103 -0.010541016628433339 -0.003354492779844527 0.005007869888361787
104 0.00426317019237012 0.004175123199515988 0.007690449118233252
126 0.01187232342100087 -0.004738080652664469 0.00072107592576506
127 -0.015570161117084936 -0.0007535540227582088 -0.010355641478471683
130 0.0013985935559678846 0.008548666539838178 -0.0063909826076179845
133 -0.000733286478176696 0.004620126106465547 0.008594348144835543
134 0.008281662063403576 -0.01069689023709492 -0.00508921097578819
135 0.0005946740767521905 0.005178620808669232 -0.008292703906950362
136 -0.02121495493594797 -0.0015272785999971255 -0.006044441115089071
139 0.0005773412542992689 0.0006647453273214408 0.011063896657635915
140 0.0009464477384144731 0.0012301419236345847 -0.0068570118001716526
141 -0.002833311475966057 0.01192633555782119 -0.0034012872862541803
142 -0.008002836367045591 0.00643331558616872 0.013348598051785936
143 0.001006601969901077 0.004636686693869074 -0.013267489055913146
144 -0.0006614174009139517 -0.0020272910659837645 -0.00044202178564087437
197 -0.005278541605832929 0.005401422508122801 -0.011810466990871538
199 -0.0021965036934627983 0.0005157364718564598 0.010173156861054092
209 0.04590328909603421 0.01698011660970748 0.06294401855772966
210 -0.006037310844827981 -0.09230728527205828 -0.059900550827104
213 0.025228074796241267 0.007073961213851382 0.035023554574457175
214 -0.014985195825983 -0.013990886985232655 -0.03886553357124442
57 -0.0029887942260321265 -0.002733017967100702 -0.003676244801199295
55 0.00668712606576939 0.0033355798690283657 -0.0050764011424926725
33 -3.57128481340402e-05 0.0005368046956804578 0.0027856758643497563
41 -0.001924661433992412 -0.00503538338434487 0.0040893988340971
27 -0.005904509511288625 0.0017474120608708297 0.00402016323464881
59 -0.004663794101183662 -6.832796879140324e-07 -0.0036213764562227388
58 -0.0020948655849198096 -0.0025580521553767235 0.00045433423303433015
60 -0.009667654664698794 0.001915955818535683 -0.0030056063936677634
62 -0.003311698497320025 -0.012866208098208336 -0.0022858315468235373
64 0.009175118394450609 -0.003105099181674468 0.006283037844865505
93 0.0063070038635106625 -0.008330944935602276 -0.009768850780966388
113 -0.005447613404312252 0.005305306497925746 0.006541391218757452
137 -0.0013155810065679737 -0.01574475348826112 -0.010935438477957441
138 0.0005604762633918805 0.006365128043420535 0.0006482692260296825
146 0.00491162695695859 0.007150420719488493 -0.01931838167439341
171 -0.006488813118979823 0.0032889757611748163 0.009387110230304418
172 0.004273261474624879 -0.004606416997761817 5.4075633156891045e-05
184 0.003619669809013451 0.002085510313090357 0.0023661366140601374
185 -0.0064276926092761266 0.018307152098096323 0.004459815133219363
186 -0.0008937987267280135 0.006971831883675011 -0.013425192808469563
187 -0.00227372636353359 -0.0008014753711049718 -0.001347349182950632
188 0.0010102124326051777 0.003022216525461027 -0.009148707427870313
189 -0.006690639106049682 0.003100380266943366 0.008058016916522246
190 0.004425282489792196 -0.004806476486977978 -0.002174544690457693
191 -0.014084411739539162 -0.006355687040139056 0.002064945349591949
192 -0.00022434092638109405 0.00423212372795641 0.006072897021780163
