LAMMPS data file via write_data, version 29 Aug 2024, timestep = 480000, units = real

228 atoms
3 atom types

1.2672872707555056 15.89271272924458 xlo xhi
1.2672872707555056 15.89271272924458 ylo yhi
1.2672872707555056 15.89271272924458 zlo zhi

Masses

1 28.0855
2 15.9994
3 1.008

Atoms # charge

2 1 1.234685963294107 3.0695740025617937 2.2725370837453407 3.004803969114483 0 0 0
4 1 1.350952854262672 3.113906888011351 6.508380341031909 7.028664074361667 0 0 0
6 1 1.359024556920596 6.3782710368834925 3.0437554298375007 6.958666305001026 0 0 0
72 2 -0.7377548521281311 2.1182803796118934 5.3812354147219015 6.246416265086651 0 0 0
76 2 -0.7824173581882704 4.430916794255718 7.227796528695131 6.3225416883435095 0 0 0
82 2 -0.7926440473261764 7.291530536947564 3.7121182920026166 5.859766388014767 0 0 0
78 2 -0.6412949478126466 5.729424320400741 1.6605359015629229 5.945562439072573 0 0 0
201 2 -0.7529511506801806 5.738683772571043 7.768248530420848 4.252674535763106 0 0 1
8 1 1.371531513653949 7.154470667460051 7.330107074566199 3.7926296709892937 0 0 0
81 2 -0.6947350266180879 5.425098779593487 3.7802524374824946 7.9306304919488815 0 0 0
69 2 -0.6444213497248099 1.7746242413700408 3.282566784480107 3.369372567305837 0 0 0
87 2 -0.5607762371724163 3.3367942917900555 6.383037006839719 3.8040929831633816 0 0 0
206 3 0.4122780536267091 3.547601525130206 6.096305730205919 4.685529213924819 0 0 0
205 3 0.3987898852754813 3.3548876113534707 6.365244632921396 2.672960703518176 0 0 0
193 2 -0.6049694112541634 7.6185169408425715 5.947478348916296 4.56404608416287 0 0 0
89 2 -0.7223406532210008 7.725989497492253 7.3152649376999594 2.3105282763314 0 0 0
75 2 -0.6929775897107721 3.356468523057462 5.577835765602446 8.227640643473084 0 0 0
71 2 -0.5135498312012451 4.265990030731508 3.232414970691238 2.293921364271943 0 0 0
70 2 -0.7198594218559509 3.9318339178382584 1.8880676614740748 4.2149373000116945 0 0 0
213 3 0.4642291066194589 6.074814763377013 5.821139698956457 1.4383122652349947 1 2 0
84 2 -0.5972598919105493 5.3048806483396485 5.326439970717392 1.5162250709070426 0 0 0
77 2 -0.7633081850584463 2.469879461536362 7.707506018266315 7.838279871277458 0 0 0
228 3 0.3271667283909457 15.552761790745627 2.6615964488492487 3.5376175606757987 0 1 0
65 2 -0.6975355597621687 2.2942935414176837 15.753435778962725 2.0926879219389782 0 -1 0
83 2 -0.6995812154327444 7.297624540616428 2.2101478117085698 8.023456190480074 0 0 0
128 2 -0.6096446942256529 8.395453903728388 8.094635629089925 4.528551444336493 0 1 0
21 1 1.545464404422512 4.998714177253854 8.490300670730788 5.485223606512527 0 0 0
194 2 -0.5679766969112038 5.286040763451724 7.84664505225999 15.566453361661743 0 1 -1
17 1 1.288600456134634 1.6951598076280296 8.738626681140708 1.6720017496825186 1 0 0
208 3 0.3862107954151087 4.579577351801032 8.61130976482797 15.308487437381686 0 1 -1
35 1 1.279426660894307 8.391505614835053 4.6629073124219875 5.44698122490177 0 0 0
180 2 -0.7454937717623191 10.493806698497703 7.753750890519083 7.33509586389819 0 0 0
207 3 0.4209733667654584 10.284070447823005 7.929561418140167 8.316814986016801 -1 0 0
3 1 1.397715876378471 15.380617557036345 4.774165366244549 5.732941502321882 -1 0 0
74 2 -0.826216089806092 14.800581620866481 5.512555959732918 4.522578856899198 0 0 0
217 3 0.4559977037516617 14.406281920955344 6.394095497564013 6.571072635942866 -1 0 0
199 2 -0.6356875716516582 14.636307630997837 5.680375810189556 6.855141743510846 -1 0 0
34 1 1.130021164078197 10.42545003271037 2.83768181967672 3.3180004059587307 0 0 0
36 1 1.518162426626324 10.603422833392582 6.338637057524326 6.602370977604323 0 0 0
38 1 1.468779295297649 13.86804430550584 2.6646124623080967 7.347401398524189 0 0 0
40 1 1.333941607468766 14.583779611995599 6.567294059858129 3.395582279139779 0 0 0
73 2 -0.7213352334373688 14.415600229754038 3.516580864110704 6.1207597639906774 0 0 0
147 2 -0.6322039457194386 9.494985298863455 3.6743990447767243 4.2527257661339215 0 0 0
149 2 -0.625506999653126 10.98501232743994 3.721607376994912 2.191609352783824 0 0 0
150 2 -0.763707424654723 9.349821652865518 5.469309004758617 6.4493889279174645 0 0 0
152 2 -0.7226079525602096 11.344586472024705 6.852782046803706 5.390222395521869 0 0 0
198 2 -0.6554015904633381 9.237699478825228 1.5600456574769588 2.4460303342414838 0 0 0
92 2 -0.6419670002772909 15.299072240594374 2.1806793977690875 7.897213491591389 0 0 0
151 2 -0.6826172429673091 11.302557636195687 5.2873436595822945 7.43871573366567 0 0 0
148 2 -0.6425372286042571 12.001977248660076 2.402644804440308 3.869763542620707 0 0 0
158 2 -0.6356903794883808 14.593486111330463 5.7327995777563485 2.032787533417881 0 0 0
157 2 -0.7901186706585086 12.903161082687646 3.648054257396734 8.020770841515546 0 0 0
161 2 -0.6688010916434979 13.33243549745773 7.564682165720202 3.9077577440940043 0 0 0
112 2 -0.6382673167052458 15.43622230279858 7.80809245730905 2.836056119930031 0 0 0
154 2 -0.6188818657632434 13.296212368175837 1.4113493992062214 6.7286531594852645 0 0 0
227 3 0.4018877881955317 14.930217135213969 4.765322675192474 2.2201096749414204 0 0 0
53 1 1.335464191020764 12.284062746359798 8.222196537553323 4.837253188382501 0 0 0
211 3 0.4051395546146786 9.281143683224627 8.733407739266323 4.521799107353743 0 1 1
115 2 -0.73757513919894 3.9440649487530326 9.428745051857202 4.89854535665952 0 0 0
5 1 1.389216185447334 4.4287617502600165 15.617861992231148 5.43743822526297 0 0 0
111 2 -0.7507549617228947 2.9698396893274195 9.381669334897879 2.517891114958738 0 0 0
121 2 -0.7969139801119267 6.018453184493923 9.537434115338684 5.840396516047011 0 0 0
18 1 1.510532890168043 3.1080524014966557 10.36136720052129 3.7040321155149245 0 0 0
20 1 1.595976846358502 2.836424902581835 13.569413214419164 7.136728547676472 0 0 0
22 1 1.548466697304761 6.804083416328308 10.819139460255741 6.451435674846339 0 0 0
24 1 1.376271673945953 6.436964851409168 14.323133804049434 3.7180587193982544 0 0 0
79 2 -0.693151011123524 3.2534734472640023 14.807517582663337 6.09076003633347 0 0 0
80 2 -0.6458902397944866 5.364787386111765 14.365945554022172 4.939328011821317 0 0 0
114 2 -0.8484672253069704 1.759529717663249 10.7666308646318 4.4551153009793945 0 0 0
116 2 -0.821233241511951 3.741141363844245 11.65594597577389 3.155494094721883 0 0 0
117 2 -0.8373730444345401 2.159108468224231 12.756355115622917 5.922670937933741 0 0 0
125 2 -0.706198702421774 5.1710699789499746 13.799905102628724 2.711621823901557 0 0 0
129 2 -0.8338050697283427 7.72097260645076 13.523501929335705 3.757193990650918 0 0 0
195 2 -0.6127824078795175 6.9605349643731005 15.658604551550024 3.1682470325085523 0 0 0
123 2 -0.8629886082075692 7.38318554111849 11.517783126305439 5.248515406124427 0 0 0
122 2 -0.7670037317366981 5.798662049706596 11.628906142236278 7.488812780442281 0 0 0
120 2 -0.821351887841998 3.8493433373820833 12.889845844343029 8.027579063994505 0 0 0
91 2 -0.7805267369752682 2.0100339847092696 14.491481205446952 7.94999502734885 0 0 0
124 2 -0.6998461705586629 7.504684261973331 10.06858111910297 7.566074657106649 0 0 0
23 1 1.438485268204062 4.756652123066714 12.369888948246697 2.3783143755728737 0 0 0
215 3 0.4805452479136942 7.744464331119828 1.74244968654516 3.3426831781828357 0 0 0
51 1 1.390135862856745 8.459345043530412 12.517918879364355 4.675092810439721 0 0 0
88 2 -0.6697871777216956 5.970085299618997 11.284543582515312 2.171663895823497 0 0 0
177 2 -0.7053348122355571 11.580879139669236 9.16989043578323 3.8647003627025645 0 0 0
212 3 0.4367973438540689 11.748613874607518 10.051570234938616 4.023670161854508 0 0 1
209 3 0.4139672862573945 8.81460687900733 2.0612729346203382 5.360154254682884 0 1 0
19 1 1.790176491931061 15.740095148037344 11.754189019818956 5.427261972214814 -1 0 0
41 1 1.431569467625823 8.408915649206573 1.4531422421183622 8.751161629908704 0 1 0
145 2 -0.5697129394856421 9.078923725639068 15.75413991871088 5.279803046664585 0 -1 0
37 1 1.164284673379381 12.576563421849098 1.3841233590811564 4.97202814068587 0 0 0
181 2 -0.7670488556160373 13.06974493534937 9.057584775088777 6.073917769745496 0 0 0
203 2 -0.6115271932598776 10.022492067924816 10.141905139786893 6.703796825033742 0 1 0
132 2 -0.8375636083580277 14.905205313796309 8.900065124532414 7.697472773024427 0 0 0
163 2 -0.6534319741459554 8.90535255898142 15.17159933883418 7.6310772774166935 0 0 0
155 2 -0.6038789817305045 11.302824623490437 15.210965752292463 5.474846260659186 0 0 0
179 2 -0.6919664647328317 9.285085192947065 13.284497016703959 5.811268441265204 0 0 0
68 2 -0.6624467169676832 15.318631035226527 14.019560405902773 2.530778910084533 0 0 0
176 2 -0.6729694601855117 9.85556082405052 11.694547568813736 4.047096688990688 0 0 0
118 2 -0.9175829302573597 14.875862910727868 11.11709909349904 6.471420445631446 0 0 0
50 1 1.342419167500104 9.964246417698682 11.187586701052641 2.4868409448464384 0 0 0
52 1 1.147850926860221 9.90946574938847 14.696361768319122 6.2706861675037215 0 0 0
54 1 1.620569626092011 13.997984151083024 9.949631052405532 6.984152326194304 0 0 0
56 1 1.382999500314573 14.30180656393783 13.776939680993063 3.7719898735884194 0 0 0
119 2 -0.7911625180773395 14.751539436319582 12.59646431639084 4.688822583719585 0 0 0
156 2 -0.658895263883339 13.360644698497335 14.634974897071395 4.693942131727544 0 0 0
183 2 -0.6133165090791001 13.09464662625177 13.050182198237056 2.9213154153584107 0 0 0
204 2 -0.669047633761476 11.485944527905435 11.33686686671438 1.9579998415713447 0 0 0
175 2 -0.5721234769455992 9.4914356382423 9.57600442434535 1.9672612838608743 0 0 0
222 3 0.40312285245287 9.579302964775266 10.738762761505999 7.238025193437775 0 1 1
219 3 0.4086487322969108 11.018053386252209 13.131042366974878 7.212350757698071 0 0 -1
182 2 -0.6830765569656148 13.063693994065662 10.474449438883706 8.07626467069587 0 0 0
226 3 0.419939765596668 9.621253352273786 9.347413056833947 7.027895866148231 0 1 0
200 2 -0.7066001112668643 11.228208649596066 12.892525151692933 8.103609981202021 0 0 -1
55 1 1.146682916266455 12.544116393499493 12.427496499447564 1.5046643045886205 0 0 0
221 3 0.3723837748350355 4.8846311251366465 7.2862957804890796 15.035026452571497 0 0 0
7 1 1.216897380837507 4.382236709309057 4.183564857195249 15.240592869767468 0 0 -1
15 1 1.301823562633483 4.580971103829359 4.742766174045528 8.924449916697412 0 0 0
10 1 1.397809150631912 3.2896159248509464 2.6940661971140036 10.757227729078892 0 0 0
12 1 1.425343690262895 2.939810706987046 6.6620537695151425 14.157180570934752 0 0 0
14 1 1.267172785636846 6.900342425794135 2.7297165748558236 14.340429024462079 0 0 0
16 1 1.487754249028198 6.91008573086735 6.312914811830973 10.66426605820173 0 0 0
85 2 -0.783782847450517 3.384642683051496 5.264699474631138 14.61212605773478 0 0 0
86 2 -0.6991246685735079 5.610188636611395 3.6996796241078944 14.646810946232112 0 0 0
90 2 -0.8108533578587204 2.5356692866745063 1.9052072436609877 9.577184665873137 0 0 0
94 2 -0.7483325083438612 2.4221341302115382 4.018100260333924 11.231983173052019 0 0 0
96 2 -0.5816409592115632 4.399432931378898 3.278456051587049 9.81526289350477 0 0 0
101 2 -0.7922506325293442 3.7989055241015244 7.700878512098629 13.265004509025275 0 0 0
106 2 -0.6763572084552741 7.546446816319719 3.883021188720477 13.52599612963149 0 0 0
107 2 -0.6494986267652442 5.7651632653315605 5.385772779919261 9.786924146332705 0 0 0
108 2 -0.7553019863203226 5.95332209753388 7.19554714171839 11.455898681977558 0 0 0
110 2 -0.7509898844944474 7.473127507047723 7.404250162288364 9.632762828863402 0 0 0
109 2 -0.698171777785467 7.653324236804522 5.332176367167047 11.571608678071108 0 0 0
97 2 -0.716019117967257 2.0842095151101283 5.996906897691786 13.098883929199378 0 0 0
105 2 -0.6018895678451857 8.292503668474463 1.7307226993529736 14.782003888047864 0 0 0
100 2 -0.7228810773299054 2.2627251658547434 7.5628567253500965 15.403959866767753 0 0 0
95 2 -0.7775332860697772 4.153226399304373 2.0639719769125118 11.937156697110762 0 0 0
102 2 -0.6406861364436875 6.068083533995499 1.4877531005830436 13.670047877497193 0 0 0
29 1 1.534737055553757 4.827080964461565 8.273313644060377 12.200765054228885 0 0 0
11 1 1.346014737772605 1.5094575188317112 4.782657924578505 12.223094577940842 1 0 0
49 1 1.272030662066009 8.67178437975424 8.140186589821134 1.2757599405831344 0 0 1
25 1 1.586804734783309 1.351278501446887 8.348747308333362 8.694955835660123 0 0 0
47 1 1.44288439196149 12.247901238026113 4.758318739339462 8.855521704480417 0 0 0
43 1 1.367411726500867 8.71475816363684 4.570755068720148 12.530555979485403 0 0 0
224 3 0.3691385273414007 13.028521060271206 6.096094291867252 15.013429816039576 0 1 0
220 3 0.4236953450782897 13.89017066126922 7.306919863720637 14.237650137118013 0 1 -1
171 2 -0.5394890661016534 13.71863682534028 6.385823673623624 14.242685847996785 0 1 0
167 2 -0.6094822783590682 9.401218660621197 5.880055163152991 12.9866429526246 0 0 0
131 2 -0.7696969195359473 15.545736022831381 7.397416492165274 9.728250520356884 0 0 0
168 2 -0.6212343649843171 9.957739166127222 7.152237326689227 15.330680977018964 0 0 0
39 1 1.253076078748925 11.57493835683919 3.691597920514512 15.205138679454539 0 0 -1
160 2 -0.5678701255954653 13.307401065193364 3.068173924267427 15.15085332981764 0 0 0
98 2 -0.5902739622362648 14.99077321697752 3.997771007973968 13.266985299073546 0 0 0
42 1 1.53830256498797 10.284637995673219 2.9769932907154617 10.39163799586099 0 0 0
44 1 1.239573003458326 10.743736285381996 6.485366489584254 14.059793923085945 0 0 0
46 1 1.214312119845668 14.176867620810128 2.61086952912844 13.83613313333893 0 0 0
48 1 1.272462165369218 14.267743537183545 6.638613805792683 10.528310564385212 0 0 0
99 2 -0.6021051685409672 14.878801356490406 5.40359968476152 11.30987593951459 0 0 0
159 2 -0.7646079595955341 11.175990907179358 5.127679621172057 14.678280122175778 0 0 0
164 2 -0.7913971360869962 9.367632499380438 3.7369534654815717 11.333790209832454 0 0 0
166 2 -0.7516426840013484 11.159931979975205 4.13613271140551 9.90377627073467 0 0 0
169 2 -0.6736525499676346 11.31419422159097 7.2430106128867315 12.776875365204276 0 0 0
173 2 -0.7080810441601824 13.208888576720813 5.7548599356201775 9.592934158490586 0 0 0
174 2 -0.598825391549615 13.688408539341111 7.901275850685142 11.698700838138574 0 0 0
196 2 -0.7299927159453987 10.929652786307205 2.4219270931142214 14.811944603522775 0 1 0
33 1 1.231335628724624 9.66777146137197 1.446232974953296 15.577983157222981 0 0 -1
67 2 -0.6267635137124055 14.914468283477998 1.6509687763748866 14.869370824458478 0 0 0
165 2 -0.7517818499339463 11.156627878746637 1.629576324316729 10.851719611103572 0 0 0
61 1 1.246596218095473 12.431660432238356 8.43283152061492 12.354080580914776 0 0 0
162 2 -0.8325010940181965 9.383201913349431 2.4442220632204146 9.223469275400877 0 0 0
170 2 -0.6582628116212716 13.134904321491966 2.041071447798487 12.665326797145923 0 0 0
45 1 1.368228213097605 12.120743357950875 15.567909487925277 11.991728286910998 0 -1 0
126 2 -0.6370569509118837 3.9444982994866495 12.659298412068868 15.649598332392774 0 0 0
9 1 1.46169691008272 1.4903229055590972 15.6866177112359 9.003730837941777 1 0 0
31 1 1.444067702587658 5.049149496088882 12.001939079339806 8.695218323314098 0 0 0
140 2 -0.762068125520071 7.960230867916982 8.867020541253318 14.712187593965666 0 0 0
225 3 0.3541146158923736 6.72766611664006 11.83897029790539 2.5242018493140215 1 1 0
13 1 1.452246622284274 4.9561639065618515 15.499531092412006 12.583596320213303 0 0 0
134 2 -0.7179159005444077 4.289085768456033 9.319485192882503 11.3018488951572 0 0 0
214 3 0.4750866300483462 5.6185514592143955 11.397631965945425 14.724577420822659 1 2 -1
139 2 -0.7867751320253427 5.676458079579619 8.877196200051875 13.280319157094588 0 0 0
218 3 0.3690644616742799 7.8498514592530215 13.353935397910544 14.863954410205157 0 -1 -1
57 1 1.231501062556045 7.884969595563022 8.814406719921053 8.959606766314197 0 0 0
210 3 0.383224583663587 6.945062730222791 13.07301061555361 13.60689921632569 0 0 -1
197 2 -0.6090521280876361 6.979722733982003 13.072127468836193 14.647700752047434 1 1 -1
153 2 -0.5782778997938228 7.061600049898216 9.725737225423323 9.810898100964408 0 0 0
216 3 0.4516817742510563 7.103971302368655 9.443315595372212 10.761919434099092 0 0 0
127 2 -0.690229937137238 6.273807978731814 10.996016628832503 14.19286365318391 0 0 0
26 1 1.374257693748656 3.066931235829112 10.24171267568947 10.36492063550828 0 0 0
28 1 1.289805934010153 3.220257273189625 13.574140802220555 14.257837661848093 0 0 0
30 1 1.351961327591676 6.982091404051225 9.654935765382511 13.779348062473058 0 0 0
32 1 1.364540490444628 7.011794959203191 13.649453990208915 10.929526560106972 0 0 0
103 2 -0.7085716293235698 3.9210204144229355 14.849078980418213 13.541518899281069 0 0 0
104 2 -0.7598939739575949 5.845476337806003 14.418598475346073 11.895952811651327 0 0 0
133 2 -0.7273504843456765 2.516207348840559 11.275819612017767 11.472415168569832 0 0 0
135 2 -0.6503622493178765 4.340768493729016 10.777987575233446 9.36122619237607 0 0 0
136 2 -0.6476760239992115 2.589016411323893 12.900240743054116 12.854605029021986 0 0 0
141 2 -0.6430965690396158 7.80169458128125 10.361321047835045 12.421705280937367 0 0 0
142 2 -0.5794792576277862 6.112461589635865 12.589887838278319 10.129774852886761 0 0 0
143 2 -0.6107552146878016 7.570536995145361 14.52603040208328 9.753774972047921 0 0 0
144 2 -0.7917697078838194 8.087124120198466 12.778850175832055 11.707259015753397 0 0 0
130 2 -0.7838570190762016 2.0336067207621005 9.683568180116989 9.461341176797035 0 0 0
66 2 -0.6698917791096854 1.9025640989134733 14.141717112951856 14.86840920165988 0 0 0
178 2 -0.8549373148340864 9.046382473833654 11.953217867761566 1.7009382725805413 0 0 0
223 3 0.4822317434275917 8.492586670466073 12.331057491643964 1.2781048848917642 0 0 1
27 1 1.359903421966431 1.4385966028061388 12.059270784123157 12.254347266381345 0 0 0
59 1 1.310458109212089 8.895039612063062 11.64960099047007 12.331916181401855 0 0 0
1 1 1.260739465127091 15.792176644574173 15.057402138360256 15.888117021014548 0 -1 -1
138 2 -0.645826677817145 14.863877251035358 12.90946959817678 11.472558389809077 0 0 0
63 1 1.352702728019573 12.21772495979178 11.900835673018584 8.681656407051538 0 0 0
191 2 -0.6999915094164897 13.519795295311475 9.162325782637126 13.470741203386492 0 0 0
185 2 -0.5701113159880217 13.840572220020356 11.300673240351745 15.565213820442573 0 0 0
188 2 -0.6513627733847795 11.727947191046539 8.990716742171628 11.050282258902438 0 0 0
202 2 -0.6729336659450245 15.493528974765525 9.516683892119492 15.10448100404005 0 0 0
146 2 -0.6282592711985658 11.407445345394937 14.388129287516207 12.90407813122317 0 0 0
113 2 -0.7352620314213985 9.64847740742589 14.628929244183837 14.917496385170082 1 0 0
172 2 -0.6772243222192903 13.238740338872827 14.70265533135084 11.515588312227358 0 0 0
186 2 -0.7571478597741513 9.381267280734662 9.110276766951785 9.302825272947008 0 0 0
137 2 -0.6355343586426669 15.042073701159254 11.271186712581116 13.451368085838627 0 0 0
184 2 -0.5529628198379788 11.857387264768057 13.22303481617779 14.69210929123766 0 0 0
58 1 1.304488332199576 10.49330264439136 9.943498725565082 10.317164350377357 0 0 0
60 1 1.135825718087606 10.452721470241883 13.653339760900167 14.005519588306129 0 0 0
62 1 1.347107180145968 14.278132389323307 10.275713587694078 14.383957264609986 0 0 0
64 1 1.176239642490537 13.968227243075823 13.78444072772082 10.462227957705053 0 0 0
93 2 -0.6674839016041473 15.001129145079972 15.125031298017145 9.889362451846544 0 0 0
187 2 -0.6564384338687779 9.509830886831274 10.897318464257857 10.967902723439622 0 0 0
189 2 -0.7127923037377993 11.507249927704809 11.009252483919607 9.682763285517826 0 0 0
190 2 -0.6714340467825253 9.980253362294896 11.924662107489482 13.399274692646824 0 0 0
192 2 -0.5807055850038577 13.470405467707224 12.910151360693664 8.83687537815938 0 0 0

Velocities

2 0.006920062253233071 0.004973790037777004 -0.005871826747025563
4 -0.0043408285420302286 0.0011214819868032482 0.00398288650752711
6 0.0018173074204791463 -0.003661393427612516 0.0032385718526952664
72 0.01888613189517631 -0.008788656491841029 0.018540782782806308
76 -0.0002929372115751908 0.004687249889729126 0.0011699336601950616
82 0.007296376331082642 0.00275695167290182 0.008441719138271327
78 0.004573282337443907 0.0002239877262809416 0.002406945895658566
201 -0.012072684412687964 0.02539662945172786 0.00214359678655587
8 0.011131795967999163 -0.010437622982308919 -0.006165021229331473
81 -0.004755048036533563 -0.01774671784495644 0.015132922848855588
69 -0.008115723030978197 0.0036418638067841776 -0.01831784569559121
87 -0.03389328863119611 -0.0066768519607541986 -0.010008826465352377
206 -0.01027985776764102 0.0036012504620233066 -0.016815580903532756
205 0.04281332192946119 0.02762633097526843 -0.067876282408892
193 -0.005840170526054789 0.00865696835866392 -0.002827718383479472
89 -0.0022237316037236714 -0.006609674083406734 -0.0024246725150541062
75 -0.011831623807916762 0.007184758594679037 -0.00438218988533663
71 -0.01691819524561523 0.005659438966589549 0.009080114551311321
70 0.004506770835153899 0.006383340692575184 0.00452005260091644
213 -0.012329787824868587 0.042978254326522206 0.06455085959940693
84 0.006670047316359336 0.009160372188243737 -0.025410662130384776
77 0.009563350550765565 -0.0006391202448820781 0.010706013739443979
228 -0.03501272631201237 -0.02355751969166438 0.04641558501271433
65 0.0005576194424633399 -0.007476887178344796 0.01901565860599391
83 -0.007258695560721331 0.007179444679842213 -0.0027801268177877615
128 0.0027824689774607167 -0.0166162346358635 0.007426642276994166
21 -0.021416277227867538 0.003536792454122483 -0.005256888134042551
194 -0.01541969049775585 -0.015843228457750918 -0.001471408929652495
17 0.004180127734187724 -0.005978369643607891 0.008360961500898429
208 -0.05952347535123174 -0.00725704613835088 0.02315417421818917
35 -0.0003380535293426439 0.001530942592073694 -0.014800739631851996
180 0.002890274040592523 0.01605812261117536 -0.0012166189615613438
207 -0.01908002541918821 0.018275368332803042 -0.006283894549195647
3 -0.0031751970918792788 -0.014819381984894395 -0.0034746122284048807
74 -0.00971850616627147 -0.014746882712978535 0.009890655511947266
217 -0.018116887833503258 0.029591159736078437 -0.02200973865003465
199 -0.018237703799622546 -0.004410007534863137 0.013379347251889794
34 -0.0005000705286283239 -0.014962233501058117 0.008308372764749387
36 -0.0015924692976731574 0.004435385985486345 0.0018061830535551638
38 -0.0038498137977460815 -0.002257741604180575 -0.014293929165656352
40 0.0029254473088576637 0.002194600840893126 -0.010453807809445678
73 -0.0035246687596521844 0.005072251431900371 0.0018056786030388803
147 -0.0013052963848683469 -0.0031244380502086057 0.0029749390602573146
149 -0.010740510995844733 0.011914604104958771 -0.014538111390581167
150 0.003884851003913939 0.012445995057255292 0.010778957109893817
152 0.021576292374255776 0.005007417630660996 0.006491379601522953
198 -0.0038515895695513075 -0.022887898892956456 -0.007089529339324851
92 -0.0003180193658180561 0.0028370215989485977 -0.012142540982537357
151 0.0051493080030443695 -0.004855344380516163 0.008886769418038575
148 -0.005170295966964802 -0.0006507930517623041 7.028795204550744e-05
158 0.003814771604214884 -0.009623119871036407 0.016888799873847046
157 3.8301312301551446e-05 -0.01941324169954442 -0.020700013747876958
161 -0.015557990948393623 0.003915075362804972 0.017543147585038773
112 0.011975522769521355 -0.00873368741458285 0.005340802477234662
154 0.004180610258463025 0.0034296444638990163 0.006739979826709005
227 -0.01288437466491009 -0.008815457502796505 0.003965985288325503
53 -0.0004964480627486429 -0.0025644817444568026 -0.0012936304200591826
211 0.029943592453339593 0.02702408458642711 0.006127929193619216
115 0.0009085113259275923 -0.015744692774333383 0.008804347938555251
5 -0.0007555975748020707 -0.007268741952008658 0.00030204798402862367
111 -0.003063680043660901 -0.0018133986307584304 0.009274535436371837
121 -0.004577800398774932 0.017701254055987485 0.01737469714049989
18 0.008222121052382368 -0.0010465725821964629 -0.0038724463947627727
20 -0.007853320598888202 0.016129031439745607 -0.015602423720226929
22 0.00795505147827039 -0.004377893513157347 -0.007830935081143813
24 0.023638052246265768 0.003952637379307457 -0.0037101994836759764
79 0.00509541277742125 0.010576130446636184 0.012759423330725458
80 -0.011399356084254643 -0.00227894095055353 -0.00020695371265816922
114 -0.006275669812272805 0.009765881960649958 0.013534978734469955
116 0.0015367300300650033 0.010579384059103561 0.005658587567328873
117 0.0012888176868539043 0.013512503348080282 0.014591682338335445
125 -0.004455847772109011 0.02037733328082094 0.008493900096024366
129 -0.005086837358128022 0.013396141513906173 0.016676273740389623
195 -0.005118733885852731 -0.0003838549588497585 0.003370801726959634
123 -0.002074622636372561 -0.008364809498895108 -0.0005686177031986584
122 -0.019650436626291373 -0.010351757512896272 -0.01268188993690749
120 0.010347912110516728 0.008312220322186528 0.004649613356989201
91 0.003057378659414101 0.004826456654803967 -0.021632921279820222
124 -0.021834425066457802 -0.0062323974166894 -0.016341909296720226
23 -0.0023300754196215645 0.004736763588204995 -3.969291747468509e-05
215 0.03658766602332142 -0.025492465248583274 0.01101863024139244
51 0.0017165276063840504 0.002107947175736043 0.0047719770543434
88 0.002019916190895056 -0.004832114075135309 0.008875180955201241
177 0.010196589887176952 0.0010660674195533363 -0.018454973682682924
212 0.019112593782778426 -0.019521077725060013 -0.012071126190011692
209 -0.04913988497046697 0.029942798581500705 -0.017901317092478906
19 0.0017756809485835379 0.008627627010229115 0.009159074276140523
41 -0.0027590100940361904 0.0075416222985693815 -0.006612339550180792
145 0.008143939190373876 0.006751398382757698 0.015048732165620063
37 -0.003700638435586837 0.0031820162288922777 -0.015367365352070492
181 0.0012538279834621157 -0.007112580813780096 -0.03355541151756708
203 -0.009639969752339989 -0.003891132988387553 -0.020574391978243112
132 0.0005809771167776503 0.0010288841213181052 -0.0004037225077034954
163 0.016116283604079344 0.010964160921167997 0.003909851925578536
155 0.01343293358074263 0.018651267729491074 0.007000375785816046
179 -0.006025611225088316 0.00939431058084062 0.0005218037944838171
68 0.006978360420618093 -0.0124660342549963 -0.015866651250819014
176 0.0010625529997963378 -0.016388075344212456 -0.012638254826429529
118 -0.0032472149609056346 -0.004723915198287478 0.015932882835560425
50 0.0005549512613541599 -0.013093947270660404 0.002910093996348486
52 0.004835175957789738 0.007602633119655669 -0.01051729624888823
54 0.005469878769797675 0.024131351032259062 -0.004510639052710149
56 0.00934072131074564 0.004429595638513679 -0.0006636285147376756
119 0.0033425448310101273 -0.01549966453832579 0.010683526536216771
156 -0.0051062715523200455 0.001807336476902772 0.012429727477616927
183 -0.005502994012792272 0.0013694752383942752 0.02064774602861335
204 -0.0027745578811722293 0.009000231792891292 -0.008597729067766761
175 -0.006669363916185167 -0.003898676796224445 -0.000898983062340763
222 0.07599697506475567 -0.007193510111546238 -0.057004960079874406
219 -0.009653239257839404 0.025588877355551744 0.040534192555432946
182 0.014383243000213026 0.0046823346076609006 0.005177854021531807
226 -0.023013885221285536 0.043561625913966714 0.06650387536634052
200 -0.024166411604923645 -0.013330653608415247 0.012692361130954767
55 -0.007170097438848353 -0.00369348838113566 0.0018995974508320137
221 0.00044731289823026193 0.02352660415578622 -0.01040979653253
7 0.004709158722674019 0.003703536959361056 -0.005412999904553966
15 0.013519920627734706 -0.009259292382404529 0.009453497664698678
10 -0.0035995676818940873 -0.0035023993380912393 0.007275337778963773
12 -0.0012658938271304222 -0.019240071170076423 -0.003298555127003026
14 -0.0072552493078354 -0.005915560146700438 -0.0003186250019662092
16 0.012518267002660784 -0.0011767525391677437 -0.0052169259998113195
85 0.004658906956045564 -0.013760434344472001 0.005422602281545699
86 0.007761206887649679 -0.013530985784048634 -0.015867643916477953
90 0.0019351657714085956 0.014763628944387895 0.014940652894195286
94 0.002612240829859214 0.015295971042247149 -0.00988029465054956
96 0.010170278057762067 0.005300888493034502 -0.008491843247966329
101 -0.0028295672398906675 -0.007382120978310487 -0.018790161353985244
106 0.014813967424445509 -0.011506645571923053 0.0052505703391859115
107 -0.0007952337193277253 0.013955232481482588 -0.013199938576632785
108 0.01052318607209336 -0.006952491422689584 0.004835343035362288
110 -0.0014798043455344755 -0.004719819676711208 -0.00980694327890698
109 0.015284443855636624 0.0018899977136055683 0.0047086430247442815
97 -0.016173257991160775 0.010358938637551957 -0.002663546924981104
105 -0.0095868690143531 0.02090565044478566 -0.0069437374658709505
100 0.01536312049854539 -0.017277574980301 -0.01854073248739598
95 0.006998578507625919 0.004071559431657942 -0.011846594263471863
102 -4.89810009102194e-05 -0.002995883549686167 -0.010774154809809205
29 -0.007896070895010763 0.008847683638389427 -0.004662382608613904
11 0.010521418457188932 0.00489508549594279 2.217987923347438e-05
49 -0.012504247896012394 -0.008942193529252986 -0.010344871699690438
25 0.0030671226722073165 0.008675124724977466 0.005910207374088982
47 -0.009972065380102627 0.001140882077352592 -0.013780547044472607
43 -0.0036146336564861193 0.00884449420438795 0.009045306208950624
224 -0.0788588447570676 -0.046348504209429806 0.017103689950358027
220 0.04263691025319928 -0.005004011601139061 0.06425688966721477
171 0.0028978508081979383 0.00045530592358646754 -0.007720770686241294
167 -0.0008627692087545316 -0.01262777030954839 0.00437426346530458
131 0.01747376609623013 -0.006558009219175748 -0.00020580423479214373
168 0.021879860043450685 0.01602475363072632 -0.005382505252714489
39 -0.006671501013493 -0.013641681712804714 0.004173862426623197
160 -0.0026860180735584975 -0.003236729657868641 0.015320763072673504
98 -0.0019389384708673096 0.015066960090319997 -0.019760842112503264
42 0.005264248225238195 -0.014589268320690322 -0.01081403445888364
44 -0.001652519767864394 -0.013156535468491881 0.001876983149592405
46 -0.0017862649968874013 -0.00783428555355303 -7.964881833820417e-05
48 -0.0060269880347566035 0.010169909351325277 -0.008810665591023316
99 0.007302309227707574 -0.007021851980242511 0.011571995047323244
159 -0.006527128245707392 -0.02342809521397451 -0.0160842794568941
164 0.007675968864517793 0.013375204262196847 0.02717952804454336
166 0.014389218373741105 -0.005075804513718498 0.011416908260911279
169 -0.00397701019733323 0.015338488236422615 0.004269946816594566
173 -0.015059027143368518 0.006670685312918514 -0.01587749109457414
174 -0.0049101943749243655 -0.007925114989001497 -0.0119960968067066
196 -0.008253125453172042 -0.003633057953033732 -0.006397699438071563
33 -0.005177024990510768 -0.011602476043352536 -0.01378337322432561
67 -0.009317085431214874 0.008785918963427767 0.020339174575869565
165 0.025499898384323098 -0.0010922413187193312 -0.0008659598750631363
61 0.011086629422263548 0.0066801487231244695 -0.00048429983602650274
162 0.00011630331965146671 -0.006153600728352336 -0.0014159866580054786
170 0.022266739382440212 -0.0070955936364410525 0.017799169687910493
45 -0.007455862376958787 -0.010650832177228028 0.007910866319760849
126 0.012860617568943845 0.002562735882733348 -0.005814886164490877
9 -0.00506748335146747 -0.007143947309010889 -0.0006566314547474031
31 -0.009284754696246001 -0.014636034389747973 -0.014871469312452546
140 0.009685481279436648 0.005051081057187351 -0.01660422749621844
225 -0.0703837865785694 0.004415068244304999 0.07085742864891091
13 0.0029153917316716116 -0.011418856808802528 -0.0014905972570458457
134 0.0040632042301739875 0.0141809483286953 0.00027784134242274557
214 0.08159940381132756 -0.03092199109318394 2.360411843838657e-05
139 0.025343882381768237 0.03002417030744724 0.00928029690266132
218 0.02516098189998387 -0.03866983267566888 -0.007986700486928823
57 -0.011528332773055053 0.003516536970250778 -0.008323501394492982
210 0.038954573952435 -0.016431762172265052 -0.017260033729446074
197 -0.024612600041236162 -0.0013906570994788425 -0.006232378393776406
153 0.014572198510579969 -0.003949093973588402 -0.015480353983139145
216 0.02291389642161612 0.0277969998970104 -0.03888313229615081
127 0.008134346864429208 -0.011004475918642495 -0.014207973514858429
26 -0.008175799970103925 0.0053412962814240305 0.006059264036294571
28 -0.009719163944030213 0.002426156037799656 -0.006884776548306196
30 0.0033739642347438304 0.004995082480229097 0.005913011545672243
32 -0.0009250824112342916 0.013868218505548546 0.007141756885452125
103 -0.007591413553161808 0.001203406629057444 0.015192359351658191
104 0.021248705153069047 0.020066495698852858 0.008186003804510006
133 -0.009808275099654762 0.008325109585279308 -0.00032517410304471383
135 -0.006040287711454646 0.007935345498546994 0.000805023579175477
136 -0.025317981006207583 -0.00959079156592499 -0.0010821150080587698
141 0.0018208622955463052 -0.0034637410273588892 0.0006509027502804447
142 -0.0030789131376070034 -0.014784610411711153 0.010712535814418174
143 0.0023536167944188282 -0.0002655976410320289 0.013246293838165734
144 -0.0018907900551478922 -0.004665677582615369 0.025315459631427638
130 -0.002045483492159439 0.010716244314163795 -0.018830279700752944
66 0.007101469901291209 0.009691955741637571 0.0040590258186152806
178 -0.0032978317543178766 0.003264842045389219 0.006834180831051663
223 0.05561671248383958 0.006670077161854694 0.007201368818086731
27 0.013048871875251814 0.0024146716527591694 -0.004372764323211527
59 -0.005733326264144956 -0.007787679002389567 0.010968713391014363
1 0.004184899460836458 -0.004320708711701622 0.02025751130151453
138 -0.0031521050802257046 -0.009586283801226959 -0.002352780566869453
63 -0.0031208282745946313 0.0054065810452259494 -0.00150643372932159
191 0.0046019600272906355 -0.0087278832083599 0.013884747052326719
185 0.0055356832730046705 -0.010216781740072152 0.00825069229562895
188 -0.0024919303474590427 0.022154762312414356 0.02401747910798632
202 -0.01567271182443564 0.0021070911152707567 -3.713383207965393e-05
146 -0.006380577486655637 -0.009975092256957082 0.0026163177768809705
113 0.00028565582808316064 0.01440410075000551 -0.004106341635234513
172 0.00041873268355065087 0.013657857973848263 0.004074035253616344
186 -0.00015004211554758967 -0.006367437834101911 0.0015427660716804108
137 -0.009140882835191835 -0.006659553996659391 -0.007813146329727336
184 0.010379569079134543 0.022638113947789328 0.008533561440790533
58 0.008974637377247224 4.4461343642409884e-05 -0.001304592790795068
60 -0.00402144736392762 0.005103474493364048 -0.006064849005183624
62 -0.009897862321090972 0.010088351979698049 0.005114098051678101
64 -0.005570648267897946 0.005080910679300613 -0.005234880167850438
93 0.03125001792413033 -0.029465409783797383 0.002724557039689262
187 -0.002398201474277613 -0.005383204353482326 -0.0067236865664099385
189 -0.003814889282865066 -0.009435210248903994 0.024058467418022807
190 -0.012392340019236349 0.003058967620688975 0.012869591210821547
192 0.01850200676902446 -0.004908769237038917 0.013479549017155586
