ITEM: TIMESTEP
0
ITEM: NUMBER OF ATOMS
228
ITEM: BOX BOUNDS pp pp pp
0.0000000000000000e+00 1.7160000000000000e+01
0.0000000000000000e+00 1.7160000000000000e+01
0.0000000000000000e+00 1.7160000000000000e+01
ITEM: ATOMS id type q x y z
1 1 0.887068 0.0180591 0.0367072 0.0516438
2 1 0.886904 2.18907 2.16774 2.14128
3 1 0.874243 17.1589 4.32538 4.30416
4 1 0.909342 2.11155 6.40016 6.39555
5 1 0.898524 4.28209 17.1508 4.25829
6 1 0.875353 6.3963 2.20037 6.43214
7 1 0.908663 4.29905 4.30094 0.0535924
8 1 0.866639 6.42705 6.48113 2.09504
9 1 0.877074 17.1375 17.1268 8.63055
10 1 0.866135 2.1541 2.10486 10.7532
11 1 0.876955 17.1591 4.2387 12.9021
12 1 0.906756 2.1985 6.42183 15.0731
13 1 0.865541 4.27543 17.104 12.8658
14 1 0.885622 6.44892 2.11249 14.972
15 1 0.839845 4.25839 4.30759 8.626
16 1 0.83275 6.46235 6.37933 10.7126
17 1 0.895663 17.114 8.63531 0.0453218
18 1 0.902791 2.13068 10.7231 2.10124
19 1 0.881314 0.0515053 12.9083 4.24552
20 1 0.888023 2.11807 15.0702 6.42673
21 1 0.904348 4.27636 8.56839 4.31126
22 1 0.875385 6.4488 10.7076 6.40042
23 1 0.873339 4.26904 12.8597 0.0016492
24 1 0.853538 6.41746 14.9572 2.1046
25 1 0.796359 17.1043 8.55705 8.55887
26 1 0.879299 2.09385 10.7779 10.6671
27 1 0.892986 0.0490895 12.9024 12.8762
28 1 0.858938 2.19008 15.0209 15.0387
29 1 0.900152 4.26468 8.5975 12.8619
30 1 0.907466 6.39385 10.6909 15.0193
31 1 0.906861 4.29904 12.9127 8.55264
32 1 0.912815 6.48847 14.987 10.7426
33 1 0.861187 8.57951 17.1222 0.0367638
34 1 0.871974 10.7092 2.10987 2.18592
35 1 0.888193 8.61942 4.28108 4.31439
36 1 0.893971 10.6723 6.38613 6.4324
37 1 0.876279 12.8549 17.131 4.33242
38 1 0.867472 14.9586 2.14824 6.43401
39 1 0.8961 12.8126 4.32867 0.0204284
40 1 0.912215 15.0141 6.48877 2.17546
41 1 0.904904 8.54699 0.0235401 8.5406
42 1 0.90104 10.6783 2.10636 10.6998
43 1 0.847309 8.56325 4.29952 12.9115
44 1 0.819326 10.7582 6.48466 14.9996
45 1 0.737583 12.8559 0.0262495 12.8532
46 1 0.890743 14.9569 2.19409 15.0639
47 1 0.883137 12.9199 4.26828 8.54277
48 1 0.855591 15.0593 6.41666 10.6694
49 1 0.83872 8.57696 8.61099 0.0412246
50 1 0.881075 10.7039 10.7586 2.16755
51 1 0.874049 8.61782 12.8922 4.24605
52 1 0.831096 10.7725 15.0638 6.44979
53 1 0.892165 12.8868 8.53387 4.24607
54 1 0.894767 15.0216 10.7129 6.42137
55 1 0.902574 12.8452 12.9171 0.0201041
56 1 0.850345 14.9924 15.0113 2.09601
57 1 0.899753 8.52019 8.57469 8.52181
58 1 0.855599 10.7059 10.7463 10.7126
59 1 0.855692 8.52922 12.9248 12.8771
60 1 0.874668 10.6912 15.0514 15.0351
61 1 0.907821 12.9251 8.54485 12.834
62 1 0.856289 15.0366 10.6741 15.068
63 1 0.902489 12.9182 12.9247 8.57205
64 1 0.914504 14.9941 15.0533 10.7114
65 2 -0.464791 1.03639 1.04156 1.04621
66 2 -0.434585 1.1241 16.1123 16.1344
67 2 -0.456003 16.0374 1.01797 16.0634
68 2 -0.506006 16.0423 16.0883 1.04007
69 2 -0.4306 1.1184 3.18184 3.16859
70 2 -0.464372 3.27428 1.07907 3.26558
71 2 -0.453318 3.21622 3.2429 1.06412
72 2 -0.484234 1.11948 5.332 5.31726
73 2 -0.438569 16.1158 3.18161 5.30821
74 2 -0.449173 16.0694 5.31132 3.16368
75 2 -0.449613 3.26153 5.40572 7.46676
76 2 -0.441916 3.25328 7.4725 5.34537
77 2 -0.553876 1.0954 7.45794 7.49825
78 2 -0.430066 5.38596 1.04243 5.31899
79 2 -0.447191 3.24844 16.0577 5.36574
80 2 -0.452866 5.38784 16.0391 3.20952
81 2 -0.437894 5.30306 3.16612 7.49999
82 2 -0.44741 7.5599 3.22135 5.41177
83 2 -0.44287 7.56462 1.03195 7.49255
84 2 -0.472793 5.36753 5.3632 1.06272
85 2 -0.447349 3.23384 5.40737 16.1141
86 2 -0.436402 5.35853 3.21886 16.1426
87 2 -0.438141 5.32511 7.53589 3.24844
88 2 -0.417133 7.4971 5.41348 3.25487
89 2 -0.486989 7.53096 7.54412 1.09781
90 2 -0.477701 1.11249 1.03698 9.69335
91 2 -0.449844 1.08055 16.0937 7.54389
92 2 -0.441609 16.1008 1.03442 7.49912
93 2 -0.481915 16.062 16.0572 9.6513
94 2 -0.470731 1.12891 3.26516 11.8074
95 2 -0.451723 3.17679 1.12335 11.8092
96 2 -0.506474 3.27571 3.16866 9.6397
97 2 -0.419894 1.11321 5.3599 13.9735
98 2 -0.452932 16.039 3.21823 13.9489
99 2 -0.460476 16.1336 5.3214 11.8092
100 2 -0.420438 1.01497 7.45253 16.132
101 2 -0.446734 3.16019 7.56057 13.9065
102 2 -0.463356 5.31533 1.11345 13.991
103 2 -0.457341 3.23785 16.1297 13.9135
104 2 -0.465477 5.41855 16.0939 11.7586
105 2 -0.444803 7.49417 1.12919 16.0324
106 2 -0.491473 7.46747 3.20643 13.9205
107 2 -0.506484 5.37451 5.39804 9.60233
108 2 -0.504334 5.33571 7.55015 11.8523
109 2 -0.501482 7.53139 5.41558 11.7627
110 2 -0.431097 7.56124 7.47485 9.67211
111 2 -0.465976 1.02283 9.63238 1.10511
112 2 -0.467649 16.0336 7.46335 1.1252
113 2 -0.485769 16.0768 9.6329 16.1409
114 2 -0.454185 1.11548 11.8099 3.19683
115 2 -0.4368 3.19899 9.62904 3.17016
116 2 -0.455062 3.19969 11.7767 1.02741
117 2 -0.453075 1.08559 13.9435 5.32672
118 2 -0.431378 16.0576 11.8196 5.33234
119 2 -0.69146 16.0402 13.9422 3.23485
120 2 -0.44027 3.19487 13.9115 7.47161
121 2 -0.445056 5.41739 9.65923 5.31666
122 2 -0.433712 5.31627 11.8195 7.55019
123 2 -0.432123 7.56244 11.7632 5.32021
124 2 -0.463547 7.56435 9.66454 7.4925
125 2 -0.467175 5.34257 13.8881 1.13099
126 2 -0.469731 3.24038 13.8919 16.0774
127 2 -0.489156 5.41411 11.851 16.0512
128 2 -0.504981 7.48268 16.0948 1.05117
129 2 -0.46559 7.53894 13.9568 3.15844
130 2 -0.430167 1.05131 9.60636 9.66012
131 2 -0.494736 16.0692 7.49883 9.59924
132 2 -0.411845 16.0384 9.63177 7.56748
133 2 -0.449767 1.09334 11.7458 11.8456
134 2 -0.424846 3.16068 9.61834 11.8328
135 2 -0.448246 3.2452 11.7993 9.6559
136 2 -0.44706 1.04899 13.8959 13.9437
137 2 -0.411102 16.0701 11.8219 13.9815
138 2 -0.416995 16.0331 13.9264 11.8445
139 2 -0.439198 5.38708 9.70152 13.8868
140 2 -0.520229 7.49807 9.6448 16.0867
141 2 -0.335998 7.45797 11.7647 13.9001
142 2 -0.44685 5.41358 13.8874 9.64597
143 2 -0.444513 7.44848 16.0939 9.66874
144 2 -0.506334 7.47386 13.973 11.8314
145 2 -0.455552 9.66748 1.06173 1.04119
146 2 -0.462642 9.64726 16.114 16.0341
147 2 -0.45444 9.68196 3.26994 3.16185
148 2 -0.459953 11.8311 1.08058 3.22134
149 2 -0.449063 11.783 3.22921 1.04204
150 2 -0.462322 9.60732 5.34313 5.41346
151 2 -0.434925 11.784 5.31058 7.4743
152 2 -0.434043 11.828 7.54168 5.41832
153 2 -0.438202 9.69974 7.55744 7.49367
154 2 -0.441991 13.905 1.05995 5.39435
155 2 -0.496636 11.7388 16.1029 5.32501
156 2 -0.399244 13.9822 16.0584 3.19129
157 2 -0.481155 13.8968 3.26313 7.48848
158 2 -0.417368 13.9181 5.3538 1.10481
159 2 -0.558837 11.7392 5.33476 16.1342
160 2 -0.489376 13.9329 3.19112 16.0582
161 2 -0.477917 13.9079 7.5442 3.17327
162 2 -0.457176 9.68394 1.05962 9.60713
163 2 -0.432724 9.70407 16.0814 7.55852
164 2 -0.432041 9.60626 3.19195 11.8195
165 2 -0.446248 11.7442 1.08673 11.8127
166 2 -0.427421 11.7724 3.17449 9.69796
167 2 -0.438969 9.61353 5.37042 14.0012
168 2 -0.479522 9.64069 7.45357 16.0299
169 2 -0.465198 11.8542 7.4944 13.8923
170 2 -0.536445 13.9964 1.07958 13.9774
171 2 -0.455724 11.8463 16.1053 13.9288
172 2 -0.452791 13.9085 16.0796 11.8525
173 2 -0.456416 13.8877 5.41213 9.64908
174 2 -0.439462 13.9772 7.49114 11.8548
175 2 -0.443375 9.67251 9.66741 1.02833
176 2 -0.528646 9.65101 11.7413 3.16229
177 2 -0.457093 11.7963 9.61634 3.237
178 2 -0.451213 11.8383 11.7909 1.12455
179 2 -0.498557 9.6318 13.9299 5.3319
180 2 -0.467013 11.8342 13.915 7.51186
181 2 -0.447011 13.9715 9.71041 5.33131
182 2 -0.448152 13.9643 11.7828 7.48119
183 2 -0.474278 13.9902 13.9212 1.0911
184 2 -0.437698 11.8446 13.9263 16.0782
185 2 -0.425582 13.8928 11.8385 16.0752
186 2 -0.420473 9.70022 9.59799 9.59339
187 2 -0.421615 9.59415 11.8279 11.8389
188 2 -0.416799 11.8049 9.7066 11.8293
189 2 -0.425608 11.8552 11.8327 9.61954
190 2 -0.466976 9.59442 13.8906 13.9768
191 2 -0.444335 13.8834 9.68155 13.901
192 2 -0.458268 13.9564 13.9045 9.70855
193 2 -0.593294 15.4637 15.1744 3.53544
194 2 -0.648074 4.2539 4.55321 12.2053
195 2 -0.565848 4.80352 5.81665 13.607
196 2 -0.56512 6.95435 12.9202 14.5636
197 2 -0.614607 0.14501 4.1738 8.33289
198 2 -0.556301 7.85866 15.8412 4.19289
199 2 -0.583464 6.00809 7.84012 15.3392
200 2 -0.597524 10.8075 13.3854 3.59134
201 2 -0.528406 14.9147 16.1898 12.8235
202 2 -0.581075 12.241 6.74432 0.44641
203 2 -0.583123 12.049 0.106782 16.4001
204 2 -0.560063 16.7614 7.67503 6.87249
205 3 0.360959 16.0364 15.7729 3.05031
206 3 0.572834 15.7284 14.2989 3.2436
207 3 0.383471 4.82894 3.88132 12.5788
208 3 0.372403 4.39811 4.49352 11.2581
209 3 0.446822 4.3998 6.08832 12.7795
210 3 0.356212 5.74413 5.7872 13.4173
211 3 0.340957 7.34302 13.6911 14.1438
212 3 0.384948 6.41378 13.2788 15.2713
213 3 0.379973 0.703762 3.40353 8.4597
214 3 0.357224 0.215101 4.66 9.15769
215 3 0.376825 7.57915 16.2399 3.36555
216 3 0.399134 8.684 15.3994 3.98009
217 3 0.358456 6.52258 7.03831 15.2209
218 3 0.407044 6.48015 8.33098 16.0159
219 3 0.410825 10.7153 12.4602 3.83045
220 3 0.381572 11.2924 13.7754 4.32234
221 3 0.392734 14.6093 17.0141 12.4378
222 3 0.382714 14.6001 16.2174 13.7301
223 3 0.439719 11.6342 6.3501 16.9756
224 3 0.368435 12.632 7.48315 17.1343
225 3 0.391623 12.0035 0.486787 15.5197
226 3 0.374622 12.6584 0.675542 16.8762
227 3 0.381273 16.3613 6.81091 6.75076
228 3 0.408348 0.12866 7.58564 7.66975
ITEM: TIMESTEP
140
ITEM: NUMBER OF ATOMS
228
ITEM: BOX BOUNDS pp pp pp
0.0000000000000000e+00 1.7160000000000000e+01
0.0000000000000000e+00 1.7160000000000000e+01
0.0000000000000000e+00 1.7160000000000000e+01
ITEM: ATOMS id type q x y z
1 1 0.943622 17.0443 0.250033 16.9744
2 1 0.888086 2.13739 2.08505 2.02859
3 1 0.89972 0.118599 4.10738 4.15855
4 1 1.05413 2.82432 5.78704 5.78745
5 1 0.908392 4.24952 0.0473416 4.27133
6 1 0.892872 6.51614 2.02795 6.35041
7 1 0.989844 4.28863 4.24075 17.1245
8 1 0.905991 6.57629 6.3226 2.04622
9 1 0.933064 17.1177 17.1295 8.56094
10 1 0.883316 2.14997 2.12009 10.6094
11 1 0.847995 17.0508 4.5107 12.9035
12 1 0.958228 2.07228 6.56378 15.0089
13 1 0.922272 4.19517 17.1685 12.8404
14 1 0.925562 6.3721 2.1159 14.934
15 1 0.944356 4.45304 4.00403 8.42411
16 1 0.842519 6.44971 6.38002 10.5549
17 1 0.886197 0.100736 8.62431 0.167012
18 1 0.884212 2.31839 10.5742 2.31813
19 1 1.10913 0.555961 12.2031 5.05794
20 1 0.974483 2.24446 14.9256 6.69442
21 1 0.975248 4.62498 8.41942 4.11508
22 1 0.923646 6.53124 10.6338 6.40156
23 1 0.864027 4.03866 13.0366 0.14376
24 1 0.898354 6.29717 15.1054 2.04248
25 1 1.08971 16.4494 9.17786 9.35047
26 1 0.976471 1.97893 10.9772 10.9517
27 1 0.948683 17.0466 12.9611 13.0455
28 1 0.860923 1.99993 15.1385 15.0429
29 1 0.90679 4.10899 8.70252 12.8273
30 1 0.868156 6.4464 10.6358 14.7724
31 1 0.961071 4.27399 12.8683 8.73441
32 1 0.942416 6.3659 15.038 10.7275
33 1 0.875061 8.43517 17.1387 17.049
34 1 0.975081 10.491 2.12756 2.05271
35 1 0.945116 8.56373 4.2574 4.26294
36 1 0.941453 10.729 6.3935 6.42085
37 1 0.894144 12.6457 0.23618 4.16454
38 1 0.905538 14.9269 2.21676 6.33576
39 1 0.930923 12.5619 4.30483 0.00880788
40 1 0.879267 15.2888 6.57288 2.39014
41 1 0.88665 8.5141 17.1103 8.55136
42 1 0.953128 10.6058 2.13161 10.5994
43 1 0.888804 8.54035 4.19482 12.7682
44 1 1.0158 10.5916 6.36165 14.8627
45 1 0.871793 12.5904 17.0976 12.6378
46 1 0.863737 15.0234 2.4231 15.0036
47 1 0.905773 12.7949 4.33808 8.6133
48 1 0.888542 14.6953 6.54408 10.9461
49 1 0.918743 8.70366 8.4238 -0.025008
50 1 0.891433 10.7718 10.6686 2.08384
51 1 0.755315 8.5995 12.8481 4.27175
52 1 0.909026 10.7004 15.0309 6.53001
53 1 0.913901 12.9936 8.54978 4.48557
54 1 0.987052 14.9321 10.6854 6.84202
55 1 0.957578 12.6328 12.985 17.0191
56 1 1.06475 14.3205 15.7222 1.49534
57 1 0.931245 8.63341 8.54741 8.53807
58 1 0.937072 10.608 10.7999 10.7494
59 1 0.963297 8.36575 12.9697 12.8659
60 1 0.928262 10.5859 15.0837 14.922
61 1 0.980511 12.6322 8.64103 12.9203
62 1 0.946248 14.9162 10.8281 15.1199
63 1 1.00965 12.822 12.9442 8.71109
64 1 1.01366 15.0225 15.1567 10.8017
65 2 -0.475841 0.913473 1.00217 0.909829
66 2 -0.484498 1.00369 16.2125 15.8215
67 2 -0.498063 16.2853 1.3799 16.0541
68 2 -0.544118 15.4866 16.6034 0.712262
69 2 -0.476271 1.10104 3.01094 2.89776
70 2 -0.464148 3.18538 0.994454 3.33036
71 2 -0.461166 3.37327 3.23585 0.983065
72 2 -0.495403 1.36146 4.75835 4.98482
73 2 -0.460448 16.0672 3.08869 5.40846
74 2 -0.46624 16.283 5.55388 3.2514
75 2 -0.510228 3.66838 4.93307 6.90649
76 2 -0.501577 3.85243 7.14149 4.78652
77 2 -0.638231 2.00764 6.73432 6.68896
78 2 -0.484233 5.19958 1.05444 5.21559
79 2 -0.43337 3.2533 15.9798 5.40584
80 2 -0.540675 5.51585 16.1756 3.07732
81 2 -0.485184 5.66239 2.87617 7.45264
82 2 -0.467719 7.64628 3.31432 5.31306
83 2 -0.456538 7.58325 0.807544 7.47923
84 2 -0.458583 5.29913 5.15786 1.01766
85 2 -0.435148 3.077 5.33246 15.9943
86 2 -0.472596 5.31078 3.23704 16.1992
87 2 -0.478464 5.61706 7.59846 3.08872
88 2 -0.474119 7.40226 5.4111 3.15304
89 2 -0.479069 7.84741 7.45085 1.02732
90 2 -0.50955 1.08269 1.25092 9.63384
91 2 -0.474054 0.901862 16.0755 7.655
92 2 -0.438532 16.0035 0.98864 7.3762
93 2 -0.455574 16.0407 16.1675 9.4418
94 2 -0.501341 0.941917 3.38605 11.6299
95 2 -0.455579 2.99456 1.04064 11.6035
96 2 -0.49481 3.35563 3.07152 9.30544
97 2 -0.463041 1.07656 5.70676 13.954
98 2 -0.476731 15.8768 3.51541 14.1099
99 2 -0.484175 16.0484 5.44101 11.9435
100 2 -0.45978 1.09863 7.41435 16.0977
101 2 -0.496043 3.21505 7.78872 13.9133
102 2 -0.459913 5.29864 1.15046 14.0519
103 2 -0.453682 3.23599 16.1355 13.8201
104 2 -0.464228 5.24822 16.1841 11.961
105 2 -0.464114 7.31239 1.05605 15.8361
106 2 -0.487655 7.58363 3.14773 13.6992
107 2 -0.547637 5.28018 5.00768 9.55109
108 2 -0.521062 5.20729 7.43776 11.722
109 2 -0.552878 7.38143 5.47293 11.6706
110 2 -0.46606 7.47022 7.42066 9.71678
111 2 -0.459281 1.14753 9.56638 1.05219
112 2 -0.471045 16.2443 7.58528 1.47802
113 2 -0.420109 16.0396 9.77969 16.3476
114 2 -0.492936 1.3937 11.2959 3.89585
115 2 -0.475598 3.41462 9.53985 2.99483
116 2 -0.452661 3.18285 12.011 1.20505
117 2 -0.51097 1.58291 13.6236 5.94855
118 2 -0.509917 16.5545 11.4064 5.96346
119 2 -0.647843 16.797 13.0534 4.15324
120 2 -0.494506 3.27159 14.1477 7.71221
121 2 -0.468192 5.65511 9.53833 5.45114
122 2 -0.419502 5.31174 11.7079 7.50078
123 2 -0.445202 7.39682 11.6615 5.35514
124 2 -0.471012 7.74012 9.59711 7.59623
125 2 -0.482658 5.14672 14.2112 1.24534
126 2 -0.468009 2.98775 14.0033 16.3815
127 2 -0.567749 5.3538 12.0575 15.9174
128 2 -0.47843 7.40893 16.1627 0.755178
129 2 -0.478832 7.37871 14.0336 3.32477
130 2 -0.508524 0.716411 10.2602 10.1842
131 2 -0.541117 15.5686 8.04716 10.1677
132 2 -0.570138 15.5131 9.90022 8.17419
133 2 -0.492963 1.17246 11.9695 11.9806
134 2 -0.481947 3.04583 9.63963 11.9568
135 2 -0.474551 3.14995 12.0031 9.67166
136 2 -0.504023 0.746486 14.0769 13.9524
137 2 -0.477555 15.9376 11.7182 14.1402
138 2 -0.523836 16.0434 13.796 12.002
139 2 -0.503641 5.43345 9.79309 13.7814
140 2 -0.511838 7.46884 9.36265 15.8978
141 2 -0.464665 7.45532 11.5161 13.7787
142 2 -0.480852 5.25732 13.7665 9.72619
143 2 -0.4624 7.28524 15.9731 9.64999
144 2 -0.461166 7.4283 14.024 11.5613
145 2 -0.467076 9.50147 1.0848 1.17459
146 2 -0.497181 9.47094 15.9203 15.868
147 2 -0.478211 9.51808 3.11369 2.96799
148 2 -0.477175 11.5581 1.1576 3.35802
149 2 -0.461436 11.6886 3.13679 0.80521
150 2 -0.459678 9.6345 5.2327 5.18617
151 2 -0.464944 11.7619 5.24208 7.66549
152 2 -0.468272 11.8174 7.29614 5.49834
153 2 -0.469075 9.78717 7.46866 7.30724
154 2 -0.457993 13.9458 1.3436 5.24547
155 2 -0.449341 11.6828 16.1033 5.26426
156 2 -0.505988 13.4623 16.5665 2.62663
157 2 -0.450815 13.8327 3.44653 7.51462
158 2 -0.546903 13.9319 5.52948 1.10796
159 2 -0.53749 11.5547 5.29258 15.7001
160 2 -0.521407 13.7975 3.11401 15.9653
161 2 -0.479425 14.1195 7.65023 3.59927
162 2 -0.471482 9.60848 1.245 9.58972
163 2 -0.463172 9.61678 15.9659 7.39356
164 2 -0.478933 9.5773 3.30262 11.8228
165 2 -0.488167 11.5845 0.849611 11.697
166 2 -0.469607 11.6858 3.04606 9.66414
167 2 -0.503875 9.52798 5.42 13.9556
168 2 -0.54376 9.75184 7.18967 16.0395
169 2 -0.497808 11.6294 7.71677 13.8586
170 2 -0.618484 14.052 1.07828 13.6539
171 2 -0.527547 11.7265 16.3276 13.8256
172 2 -0.469475 13.7266 15.9058 11.5266
173 2 -0.462826 13.8422 5.62004 9.78537
174 2 -0.488554 13.4944 7.53005 12.0509
175 2 -0.472604 9.70371 9.47722 0.852255
176 2 -0.511307 9.82801 11.5958 3.14529
177 2 -0.432614 11.9997 9.68176 3.23107
178 2 -0.499177 11.6351 11.8182 1.18705
179 2 -0.521517 9.81148 13.9306 5.55406
180 2 -0.4786 11.8761 14.0014 7.77802
181 2 -0.46367 13.8881 9.45955 5.63319
182 2 -0.502089 13.9195 11.8053 7.53164
183 2 -0.510472 13.4979 14.193 0.56622
184 2 -0.48966 11.5997 13.8388 16.0523
185 2 -0.477232 13.9067 11.9087 15.9224
186 2 -0.45896 9.6105 9.51847 9.54545
187 2 -0.439284 9.64295 11.764 11.7807
188 2 -0.467896 11.5972 9.8988 11.756
189 2 -0.467866 11.7949 12.0259 9.73259
190 2 -0.514488 9.73215 14.0961 13.8907
191 2 -0.436717 13.837 9.63111 14.0525
192 2 -0.453842 13.8944 13.8476 9.66047
193 2 -0.635555 15.3114 14.9473 2.47172
194 2 -0.584202 4.4239 4.1895 11.9389
195 2 -0.679024 5.78552 5.83482 13.6023
196 2 -0.547811 7.47489 13.7997 13.9151
197 2 -0.580643 0.0776169 4.05639 9.31952
198 2 -0.548315 7.7971 16.3432 4.30957
199 2 -0.571174 5.80365 7.35763 15.8533
200 2 -0.573392 10.0502 13.9821 3.1737
201 2 -0.553785 15.857 16.0648 11.8352
202 2 -0.564329 11.5607 5.30264 0.816349
203 2 -0.574769 12.385 0.852635 16.0337
204 2 -0.639128 17.3137 8.16088 8.47855
205 3 0.383209 16.1888 15.376 2.45633
206 3 0.462175 16.1866 13.5598 3.61393
207 3 0.40395 4.9814 4.69927 12.5773
208 3 0.409563 4.71846 4.43996 10.9798
209 3 0.375881 5.34401 6.58488 12.9281
210 3 0.383726 6.67933 5.64447 13.1373
211 3 0.413002 8.16123 14.3583 14.4408
212 3 0.380356 5.70182 12.8287 15.4656
213 3 0.391459 0.317738 3.18754 8.9858
214 3 0.406518 17.4704 4.01021 10.3656
215 3 0.414276 6.86425 16.5687 3.98587
216 3 0.418024 7.94869 15.3511 4.01566
217 3 0.418082 5.87251 6.83088 15.0265
218 3 0.407397 6.47428 8.1765 15.7886
219 3 0.401564 10.4833 13.0178 2.87611
220 3 0.391123 10.4918 14.2365 4.13822
221 3 0.380123 14.8166 0.699966 13.2039
222 3 0.407541 16.2905 15.3581 12.4652
223 3 0.416697 10.9756 5.70843 0.0628346
224 3 0.385969 13.1761 6.07469 1.37192
225 3 0.406949 12.3451 0.462997 15.1419
226 3 0.416757 12.8767 1.76534 15.984
227 3 0.392077 16.9607 7.25661 8.57468
228 3 0.463796 1.47919 7.31118 7.24866
