LAMMPS data file via write_data, version 29 Aug 2024, timestep = 8000, units = real

216 atoms
3 atom types

1.4031729198418965 15.756827080158027 xlo xhi
1.4031729198418965 15.756827080158027 ylo yhi
1.4031729198418965 15.756827080158027 zlo zhi

Masses

1 28.0855
2 15.9994
3 1.008

Atoms # charge

2 1 1.312133645591133 3.3993369983854476 3.0469306073055087 3.086897386660801 0 0 0
15 1 1.249797650617081 4.807734592841676 5.019882841423863 8.304866419725084 0 0 0
4 1 1.279804874583623 3.131047153185765 6.77912628382006 6.534375758082647 0 0 0
84 2 -0.7249554410535949 5.354958331783175 6.000840939497585 2.3905432726997313 0 0 0
6 1 1.17716288121931 6.7430132592683885 3.1649558878882917 6.667765914848342 0 0 0
21 1 1.350392050850606 5.356083724387926 8.48095415395946 4.9692168952090885 0 0 0
8 1 1.210272901001846 6.893069479343329 6.5029170198707416 3.023672006410211 0 0 0
89 2 -0.688561063873773 7.70790611053658 7.029807245434776 1.744552134399709 0 0 0
87 2 -0.6905977763321336 6.107441316722353 7.803611545220435 3.9040450899124117 0 0 0
88 2 -0.6873644988635011 7.942981054198322 5.388101262884854 3.81872664714115 0 0 0
65 2 -0.6163534031483731 2.25347226470302 1.9148710980363255 2.6849143773714275 0 0 0
69 2 -0.6687673054347889 2.3056961464189443 4.0574579289278025 3.681002260781036 0 0 0
70 2 -0.7129345877745008 4.482761155050609 2.1659746845712524 3.7050003821515607 0 0 0
71 2 -0.682882244652923 4.533594192585165 3.7061516651597737 1.8732141220567775 0 0 0
72 2 -0.6607967453529876 1.8624351193432636 6.095509992540008 5.706358707832556 0 0 0
75 2 -0.6378326487687019 3.4498361413034098 5.408076016499308 7.277121455443523 0 0 0
76 2 -0.6991748325990803 4.533740738445443 7.305828311116589 5.826189182237903 0 0 0
77 2 -0.6692978993004699 2.447336362734127 7.77722737645158 7.635213089466004 0 0 0
78 2 -0.7286297491109146 5.509233415755911 2.5438886527217908 5.912988610635347 0 0 0
81 2 -0.6408212134180332 5.79322380225435 4.215161647245651 7.253345181520114 0 0 0
82 2 -0.5968790471783204 8.177332109592417 4.249648802763957 6.252307356587007 0 0 0
83 2 -0.710388395774851 7.527764919533389 2.0310649373183236 7.783512683449653 0 0 0
9 1 1.186833700010125 2.1210375809580113 1.5398276583831079 8.411918661377662 1 1 0
201 3 0.3179035051899132 7.9752415938860475 1.8122903468155607 5.01298023527254 0 0 0
10 1 1.31412327503718 2.9727409914726217 3.476562183830021 10.80235795293654 0 0 0
96 2 -0.6160036506113323 4.136229084503939 4.164843119125209 9.586201326974614 0 0 0
12 1 1.684981103401379 2.8107443464894897 6.863212755671548 14.131568328415446 0 0 0
109 2 -0.6236489283890152 7.211568869083333 5.871303399204277 11.129419560521423 0 0 0
14 1 1.353074548700931 6.715273107058381 3.5663968631920357 13.75864533575622 0 0 0
16 1 1.26443664534858 6.274389710814752 7.037400218761568 10.449555197746072 0 0 0
110 2 -0.7225752468593282 7.354761409854925 7.770354215177345 9.75086253745064 0 0 0
13 1 1.570374838384622 4.909375996845771 1.6295266193000801 12.164584542968042 0 0 0
85 2 -0.8655189601828369 3.651348641762842 5.94399426273147 15.021255442619328 0 0 0
86 2 -0.6402519674518014 6.074923888455029 4.61411692688534 14.838919631752745 0 0 0
57 1 1.338644534449967 8.23505036615558 8.574749708104134 8.651041935287793 0 0 0
94 2 -0.7518958528198777 1.977111456035232 4.027961747078024 11.955889573938547 0 0 0
95 2 -0.7345503558036445 3.7855705941313498 2.475269736645656 11.658377724041165 0 0 0
90 2 -0.6139003932738147 2.3802909728876944 2.3172454556188535 9.871678032957231 0 0 0
97 2 -0.8085450938140321 1.6690900943301763 5.929645213754762 13.463612584662343 0 0 0
100 2 -0.8084773393949435 1.796798423032865 7.743363645231717 14.84238101037408 0 0 0
101 2 -0.8019062920124895 3.6344281235803253 7.752622383239755 13.212097650515576 0 0 0
102 2 -0.7040217440301837 5.466844226367872 2.6222875378514487 13.374694782409609 0 0 0
105 2 -0.561678830990023 7.866429423332994 2.5876665408961177 14.369046959461423 0 0 0
106 2 -0.6974832481172969 7.887181375168128 4.510468528665598 13.301350466795464 0 0 0
107 2 -0.6518593251139422 5.578121820578698 6.094955752513482 9.092320275069554 0 0 0
108 2 -0.5597656876818823 5.710213280779036 7.898808151352604 11.853235304465088 0 0 0
43 1 1.391006483842179 8.445968054874962 5.360797880589827 12.08063672602354 0 0 0
25 1 1.269079951223453 1.435794681868331 8.418610675069536 8.73494687955056 1 0 0
7 1 1.563628593482882 4.78573144117458 5.110620004101079 15.74035651342932 0 0 -1
18 1 1.685609780581398 3.5426638008039486 10.286799705689862 3.1219824065848893 0 0 0
212 3 0.3961230618569351 6.8612806237176285 13.387223514238476 5.601469799874308 0 0 0
20 1 1.361338836650987 2.9687808562382254 13.878596863280032 6.120140067865522 0 0 0
22 1 1.358615892121057 6.849736563370958 10.649935952795785 6.419236840307849 0 0 0
31 1 1.345249386177684 4.852571831583079 12.604219868243058 8.27713655160524 0 0 0
24 1 1.56848776530051 7.120498837741655 14.277874478998664 3.0817082725680924 0 0 0
198 2 -0.6519959565173666 6.233553618358935 13.22013299688211 6.4035995272218695 0 0 0
23 1 1.38296560107807 5.185767934143849 12.243087591205308 1.535228952720574 0 0 0
80 2 -0.8728883218325874 6.303254365545591 14.988760486756826 4.267254180603194 0 0 0
91 2 -0.6921612886813356 2.2995258696103056 14.578351423077962 7.368898171745908 0 0 0
111 2 -0.9175706308317269 2.713313135728406 9.204264801789073 2.342145965450648 0 0 0
114 2 -0.7400097959178772 2.366243427718776 10.80205147171831 3.981885637019503 0 0 0
115 2 -0.7115078504891722 4.337270944750148 9.797029533710152 4.379284803350433 0 0 0
116 2 -0.8828272831014863 4.127736441989095 11.370796324285033 2.326841183715555 0 0 0
117 2 -0.6840633202777321 2.4910074610208 12.586253545114372 5.3513188241983105 0 0 0
120 2 -0.7325663499702372 3.920415918476704 12.999055339492752 7.165244615380798 0 0 0
121 2 -0.7129398136206663 6.485724860884541 9.412401118523514 5.68405039210118 0 0 0
122 2 -0.6697768966622067 5.7918738820017035 11.367568305933723 7.564278674469323 0 0 0
123 2 -0.7880381050701413 7.753895670567775 11.548678615924578 5.412173757167583 0 0 0
124 2 -0.6307289363341416 7.933912874167693 9.771083721699203 7.460778567061563 0 0 0
125 2 -0.7087614756503307 6.094577664938877 13.323294192863196 2.480628733243009 0 0 0
128 2 -0.7173360085173481 7.812007984663371 15.04989358221691 1.9149376665360818 0 0 0
129 2 -0.8409603087977918 8.272400497811752 13.684155983604017 3.9963350552150443 0 0 0
211 3 0.4256684570705286 5.410650543194327 13.560745194803843 6.35907816803543 0 0 0
79 2 -0.6819367657392293 3.9685714785405275 14.37887566099143 5.056794017348388 0 0 0
5 1 1.363596447473744 5.173363431126372 15.704217794853799 4.85181504340845 0 -1 0
1 1 1.388508963162346 1.4970047183378232 15.357322118957658 1.5158961150506214 1 0 0
216 3 0.3457117699245204 8.051837264629281 12.118999618953904 8.243996490440175 0 0 0
17 1 1.70651292481636 1.4544426982231602 8.60475119603972 1.824368363458099 0 0 0
26 1 1.388660019206531 3.2249575942211317 10.662537448323388 10.203590976759923 0 0 0
28 1 1.474547485994139 3.4761845307033346 13.853011050482486 13.830092804648913 0 0 0
213 3 0.3495147097721434 6.716857144862955 11.148834235340367 9.384630472958367 0 0 0
30 1 1.438635702945195 7.036690218703066 10.245081206999853 14.02247308434554 0 0 0
32 1 1.247317076385861 6.78085960218857 14.22129293274755 10.313709332084217 0 0 0
210 3 0.4333320370011797 2.8118610079840547 10.917567334888778 14.232611178945618 0 0 0
214 3 0.4681620135320846 6.025047606393929 10.27142004710091 10.4780696252168 0 0 0
66 2 -0.6759133537996358 2.4407967591257 14.749998132916236 14.610870527132601 0 0 0
103 2 -0.8113320739768393 4.341416464820956 14.833258844191711 12.971177012308482 0 0 0
104 2 -0.6788181740050764 5.575398990677988 15.521681424767216 10.870242059422205 0 0 0
126 2 -0.7429664332345629 4.256199693510652 13.197284591851702 15.134531927152809 0 0 0
127 2 -0.6676335346067339 6.527598789143053 11.409035264917652 15.163939047309754 0 0 0
130 2 -0.6749279106913134 2.4112598266674325 9.3990699922182 9.794445430150581 0 0 0
133 2 -0.7313231557968248 2.0671308765092298 11.586202901152298 10.988800347476461 0 0 0
134 2 -0.6629983565296835 4.342330165941778 9.860613863286426 11.070347284321073 0 0 0
135 2 -0.7287382372627224 4.244562311431071 11.497457277144274 9.382417222115606 0 0 0
136 2 -0.7568388102007311 2.318417842022132 13.178226587930164 13.039270068542763 0 0 0
139 2 -0.6991262791866 5.820127805501494 9.284482406866868 13.652586846555208 0 0 0
140 2 -0.7106912623521635 7.73669171324867 8.993672495094833 14.67442485884839 0 0 0
141 2 -0.8155333905221959 7.36018522005333 11.105050460212638 12.839193725473143 0 0 0
142 2 -0.7011000473212967 5.788362088513286 13.61209107385048 9.149797828594505 0 0 0
143 2 -0.7737975397288547 8.032409607226885 15.007745104148073 9.640769372412807 0 0 0
144 2 -0.7365961540847905 7.040855386107717 13.04870174564062 11.411198521104465 0 0 0
197 2 -0.6835833457686623 3.560354778166203 10.265669159555346 14.125603514382215 0 0 0
199 2 -0.6723069443543417 6.806120932900841 10.756444890108135 10.318082587423683 0 0 0
209 3 0.374083667390963 4.281881206369422 10.341851455046775 14.734658282558865 0 0 0
59 1 1.462635413398822 8.13425464334293 12.038487297790677 11.879112372891727 0 0 0
29 1 1.267103719833977 4.611730513438697 8.907724914825828 12.712917011584123 0 0 0
203 3 0.504615969107208 1.6379237727316633 15.273121644595935 12.64692553871536 1 0 0
34 1 1.369962928583222 10.533564297400865 3.497391617514095 3.463167569543489 0 0 0
161 2 -0.7649899649307791 12.885563197570239 7.894577399324902 4.1247636680585025 0 0 0
36 1 1.627144723937379 10.366826694516936 7.167550153477814 6.796184277501889 0 0 0
38 1 1.249759099517256 14.374909824501081 3.364208225654383 7.226892617098002 0 0 0
40 1 1.668336751594637 13.816480557096561 6.849329924855178 3.324219148286943 0 0 0
73 2 -0.6211522902886826 14.680750782445735 4.157571613119709 5.81506346819496 0 0 0
74 2 -0.7892382827747645 14.301139622815887 5.690900941959257 4.103622556484122 0 0 0
193 2 -0.5539744160543308 9.103140460363338 1.9385487192956425 4.6918827108496215 0 1 0
112 2 -0.9241226124344365 14.968205031576487 7.7983752247147775 2.670788633505639 0 0 0
145 2 -0.6464814973112044 9.538771890123877 2.619496673729302 2.6567326354599494 0 0 0
147 2 -0.5300974705582649 9.934961402459002 4.474961373562843 5.004874666130087 0 0 0
148 2 -0.6471993954274224 11.676366744914386 2.6851256905752736 4.19700936186517 0 0 0
149 2 -0.6665386900334821 11.07760598419539 4.734762125765776 2.7629396094447882 0 0 0
150 2 -0.7691719725003585 9.457552475760782 6.623547504388681 5.672721955491964 0 0 0
151 2 -0.8033703824490719 11.063802771721585 6.132812699657328 7.684124514936368 0 0 0
47 1 1.511675907949105 11.938178083763988 5.10858261322516 8.539673828397005 0 0 0
153 2 -0.6588482472977519 8.991919072095545 7.629088346338541 7.710530487370915 0 0 0
154 2 -0.632908266193954 13.607098828683316 2.05847848467264 6.2299542866633635 0 0 0
157 2 -0.740965405631984 13.016643988308427 4.158530403432548 7.793181781653019 0 0 0
158 2 -0.8531487260650599 12.832781642800006 6.262254391937102 2.251393264902636 0 0 0
35 1 1.393629149885993 8.70345365696275 5.406774903499375 5.220128661050596 0 0 0
92 2 -0.7848482529404209 15.507395009126215 2.434645022839714 7.68866473271248 0 0 0
152 2 -0.8476835811182187 11.05068014850637 8.121647719430738 5.84133207944899 0 0 0
3 1 1.342842427205931 15.54258982875188 4.963624011488353 4.7754005515264275 -1 0 0
37 1 1.202564272163118 12.541573742263147 1.5783425730002194 5.246722470540847 0 1 0
39 1 1.558121461630409 12.041756224895332 5.2696791744668845 1.437621315570283 0 0 1
49 1 1.448769940298027 8.60818420972187 8.269655695930378 1.4259391610797145 0 0 1
174 2 -0.5842800611431724 12.710416952385605 7.895635373533455 11.07027378444885 0 0 0
42 1 1.653239279665196 10.285555326334812 3.3313730614651402 10.376265405908077 0 0 0
44 1 1.420380972691191 10.421281103855806 6.797526014625906 13.84424596583132 0 0 0
173 2 -0.7636925264045127 12.703429458352513 6.095850038103443 9.417262676891614 0 0 0
46 1 1.228281689000245 13.66513967776506 3.047994129010218 14.439277920601103 0 0 0
11 1 1.623877048544926 15.236814450856095 4.971453438142316 12.595255173720412 -1 0 0
48 1 1.412099368538648 13.518364691906898 6.44325180557104 10.633083087991603 0 0 0
205 3 0.3695041642323615 11.632955440801958 1.6475542161249843 8.624750169031266 0 0 0
170 2 -0.7534580586280774 12.802368767189096 1.8828010384061717 13.584396914235722 0 0 0
67 2 -0.6328326170171825 15.2566387516586 2.0829454516655517 15.126173882758023 0 0 0
98 2 -0.8282240833869351 14.487458633076317 4.106461360912334 13.67894450272239 0 0 0
99 2 -0.908323288885894 14.405130630996899 5.460501379691187 11.421759076087787 0 0 0
131 2 -0.5238314225497713 14.764976603584001 7.3888235757770975 9.843208192217167 0 0 0
159 2 -0.8453529824416565 11.040671932976103 5.60457323643862 14.778380152396464 0 0 0
160 2 -0.7796464467076106 12.665130419539869 3.833123056834709 15.349540335487815 0 0 0
162 2 -0.8579078104273462 9.856334653096983 2.575790688952689 9.132251138862967 0 0 0
164 2 -0.7302160823558661 9.186142358233354 4.133994104627378 11.063212709309918 0 0 0
165 2 -0.8567979629454818 11.250418453458828 2.6395689720636897 11.39221507543305 0 0 0
166 2 -0.7872342100500317 11.212699025613217 4.408330520695406 9.856229183965292 0 0 0
167 2 -0.7182388288444723 9.419091737148992 6.436620722669087 12.556103797444154 0 0 0
168 2 -0.7314546859074976 9.947096392631948 7.794760468805656 14.972659278585702 0 0 0
169 2 -0.7898838436224973 11.501514810042819 7.639565362979284 12.976722922004159 0 0 0
208 3 0.4322192685185148 10.919364384443766 1.9658691232368133 14.306763839386674 0 0 0
207 3 0.411743300685335 10.99335693673581 3.330000351461277 14.071457709738892 0 0 0
196 2 -0.6333635884121348 10.321550380087828 2.707541816661979 14.313922733927878 0 0 0
33 1 1.301872138830676 8.830709850723446 1.7214115188860457 15.581949280489438 0 0 0
45 1 1.303550555494113 12.301188334239699 1.7749891215865565 12.134199295289013 0 0 0
204 3 0.3974107375919496 15.088832726817373 2.2808960192702106 12.861593640860063 0 1 0
194 2 -0.5788323269093513 15.608012156477283 1.6174529904183075 12.329936175742134 0 1 0
181 2 -0.7298287087857172 13.384586523427101 9.513961051745438 5.818110816143905 0 0 0
175 2 -0.6542507245885566 9.00898185677201 9.39826968343856 2.3438608375762513 0 0 0
50 1 1.316776415489131 10.456000540485444 10.570069649147152 3.026888795223642 0 0 0
183 2 -0.5440244845835112 13.407776127931966 12.754018738807094 1.9330020271893054 0 0 0
52 1 1.553758995019317 10.458050099028837 13.827900834849613 6.985129811653761 0 0 0
180 2 -0.7752530660128643 11.437814774065926 13.170376262143536 7.891831931052401 0 0 0
54 1 1.430817643921669 13.88933141353691 10.201886340410717 6.987441798512175 0 0 0
179 2 -0.8485408378799251 9.710842619311506 13.061888249844465 5.866825398407482 0 0 0
56 1 1.179350978528738 13.718747939108372 13.571583135461882 3.374094936702881 0 0 0
182 2 -0.6692778070915574 12.933995173047178 11.127617762171361 8.101432510357693 0 0 0
68 2 -0.5253561183258193 14.619951779070412 14.477348845739627 2.0852888337074 0 0 0
118 2 -0.6846339049761028 14.928794732233884 11.143180487839391 6.139518300405893 0 0 0
119 2 -0.621431721914799 15.01226624064078 12.60682835538561 3.5677311678624757 0 0 0
132 2 -0.6848293153738763 14.742106983928013 9.080039908058701 7.811740792025237 0 0 0
155 2 -0.6364551868343377 11.6971051311143 14.596764380271658 6.048754855656367 0 0 0
156 2 -0.6392856674035323 13.18660815484836 14.843295171100936 4.133840973583816 0 0 0
163 2 -0.9004004146123972 9.622897661281378 14.699122585778206 7.989175345191452 0 0 0
200 2 -0.6072591234790726 9.034922126883988 12.223727275628594 8.060218758987318 0 0 0
176 2 -0.7276962034147083 9.523525300242529 11.144891100729527 3.9719637869604463 0 0 0
177 2 -0.7540903486477993 11.600844871805746 10.035439632348554 3.890486105869292 0 0 0
178 2 -0.7197912941110239 11.367787447806071 11.870707187399459 2.4184482570412755 0 0 0
19 1 1.400889392207388 15.751094125185773 11.691336282285112 4.7893287806062315 -1 0 0
206 3 0.3380634569254375 13.384275518955516 15.711147709682457 8.142221829636114 0 -1 0
53 1 1.52145266397575 12.033259760301673 8.879282831928947 4.918946738084738 0 0 0
51 1 1.551962526413248 8.804433344545423 12.398412680535571 4.790651082984103 0 0 0
202 3 0.3904778466922953 9.583881420290487 15.511441260057282 4.871764468069051 0 0 0
41 1 1.563161291938917 8.765219792340528 15.74829846002534 8.553011025244702 0 0 0
191 2 -0.6970689346581651 13.553822639937156 9.11577833992716 12.91529774678005 0 0 0
190 2 -0.6076813446992224 8.910742003401687 12.925496043907852 13.027536594890158 0 0 0
192 2 -0.7459143216857848 12.741276150863529 12.781159535182237 10.039878076395562 0 0 0
61 1 1.430338115701096 12.073101590589381 8.776671452642512 12.296494126588655 0 0 0
58 1 1.470162076428377 10.108726063878432 10.269154395668902 10.47724341931074 0 0 0
60 1 1.338844834977742 10.289756522298802 13.861021326193866 13.65060338284595 0 0 0
62 1 1.327784757711132 14.153032097244477 10.14226532190473 14.026441030709734 0 0 0
64 1 1.185550105415938 13.750089845281865 14.114371792292069 10.312784889365355 0 0 0
93 2 -0.4039785115720892 15.51174126609245 14.826896191148581 9.660576072878486 0 0 0
113 2 -0.7108208403416689 15.084596213033793 9.80626670971659 15.301593999659842 0 0 0
137 2 -0.6909802256192334 15.134267342917603 11.144351990289797 13.217943522061482 0 0 0
138 2 -0.6338406905773145 14.663254691804163 13.322531451910898 11.334337112612696 0 0 0
146 2 -0.6268160583268174 9.585978852801972 14.862776030565685 14.907497963783122 0 0 0
171 2 -0.6150068410697073 11.059390633140364 14.932494713505658 12.917466353126517 0 0 0
172 2 -0.6281917133145563 13.04008213414801 14.89834056819748 11.60099762866331 0 0 0
184 2 -0.7362695374187892 11.191349393333654 12.89238801901108 14.434897436950065 0 0 0
185 2 -0.7389506984086203 12.799788242831557 10.898464233521429 14.762286379562747 0 0 0
186 2 -0.6890523920851158 9.445730893449392 9.067197058120335 9.631937595001869 0 0 0
187 2 -0.8068155115472139 9.488267277595343 11.601384949055927 11.072408229686388 0 0 0
188 2 -0.7252850624985159 10.792797652529899 9.716261651806702 11.67240396769939 0 0 0
189 2 -0.756030687686901 11.26717085325766 10.785416153347576 9.52293263703984 0 0 0
55 1 1.427278986233199 12.130559083204489 12.069052045884307 15.471232889700572 0 0 -1
63 1 1.509992521227411 12.030655830400713 12.072252065702255 9.031295257949562 0 0 0
215 3 0.3571904038966892 9.484516332730921 11.860562156347369 8.798791530838791 0 0 0
195 2 -0.5953481534147913 12.584530676351633 15.393181649669721 8.91316924734068 0 -1 0
27 1 1.415894531248824 15.606904647064177 12.286096306359703 12.084198419315845 0 0 0

Velocities

2 0.007605818614665379 -0.010917045704293115 -0.001182360842671755
15 -0.004212260250998889 0.0006761948665137589 0.005935548099585502
4 0.009791733050410267 0.011858108582052695 -0.003239062278761096
84 0.004555934082368457 0.01026305584735589 -0.0035419974412866082
6 -0.005613243846925601 -0.014437347261794013 0.007870776417427462
21 0.018203898354610802 -0.0071642062302994915 -0.0005819806106107386
8 -0.0022826645580782414 0.002873018237385884 -0.011180575265749516
89 0.0019087765318292931 -0.0012324870514279483 0.020480622243194815
87 -0.016006525633298442 -0.0036405431811143327 0.004631460882603095
88 0.005534406089599611 -0.005348226342637015 -0.0039469377654656615
65 0.0006921717731856426 0.007062656468993779 0.01308733464042998
69 0.008293897174066797 0.00623086863935188 0.007224001783038195
70 -0.013387792145075997 0.006243176244513244 -0.007645496797423234
71 -0.00971456810561923 -0.00426197425218404 -0.005900344231354821
72 0.014782912737399515 0.018612643461042112 0.0038571078184629786
75 -0.010452507690234602 0.012594787446694271 -0.0041804345255101885
76 -0.012730342946758596 0.0022805346291132 0.007431440518594411
77 -0.0007880957282700389 -0.011083660571012212 0.00699772791173151
78 0.006570741259079878 0.006494173324806896 0.0019151892088809007
81 -0.012848248606222244 -0.004549296106226357 0.01538610762997906
82 0.012409359727873527 -0.0006954186871531488 0.007688974898882408
83 -0.01662659431503072 -0.005450262279809287 0.012734285177284298
9 0.011661060840659697 -0.01628652761824435 0.0011478444513001549
201 0.03812977780005357 0.038724222277689097 0.0473211056006555
10 0.013446278708017553 -0.012904696419623819 0.005182982047725733
96 0.0022053016797273298 -0.0006509774324669049 0.0005125751172746299
12 0.008315453953739317 -0.005574340954326828 -0.006085524368725778
109 -0.0052621572680598165 0.005889925252942125 0.0031552587512844164
14 0.0015715904667575374 0.0006710526636841215 0.021002207867082227
16 0.0004172313975008879 0.006193180916982232 -0.010378175197714102
110 0.00802783446849946 0.005627214924769911 -0.0015200343102734113
13 0.0010386700279659726 -0.00486061085691086 0.0040094977411659904
85 0.006941957311990427 0.004529960092737357 -0.0017325635176923008
86 0.0068798519826029905 0.009504905943275266 -0.003163793464040017
57 -0.007885559167939591 0.003253943416900709 -0.003469149141350467
94 -0.013981269210670154 0.013851498946098634 0.0008930337442721353
95 0.004378090355381968 -0.0007121081108335302 -0.00029496719906605404
90 0.003095866937112154 -0.0007581969996268284 -0.01486998125553572
97 0.016277064059546972 -0.004631336108556388 -0.010640251869230316
100 0.002321076670202996 -0.0006397190490523022 0.012287483635187888
101 -0.004774765140350643 -0.0022750192749550068 0.011457525923559364
102 0.0020991106908094977 0.015931634191777247 -0.0062385234694675735
105 0.0011093567457791471 -0.015000810345287776 0.006813246326084269
106 -0.011372852153055597 0.0004697376016967818 0.0019182909676339237
107 -0.009815438042657049 -0.0020481258929590028 -0.008140843122461262
108 0.011913629993503249 -0.011616567490504836 0.004318175862470916
43 -0.011820938882574948 0.0027522361729175266 -0.00614316376760045
25 0.005859809133517744 0.0009704685859394205 0.00025141764016169344
7 0.012961058698986587 -0.0004112550707427234 -0.009072737647923634
18 0.00786077888648358 0.0012128497179494573 0.001548563454200294
212 -0.0008181111568255182 0.0015202837858539176 -0.06842583907085635
20 -0.002790563129046797 -0.0031017555642299855 0.004227781101189958
22 -0.0031715392674068073 0.006082268883579821 0.018115473018338404
31 -0.004953281012649583 0.0033217555214586866 -0.0012852419112389496
24 -0.0013521848564552257 -0.0014468138632901595 0.008251487967717694
198 -0.001909323144941047 0.013981835580885605 0.005431489615957961
23 -0.009770387396684484 0.0036140231387626854 0.01148830501008816
80 -0.0021654929577634256 -0.003554661785943983 -0.006009264132399699
91 -0.00698735304463305 -0.015429267170317326 0.014563969932222068
111 0.006292363993530068 0.002480798290137881 -0.0031053852721858524
114 0.004872543076827914 0.015663171545949626 -0.005594515537690991
115 -0.012217423047764048 -0.008317180493545061 -0.0074128810797176705
116 -0.0014963981102453492 0.009679840967210076 -0.025124671000157188
117 0.016213234353680384 -0.009481452199035173 -0.005953673436400887
120 -0.0071485389162275715 -0.015370488381924334 -0.016073643045625086
121 -0.004276911616056524 -0.008233341892365817 -0.002168880531229403
122 -0.012421791985363256 0.01048157965635966 0.013759617056957755
123 0.02401629579785687 0.010711525956385621 0.00529775314384563
124 0.009592335564387688 -0.005900363238233218 -0.003973101178548858
125 -0.00962170043985106 0.01130117752260276 0.003450700934687367
128 -0.01491801795855404 -0.004034729591307884 0.0006748979751646402
129 0.01264939268424181 -0.00010663232145602162 0.011265501478031759
211 0.028816314412950128 0.05845919508414908 -0.01013746542417725
79 0.014536739218459474 -0.007329672925336598 0.002148327580972895
5 -0.00958664527277486 -4.089475772962567e-05 -0.0004135111461729369
1 -0.004078903088703065 -0.00449794511002762 0.0030136036582980984
216 -0.11708719473972719 0.04456236427749146 -0.055509424476483375
17 -0.00938372050458824 -0.00013529579213329576 -0.01451743382927095
26 0.0032970041362702903 0.006430740753285641 -0.0075091515141520885
28 0.004542676925361202 0.011408932604508575 -0.029507884834845784
213 0.044992869077754634 0.06006724345377298 0.08572084680478038
30 -0.010684093075501522 0.006177888826333521 -0.000688365034455368
32 0.0018853814158902504 -0.006173418653776407 -0.008480320158003346
210 -0.006062805561376844 0.06565526073122446 0.05224647373518975
214 0.06361494558159526 0.017709656855844087 0.09535640871648433
66 -0.005339992122824584 -0.008343585304898045 0.011931075902239238
103 -0.004879461996007011 0.011128844210182112 -0.0023241008794121667
104 -0.008075688427998606 -0.002249978185869773 0.011198035794417246
126 -0.004796856580546885 0.015434600156042888 0.0014317846695217613
127 -0.010360189613952409 0.016627376889323697 0.01630338954422625
130 0.01645637530583199 0.01073707569588823 0.0190470376548219
133 -0.00783545635877217 -0.012787089275727439 -0.004750629617925843
134 0.00824544318011521 -0.008719370571995143 -0.023568766479124172
135 -0.0008019246889016621 -0.0007461830403596908 -0.00826729964220586
136 -0.0014838951568150272 -0.014135155948686966 -0.016766663780971552
139 -0.019980280258794635 0.0011330898220907064 0.011367943596313924
140 0.015718316555150217 0.00466451797798746 0.020232415419932908
141 -0.008038820863152461 -0.006941619076219561 -0.015392046979546844
142 0.008783836334006466 0.021438642528991213 -0.011892963380646248
143 -0.0016029893021019708 -0.011540834064257093 0.0006379191155949532
144 0.010552111219596632 -0.007879873650539194 0.002802746089980383
197 0.014988790231756846 0.019209357149773426 0.00357299075926764
199 -0.006133401628588737 0.006056529910863622 0.004166668434258991
209 -0.004295380925666026 0.052194134120825735 0.01824031107862423
59 0.011987535872286386 -0.004373632104383125 -0.006758101142544831
29 0.006536632943260344 -0.0011898875811787342 0.0001895010613654951
203 -0.0507786026079632 -0.09309087586536431 -0.00833358396699107
34 -0.010969941923305464 -0.0004949808010239492 0.008898729136464868
161 0.001849072511312333 0.012804450799210203 0.006215375237365006
36 -0.007296675399064897 -0.0130165346972219 0.010024261945849511
38 0.0041673559402845145 0.009807055085062584 -0.017160981657939493
40 0.010496354115877689 0.003818175866127206 0.008157334456869674
73 0.0062127228908577066 -0.015462210262522019 -0.01621948645657886
74 -0.008378324632755013 0.0121477364388391 0.007272516319461209
193 -0.006280197083947588 -0.01983949245050529 -0.0037810189272867415
112 -0.01075251817451337 0.003416817622141435 -0.0023017248342407765
145 0.016596686204699947 0.00558331672700885 -0.009729857494298137
147 -0.004820507509780713 -0.005761018930436683 -0.00498993396846649
148 -0.026324358749897473 -0.01473003420368139 -0.008756187047966064
149 -0.012379727005305752 -0.004061181980427837 0.004790390950639366
150 0.012159210086023806 -0.03326511652624248 0.025996479502794146
151 0.011573812301675528 -0.004804342685308922 0.007192569098834291
47 0.005451145217302476 -0.017569917513984016 6.064626927301444e-05
153 0.003783655278171253 -0.0011488766474262362 0.009675963291489398
154 0.01585133762965333 0.009925080709815856 0.017467273774359367
157 -0.006471828396563368 0.008376343962260665 -0.001848442424458562
158 -0.0022143108437358296 0.004768433745173077 -0.00805260559852546
35 -0.00423481131758073 0.0029789793196818575 -0.0029741273842584133
92 0.0028670118863308477 0.003590417693594077 0.008997283661212174
152 -0.0026778301787502893 -0.0066127196175504435 -0.009079762092064675
3 -0.003133415684977474 0.010472603432518263 0.006898120244775836
37 -0.005040984536410622 -0.004853459941274869 -0.01944071886598038
39 -0.005722675636852287 -0.007624573376928881 0.005096328113688097
49 -0.01367576598453837 -0.00923473798543781 0.0015931816274763178
174 0.006277437501859706 0.015337521630922878 -0.005436769955325476
42 0.0027568749484029598 0.009237144178892475 -0.02129136331891229
44 0.0072117895119539945 0.006000015983718267 -0.009969233205969983
173 -0.010731342391144835 0.0019314783576576489 0.0049084599403133936
46 -0.006630972881775056 -0.0064155230924234675 -0.002822734396900982
11 0.0026389861882422064 0.008986405616141493 -0.006691951944122837
48 -0.0033043512160095406 0.0013911241855927563 0.0022182059893567294
205 -0.004316310726789872 -0.008774835717402238 0.031791916204008945
170 0.006456237108064812 0.01940821085437278 0.0006233615492359279
67 0.006191774560793226 0.005764523496081404 0.0025417983069467667
98 0.011168940251650657 -0.005750097615434589 0.007106563620009878
99 0.0008735389469107445 0.011900068126352187 0.0024197878758409528
131 -0.008647294849118482 0.0017911771057580173 0.012722844368970317
159 0.009815485458640754 0.0018731749687072496 -0.008431408331981614
160 -0.014371242350212194 -0.006146618082594216 0.002951179711189891
162 -0.01597102785702162 0.0017827788218224422 0.01008582492796821
164 -0.01012404856612745 -0.004041359690913756 -0.009213383841604427
165 0.003304612322877828 0.008878724280207872 0.00616798945989868
166 -0.003936175174821762 -0.0023213634965574014 -0.00705184415234944
167 -0.007708251104567545 -0.0066579433455784594 -0.003920502765698862
168 0.0018935556239177652 0.00012954270955247907 0.02094645393908708
169 0.004752974694009468 0.0017891321955084995 0.0020251294377132798
208 0.008363045164964774 -0.03290812697354354 -0.001549959660025295
207 -0.028994932423792856 0.06314197102727764 0.026893677466017327
196 0.004045013522975961 0.00045085868830917387 0.010528981967307125
33 -0.00645596901789289 0.0027617877113539843 -0.004765968193856631
45 0.01586112404958661 0.002859921872079826 0.005853862761703699
204 -0.0011156970979122405 0.014504193305523203 -0.047383199369362694
194 0.0006750541881561501 -0.008175931942823286 0.025083795414462862
181 0.001713115370838205 -0.016052255769195174 0.005715322058825292
175 -0.011980962392708336 -0.01691357786273935 -0.007153027390456091
50 -0.004787023386976078 -0.00023753384765490404 -0.007437793827188896
183 -0.010981850647100262 -0.002061778665047295 -0.010573306966650944
52 -0.002876969153514684 0.008456542563856648 0.002476754610811165
180 0.00736775102278954 -0.007004839052138956 0.013083773090030552
54 0.003925450253910598 0.008576945014676006 0.00805724311955401
179 -0.00039224151409243734 0.0047826107641329085 -0.0017298369638441616
56 -0.01109424014771892 0.004256424086464886 0.0030618234206865797
182 -0.022586687742013337 -0.0079726799446207 0.007390300668668127
68 -0.008065610850062252 0.021588752661751504 0.020904193552765005
118 0.02639376373612752 0.005709976691460285 -0.009014963877182897
119 -0.0009959505765098381 -0.001713386001189307 0.0034166742422495665
132 -0.01142710718767489 0.011887836040730184 -0.01630724220355773
155 -0.006729136901238293 -0.0042534571812661735 -0.008266195141035429
156 -0.0008655006448090038 -0.0155482102148049 -0.015267287039751188
163 0.014442985367055584 -0.002473279561331014 -0.014788162119835618
200 -0.004906420253179918 0.005551268182610288 -0.005184436585182763
176 -0.01058847682281705 -0.010727706645137626 -0.02193406887905126
177 0.003778742593485726 0.000776012529091292 0.0017086938319599144
178 -0.0050846993435845035 0.004446539058088634 0.014023377745575123
19 0.011970479143036363 -0.0033967486233860015 0.0024822052761967416
206 0.03550341554255391 -0.009347575893169438 -0.016172043793399038
53 0.010305681198796237 -0.006335597480206487 0.000986365302857942
51 0.0014846389104417655 -0.0057500485007918965 0.01651768294361555
202 0.050678372882139236 -0.073948397796702 -0.05503614514974792
41 -0.006528665378569913 0.0041042503137748 0.003194745022701124
191 0.001180541078665534 0.030788426669153265 -0.0148144940701184
190 0.016143082162742867 -0.0027047198582975675 -0.0016510533484320688
192 0.012287047073675993 -0.014475640148573513 -0.010659699706457023
61 -0.008427886830283081 -0.002109306856695581 0.015654177803467194
58 0.01405928816487643 -0.009262922468501498 0.02019629181574917
60 0.006230082012585572 0.0006488892232557232 -0.009362529162710494
62 -0.0032636191228870696 -0.0019465869049937173 0.004443380996501963
64 0.011662845001518067 -0.0001198954830418912 -0.004697454080292662
93 -0.015388835730217279 -0.0021613598257927804 -0.005755289765888087
113 -0.005627496150185936 -0.010327897678736878 -0.00023786770458404907
137 -0.010841481221892327 0.010205853510341197 -0.0155332340789857
138 0.013536245984242124 0.0009090063341779333 -0.0028489253586113984
146 0.005985273870478345 0.0012464109764684663 -0.017776250281465324
171 -0.010898555946274905 -0.03145790733580844 -0.0023538767631573975
172 -0.012187677099272183 -1.6923152142205623e-05 -0.007655787320922272
184 -0.016716863827004706 0.010556457643383815 0.00533593618884066
185 0.016952468409473568 -0.0026508599549619673 -0.00729509103919329
186 -0.011116731010097355 -0.010001212981872272 -0.0005560998257677625
187 -0.0026033337477810287 -0.005845843364770237 0.010818103245043101
188 0.0041067498318489845 0.005080705280443066 -0.016411730695056338
189 0.004321190458005663 0.010504063478374844 -0.020513202434305794
55 -0.0006240289959913927 0.003870883108911346 0.00528658926030157
63 0.005684888189828942 0.01137397050183346 0.00027236323623098597
215 0.007819562258416657 -0.000863554125355261 -0.02328270472203934
195 0.006403995912088595 0.004537920871841221 -0.007965432539243051
27 -0.007028365899580229 -0.013782518319992351 -0.004223234143613407
