ITEM: TIMESTEP
0
ITEM: NUMBER OF ATOMS
216
ITEM: BOX BOUNDS pp pp pp
1.5259712896970390e+00 1.5634028710303014e+01
1.5259712896970390e+00 1.5634028710303014e+01
1.5259712896970390e+00 1.5634028710303014e+01
ITEM: ATOMS id type q x y z vx vy vz
1 1 1.66867 15.5311 1.64956 15.5127 0.00292753 0.00348508 -0.00522166
2 1 1.4017 3.24058 3.33633 3.15672 0.00256973 -0.000283862 -0.0153234
3 1 1.51575 15.4661 5.12455 4.78561 0.00698663 -0.00677844 -0.00517938
4 1 1.68512 3.26136 6.83533 6.40398 0.00770732 -0.00175649 0.00485646
5 1 1.46555 4.62836 15.5158 5.34813 -0.00126026 0.00089074 -0.0093761
6 1 1.46963 6.62847 3.11599 6.91483 -0.00250056 -0.00255838 -0.0102239
7 1 1.541 5.059 5.21843 15.4559 0.00277631 0.012018 -0.00589233
8 1 1.44392 7.03044 6.76048 2.97208 0.00367961 -0.000456852 0.00275279
9 1 1.52145 15.6174 1.55495 8.68026 -0.00861184 0.00272219 0.00317301
10 1 1.8407 3.09771 3.58538 10.2404 0.000658741 0.00512231 0.00241046
11 1 1.73164 1.70402 5.33278 12.2197 0.00135146 -0.00781978 0.0031987
12 1 1.59769 3.14716 7.31773 13.9203 6.03136e-06 0.00078402 -0.00284376
13 1 1.79525 4.89727 1.75284 11.7044 -0.0044526 -0.00429363 -0.00209513
14 1 1.70016 6.69221 3.33656 13.6806 0.00658217 0.00910532 -0.00508925
15 1 1.7332 4.83663 5.24195 8.48384 0.000467804 0.00882272 0.00269865
16 1 1.62747 6.65027 6.83186 10.4614 0.00718976 -0.0042243 -0.00217533
17 1 1.71798 15.383 8.76164 1.66896 0.00504809 -0.00185194 0.00575902
18 1 1.77203 3.32216 10.4405 3.26294 0.00578207 -0.0118896 -0.00372181
19 1 1.76618 15.5792 11.9233 5.06795 0.0060324 -0.0107771 0.0125108
20 1 1.65111 3.05061 13.6039 6.99328 0.00225652 -0.00453861 -0.00308627
21 1 1.51647 5.04729 8.55897 4.72551 0.007926 0.0105815 8.14455e-05
22 1 1.50599 6.84014 10.0192 6.87827 -0.00155231 -0.00103217 0.00303656
23 1 1.80796 5.11735 12.2439 1.67639 -0.000797953 -0.00450415 -0.000928173
24 1 1.40944 7.05239 13.789 3.49936 -0.00870039 -0.00772361 -0.00460221
25 1 1.65622 1.60006 8.54056 8.32403 0.0071641 -0.00251821 -0.000980782
26 1 1.59765 3.29671 10.2061 10.3229 -0.0100744 -0.0129277 0.0040362
27 1 1.48412 1.555 11.8114 12.1727 -0.000258992 0.00125948 0.0101638
28 1 1.47869 3.6329 13.9234 13.7792 0.000720331 -0.0055909 0.00211491
29 1 1.83197 5.17933 8.72735 12.2288 -0.0127337 0.00325959 0.00152867
30 1 1.71389 6.73082 10.5498 13.9991 0.00495037 -0.00108162 -0.00474536
31 1 1.58891 5.01831 11.8879 8.56134 -0.0122005 0.00988936 0.00725358
32 1 1.63963 6.75401 13.8805 10.2245 -0.00757109 -0.000690294 -0.000935545
33 1 1.63272 8.32521 1.66615 15.551 0.00356011 0.00526406 0.00073987
34 1 1.79958 10.3157 3.09593 3.34474 -0.00505021 0.00121004 -0.00552747
35 1 1.6379 8.58721 4.82061 5.21146 0.000930545 -0.00824627 -0.0108355
36 1 1.76833 10.1961 6.62474 6.9177 0.00420936 -0.00524371 0.0141336
37 1 1.65053 12.2183 15.5 4.90305 -0.00231468 -0.000986723 0.00716601
38 1 1.68986 14.0648 3.07876 6.6184 0.000737262 -0.00292433 0.00277791
39 1 1.66461 12.013 5.09656 1.62439 -0.00493547 -0.000945709 -0.0181067
40 1 1.76786 13.5514 7.0078 3.37986 -0.00376264 -0.00112836 -0.0106031
41 1 1.64693 8.74272 15.4671 8.53916 0.000900576 -0.00384926 0.000539037
42 1 1.59787 10.4358 3.28978 10.1885 -0.0117399 -0.0126662 0.00930181
43 1 1.59618 8.50895 5.10553 12.0794 -0.00411529 0.0015363 -0.00066797
44 1 1.6632 10.5144 6.75687 13.642 0.0028233 0.000372965 0.00368704
45 1 1.68939 12.1164 1.7879 12.254 0.000589812 -0.00228713 -0.00519736
46 1 1.73732 14.0274 3.586 13.8287 -0.00901517 -0.00563552 -0.00923837
47 1 1.72426 12.1971 4.84583 8.34194 -0.00801195 0.00869404 -0.0180192
48 1 1.54312 13.8905 6.70725 10.0583 -0.00539729 0.00943447 -0.00337578
49 1 1.6532 8.86272 8.77697 15.4 -0.00533335 -0.000298982 -0.00347413
50 1 1.74205 10.6263 10.2727 3.33261 -0.000965599 -0.00251616 0.000454676
51 1 1.54661 8.96901 11.9669 5.30278 0.00958135 0.00490118 0.000915597
52 1 1.72927 10.659 13.853 6.82258 -0.00105118 0.00432481 0.00307354
53 1 1.75218 12.0364 8.43912 5.4316 1.94979e-05 0.00385464 0.00569967
54 1 1.59666 13.708 10.4926 6.90817 -0.00557059 0.00566017 0.00123763
55 1 1.60878 12.0913 12.222 15.5341 -0.000731644 0.00619914 -0.00369523
56 1 1.78337 14.0873 13.6698 3.18111 0.00841863 -0.0073524 0.0040624
57 1 1.63107 8.68003 8.33505 8.76508 0.00102048 0.000695112 0.0156802
58 1 1.4595 10.3011 10.3687 10.3096 0.00189868 -0.00826932 0.00542265
59 1 1.67656 8.61468 12.2351 12.282 -0.00218591 0.0123625 0.00903466
60 1 1.65966 10.1956 14.1767 13.8515 0.001011 0.00543032 0.00601324
61 1 1.68322 12.1415 8.42224 11.8003 0.00392793 0.00456994 -0.00511433
62 1 1.67026 13.6738 10.1907 13.6811 -0.00218414 -0.00479294 -0.00610732
63 1 1.78805 12.1951 12.2885 8.82635 -0.00361929 0.00234378 0.010883
64 1 1.74169 14.004 13.9494 10.698 -0.00210767 0.00103762 0.000162155
65 2 -0.811884 2.06262 2.61445 2.4538 -0.00974804 0.00946392 -0.00434595
66 2 -0.651601 2.65422 14.9268 14.8241 0.00877826 0.00855855 -0.0117174
67 2 -0.862519 14.5624 2.36874 14.6344 -0.00347993 -0.00478796 0.00918773
68 2 -0.778501 14.6605 14.6532 2.01137 0.00164297 0.00415699 0.0141859
69 2 -0.660578 2.53592 4.60547 3.73407 -0.00991469 0.00400215 -0.0129422
70 2 -0.690799 4.17707 2.68103 4.34957 -0.00148102 0.0199279 -0.00584971
71 2 -0.644252 4.36319 3.92967 1.92106 -0.00774868 0.00116024 -0.00594214
72 2 -0.889553 2.30549 5.92636 5.69526 0.00661811 -0.0116914 -0.0014816
73 2 -0.82385 15.0592 3.81053 5.64606 -0.0184487 -0.00317239 -0.00644459
74 2 -0.78652 14.4399 5.69391 3.74377 -0.00400018 -0.0110601 0.0104688
75 2 -0.848743 4.02394 5.73395 7.31607 -0.0207042 -0.00558069 0.0074126
76 2 -0.873471 3.82855 8.00125 5.62882 0.005001 -0.00698368 0.00275482
77 2 -0.867581 2.51163 7.5487 7.6092 -0.00761942 0.0161169 0.00118576
78 2 -0.813453 5.56085 2.06056 6.31904 0.00707782 0.00431498 -0.00125077
79 2 -0.866838 3.4766 14.6102 5.92819 0.000532345 -0.00170276 -0.00357205
80 2 -0.647399 5.58935 14.5194 4.47492 -0.00333229 0.00629951 -0.00491286
81 2 -0.731348 5.69047 3.97665 8.0222 0.0167077 0.0187252 -0.00325838
82 2 -0.803795 7.35159 4.04311 5.88589 -0.00585034 -0.0022478 0.00177349
83 2 -0.784117 7.74723 2.27462 7.7084 0.00111635 -0.00725717 -0.0122049
84 2 -0.838285 5.92832 5.90401 2.48105 -0.00501758 -0.00781013 0.00175413
85 2 -0.705475 3.84845 6.02424 14.8436 0.00272598 -3.26419e-05 0.0017037
86 2 -0.82381 5.88687 4.49788 14.3472 -0.00657689 0.0069415 -0.00146589
87 2 -0.671822 6.14892 7.69902 4.06117 -0.00917709 0.00344071 0.0015659
88 2 -0.661251 7.76276 5.73809 4.30831 0.0156387 0.000110185 0.00345319
89 2 -0.707234 8.07046 7.90343 2.38655 -0.00510827 -0.00125762 0.00219406
90 2 -0.928037 2.51697 2.54359 9.30482 -0.00715719 0.000560932 0.00287569
91 2 -0.76781 2.23784 14.2551 8.10503 -0.00581924 0.00993226 -0.00542237
92 2 -0.818825 14.5323 2.22046 7.81179 -0.00153941 0.000325978 -0.00289982
93 2 -0.821037 14.7452 14.9777 9.98788 0.00635524 0.00707402 -0.00612258
94 2 -0.982713 2.07718 4.31839 11.2155 -0.000177751 -0.00125423 0.0148187
95 2 -0.974032 4.04098 2.84477 11.1384 0.00166682 0.00255562 0.000381154
96 2 -0.915737 3.89547 4.70442 9.54044 0.0127757 0.00855351 0.00673577
97 2 -0.834395 2.3136 6.49043 12.9971 0.0113645 -0.00778003 -0.0119175
98 2 -0.890129 15.0456 4.60112 13.3032 0.00592198 0.00121295 -0.00117225
99 2 -0.740272 14.7137 6.30092 11.306 -0.00613696 -0.00645634 -0.00560522
100 2 -0.762255 1.88224 7.72654 14.8132 -0.0104662 -0.00199739 -0.00102758
101 2 -0.916287 4.36645 8.01979 13.34 -0.00150863 -0.00877456 0.00509332
102 2 -0.865645 5.83692 2.47565 12.7249 -0.00702451 0.00847544 0.00574987
103 2 -0.823467 4.23536 14.7965 12.5627 -0.000532984 -0.00658132 -0.00211723
104 2 -0.861825 5.65871 14.8798 10.7354 0.000259304 -0.00981363 -0.00498947
105 2 -0.86223 7.26318 2.66914 14.9856 -0.00309617 -0.00592355 -0.0107744
106 2 -0.898602 7.79586 3.97649 12.8407 -0.00379092 -0.00393632 -9.96537e-05
107 2 -0.836896 5.808 6.221 9.17959 0.0081562 0.0056131 0.0143784
108 2 -0.899115 5.71938 7.59578 11.4209 -0.000817584 0.0168018 0.00376429
109 2 -0.910266 7.55145 5.94918 11.3302 -0.00330165 0.00043471 -0.00284373
110 2 -0.758799 7.82634 7.87171 10.0357 -1.26981e-05 -0.00297557 -0.00109013
111 2 -0.940925 2.37431 9.45236 2.517 -0.00110522 0.00382545 0.00520634
112 2 -0.894763 14.2616 7.94817 2.49064 -0.00891228 0.00665175 0.00170074
113 2 -0.850869 14.6583 9.58159 14.7401 -0.00807089 -0.00538015 0.00133274
114 2 -0.923343 2.51443 10.9925 4.47731 -0.0172401 0.00388631 -0.000445967
115 2 -0.867025 4.47446 9.68664 3.77544 0.00951713 0.000535601 -0.000147444
116 2 -0.91609 3.96745 11.5866 2.38412 0.00796008 -0.0039708 -0.00707303
117 2 -0.844242 1.90674 12.7808 6.3584 -0.0128833 -0.00319383 -0.000939701
118 2 -0.864701 14.4939 11.0826 5.57453 0.00050917 0.00010713 -0.0140157
119 2 -0.988261 14.9839 12.826 3.95253 0.0185812 -0.00192155 -0.00104068
120 2 -0.914218 4.33063 12.8857 7.57871 -0.00412524 0.00410076 0.0138413
121 2 -0.71822 6.19965 9.19897 5.74734 -4.46227e-05 -0.00330867 -0.00213234
122 2 -0.849731 5.78033 10.9639 7.6393 0.00117528 -0.0104639 -0.00599082
123 2 -0.704377 8.14118 10.8856 6.35759 0.0117838 -0.0110693 0.0127014
124 2 -0.7501 7.56095 9.11186 7.98241 0.00751789 0.00535774 0.00333938
125 2 -0.804152 6.1157 12.7596 2.65029 0.0106627 0.00113026 -0.000595513
126 2 -0.886953 4.47603 13.2802 14.9047 0.00896296 9.20407e-05 0.00713809
127 2 -0.930629 5.62883 10.9871 14.9271 0.00601384 -0.0107659 -0.0033357
128 2 -0.726795 7.54447 14.6505 2.24384 -0.000447057 0.00963529 0.00486406
129 2 -0.749747 7.95754 12.7635 4.30104 0.00759909 0.00492469 0.00677979
130 2 -0.814193 2.5881 9.15358 9.29257 0.00847715 -0.000959963 0.00591938
131 2 -0.820408 14.7835 7.56199 9.11786 -0.0144598 -0.00235124 0.00500524
132 2 -0.795146 14.4942 9.41679 7.72237 -0.00558316 -0.00700087 0.0114879
133 2 -0.826514 2.27022 11.1268 11.0034 0.00509361 0.0114308 0.00852619
134 2 -0.920666 4.11074 9.33018 11.4032 -0.000360622 -0.0117786 -5.85155e-05
135 2 -0.919005 4.26872 11.2707 9.76109 0.00531589 0.0104941 0.00503277
136 2 -0.626085 2.27156 13.106 13.3884 -0.00770201 -0.0101208 0.00238772
137 2 -0.854865 14.5035 10.9118 12.7057 0.00572691 -0.000842926 -0.00522603
138 2 -0.770789 15.1367 13.0784 11.396 -0.00126965 -0.00786378 0.0104419
139 2 -0.96419 6.23431 9.71446 12.7853 0.00237055 -0.0159314 0.0128212
140 2 -0.855646 7.77211 9.53451 14.6974 0.00911292 0.00591337 -0.00100594
141 2 -0.883869 7.60224 11.6133 13.3671 -0.000411275 -0.00823894 -0.0184108
142 2 -0.886962 6.23463 12.8306 9.3364 -0.00912223 0.00137508 0.00129135
143 2 -0.87489 7.77582 14.553 9.28871 -0.00523859 -0.0122071 0.00917145
144 2 -0.774488 7.80896 13.3216 11.4027 0.0109037 0.0103178 0.00420827
145 2 -0.924007 9.40339 2.44888 2.30582 0.0104113 -0.000558377 0.0115138
146 2 -0.844683 8.945 14.7809 14.5804 0.00910148 -0.000874836 0.00592586
147 2 -0.924897 9.31917 3.83657 4.28249 0.000836213 0.00387565 0.00986836
148 2 -0.908401 11.4111 2.34788 4.02197 -0.00582523 0.017245 0.00723413
149 2 -0.8826 11.1393 4.14126 2.53288 -0.00571737 0.00588187 -0.0157559
150 2 -0.873123 9.50841 5.36377 6.3403 0.00663795 0.0078064 0.00358565
151 2 -0.898641 11.3356 6.06678 7.72322 0.00122086 0.00769376 0.00371753
152 2 -0.895898 10.7878 7.63322 5.9217 0.00884655 -0.010239 0.00403734
153 2 -0.8752 9.05796 7.32541 7.65971 -0.00281426 -0.00529161 -0.0122851
154 2 -0.840222 13.0585 2.07773 6.05436 0.00626861 0.00318559 0.00306917
155 2 -0.89872 11.1566 14.5774 5.58401 -0.0079119 -0.012022 0.00364518
156 2 -0.838946 13.1957 14.7253 3.82252 -0.00282286 0.000602749 0.010486
157 2 -0.832795 13.094 4.10509 7.23416 0.0147604 -0.018312 -0.00308042
158 2 -0.813111 12.4682 6.14053 2.73584 0.00376088 0.00221224 0.0078028
159 2 -0.852178 11.3744 6.02679 14.7303 0.00609062 -0.0154509 0.00223051
160 2 -0.81379 13.0919 4.34349 14.8166 0.00709797 -0.000468642 -0.00833691
161 2 -0.947243 13.1176 7.65332 4.66257 -0.00205135 -0.00387508 0.00153624
162 2 -0.78924 9.34167 2.23389 9.68749 -0.000778462 0.00347906 -0.00202727
163 2 -0.835106 9.86435 15.026 7.53273 0.00403341 -0.000115121 0.00874597
164 2 -0.72818 9.58007 4.36538 10.9058 0.00102134 0.00236567 -0.00115916
165 2 -0.849355 11.508 2.63385 11.1789 0.00736623 0.00555458 -0.00186492
166 2 -0.844199 11.3431 3.73763 9.02005 0.000500834 0.0179371 0.00276813
167 2 -0.847275 9.73824 5.54807 13.0248 -0.00060319 0.00277626 0.0202924
168 2 -0.824729 9.78068 7.75081 14.6599 -0.0100715 -0.00442655 0.000193976
169 2 -0.922518 11.0464 7.71553 12.5817 0.00959797 -0.00463263 -0.00949963
170 2 -0.859074 13.1607 2.83749 12.796 -0.00726829 -0.0073714 -0.00424376
171 2 -0.907966 11.1819 15.178 13.1965 0.00406573 -0.00326861 0.00947861
172 2 -0.819547 13.1624 14.6313 11.7399 -0.0121419 -0.0203949 -0.00431827
173 2 -0.8979 12.9879 5.54934 9.33467 0.0133822 -0.00716716 -0.00929924
174 2 -0.794311 13.0362 7.88654 10.7257 0.0029244 0.00404902 -0.00441805
175 2 -0.835955 9.63106 9.71613 2.30283 -0.00153495 -0.00298809 0.0115717
176 2 -0.791777 9.83528 10.9029 4.53719 -0.00279121 0.00215842 0.00111184
177 2 -0.828558 11.4164 9.28431 4.2135 0.00185052 0.00835881 -0.00257486
178 2 -0.832937 11.3374 11.3956 2.61916 0.00731843 -0.00179145 -0.0167982
179 2 -0.923246 9.57475 12.8847 6.28409 -0.00554765 -0.00846137 -0.0215119
180 2 -0.976239 11.2542 13.1301 8.0361 -0.00149591 0.0130943 -0.00827413
181 2 -0.859321 12.6535 9.42516 6.36589 0.00936416 0.00477495 -0.0101696
182 2 -0.837264 13.2096 11.5959 7.87403 0.00279452 0.00206188 -0.00444394
183 2 -0.847495 13.2296 12.7704 2.26073 -0.00581111 -0.00634691 -0.0146059
184 2 -0.752819 11.0877 13.4015 14.9638 -0.00763784 0.00261324 0.00418796
185 2 -0.815757 12.6611 11.2001 14.5121 0.00816499 -0.000556503 0.00426925
186 2 -0.843235 9.73185 9.21369 9.43164 0.00436234 -0.00485788 0.00308649
187 2 -0.79465 9.34926 11.1871 11.4233 0.00111792 -0.00296127 0.010123
188 2 -0.69122 11.704 9.75607 11.3193 0.00168794 0.00787227 0.00368562
189 2 -0.801552 11.4843 11.1308 9.5354 -0.00593374 0.00162372 0.0119783
190 2 -0.883231 9.63772 13.0866 12.8879 -0.00276562 0.00156309 -0.00901203
191 2 -0.73176 13.0554 8.85256 13.0565 -0.00630701 0.00917198 0.00356192
192 2 -0.852717 13.2074 13.1911 9.57488 0.01335 0.000633357 -0.00359355
193 2 -0.650484 7.98734 15.3829 4.79018 -0.0109103 0.00213572 0.00107339
194 2 -0.606621 2.04801 1.91094 12.2645 0.00486722 -0.00100969 0.00530897
195 2 -0.578541 15.4774 4.94968 8.47823 -0.00106113 0.0136665 -0.0115253
196 2 -0.640615 8.49952 5.39015 1.75572 0.0115542 0.00663951 -7.55867e-05
197 2 -0.660758 2.93757 10.6317 13.455 0.00137914 -0.0062529 -0.00361194
198 2 -0.600269 6.92459 13.6946 6.67123 0.0141008 0.00551516 -0.00330601
199 2 -0.690275 4.72529 12.3913 12.3131 -0.00523878 0.00327076 -0.00974993
200 2 -0.619166 8.84449 11.5053 8.98711 -0.00691839 0.00534072 0.00108492
201 3 0.426811 8.38213 15.4941 5.69106 0.00153109 0.0353636 0.014128
202 3 0.385966 7.55792 2.1784 4.62951 -0.0318292 0.00371108 -0.00873515
203 3 0.419851 15.3858 2.38812 12.0629 0.00425429 0.00856212 -0.00351703
204 3 0.421741 2.23449 15.5113 11.5325 -0.0358285 -0.0145116 -0.0183706
205 3 0.379295 15.3763 5.82491 7.91077 -0.0269849 -0.0431247 0.0227038
206 3 0.377306 15.5428 5.43155 9.23181 0.0133619 -0.0408635 0.0167716
207 3 0.39726 8.35821 4.78176 15.2102 -0.0325334 0.0281687 -0.0611669
208 3 0.377202 9.39006 4.91787 1.97107 0.00454752 -0.0279507 0.00574668
209 3 0.342343 3.83735 10.8363 12.9671 -0.0391871 0.00901812 0.000327266
210 3 0.408239 2.84457 10.9954 14.3358 -0.0360885 -0.00324533 -0.0023545
211 3 0.410872 6.23227 13.6734 7.40713 -0.0211055 -0.0232155 0.0253356
212 3 0.409736 6.40469 13.34 6.01604 0.00430889 0.0688241 0.0480356
213 3 0.344807 5.39818 11.6222 12.3204 0.0103409 0.00592575 -0.0775589
214 3 0.408984 4.19652 12.1497 11.6464 -0.0254555 0.0153644 -0.0230476
215 3 0.401041 8.11548 12.2671 9.16024 0.0251703 0.0233605 -0.0245759
216 3 0.435849 9.0832 11.573 7.99867 -0.0462518 -0.0122078 -0.0185353
ITEM: TIMESTEP
2000
ITEM: NUMBER OF ATOMS
216
ITEM: BOX BOUNDS pp pp pp
1.4730394178089812e+00 1.5686960582191059e+01
1.4730394178089812e+00 1.5686960582191059e+01
1.4730394178089812e+00 1.5686960582191059e+01
ITEM: ATOMS id type q x y z vx vy vz
1 1 1.57681 1.58787 15.4143 1.54255 0.00636351 0.0109935 0.0035488
2 1 1.51185 3.26415 3.05783 3.22561 -0.0127134 -0.00239329 8.29918e-05
3 1 1.52249 15.5127 4.96511 4.85406 -0.00388071 0.00991434 0.00416838
4 1 1.53545 3.24696 6.85914 6.53849 -0.00278669 0.00410779 -0.00834506
5 1 1.81271 5.15064 1.51151 5.20489 -0.00249925 -0.00846505 0.00668972
6 1 1.79477 6.99936 3.32244 6.69451 0.013686 0.00423238 -0.00342578
7 1 1.45447 4.91926 4.79827 15.5833 -0.00154391 0.00618052 0.0107192
8 1 1.54494 6.5844 6.72603 2.98127 0.0140048 0.00406788 0.010754
9 1 1.3257 15.4152 1.55395 8.6891 -0.00426136 0.00017426 -0.00365249
10 1 1.3152 3.0816 3.9743 10.0357 -0.00969173 0.0031832 0.000329392
11 1 1.59705 1.48029 5.27468 12.1796 0.002615 -0.00784112 0.00133219
12 1 1.70409 3.43992 7.05044 13.8149 -0.00138394 0.00990709 -0.00148969
13 1 1.65921 4.77806 1.70483 11.663 -0.00154933 -0.0097021 0.00287288
14 1 1.71401 6.65127 2.87197 13.8204 -0.0071025 -0.0114609 0.00947316
15 1 1.67239 5.24992 5.31979 8.27145 -0.0171508 0.00578736 -0.00366598
16 1 1.6962 6.78372 6.94713 10.2383 0.00247303 -0.00324514 -0.00412538
17 1 1.54198 1.62249 8.8317 1.59236 -0.00326235 -0.0056717 -0.0126515
18 1 1.90001 3.05806 10.6976 3.41698 -0.00808061 -0.0037795 0.00247273
19 1 1.73031 15.6949 12.199 5.46539 -0.000586958 -0.0104336 -0.00459277
20 1 1.58337 3.13351 14.2706 6.95482 0.00735126 0.00015524 0.00145081
21 1 1.58552 4.92778 8.6845 4.61638 -0.00521493 -0.0191367 -0.00505059
22 1 1.48946 6.62867 10.2803 6.7335 -0.00931978 0.00790292 0.00242043
23 1 1.65116 4.97421 12.25 1.52556 -0.00652064 -0.00451814 -0.00997783
24 1 1.70751 6.71122 13.8966 3.46788 -0.00223913 6.86853e-05 0.00218248
25 1 1.59607 1.75522 8.38337 8.63119 -0.00595317 -0.00506813 0.00772532
26 1 1.65009 3.31623 10.3873 10.5264 -0.00313192 -0.00373388 0.0161368
27 1 1.38281 1.50595 11.9953 12.4504 -0.00822467 0.000372823 0.000982212
28 1 1.53772 3.44985 14.0563 13.6286 0.0150696 0.007633 0.00142205
29 1 1.86956 5.23455 8.59029 12.1246 0.0106402 -0.0100578 0.00856664
30 1 1.68832 6.83872 10.2412 14.1252 -4.46041e-05 -0.00274529 0.00186254
31 1 1.39971 4.78286 12.1615 8.48545 0.00829139 0.0158783 -0.000533645
32 1 1.43026 6.74336 13.9453 10.2808 0.00242463 -0.000984923 0.00169593
33 1 1.76593 8.43272 15.6041 1.64217 0.00266959 -0.000200273 0.00168299
34 1 1.58767 10.4659 3.34714 3.14418 -0.00860632 0.00206976 -0.00808636
35 1 1.59698 8.58689 5.09692 4.83776 0.0075154 0.00135348 -0.00504184
36 1 1.67239 10.4042 6.52749 6.75414 0.00804774 -0.00362956 0.0066208
37 1 1.77188 12.2563 1.52101 4.85625 -0.00604832 -0.00790451 -0.00357881
38 1 1.55737 13.7351 3.30239 6.7585 -0.00147496 -0.00221251 0.00107787
39 1 1.64916 12.0033 5.34017 15.5062 0.00102462 0.0017312 0.00449811
40 1 1.64461 13.9706 6.77575 2.98751 0.00231289 -0.00367138 -0.000528575
41 1 1.54113 8.65404 15.5913 8.49241 0.00577062 0.00386402 -0.00704129
42 1 1.78106 10.4297 3.21586 10.3546 0.0156752 -0.00945799 -0.00712219
43 1 1.77364 8.18615 4.69017 11.8744 0.00638725 0.00926108 -0.00341817
44 1 1.71879 9.93847 6.73068 13.5353 0.0134298 -0.00363847 0.00792616
45 1 1.54572 11.6673 15.6383 12.4788 -0.0028583 -5.97528e-05 0.00407443
46 1 1.36097 13.885 3.26649 14.0312 0.0106598 0.0135919 0.00906179
47 1 1.72278 12.1731 5.04213 8.65952 -0.0046604 -0.00500417 -0.00074176
48 1 1.80374 13.9012 6.82919 10.3873 -0.000806055 -0.0034901 0.00830984
49 1 1.60767 8.63567 8.45374 1.57593 0.0136619 -0.00210585 0.0011378
50 1 1.67053 10.6855 10.2929 3.13319 -0.00251957 0.00602309 -0.00597508
51 1 1.32993 8.78347 12.038 5.10962 -0.00309588 0.000802431 -0.00152884
52 1 1.59432 10.6915 14.0082 6.78161 -0.00477869 0.00166402 -0.0138158
53 1 1.60838 12.3189 8.4003 5.00143 -0.00400775 0.0134139 -0.00577248
54 1 1.74387 13.9995 10.2265 6.92374 -0.0099465 0.00732442 -0.00512181
55 1 1.7187 12.236 12.1395 1.54253 -0.00147011 0.00741031 -0.003961
56 1 1.76632 13.94 13.7062 3.34396 0.00332188 -0.00920545 -0.00154871
57 1 1.51779 8.60067 8.35909 8.35316 0.015182 0.000830503 0.00409837
58 1 1.63126 10.2958 10.2253 10.2119 0.0011349 0.00572405 -0.0138313
59 1 1.47364 8.58937 11.8641 12.2072 -0.00757356 0.00380722 0.00653923
60 1 1.5685 10.132 13.6996 14.2622 0.00521091 0.00890764 -0.00123995
61 1 1.68925 12.1206 8.59257 12.0862 0.00250318 -0.00628848 -0.00236181
62 1 1.67631 13.774 10.1887 14.0362 0.000500633 -0.00223587 -0.000760605
63 1 1.54278 12.2572 11.9663 8.65193 0.00290184 0.00793533 -0.00672463
64 1 1.6769 13.6066 14.0576 10.7488 -0.00423093 0.00482991 0.000604974
65 2 -0.767804 2.65664 1.70751 2.42708 0.00496559 -0.01561 0.00116643
66 2 -0.761307 2.46269 14.6346 14.6375 -0.00346965 -0.021823 -0.00556735
67 2 -0.672443 14.7068 2.26505 15.254 -0.00249271 -0.00982871 -0.00955411
68 2 -0.83881 14.9346 14.5273 2.54112 0.00357628 -0.000184644 0.00226771
69 2 -0.726237 2.37048 3.85687 4.26106 -0.00901518 0.00309258 -0.0212109
70 2 -0.792519 4.3626 2.33587 4.10447 0.00730296 0.00634304 -0.00170806
71 2 -0.825847 3.95477 4.19452 2.37509 0.000549375 -0.00333806 -0.00604464
72 2 -0.806537 2.13829 5.99785 5.78443 0.00147689 0.00215841 -0.00320582
73 2 -0.759866 14.6714 3.97965 5.69703 -0.00828598 0.000745381 -0.00043645
74 2 -0.815323 14.5224 5.58427 3.76659 0.00248452 -0.00194269 0.0135943
75 2 -0.812712 4.37543 5.95186 7.10625 -0.00197867 -0.00300098 0.00217998
76 2 -0.751234 4.28186 7.86963 5.84776 0.00370853 0.00682461 -0.0157717
77 2 -0.90569 2.55396 7.43374 7.82162 -0.0158724 0.00812836 0.00379039
78 2 -0.967387 6.08756 2.32585 6.11762 -0.011581 -0.00478939 -0.00779156
79 2 -0.888473 4.04585 15.1939 6.07483 -0.0179773 0.00336082 0.00799318
80 2 -0.951886 5.85569 14.5656 4.54367 -0.00473067 -0.0113245 0.00218131
81 2 -0.891584 6.08095 4.24747 7.5493 0.00418128 0.00420644 0.0221867
82 2 -0.917145 7.80525 3.94449 5.62309 -0.00163719 -0.00946402 -0.0151588
83 2 -0.832093 8.16168 2.48281 7.52295 -0.000261544 0.00307541 0.0119787
84 2 -0.714961 5.45569 6.24486 1.86143 0.00772199 -0.00609402 -0.0106382
85 2 -0.706887 4.0418 5.74737 14.6636 0.0154134 -0.00538673 -0.00239545
86 2 -0.807697 6.08003 3.86308 14.884 0.00276088 0.0024076 -0.00415377
87 2 -0.846467 5.83295 7.9282 3.70158 0.00402771 0.00276987 -0.0260032
88 2 -0.807089 7.3944 5.9341 4.0311 -0.0092188 -0.00762748 -0.000615809
89 2 -0.821565 7.78719 7.27994 2.26486 0.000293535 -0.00885877 0.0132717
90 2 -0.633114 1.88084 2.6219 9.71155 -0.00933891 0.0152269 -0.000329314
91 2 -0.804369 1.93802 15.1043 7.47211 -0.00652655 -0.0105864 0.00288949
92 2 -0.69172 14.144 2.30205 8.06133 0.00188925 -0.0142794 -0.0101823
93 2 -0.784465 14.6397 14.6585 9.87579 0.00643018 0.00993069 0.0119917
94 2 -0.773064 2.63791 4.52736 11.3591 0.00388402 -0.00733644 0.00389358
95 2 -0.645876 4.15917 2.87513 10.7428 -0.016373 0.00802918 0.0116412
96 2 -0.827216 4.36428 4.5678 9.28252 0.0284371 -0.00374957 -0.00327836
97 2 -0.73823 2.23575 6.48461 13.037 0.00199437 0.0046555 -0.013312
98 2 -0.675211 15.1618 4.26553 13.2861 -0.00687501 -0.000903979 -0.00560546
99 2 -0.938657 14.7408 5.90252 11.2902 -0.00316849 -0.000441006 -0.0032453
100 2 -0.79883 2.67359 7.76452 14.845 0.00471065 -0.0042186 0.00756325
101 2 -1.05168 4.21428 7.69766 12.7253 -0.000627774 0.00156872 0.0041236
102 2 -0.902427 5.75452 2.24466 12.7578 -0.00111751 0.0177547 -0.0087009
103 2 -0.900164 3.79299 15.1775 12.5824 0.0048437 0.00925693 -0.00467285
104 2 -0.868074 5.53897 14.8562 10.9683 -0.00847047 0.00321984 0.014489
105 2 -0.864273 7.59517 2.01868 14.7798 0.0056209 -0.00462743 0.00849596
106 2 -0.839567 7.48987 3.86742 12.9591 -0.0140375 -0.0144783 0.000653831
107 2 -0.885191 5.99536 6.4705 8.97568 0.00523852 0.00604634 -0.00468735
108 2 -0.980181 6.21372 7.79898 11.2977 -0.0164292 0.00608549 -0.00653396
109 2 -0.821725 7.40474 5.44233 10.8091 -0.0048783 -0.00638266 0.000743872
110 2 -0.819306 8.01386 7.60894 9.70377 -0.0180355 0.00529245 -0.00337059
111 2 -0.951667 2.09603 9.90435 2.55901 0.0004711 0.00812739 0.0101584
112 2 -0.841723 15.0645 7.77875 2.39197 -0.0145749 0.000411418 -0.00805836
113 2 -0.826302 15.0546 9.43594 14.5721 0.0102495 0.00159631 0.00722682
114 2 -0.94454 2.21438 11.4198 4.41146 -0.0140481 -0.00786083 0.0132063
115 2 -0.941428 4.12916 9.91415 4.12123 -0.0129794 -0.00969597 0.00974514
116 2 -0.875016 3.78556 11.6036 2.39632 -0.0177115 0.0142131 0.00146747
117 2 -0.842189 2.57368 13.0183 6.14569 -0.00794782 0.0026511 -0.0113958
118 2 -0.865326 14.5085 11.4153 6.09757 0.00281024 0.0117143 -0.0067194
119 2 -0.751073 14.6849 13.1006 4.54868 -0.0192015 0.00995297 0.00605334
120 2 -0.742936 3.75591 13.3569 8.12568 0.00521023 0.0113036 -0.0111792
121 2 -0.705964 5.80231 9.41712 5.84748 -0.00154753 -0.0133988 0.00630931
122 2 -0.778207 5.78185 11.5158 7.41064 0.0114061 -0.00540009 0.00706802
123 2 -0.660229 7.75186 10.9279 5.81565 -0.00525885 -0.00215563 0.00758888
124 2 -0.765034 7.58577 9.30289 7.68595 -0.0138048 0.0102092 -0.00132898
125 2 -0.836096 5.91893 13.0429 2.31317 0.000740883 0.00336068 0.000471006
126 2 -0.759732 4.33864 13.3194 14.8451 -0.00936164 0.000612098 0.0154692
127 2 -0.788934 6.05643 11.1412 15.1468 0.00255479 0.00153738 0.00138181
128 2 -0.903427 7.44656 14.9818 2.77698 -7.22539e-07 -8.64104e-05 0.0062322
129 2 -0.772198 7.58773 12.8358 4.25841 -0.0144461 0.00216426 0.00140377
130 2 -0.741674 2.7021 9.46987 9.35183 0.0241764 0.0155096 0.00837397
131 2 -0.847424 14.9667 7.78936 9.6349 0.00578681 -0.0179746 0.00281609
132 2 -0.787717 15.1504 9.47107 7.57631 0.00231039 -0.0115766 0.0102736
133 2 -0.772772 2.23854 11.1501 11.23 -0.00231969 -0.00270302 0.00255473
134 2 -0.895151 4.59642 9.67463 11.1859 0.00205159 0.00569406 -0.00620191
135 2 -0.780326 3.82355 11.3237 9.53392 0.00749524 0.00178843 -0.00378092
136 2 -0.81399 2.38706 12.9945 13.0808 0.00249824 -0.00299203 -0.00210153
137 2 -0.696114 14.5524 10.7955 12.9078 0.0191491 -0.000874436 -0.00475103
138 2 -0.683063 14.3662 13.3175 11.7868 -0.00537137 -0.000725327 0.000690544
139 2 -0.968718 5.97684 9.40469 13.1663 -0.0127376 -0.00651428 -0.00963125
140 2 -0.815055 7.47869 9.29671 15.185 -0.00333543 0.00484562 -0.011965
141 2 -0.843818 7.87306 11.1234 13.3307 -0.0272947 0.0111757 0.0130615
142 2 -0.781808 5.99603 12.9124 9.32999 0.0219312 0.011682 0.00387604
143 2 -0.767282 7.59819 15.0001 9.51343 -0.00282011 -0.00799547 0.000142928
144 2 -0.698333 7.41825 12.9439 11.3893 -0.012641 0.0074281 0.000485167
145 2 -0.897455 9.43629 2.44537 2.32897 -0.00661191 0.00545895 0.00694723
146 2 -0.919378 9.12253 14.5345 15.1813 0.0100564 0.00294763 0.0142832
147 2 -0.836795 9.579 4.41522 3.89426 -0.00275232 0.00457334 0.00265696
148 2 -0.936937 11.224 2.45573 4.1549 0.0168119 -0.00813885 0.0110425
149 2 -0.860505 11.2011 4.43635 2.25744 0.000184664 -0.00673322 -0.0136476
150 2 -0.917177 9.52205 5.61915 5.9877 0.00347223 0.0261817 -0.00574383
151 2 -0.851585 11.2058 6.04131 8.06602 0.00106983 0.00235937 0.00712968
152 2 -0.758287 11.3415 7.54641 5.99508 -0.00626635 0.0116807 -0.00239911
153 2 -0.782263 9.61207 7.67878 7.40764 -0.00115785 0.00826124 -0.00674135
154 2 -0.888067 12.8424 2.39603 5.89818 -0.0035266 -0.00497235 0.00910087
155 2 -0.932299 11.4538 14.6685 5.72298 0.00882522 0.00463955 0.00359982
156 2 -0.867251 13.2895 14.8468 4.12322 0.00369399 -0.0189931 0.00260678
157 2 -0.787883 13.1095 4.56908 7.4158 0.00218656 -0.00442054 0.00495395
158 2 -0.867891 13.0023 6.29676 1.89802 0.0126648 -0.00135424 -6.50035e-05
159 2 -0.846722 10.8002 6.10417 14.5065 -0.0037004 -0.00667865 0.00542214
160 2 -0.735353 12.8393 4.33065 14.738 0.0089742 -0.0104923 -4.21522e-05
161 2 -0.793987 12.9711 7.32663 4.12784 0.00881279 -0.0172731 -0.000422016
162 2 -0.78357 9.6716 2.10432 9.68566 -0.0102851 -2.20098e-06 0.00539456
163 2 -0.800623 9.63711 14.5505 7.76056 -0.00976701 -0.00163589 -0.00780319
164 2 -0.853005 9.28149 3.89948 11.2599 0.0213121 -0.0102043 -0.00474099
165 2 -0.807192 11.138 2.49818 11.4649 -0.0186136 0.00542978 0.0117855
166 2 -0.955951 11.4389 3.98612 9.52787 0.0138698 -7.44098e-06 0.0104625
167 2 -0.820125 9.12079 5.80372 12.5595 0.0120082 0.00398676 -0.0110354
168 2 -0.830073 9.2314 7.76897 14.4748 -0.0126714 0.0103401 -0.00654034
169 2 -0.756498 11.0003 7.45209 12.6428 -0.00186768 -0.00164447 0.00525555
170 2 -0.663149 12.6932 2.49081 13.5042 -0.00875794 0.0111737 -0.00814239
171 2 -0.801709 10.6494 14.8906 13.4122 -0.0124555 0.00272131 -0.00491947
172 2 -0.906336 12.7135 14.9779 11.5734 0.00018057 0.00706431 -0.00290007
173 2 -0.893069 13.1827 5.84367 9.42503 0.00505314 -0.0202184 0.0118241
174 2 -0.911356 13.0744 7.75762 11.2191 -0.0150971 0.011303 0.00229034
175 2 -0.819387 9.73501 9.22359 2.366 -0.00245835 -0.00629542 -0.00541427
176 2 -0.755933 9.89677 11.0866 4.18739 0.0149051 -0.0107622 -0.00317201
177 2 -0.76896 11.6572 9.321 3.91091 0.0150157 0.000921323 -0.00118642
178 2 -0.906592 11.6688 10.8999 2.20623 -0.00669621 0.00240518 -0.00413288
179 2 -0.697527 9.72356 12.8878 6.07609 0.00871835 0.0226386 0.00988722
180 2 -0.725714 11.3638 12.8064 7.64726 0.0102491 0.000688279 -0.00529499
181 2 -0.823552 13.3317 9.24748 5.86319 0.00615946 -0.00381869 0.00202432
182 2 -0.855348 13.1546 10.8482 7.9945 0.00695399 0.00202529 -0.00626027
183 2 -0.893188 12.8994 12.7286 2.83898 0.00217212 0.00110641 -0.0035814
184 2 -0.935657 11.3578 13.1216 15.0619 -0.0153872 -0.00173774 -0.0108979
185 2 -0.846157 13.3777 11.4227 14.9153 0.00304557 -0.015378 -0.00211508
186 2 -0.744473 9.60688 9.5298 9.01849 -0.0037492 0.000139668 0.0135215
187 2 -0.837392 9.2885 10.8756 11.206 -0.00598426 -0.0077136 0.0059954
188 2 -0.830423 11.3146 9.41764 11.1207 0.0106909 0.00414851 -0.00432481
189 2 -0.766112 11.175 11.2918 9.47281 0.0152261 0.00239621 -0.00380891
190 2 -0.732867 9.71511 12.6514 13.0444 0.0103038 -0.0100435 -0.0134794
191 2 -0.876603 12.6802 9.49082 13.2806 0.00500517 0.0105819 -0.00449091
192 2 -0.728536 12.9266 12.8894 9.9945 -0.00131012 -0.0051006 -0.0175417
193 2 -0.651486 8.78162 15.5795 4.98693 0.00424768 -0.0138151 -0.00343792
194 2 -0.548954 15.1438 1.8412 12.7461 -0.00266412 -0.0122568 0.0132424
195 2 -0.617532 1.90723 4.70035 8.22781 0.0149666 -0.0143754 0.00154316
196 2 -0.533011 8.81601 4.42319 14.7639 0.0107824 -0.0146473 -0.00426263
197 2 -0.599058 3.15302 10.6642 13.3825 0.00537493 0.00775673 0.0120219
198 2 -0.580123 7.44485 14.4885 6.91983 -0.0104624 0.020004 -0.0065208
199 2 -0.601718 5.11726 12.9432 12.5974 0.0183265 -0.0182743 0.00498644
200 2 -0.610196 8.42039 12.3793 8.74766 -0.0166998 0.00662066 -0.00751147
201 3 0.37254 9.44602 15.2952 4.278 -0.027923 0.067353 -0.032399
202 3 0.416521 9.04166 2.31666 5.30352 -0.0453397 -0.0276402 0.0328235
203 3 0.368505 1.56721 15.1113 12.5283 -0.0426489 0.00199455 0.0504919
204 3 0.370957 14.651 1.52596 11.9236 0.0540446 0.000270955 0.00487624
205 3 0.372029 2.34481 5.44772 8.48774 0.00219199 0.0550982 0.0275806
206 3 0.324461 2.78069 4.31331 7.80596 -0.00435426 -0.000474612 -0.0479185
207 3 0.402355 9.48709 4.13851 15.3863 0.0391886 -0.054639 -0.0203616
208 3 0.364733 8.6258 5.25967 15.3074 0.0188632 0.0293033 0.00428494
209 3 0.370497 2.86573 10.2981 14.2531 0.028551 0.0430524 -0.0405644
210 3 0.33107 3.796 9.8929 13.1296 -0.0330326 0.019791 0.00770746
211 3 0.386524 6.49806 14.0631 6.58379 -0.0460306 -0.0316154 0.00831175
212 3 0.439326 8.08967 14.5807 6.11017 0.00883196 -0.0003286 -0.0129462
213 3 0.400564 4.90171 13.0248 11.6322 0.0399055 0.0304125 -0.032336
214 3 0.348454 5.51602 13.9147 12.8444 -0.0097242 -0.0289681 0.00619987
215 3 0.460407 7.61461 12.4363 8.67153 -0.0201844 -0.00585661 -0.026107
216 3 0.40706 8.56633 11.5281 9.12638 0.0239732 0.0220882 0.0439299
ITEM: TIMESTEP
4000
ITEM: NUMBER OF ATOMS
216
ITEM: BOX BOUNDS pp pp pp
1.3729661157817379e+00 1.5787033884218225e+01
1.3729661157817379e+00 1.5787033884218225e+01
1.3729661157817379e+00 1.5787033884218225e+01
ITEM: ATOMS id type q x y z vx vy vz
1 1 1.63336 15.8313 1.39153 1.41102 0.0127422 0.000795131 0.00651941
2 1 1.35431 3.15697 2.98649 3.41484 0.00349866 -0.00576551 -0.00159609
3 1 1.42533 15.7188 5.09678 4.75094 -0.00310999 0.0013617 0.0204493
4 1 1.55821 3.23314 7.23918 6.32617 -0.00736022 -0.00727906 -0.00415135
5 1 1.26515 5.08804 15.3166 5.01439 0.000944842 -0.00497187 0.0105064
6 1 1.46872 6.83191 3.21498 6.56058 -0.00561559 -0.00192907 0.00559382
7 1 1.24428 4.63429 4.76294 1.58723 -0.00461732 -0.0127405 0.0014978
8 1 1.41064 6.34335 6.92566 2.93035 -0.00701129 0.00125833 0.00583282
9 1 1.6584 1.50871 15.5004 8.70635 -0.00435807 0.00128462 -0.00801492
10 1 1.53855 3.28489 3.10996 10.136 -0.00288839 -0.0102125 0.00757481
11 1 1.51342 15.5167 4.59068 12.1756 0.00140114 0.00939238 -0.00884424
12 1 1.20985 2.97898 6.51964 13.6793 0.00296661 -0.00784321 0.00207031
13 1 1.51826 4.95825 1.44113 12.1767 -0.00235901 0.0129779 0.0028023
14 1 1.50784 6.47693 3.25821 14.1053 -0.0048549 -0.0091394 0.000276223
15 1 1.45697 4.81518 4.98876 8.11896 -0.00120928 0.00541179 -0.020016
16 1 1.42416 6.63973 6.84659 9.96421 -0.0171427 -0.00142012 0.0164276
17 1 1.31795 1.6261 8.30863 15.7524 0.00163644 -0.00969651 0.00168998
18 1 1.40857 3.21645 10.5394 3.20651 0.0040118 0.00947319 -0.0033094
19 1 1.27225 15.5012 12.284 4.57332 -0.0104625 0.00671424 0.00297084
20 1 1.21404 3.08896 13.6016 6.76789 0.00165249 -0.00589516 -0.00708485
21 1 1.60745 5.27771 8.99992 4.99057 -0.00844876 -0.006626 0.0117994
22 1 1.65525 6.91634 10.6582 6.8979 -0.00291118 -0.000335562 -0.00270283
23 1 1.57323 5.10926 12.2595 1.46057 -0.0109405 0.0117126 0.010125
24 1 1.39217 7.06875 13.9746 3.04573 0.00790379 -0.00548895 -0.00924932
25 1 1.17598 15.4939 8.35638 8.56242 0.00827626 0.00286926 0.00235511
26 1 1.35955 2.89785 10.3935 10.1745 0.00340169 -0.00514893 0.00267465
27 1 1.32605 15.7219 12.1095 12.1576 -0.00112704 0.0255372 -0.00315854
28 1 1.47524 3.43754 13.9435 14.1182 -0.0111398 -0.0102783 0.00784085
29 1 1.20451 5.08298 8.53588 12.2018 0.00581963 0.00550989 -0.0081695
30 1 1.27563 7.06614 10.3672 13.9435 -0.00249552 -0.00349541 -0.00137611
31 1 1.39296 4.93196 12.2194 8.74657 0.00199053 -0.00924054 -0.00559924
32 1 1.52396 6.81937 14.1243 10.4247 -0.0131434 0.0136741 0.00595253
33 1 1.38791 8.71568 1.79043 1.39683 0.00983519 -0.00163375 -0.00529328
34 1 1.2828 10.4296 3.62918 3.53923 -0.00765776 -0.00751695 0.0014601
35 1 1.39311 8.42006 5.29846 4.8328 -0.000172777 -0.00565988 -0.00918936
36 1 1.45303 10.2216 6.57544 6.87482 0.00834344 -0.00235829 0.00359514
37 1 1.5937 12.3893 1.50349 5.31715 -0.00423051 0.00223232 0.0130358
38 1 1.28129 14.2222 3.48542 7.0656 0.00606059 0.00607946 0.00275486
39 1 1.5981 11.953 5.12022 15.7776 0.00968715 0.0113326 0.018585
40 1 1.42926 13.8493 6.7871 3.05079 -0.0124562 -0.00940549 0.0062027
41 1 1.53109 8.65321 1.37949 8.58794 0.0084156 0.00486197 -0.0112769
42 1 1.55959 10.1548 3.11624 10.6658 0.00338743 -0.0029295 -0.00674924
43 1 1.27538 8.26405 5.1144 12.1848 0.0121194 0.0139023 -0.00144001
44 1 1.27737 10.2055 7.15362 14.0214 -0.000156587 -0.0129545 -0.00415074
45 1 1.59686 12.3359 1.57727 12.4993 0.00436474 -0.00757484 -0.00235088
46 1 1.75829 14.0064 3.26697 14.3364 0.00296334 0.0121091 -0.00565195
47 1 1.61198 11.8098 4.80169 8.67067 -0.00439764 0.00777432 0.00233771
48 1 1.36311 13.6276 6.45698 10.5677 0.00236157 0.00663929 0.00381683
49 1 1.27358 8.51347 8.78516 1.74497 -0.0064726 -0.00162318 0.00133459
50 1 1.18475 10.4586 10.405 3.48654 0.0100751 0.00123911 0.00514107
51 1 1.43047 8.9689 12.3132 5.34909 0.012717 -0.0112799 0.0133639
52 1 1.59847 10.7474 14.2502 7.12985 0.0205826 -0.00462759 0.00227958
53 1 1.27259 12.0963 8.48454 5.0368 -0.0034063 0.0133492 -0.0027375
54 1 1.39249 13.8722 10.2428 6.75712 0.00672654 0.00368951 0.00412041
55 1 1.47067 12.0629 12.3398 1.445 -0.00111077 -0.00485493 -0.00583065
56 1 1.72737 13.6069 14.2736 3.10824 -0.0148547 -0.00625424 -0.00788849
57 1 1.51071 8.54524 8.59197 8.56067 -0.000483588 -0.00241719 0.0115196
58 1 1.41397 10.5853 10.3811 10.0468 0.00113213 0.0130486 0.00362589
59 1 1.42255 8.90128 12.1669 12.1076 0.0018329 0.00418598 -0.0167701
60 1 1.2881 10.535 14.1031 14.127 0.00326261 0.00896971 -0.00527932
61 1 1.29652 12.0269 8.55053 12.0881 0.00489083 0.00470667 -0.00721071
62 1 1.21246 14.0927 10.2345 13.7487 0.00941361 -0.000824178 0.00203335
63 1 1.51904 12.5939 12.3986 8.55892 -0.0090977 0.00911497 -0.0116386
64 1 1.36806 13.9496 14.1272 10.5773 0.0141455 -0.0114835 -0.0147016
65 2 -0.787502 2.18998 2.21538 2.4556 -0.00745216 0.0127334 -0.0128157
66 2 -0.77273 2.17242 14.7215 15.0034 0.0130666 0.000743545 0.00417684
67 2 -0.892635 15.1094 2.35745 14.9135 -0.000373783 0.00823664 0.0120417
68 2 -0.773742 14.5596 15.2243 2.30651 -0.0132811 -0.000806743 0.00455584
69 2 -0.73476 2.15745 3.89256 4.18811 0.00437477 0.00319895 -0.00375976
70 2 -0.571387 3.73346 1.64036 4.15946 0.0170592 0.00298752 0.00597157
71 2 -0.634125 4.62859 3.72457 2.95513 0.00675068 0.00792076 -0.0131435
72 2 -0.785372 2.31201 6.29155 5.38477 -0.00227447 -0.0175273 -0.00449166
73 2 -0.742539 14.8149 4.23373 5.76257 0.0325893 0.00059316 0.0179183
74 2 -0.744661 14.8498 5.6862 3.60721 -0.0044581 0.00315463 0.00999576
75 2 -0.716779 3.96365 6.04615 7.06441 -0.00475959 0.0101171 -0.0174767
76 2 -0.837259 4.17697 8.15331 5.64237 0.00470514 0.00154757 -0.0100206
77 2 -0.619577 2.60078 7.74416 7.65612 -0.00933469 -0.00027558 -0.00606431
78 2 -0.623671 5.65744 2.4257 5.99405 0.00197999 -0.0123137 -0.00251111
79 2 -0.684567 4.38758 14.5222 6.20627 -0.000119297 0.0042592 -0.00508542
80 2 -0.777778 6.09714 14.6958 4.06114 -0.0131276 0.0159754 0.00704423
81 2 -0.684432 5.96821 4.3024 7.41703 -0.00275492 0.00236689 0.00106771
82 2 -0.684501 7.3455 4.30393 5.53499 0.0147453 -0.00199972 -0.0091742
83 2 -0.713644 7.57152 2.43928 7.77979 -0.00923599 0.0186594 -0.0100635
84 2 -0.715186 5.34348 6.28581 2.04156 -0.00314318 -0.0153564 0.00527688
85 2 -0.598323 3.48202 5.41937 15.0936 -0.00927141 0.0178491 0.00313905
86 2 -0.733344 5.27649 3.97297 14.8534 -0.034676 0.00856207 0.00384907
87 2 -0.714377 6.08272 7.77354 4.34231 0.014705 0.00990051 -0.00202339
88 2 -0.633932 7.3829 6.00269 3.70806 0.00536213 -0.00907791 0.0172424
89 2 -0.631332 7.06878 7.97999 1.93048 -0.00326199 -0.0129316 6.38832e-05
90 2 -0.839379 2.67007 1.92225 9.17572 0.0241244 0.0113038 0.00190443
91 2 -0.710612 1.83593 14.527 7.63166 0.00746164 0.00412048 0.00859268
92 2 -0.577059 14.9592 2.12805 8.09193 0.0126668 -0.0023929 -0.0115381
93 2 -0.757578 14.8165 15.1482 9.63841 -0.000650296 -0.0181047 0.00281207
94 2 -0.689211 2.17573 3.79356 11.3504 -0.00861668 0.00801007 0.00661368
95 2 -0.846814 4.06645 2.40058 11.1076 0.00674954 0.00422401 -0.00151094
96 2 -0.767604 4.16903 3.88008 9.13817 0.00504182 -0.00712013 -0.00402285
97 2 -0.648193 2.25338 5.67796 12.5535 0.000868044 0.0108172 0.0168387
98 2 -0.877283 14.5941 4.20709 13.322 0.0115783 0.0235569 -0.00300771
99 2 -0.655885 14.8657 5.4208 10.9997 0.00146254 -0.00929396 0.0315363
100 2 -0.691395 2.02106 7.65543 14.1242 -0.0145108 0.0236798 -0.01193
101 2 -0.555051 4.28339 7.17099 12.8363 0.00153842 0.00855705 -0.0146692
102 2 -0.761281 5.74517 2.14808 13.4247 -0.00807345 0.00589862 -0.00283147
103 2 -0.777749 4.22205 14.7996 12.9343 -0.00942232 -0.00700171 0.0146094
104 2 -0.755277 5.98172 14.8763 11.5006 -0.0152014 0.00797538 -0.00313867
105 2 -0.753788 7.70981 2.50442 14.9917 0.00583869 -0.0113177 -0.0153339
106 2 -0.70511 7.22007 4.3207 13.1443 -0.0238544 0.00366164 0.000285839
107 2 -0.679064 5.73002 5.96862 8.95416 -0.0331596 0.0136093 0.00033397
108 2 -0.685098 5.97454 7.64093 11.0832 -0.0218979 -0.0179578 -0.00362074
109 2 -0.666542 7.68826 5.88536 10.8918 -0.00146439 0.00159461 0.01591
110 2 -0.725302 7.15185 7.97492 8.94178 -0.000636469 0.00905413 0.0156322
111 2 -0.685483 2.67877 9.34007 1.77873 0.0206101 -0.002954 -0.0143556
112 2 -0.722238 15.3404 7.6657 2.44738 0.0115855 -0.024332 -0.0112421
113 2 -0.588072 14.9873 9.28771 15.0921 -0.0142707 -0.0018291 0.00330685
114 2 -0.741605 2.35067 11.3236 4.14156 0.00871788 -0.00282378 0.00496116
115 2 -0.721074 4.30633 10.056 4.20899 0.00723014 -0.00740866 0.00417964
116 2 -0.771335 4.21386 11.1562 2.22804 -0.00494938 0.0125016 -0.00325576
117 2 -0.560329 2.09189 13.2619 5.56248 -0.00584654 0.00762291 -0.00974152
118 2 -0.618391 14.831 11.1329 5.85715 0.00474709 -0.013181 -0.0186485
119 2 -0.814923 14.5697 13.2299 3.74584 -0.00563382 -0.0097489 -0.000674939
120 2 -0.596637 3.72497 12.334 7.6685 -0.0110634 0.0107577 -0.0174595
121 2 -0.78675 6.00967 9.73941 6.07049 0.00910781 0.0137941 0.0063528
122 2 -0.777809 5.65034 11.2635 7.82418 -0.0156311 -0.00484759 -0.00452739
123 2 -0.819567 7.62703 11.4947 5.86555 -0.0101015 -0.00611335 -0.00668969
124 2 -0.770699 7.84829 9.58075 7.35555 -0.00207818 -0.0222054 -0.0107322
125 2 -0.747279 6.14804 12.9191 2.48144 0.000472613 -0.00905524 -0.00383458
126 2 -0.883339 4.38279 13.3025 15.1678 0.001052 -0.00822622 -0.00364251
127 2 -0.643752 6.25905 11.4541 14.9989 -0.00611459 -0.00378394 0.0153166
128 2 -0.673821 7.76461 15.2931 2.30286 -0.00893873 -0.0129643 -0.00943507
129 2 -0.617772 8.28723 13.0202 4.00095 -0.00190556 0.00610431 0.00225725
130 2 -0.664192 1.97284 9.47842 9.17317 -0.00192985 -0.0079315 0.00610299
131 2 -0.651925 14.4798 7.21193 9.45937 0.0115866 -0.00922919 -0.013539
132 2 -0.633753 14.7405 8.84845 7.17132 -0.00722604 0.00724244 0.0142836
133 2 -0.692826 2.16057 11.014 11.4789 -0.0141541 -0.0161565 0.00450437
134 2 -0.485829 3.79736 9.22433 11.1232 0.00346802 0.0173622 0.00293912
135 2 -0.740025 3.90048 11.4712 9.59219 0.0174338 -0.00790039 -0.00458495
136 2 -0.682831 2.69025 12.9225 13.3227 0.00551093 0.00816911 0.0100055
137 2 -0.78362 14.8361 11.4196 13.2384 -0.00265164 0.0198844 -0.00431323
138 2 -0.721155 15.5056 13.2094 11.1445 -0.0144494 -0.00279109 -0.0165781
139 2 -0.559634 5.83167 9.13739 13.55 0.0135179 -0.00183865 -0.000426797
140 2 -0.606626 7.94922 9.30705 14.6409 -0.0032899 -0.00947452 -0.0155736
141 2 -0.715341 7.8904 11.2261 12.8189 -0.00461275 0.00355965 -0.00750813
142 2 -0.816405 5.62812 13.3458 9.73124 0.0106868 0.000659499 0.00889187
143 2 -0.857306 7.76703 14.921 9.57967 -0.00168524 0.00145657 -0.0011914
144 2 -0.709042 7.65465 12.9913 11.2961 0.00469779 -0.00787822 0.000998755
145 2 -0.716263 9.74114 2.45844 2.48729 0.0103864 0.00299033 0.00320323
146 2 -0.624879 9.54385 14.6951 15.2872 0.00813373 -0.00496998 0.00571325
147 2 -0.738416 9.07061 4.26512 3.91407 0.00319529 -0.0043633 0.00490877
148 2 -0.700573 11.6181 2.72124 4.74995 -0.000269717 0.00662652 -0.0144305
149 2 -0.841791 11.172 4.52634 2.54173 0.0173972 -0.00891584 -0.00378669
150 2 -0.757391 9.48851 6.31312 5.57994 -0.0067186 0.0201572 -0.0200573
151 2 -0.826806 10.6034 5.60997 7.9866 -0.00936797 -0.00286059 -0.00762803
152 2 -0.643886 11.2443 7.45449 5.92676 0.00320975 0.00530387 0.00778985
153 2 -0.753945 9.37695 7.55212 7.99022 0.00540833 0.00632278 -0.00179365
154 2 -0.617099 13.3026 2.12063 6.49109 0.016575 -0.0207679 0.00910883
155 2 -0.835642 11.3173 15.0265 5.95427 -0.00949144 0.00627224 -0.0135274
156 2 -0.916363 12.8972 14.9643 4.20674 -5.24076e-05 0.00405332 -0.00315443
157 2 -0.723094 12.8914 4.08816 7.80894 0.00187734 -0.0125478 0.0159223
158 2 -0.808902 12.8233 6.16098 2.17056 0.0089202 -0.00287971 -0.0151739
159 2 -0.696025 11.3155 5.96917 14.603 0.00796017 -0.00537278 0.0080027
160 2 -0.865473 12.8477 4.17247 14.947 -0.00299585 0.00557608 0.0090087
161 2 -0.727178 13.1315 7.47648 4.29339 7.71594e-05 -0.00564047 -0.00539854
162 2 -0.75175 9.52632 2.45798 9.4481 -0.00228406 0.00614499 -0.0117405
163 2 -0.926972 9.74876 14.9602 7.9962 -0.00013964 -0.00186696 -0.0260668
164 2 -0.785935 9.22266 3.91187 11.6047 -0.00154344 -0.00202908 0.00588395
165 2 -0.710164 11.363 2.53055 11.6394 0.00751738 0.00357765 0.00442394
166 2 -0.731919 11.0983 3.85069 9.64384 0.012503 -0.00379471 0.005378
167 2 -0.604492 8.89649 6.38142 13.3311 0.00223092 0.0102592 -0.0155838
168 2 -0.59213 9.53843 7.65379 15.479 -0.0151864 -0.0218734 -0.00151854
169 2 -0.722897 11.0443 8.25494 13.262 -0.01099 0.0157779 0.000129114
170 2 -0.87644 13.369 2.2994 13.3547 0.00586169 0.00807384 0.00503743
171 2 -0.772159 11.1686 15.0971 13.1174 -0.000145795 -0.0113055 -0.00583958
172 2 -0.767285 13.0126 15.1047 11.4134 0.00741854 0.00154539 0.00584564
173 2 -0.727119 12.7939 5.3969 9.61569 -0.0136202 0.00421468 -0.0024368
174 2 -0.666689 12.4595 6.9665 11.4833 0.00101255 -0.00814403 0.00659345
175 2 -0.588036 8.97365 10.0461 2.50911 -0.0004234 0.00377461 -0.00110203
176 2 -0.731716 10.0917 11.4753 4.61992 0.00889872 0.0123198 0.0124693
177 2 -0.646671 10.7167 9.01269 3.8559 0.00251955 0.00493434 0.00463835
178 2 -0.692709 11.2094 11.2979 1.92997 0.010189 0.00679038 -0.00142386
179 2 -0.785324 9.63482 13.3995 6.13292 0.00501886 -0.0020944 -0.013519
180 2 -0.866407 12.0045 13.4205 7.55765 -0.00761979 -0.00635255 -0.00840841
181 2 -0.785927 12.6739 9.55808 6.04707 -0.0043609 -0.00742852 0.00489385
182 2 -0.683313 13.6442 11.1127 8.00057 0.018893 0.00698093 -0.00563349
183 2 -0.895019 12.9101 13.5045 1.9565 -0.00536121 -0.0290401 0.00630409
184 2 -0.682276 11.5533 12.8338 14.4428 -0.00582205 -0.010292 0.00617215
185 2 -0.494742 13.1026 11.2415 15.1191 -0.020227 -0.00756594 -0.0197557
186 2 -0.819582 9.50623 9.38393 9.51856 0.0045464 0.00230802 0.012105
187 2 -0.804351 9.64585 11.437 10.9535 -0.00495254 0.0110591 0.0148389
188 2 -0.736201 11.3885 9.34578 10.8304 -0.00763057 -0.00364744 -0.0063914
189 2 -0.77491 11.7062 11.3099 9.20101 0.00321276 -0.0140809 0.00787765
190 2 -0.629388 9.36218 13.2413 13.183 -0.00887429 0.00124851 0.0065789
191 2 -0.672304 13.4647 9.16621 12.7138 0.00596587 -0.0112979 0.000785406
192 2 -0.804838 13.302 13.0101 9.74396 -0.00473083 0.0152756 0.00796691
193 2 -0.648954 8.30348 1.90095 5.10686 -0.00725261 -0.00305823 -0.00500991
194 2 -0.539649 1.43177 15.7763 12.2982 0.00356197 0.00604955 -0.00716199
195 2 -0.626775 15.7472 5.016 7.794 -0.0122593 0.00404266 0.0277075
196 2 -0.664403 10.0888 3.20195 14.348 0.00366082 -0.0237271 -0.0027604
197 2 -0.569886 3.41472 9.6929 13.3452 0.00181531 0.0143249 0.0136074
198 2 -0.563708 6.77936 13.7641 6.88135 -0.00234856 -0.0134716 0.00969971
199 2 -0.650994 5.50079 11.0183 11.5988 0.000951779 -0.00350897 -0.00357621
200 2 -0.66413 8.21589 11.9956 8.23418 0.000366607 -0.012185 -0.00250503
201 3 0.356628 8.93984 1.41227 5.64965 -0.0304854 -0.0224888 0.0314716
202 3 0.413476 8.74292 1.66273 4.29842 0.00979277 -0.0311482 0.0371446
203 3 0.390279 2.14581 1.4789 11.6915 -0.0765378 0.0455703 0.00522086
204 3 0.352581 1.44803 14.7092 12.4527 -0.0660717 -0.00744578 0.0673107
205 3 0.395903 2.07155 5.29148 7.36181 0.0349586 0.0447844 0.000950881
206 3 0.337737 15.1862 5.71369 7.29777 0.0493572 0.0327852 -0.00853725
207 3 0.431563 10.0285 3.85022 13.681 0.0399612 -0.0379119 -0.0528833
208 3 0.381573 10.2146 3.43541 15.2376 -0.0544601 0.0287005 -0.00745001
209 3 0.413856 3.20679 8.98724 13.9435 -0.0085681 0.013777 -0.042207
210 3 0.409801 3.09186 10.4544 13.9045 0.00196782 -0.0270953 0.0477542
211 3 0.356213 7.06249 14.1022 5.95552 0.0255856 -0.0302556 -0.0300005
212 3 0.367476 6.06113 13.0557 6.74265 0.03157 0.00174353 0.0269651
213 3 0.437971 5.22232 11.8622 11.3316 0.00378291 -0.00751339 0.00461358
214 3 0.383008 6.25622 10.9011 11.0927 0.0039319 -0.063147 0.0965179
215 3 0.345078 9.01012 11.5704 8.32669 0.0794566 0.0494437 0.0143395
216 3 0.336649 8.1492 12.3057 9.28253 0.0142727 -0.0595376 0.0401901
ITEM: TIMESTEP
6000
ITEM: NUMBER OF ATOMS
216
ITEM: BOX BOUNDS pp pp pp
1.3570658220045146e+00 1.5802934177995409e+01
1.3570658220045146e+00 1.5802934177995409e+01
1.3570658220045146e+00 1.5802934177995409e+01
ITEM: ATOMS id type q x y z vx vy vz
1 1 1.46123 1.37962 1.37711 1.58287 -0.00651478 -0.00778307 0.000759397
2 1 1.39781 3.44806 2.93995 3.45757 0.00603158 0.00811828 0.00520355
3 1 1.35196 15.6138 4.77317 5.16107 -0.0113186 0.00727978 -0.00593105
4 1 1.36702 2.64246 6.98339 6.64746 -0.00124281 -0.00559285 -0.00480224
5 1 1.46697 5.298 1.38784 5.12048 -0.00574213 -0.00428908 0.0105634
6 1 1.49329 6.7666 3.31674 6.84996 -0.00117246 -0.0164121 0.0111628
7 1 1.40894 5.04664 4.71987 1.52964 0.00235604 0.0220573 -0.00831895
8 1 1.3468 6.67606 6.87783 3.23949 0.000704595 -0.00539953 0.00993767
9 1 1.35081 15.7626 15.3766 8.83024 0.00177723 0.0048243 9.82492e-05
10 1 1.52952 2.97277 3.04935 10.136 0.000805793 0.00895769 -0.00860832
11 1 1.52778 1.55377 4.79438 12.1243 0.00185866 -0.00483976 -0.0222035
12 1 1.39373 3.20928 6.46064 14.1147 -3.35353e-05 -0.0178104 0.00325247
13 1 1.6779 4.92279 1.3818 12.1148 0.0034011 0.00425518 -0.00403385
14 1 1.37421 6.70702 3.24898 13.6628 0.00674662 0.00553742 0.0134672
15 1 1.516 4.27623 5.05916 8.2478 0.00980531 0.00774024 -0.00550051
16 1 1.60761 6.18714 6.68362 10.1372 -0.00139728 -0.00398745 -0.00326757
17 1 1.17634 1.31349 8.36669 1.64786 -0.00277099 0.00781942 0.000859111
18 1 1.50962 3.57155 10.0823 3.00324 0.00553365 0.00922837 -0.00972043
19 1 1.42403 1.51334 11.836 4.65555 0.00399548 -0.00324483 -0.00191222
20 1 1.36239 2.99711 13.7471 6.47691 -0.000413875 -0.010949 -0.000200299
21 1 1.57693 4.83891 8.49293 4.97861 -0.00309728 0.00386259 -0.00514724
22 1 1.38794 6.79178 10.3022 6.5895 0.0148324 0.00177115 -0.00658961
23 1 1.56205 5.06413 12.0085 15.6598 0.00957047 -0.00151581 -0.00703467
24 1 1.43819 6.71472 13.9703 2.91702 0.00431402 -0.00534698 0.000327311
25 1 1.33499 15.7079 8.78674 8.97578 -0.00223662 0.00490356 0.00366034
26 1 1.20424 3.20658 10.9035 10.2073 -0.000814268 -0.000921439 0.0133091
27 1 1.3437 15.8038 12.3148 12.2192 -0.000912871 0.00212252 -0.00589098
28 1 1.39631 3.1464 14.2426 14.17 0.00810799 0.00981502 -0.00538309
29 1 1.20765 4.5707 8.70613 12.1695 0.0108652 -0.00189302 0.0050456
30 1 1.24267 6.85568 10.4552 13.8072 0.00284594 0.00868634 0.00855391
31 1 1.33006 4.91816 12.5906 8.35124 0.0068157 -0.0136992 -0.00759694
32 1 1.6975 6.71081 14.2968 10.3408 0.00446812 0.00415511 0.0049677
33 1 1.30211 8.44925 15.783 15.6416 0.0121294 -0.000247755 0.00347251
34 1 1.26449 10.2421 2.98864 3.31139 -0.00335933 -0.0132177 -0.00941701
35 1 1.27495 8.65539 5.09653 5.22771 0.0126812 -0.00287567 0.00636127
36 1 1.58488 10.3099 6.95912 7.04368 -0.00612839 0.00599788 0.0173807
37 1 1.13449 12.386 1.54474 5.01065 -0.0135542 0.000661937 -0.0043654
38 1 1.24034 14.0743 3.10609 7.35881 0.00349803 -0.00884894 -0.00531496
39 1 1.1421 11.963 5.26585 15.3206 -0.00329376 0.00355978 0.0124875
40 1 1.31863 13.6387 6.73009 3.33879 -0.00710851 0.00540586 0.0201865
41 1 1.48287 8.62782 1.74024 8.81744 0.0118283 0.00627761 -0.0143966
42 1 1.24169 10.6291 3.59759 10.9083 0.00190348 -0.000743838 -0.00189503
43 1 1.57905 8.34319 5.5118 12.1157 -0.00745199 0.00524957 0.00612468
44 1 1.40951 9.99988 7.10623 14.0371 -0.00554888 -0.0091436 -0.0105939
45 1 1.304 12.2848 1.46954 12.4595 0.0059709 -0.000907033 -0.019595
46 1 1.38471 14.0998 3.14761 14.073 -0.00857508 0.00585249 -0.00513161
47 1 1.4078 12.2921 5.33656 8.83638 -0.00142392 -0.00864588 -0.00449608
48 1 1.35853 14.1551 6.70343 10.5987 0.0179879 -0.00599105 -0.00443798
49 1 1.38989 8.50758 8.94641 1.81438 -0.00280735 -0.00205565 -0.000949605
50 1 1.43098 10.6205 10.5637 3.24763 -0.00712823 -0.00578811 -0.000135305
51 1 1.09897 8.72059 12.4421 4.95482 -0.0117496 0.00636281 0.00682252
52 1 1.07405 10.5595 14.1461 7.33089 0.00521102 -0.0125927 0.00167496
53 1 1.60897 12.2162 8.71381 5.075 0.00852321 0.00675179 0.00627498
54 1 1.57201 14.2512 10.0585 6.74057 -0.00429331 -0.00794811 0.0103664
55 1 1.58974 12.1915 12.1464 15.7545 -0.00100695 -0.00343184 0.000557524
56 1 1.43148 14.1055 13.8406 3.1377 -0.000850965 -0.00200759 0.00208489
57 1 1.22093 8.31097 8.53916 8.59415 -0.0096638 -0.00423852 0.00703232
58 1 1.49791 10.4892 10.185 10.1098 0.00367774 0.00749825 -0.0122384
59 1 1.3785 8.59778 12.2379 11.5651 -0.00221239 -0.00167707 0.00435103
60 1 1.44415 10.32 13.7198 13.8606 -0.0028254 -0.00481665 -0.0108677
61 1 1.47594 12.2198 8.51498 12.1511 -0.0104514 0.00244651 0.00388422
62 1 1.2909 13.8013 10.4262 14.0098 -0.000945728 -0.000987461 0.0201627
63 1 1.61318 12.5009 11.911 8.54117 -0.000245116 -0.0104117 0.00128965
64 1 1.34336 13.4434 14.0035 10.4708 -0.00266385 0.00420337 -0.000400649
65 2 -0.702263 2.56879 1.94013 2.79424 -0.0189693 -0.00957635 -0.00639672
66 2 -0.813303 2.32259 15.237 14.9019 -0.00545995 0.0198324 -0.00117058
67 2 -0.691785 14.9135 2.49257 15.4644 -0.0064956 -0.0027993 0.0121062
68 2 -0.791411 15.0235 14.6029 2.1873 -0.0139111 0.00330669 -0.01983
69 2 -0.62558 2.04721 4.09913 4.05228 0.00448794 0.00256495 -0.014313
70 2 -0.761357 4.0857 2.3846 4.72731 -0.00396728 -0.00113653 0.0142885
71 2 -0.75835 4.51649 3.52667 2.42008 -0.0220605 0.00624649 -0.00110319
72 2 -0.706882 1.67916 6.10544 5.90611 0.00394146 0.0021023 0.00296466
73 2 -0.563023 15.0553 4.23235 6.71877 -0.0195709 -0.00525733 0.0098343
74 2 -0.587112 14.3413 5.39709 4.48679 0.00134267 0.0041284 0.012541
75 2 -0.748446 3.66631 5.75655 7.10789 -0.00952227 0.0182753 0.019657
76 2 -0.76105 3.60578 7.95961 5.55718 0.00698314 0.0101131 0.00278228
77 2 -0.693632 2.1832 7.7849 8.07599 0.00213837 -0.00754848 -0.00519056
78 2 -0.943193 6.14978 2.24778 5.99392 -0.00387331 -0.00325973 0.0132597
79 2 -0.601236 4.56997 14.7661 6.09136 0.0118722 -0.0134011 -0.0107792
80 2 -0.755884 5.74956 14.7025 4.16464 -0.00917615 -0.00117213 0.002621
81 2 -0.676946 5.67436 4.23853 7.49049 -0.0130043 -0.00172928 -0.00905491
82 2 -0.713687 8.04797 4.24233 6.30133 -0.016702 0.0109743 0.0118914
83 2 -0.700637 7.71885 2.68197 8.03523 0.00484847 -0.00487512 -0.0131622
84 2 -0.687219 6.16852 5.9797 1.97608 -0.0062239 0.0144183 -0.00602293
85 2 -0.679262 3.75079 5.38028 15.2535 -0.00525986 0.000922233 0.00255944
86 2 -0.701794 5.96643 4.01449 15.102 -0.00229354 0.00908335 -0.0153108
87 2 -0.787246 5.37734 7.3452 4.19973 -0.0187729 0.00153794 0.00868354
88 2 -0.644133 7.70889 6.34061 4.34371 -0.0100072 -0.0138854 0.00560623
89 2 -0.734594 7.66189 7.98707 2.7753 0.00565436 -0.00315965 0.00510543
90 2 -0.783102 2.53464 1.86795 9.42814 -0.00975684 0.0117357 -0.0160063
91 2 -0.658883 2.23678 14.3842 7.6475 0.00816341 0.00609415 0.00465393
92 2 -0.681219 15.3034 1.87305 7.85199 -0.0121464 0.00958275 -0.00919748
93 2 -0.765567 14.3414 15.054 9.60565 0.00430914 0.00167094 0.00684271
94 2 -0.893853 2.51195 4.0544 11.1312 -0.00907555 -0.00800086 0.013336
95 2 -0.690811 4.29401 2.41647 10.9867 -0.000174238 0.000946213 0.0262766
96 2 -0.729166 3.24209 4.19553 8.81855 0.00526833 0.00233328 0.0402212
97 2 -0.663817 2.22534 5.39364 13.4444 -0.00659335 -0.0019025 -0.00499794
98 2 -0.685008 14.885 3.96802 12.9058 0.0062891 0.00755776 -0.00764397
99 2 -0.745664 15.0143 5.8796 11.6688 -0.000485839 0.00927327 0.0204247
100 2 -0.562314 2.12072 7.25516 14.8739 -0.0119296 0.0106745 0.00451509
101 2 -0.677179 3.76443 7.33702 12.9683 0.0154292 0.000882841 0.00130514
102 2 -0.801849 5.53604 2.47182 12.911 0.00847612 0.000542845 -0.0158687
103 2 -0.793439 3.86263 14.9431 12.8656 -0.00152714 -0.00568222 -0.00406886
104 2 -0.917211 5.94564 14.9887 11.4809 -0.00569986 -0.0217088 -0.010563
105 2 -0.677518 7.65195 2.11615 14.3358 -0.014115 -0.00260255 -0.0275811
106 2 -0.734756 7.3836 4.36488 12.709 0.0192472 0.00533971 -0.0115587
107 2 -0.782075 5.09807 5.94644 9.42313 -0.016395 -0.0120178 -0.00286378
108 2 -0.618051 5.35692 7.37113 11.2785 -0.0112414 -0.0151796 0.011704
109 2 -0.759009 7.41711 5.95231 10.9615 -0.00834626 -0.0123715 -0.00771757
110 2 -0.688983 6.77355 7.6823 9.22838 0.0105683 -0.0127204 0.00177071
111 2 -0.679503 2.85101 8.78032 2.31664 0.0196231 0.00890676 0.00487195
112 2 -0.641091 14.8412 7.52216 2.6498 -0.000755897 -0.0259576 0.00931559
113 2 -0.577031 14.9417 9.42152 15.0169 -0.0214961 0.00604957 -0.0336622
114 2 -0.710096 2.72458 11.2756 3.54675 0.00659792 -0.00725447 -0.0108873
115 2 -0.74708 4.406 9.88285 4.25373 0.0124097 -0.0120299 0.00466247
116 2 -0.814147 4.50063 10.8107 2.08445 -0.0103492 0.00270856 0.0120454
117 2 -0.728881 2.25474 12.8993 5.52266 0.0125139 -0.0220384 0.00659166
118 2 -0.756094 15.3557 10.8873 5.72301 -0.00362998 0.00445032 -0.0156126
119 2 -0.701612 15.0218 13.0655 4.10114 -0.0174607 0.00315744 -0.00485784
120 2 -0.679156 3.79139 12.5506 7.365 -0.00924972 -0.0012049 -0.0132988
121 2 -0.765906 5.9499 9.24439 5.93625 -0.00649929 -0.00179113 0.0129627
122 2 -0.629635 6.1634 11.5934 7.61682 -0.00390411 0.0141103 -0.00401246
123 2 -0.55644 7.68854 11.1976 5.43873 0.00266744 -0.00922126 -0.012794
124 2 -0.713628 7.95767 9.69194 7.31893 0.00365357 0.0078846 0.00822574
125 2 -0.765404 6.08678 12.8759 2.09791 0.0123026 0.00566776 0.0236949
126 2 -0.771018 4.14564 12.9322 14.9911 -0.000523447 0.00836734 -0.0109645
127 2 -0.707206 5.91206 11.4865 14.3387 0.00157134 0.00788781 0.000888528
128 2 -0.775423 7.36778 15.2051 2.18879 0.00194379 -0.0145647 0.00416604
129 2 -0.577265 7.49952 12.9883 3.88294 -0.0118939 -0.0052934 0.012568
130 2 -0.578903 1.57219 10.3103 9.35244 0.0145938 -0.00985526 0.00889409
131 2 -0.672617 14.7155 8.10135 10.2808 -0.00607287 0.000579317 -0.0212646
132 2 -0.784891 14.8327 9.16701 7.85085 -0.0262824 -0.000333493 0.000535573
133 2 -0.72858 2.34283 11.9813 11.0708 -0.0116987 -0.00285703 0.00863899
134 2 -0.694926 3.89774 9.66785 10.9981 -0.0150427 0.00916213 0.011436
135 2 -0.720719 4.45458 11.5665 9.44845 0.00367493 0.0188129 -0.0069694
136 2 -0.697397 2.11869 13.3126 13.2897 0.00192405 0.00202273 0.010781
137 2 -0.672891 15.0531 11.1325 12.9905 0.0195103 0.00904122 -0.0213148
138 2 -0.627514 14.4861 13.0519 11.6148 -0.00607355 0.0219907 -0.000428148
139 2 -0.673573 5.71925 9.4529 12.9162 0.00388602 0.0248082 -0.0169893
140 2 -0.667435 7.8781 9.77639 14.9099 -0.00272493 -0.0143889 -0.00817042
141 2 -0.647862 7.5062 11.6138 12.5558 -0.0156297 0.0105313 0.00144886
142 2 -0.767156 5.6626 13.8231 9.29489 0.00634364 0.00348179 -0.00443688
143 2 -0.833823 7.70047 15.2923 9.70767 0.00983695 0.0185286 0.00763533
144 2 -0.849391 7.80865 13.2685 10.7477 -0.0112251 0.00638675 0.00575183
145 2 -0.718401 9.19586 2.33638 2.10753 0.00447563 -0.00464138 0.000100402
146 2 -0.691217 9.61741 14.6458 14.8511 0.00408982 -0.00490821 -0.0132284
147 2 -0.701197 9.39766 3.95893 4.28664 0.0149935 -0.00211427 -0.0116795
148 2 -0.713893 11.4396 2.28966 3.94088 0.00523591 0.00317973 -0.0310292
149 2 -0.510016 11.1135 4.35166 2.30298 -0.00792616 0.00899672 0.0118233
150 2 -0.656465 9.88167 5.73643 6.18162 0.00974174 -0.00659221 -0.00135511
151 2 -0.725872 11.1592 6.20791 8.08467 0.00925483 -0.00621836 -0.00555318
152 2 -0.797893 11.1192 7.90944 6.02189 0.0167778 -0.00202091 0.00398396
153 2 -0.703963 9.08396 7.30698 7.84737 0.00706399 0.00877331 -0.0149401
154 2 -0.578328 13.3851 2.56762 5.98021 -0.0177358 0.0105644 0.00744875
155 2 -0.509164 11.6708 14.6806 6.38528 0.00610948 -0.00553803 0.00548813
156 2 -0.603417 13.2688 14.7705 4.24728 0.0139705 -0.00243297 0.00204037
157 2 -0.558419 12.8571 4.09487 7.68566 -0.00556816 -0.0193709 0.0146677
158 2 -0.577188 13.052 6.04749 1.88464 0.000147179 -0.000208617 0.0190232
159 2 -0.633905 11.3266 6.28167 14.2006 -0.00345012 -0.00323622 -0.000938645
160 2 -0.645992 13.1321 4.23387 14.48 0.0152719 -0.0114213 -0.0131992
161 2 -0.81209 13.1064 7.92532 3.99576 -0.000220675 0.000395751 0.00455514
162 2 -0.598716 9.47384 2.90532 9.67344 -0.0189754 0.00107275 -0.0137264
163 2 -0.74746 9.37863 15.6346 7.64603 0.00698548 0.00509833 0.00206791
164 2 -0.685089 9.64465 4.85145 11.5625 -0.00792591 0.00461944 0.00432128
165 2 -0.735936 11.6227 2.84171 11.8493 0.00211856 0.00780268 -0.00166886
166 2 -0.637807 11.8273 4.24023 9.9553 0.0131538 -0.0251763 0.00474686
167 2 -0.786686 8.75847 6.61961 13.1027 0.0105349 -0.0103137 -0.00257797
168 2 -0.691741 9.53223 7.79424 15.3958 0.0140339 0.0129447 0.000332861
169 2 -0.618825 10.8085 8.04642 13.097 0.00911658 -0.0191557 -0.00474312
170 2 -0.737941 13.5343 1.78803 13.5301 -0.0118325 0.00563346 0.00566195
171 2 -0.686451 11.0103 14.8858 13.1425 0.00750493 0.00586953 0.00516273
172 2 -0.781551 12.5277 15.153 11.2226 -0.00545698 0.00370138 0.000212666
173 2 -0.798884 13.4504 6.15839 9.3146 0.00945582 0.00732848 -0.00616901
174 2 -0.633925 12.771 7.20558 11.8044 0.000835615 -0.0115743 0.0074892
175 2 -0.750467 9.29061 9.93608 2.57593 0.0234802 -0.0159866 0.00487102
176 2 -0.597123 9.81176 11.8649 3.87455 0.00537898 -0.00748146 0.00854541
177 2 -0.767887 11.7193 9.93044 4.33224 -0.0072414 0.0144696 0.00268349
178 2 -0.795568 11.3775 10.9723 2.00519 0.0229943 -0.0262854 0.00356124
179 2 -0.486134 10.1449 13.3387 6.07635 0.00299176 -0.0140929 -0.00465497
180 2 -0.686436 11.3094 12.5594 7.88011 0.00285921 0.0156518 -0.00680384
181 2 -0.849099 13.2238 9.38696 5.95511 0.021137 -0.000598855 0.0199516
182 2 -0.777303 13.118 10.9576 7.62359 0.0142093 0.0147788 -0.00399104
183 2 -0.769008 12.9572 12.7224 2.41895 -0.0184995 0.0128146 -0.0051356
184 2 -0.805044 11.4727 12.8953 14.7176 0.00107963 -0.00746081 0.0124173
185 2 -0.687178 13.5338 11.7209 14.7565 0.00728481 0.0163049 0.00964874
186 2 -0.692177 9.67275 8.98484 9.3723 -0.00305763 0.00020829 -0.00197523
187 2 -0.86861 9.52783 11.2368 10.4095 0.0107159 -0.0237913 -0.0149492
188 2 -0.681601 11.6434 9.2823 10.9145 7.56863e-06 -0.0109831 -0.00372915
189 2 -0.703879 11.7171 10.8212 9.49448 0.010655 0.0101344 -0.0169043
190 2 -0.712334 9.52085 12.6985 12.7351 -0.0175348 -0.0045861 0.0113333
191 2 -0.755617 12.7934 9.51901 13.2323 -0.00858578 -0.0220254 -0.00927827
192 2 -0.886566 12.9011 12.9187 9.64428 0.016895 -0.00243765 -0.0107616
193 2 -0.650816 9.21461 1.61147 4.80465 -0.00763048 -0.000531125 0.0132643
194 2 -0.684516 1.31883 1.82357 11.4686 -0.00931557 0.00993733 0.00181399
195 2 -0.569542 12.5419 1.73889 8.29329 -0.0070851 -0.00400362 0.00129524
196 2 -0.678899 10.6213 3.95515 14.1285 0.00809995 -0.00384334 -0.0125871
197 2 -0.613437 2.58293 10.1311 14.4758 0.0106918 0.0124801 -0.00229979
198 2 -0.64234 7.58004 13.9135 6.23658 -0.0100093 0.0131766 0.0154978
199 2 -0.535358 6.78283 10.0214 10.1761 0.00129128 0.0133146 0.00315712
200 2 -0.637145 9.1305 12.7947 8.18587 -0.00948443 0.0180815 -0.00427061
201 3 0.437323 9.52453 2.22145 5.38463 -0.0466924 0.0922188 0.0350946
202 3 0.355439 8.22406 1.64204 4.89065 -0.0119994 -0.0593268 0.00212773
203 3 0.406075 15.6036 15.3833 11.733 0.0170011 0.0183664 -0.0467687
204 3 0.394755 1.9602 2.17034 11.928 0.0436052 0.00687459 -0.0308237
205 3 0.377934 12.1314 1.38913 9.17869 0.00809331 0.00448385 0.0148057
206 3 0.352496 13.1629 15.3336 7.98041 -0.0675768 0.00508725 0.0201952
207 3 0.415389 11.3094 3.48626 13.6624 0.0072199 -0.00277567 -0.0235581
208 3 0.396489 10.2531 3.39732 14.7467 -0.0230414 -0.0173925 -0.0437241
209 3 0.395235 2.04383 10.0337 13.6256 0.0458303 -0.0166977 0.0067774
210 3 0.400896 2.67325 11.0035 14.5034 -0.00703356 0.0368613 0.00681257
211 3 0.399001 8.14119 14.5169 6.75838 -0.00477593 0.0177202 -0.00444512
212 3 0.379894 6.91283 14.5423 5.82706 0.0221491 0.0313245 0.0142503
213 3 0.372517 6.44124 10.8574 9.59549 -0.0546564 0.0521563 -0.00215212
214 3 0.350085 6.74665 10.6401 11.0934 -0.0101569 -0.000430003 0.0406261
215 3 0.39648 8.93015 12.2274 7.43489 -0.0542866 0.0096179 0.0226314
216 3 0.428947 9.52572 12.1231 8.90878 0.0192986 0.0514054 -0.0488531
ITEM: TIMESTEP
8000
ITEM: NUMBER OF ATOMS
216
ITEM: BOX BOUNDS pp pp pp
1.4031729198418965e+00 1.5756827080158027e+01
1.4031729198418965e+00 1.5756827080158027e+01
1.4031729198418965e+00 1.5756827080158027e+01
ITEM: ATOMS id type q x y z vx vy vz
1 1 1.38851 1.497 15.3573 1.5159 -0.0040789 -0.00449795 0.0030136
2 1 1.31213 3.39934 3.04693 3.0869 0.00760582 -0.010917 -0.00118236
3 1 1.34284 15.5426 4.96362 4.7754 -0.00313342 0.0104726 0.00689812
4 1 1.2798 3.13105 6.77913 6.53438 0.00979173 0.0118581 -0.00323906
5 1 1.3636 5.17336 15.7042 4.85182 -0.00958665 -4.08948e-05 -0.000413511
6 1 1.17716 6.74301 3.16496 6.66777 -0.00561324 -0.0144373 0.00787078
7 1 1.56363 4.78573 5.11062 15.7404 0.0129611 -0.000411255 -0.00907274
8 1 1.21027 6.89307 6.50292 3.02367 -0.00228266 0.00287302 -0.0111806
9 1 1.18683 2.12104 1.53983 8.41192 0.0116611 -0.0162865 0.00114784
10 1 1.31412 2.97274 3.47656 10.8024 0.0134463 -0.0129047 0.00518298
11 1 1.62388 15.2368 4.97145 12.5953 0.00263899 0.00898641 -0.00669195
12 1 1.68498 2.81074 6.86321 14.1316 0.00831545 -0.00557434 -0.00608552
13 1 1.57037 4.90938 1.62953 12.1646 0.00103867 -0.00486061 0.0040095
14 1 1.35307 6.71527 3.5664 13.7586 0.00157159 0.000671053 0.0210022
15 1 1.2498 4.80773 5.01988 8.30487 -0.00421226 0.000676195 0.00593555
16 1 1.26444 6.27439 7.0374 10.4496 0.000417231 0.00619318 -0.0103782
17 1 1.70651 1.45444 8.60475 1.82437 -0.00938372 -0.000135296 -0.0145174
18 1 1.68561 3.54266 10.2868 3.12198 0.00786078 0.00121285 0.00154856
19 1 1.40089 15.7511 11.6913 4.78933 0.0119705 -0.00339675 0.00248221
20 1 1.36134 2.96878 13.8786 6.12014 -0.00279056 -0.00310176 0.00422778
21 1 1.35039 5.35608 8.48095 4.96922 0.0182039 -0.00716421 -0.000581981
22 1 1.35862 6.84974 10.6499 6.41924 -0.00317154 0.00608227 0.0181155
23 1 1.38297 5.18577 12.2431 1.53523 -0.00977039 0.00361402 0.0114883
24 1 1.56849 7.1205 14.2779 3.08171 -0.00135218 -0.00144681 0.00825149
25 1 1.26908 1.43579 8.41861 8.73495 0.00585981 0.000970469 0.000251418
26 1 1.38866 3.22496 10.6625 10.2036 0.003297 0.00643074 -0.00750915
27 1 1.41589 15.6069 12.2861 12.0842 -0.00702837 -0.0137825 -0.00422323
28 1 1.47455 3.47618 13.853 13.8301 0.00454268 0.0114089 -0.0295079
29 1 1.2671 4.61173 8.90772 12.7129 0.00653663 -0.00118989 0.000189501
30 1 1.43864 7.03669 10.2451 14.0225 -0.0106841 0.00617789 -0.000688365
31 1 1.34525 4.85257 12.6042 8.27714 -0.00495328 0.00332176 -0.00128524
32 1 1.24732 6.78086 14.2213 10.3137 0.00188538 -0.00617342 -0.00848032
33 1 1.30187 8.83071 1.72141 15.5819 -0.00645597 0.00276179 -0.00476597
34 1 1.36996 10.5336 3.49739 3.46317 -0.0109699 -0.000494981 0.00889873
35 1 1.39363 8.70345 5.40677 5.22013 -0.00423481 0.00297898 -0.00297413
36 1 1.62714 10.3668 7.16755 6.79618 -0.00729668 -0.0130165 0.0100243
37 1 1.20256 12.5416 1.57834 5.24672 -0.00504098 -0.00485346 -0.0194407
38 1 1.24976 14.3749 3.36421 7.22689 0.00416736 0.00980706 -0.017161
39 1 1.55812 12.0418 5.26968 1.43762 -0.00572268 -0.00762457 0.00509633
40 1 1.66834 13.8165 6.84933 3.32422 0.0104964 0.00381818 0.00815733
41 1 1.56316 8.76522 1.39464 8.55301 -0.00652867 0.00410425 0.00319475
42 1 1.65324 10.2856 3.33137 10.3763 0.00275687 0.00923714 -0.0212914
43 1 1.39101 8.44597 5.3608 12.0806 -0.0118209 0.00275224 -0.00614316
44 1 1.42038 10.4213 6.79753 13.8442 0.00721179 0.00600002 -0.00996923
45 1 1.30355 12.3012 1.77499 12.1342 0.0158611 0.00285992 0.00585386
46 1 1.22828 13.6651 3.04799 14.4393 -0.00663097 -0.00641552 -0.00282273
47 1 1.51168 11.9382 5.10858 8.53967 0.00545115 -0.0175699 6.06463e-05
48 1 1.4121 13.5184 6.44325 10.6331 -0.00330435 0.00139112 0.00221821
49 1 1.44877 8.60818 8.26966 15.7796 -0.0136758 -0.00923474 0.00159318
50 1 1.31678 10.456 10.5701 3.02689 -0.00478702 -0.000237534 -0.00743779
51 1 1.55196 8.80443 12.3984 4.79065 0.00148464 -0.00575005 0.0165177
52 1 1.55376 10.4581 13.8279 6.98513 -0.00287697 0.00845654 0.00247675
53 1 1.52145 12.0333 8.87928 4.91895 0.0103057 -0.0063356 0.000986365
54 1 1.43082 13.8893 10.2019 6.98744 0.00392545 0.00857695 0.00805724
55 1 1.42728 12.1306 12.0691 15.4712 -0.000624029 0.00387088 0.00528659
56 1 1.17935 13.7187 13.5716 3.37409 -0.0110942 0.00425642 0.00306182
57 1 1.33864 8.23505 8.57475 8.65104 -0.00788556 0.00325394 -0.00346915
58 1 1.47016 10.1087 10.2692 10.4772 0.0140593 -0.00926292 0.0201963
59 1 1.46264 8.13425 12.0385 11.8791 0.0119875 -0.00437363 -0.0067581
60 1 1.33884 10.2898 13.861 13.6506 0.00623008 0.000648889 -0.00936253
61 1 1.43034 12.0731 8.77667 12.2965 -0.00842789 -0.00210931 0.0156542
62 1 1.32778 14.153 10.1423 14.0264 -0.00326362 -0.00194659 0.00444338
63 1 1.50999 12.0307 12.0723 9.0313 0.00568489 0.011374 0.000272363
64 1 1.18555 13.7501 14.1144 10.3128 0.0116628 -0.000119895 -0.00469745
65 2 -0.616353 2.25347 1.91487 2.68491 0.000692172 0.00706266 0.0130873
66 2 -0.675913 2.4408 14.75 14.6109 -0.00533999 -0.00834359 0.0119311
67 2 -0.632833 15.2566 2.08295 15.1262 0.00619177 0.00576452 0.0025418
68 2 -0.525356 14.62 14.4773 2.08529 -0.00806561 0.0215888 0.0209042
69 2 -0.668767 2.3057 4.05746 3.681 0.0082939 0.00623087 0.007224
70 2 -0.712935 4.48276 2.16597 3.705 -0.0133878 0.00624318 -0.0076455
71 2 -0.682882 4.53359 3.70615 1.87321 -0.00971457 -0.00426197 -0.00590034
72 2 -0.660797 1.86244 6.09551 5.70636 0.0147829 0.0186126 0.00385711
73 2 -0.621152 14.6808 4.15757 5.81506 0.00621272 -0.0154622 -0.0162195
74 2 -0.789238 14.3011 5.6909 4.10362 -0.00837832 0.0121477 0.00727252
75 2 -0.637833 3.44984 5.40808 7.27712 -0.0104525 0.0125948 -0.00418043
76 2 -0.699175 4.53374 7.30583 5.82619 -0.0127303 0.00228053 0.00743144
77 2 -0.669298 2.44734 7.77723 7.63521 -0.000788096 -0.0110837 0.00699773
78 2 -0.72863 5.50923 2.54389 5.91299 0.00657074 0.00649417 0.00191519
79 2 -0.681937 3.96857 14.3789 5.05679 0.0145367 -0.00732967 0.00214833
80 2 -0.872888 6.30325 14.9888 4.26725 -0.00216549 -0.00355466 -0.00600926
81 2 -0.640821 5.79322 4.21516 7.25335 -0.0128482 -0.0045493 0.0153861
82 2 -0.596879 8.17733 4.24965 6.25231 0.0124094 -0.000695419 0.00768897
83 2 -0.710388 7.52776 2.03106 7.78351 -0.0166266 -0.00545026 0.0127343
84 2 -0.724955 5.35496 6.00084 2.39054 0.00455593 0.0102631 -0.003542
85 2 -0.865519 3.65135 5.94399 15.0213 0.00694196 0.00452996 -0.00173256
86 2 -0.640252 6.07492 4.61412 14.8389 0.00687985 0.00950491 -0.00316379
87 2 -0.690598 6.10744 7.80361 3.90405 -0.0160065 -0.00364054 0.00463146
88 2 -0.687364 7.94298 5.3881 3.81873 0.00553441 -0.00534823 -0.00394694
89 2 -0.688561 7.70791 7.02981 1.74455 0.00190878 -0.00123249 0.0204806
90 2 -0.6139 2.38029 2.31725 9.87168 0.00309587 -0.000758197 -0.01487
91 2 -0.692161 2.29953 14.5784 7.3689 -0.00698735 -0.0154293 0.014564
92 2 -0.784848 15.5074 2.43465 7.68866 0.00286701 0.00359042 0.00899728
93 2 -0.403979 15.5117 14.8269 9.66058 -0.0153888 -0.00216136 -0.00575529
94 2 -0.751896 1.97711 4.02796 11.9559 -0.0139813 0.0138515 0.000893034
95 2 -0.73455 3.78557 2.47527 11.6584 0.00437809 -0.000712108 -0.000294967
96 2 -0.616004 4.13623 4.16484 9.5862 0.0022053 -0.000650977 0.000512575
97 2 -0.808545 1.66909 5.92965 13.4636 0.0162771 -0.00463134 -0.0106403
98 2 -0.828224 14.4875 4.10646 13.6789 0.0111689 -0.0057501 0.00710656
99 2 -0.908323 14.4051 5.4605 11.4218 0.000873539 0.0119001 0.00241979
100 2 -0.808477 1.7968 7.74336 14.8424 0.00232108 -0.000639719 0.0122875
101 2 -0.801906 3.63443 7.75262 13.2121 -0.00477477 -0.00227502 0.0114575
102 2 -0.704022 5.46684 2.62229 13.3747 0.00209911 0.0159316 -0.00623852
103 2 -0.811332 4.34142 14.8333 12.9712 -0.00487946 0.0111288 -0.0023241
104 2 -0.678818 5.5754 15.5217 10.8702 -0.00807569 -0.00224998 0.011198
105 2 -0.561679 7.86643 2.58767 14.369 0.00110936 -0.0150008 0.00681325
106 2 -0.697483 7.88718 4.51047 13.3014 -0.0113729 0.000469738 0.00191829
107 2 -0.651859 5.57812 6.09496 9.09232 -0.00981544 -0.00204813 -0.00814084
108 2 -0.559766 5.71021 7.89881 11.8532 0.0119136 -0.0116166 0.00431818
109 2 -0.623649 7.21157 5.8713 11.1294 -0.00526216 0.00588993 0.00315526
110 2 -0.722575 7.35476 7.77035 9.75086 0.00802783 0.00562721 -0.00152003
111 2 -0.917571 2.71331 9.20426 2.34215 0.00629236 0.0024808 -0.00310539
112 2 -0.924123 14.9682 7.79838 2.67079 -0.0107525 0.00341682 -0.00230172
113 2 -0.710821 15.0846 9.80627 15.3016 -0.0056275 -0.0103279 -0.000237868
114 2 -0.74001 2.36624 10.8021 3.98189 0.00487254 0.0156632 -0.00559452
115 2 -0.711508 4.33727 9.79703 4.37928 -0.0122174 -0.00831718 -0.00741288
116 2 -0.882827 4.12774 11.3708 2.32684 -0.0014964 0.00967984 -0.0251247
117 2 -0.684063 2.49101 12.5863 5.35132 0.0162132 -0.00948145 -0.00595367
118 2 -0.684634 14.9288 11.1432 6.13952 0.0263938 0.00570998 -0.00901496
119 2 -0.621432 15.0123 12.6068 3.56773 -0.000995951 -0.00171339 0.00341667
120 2 -0.732566 3.92042 12.9991 7.16524 -0.00714854 -0.0153705 -0.0160736
121 2 -0.71294 6.48572 9.4124 5.68405 -0.00427691 -0.00823334 -0.00216888
122 2 -0.669777 5.79187 11.3676 7.56428 -0.0124218 0.0104816 0.0137596
123 2 -0.788038 7.7539 11.5487 5.41217 0.0240163 0.0107115 0.00529775
124 2 -0.630729 7.93391 9.77108 7.46078 0.00959234 -0.00590036 -0.0039731
125 2 -0.708761 6.09458 13.3233 2.48063 -0.0096217 0.0113012 0.0034507
126 2 -0.742966 4.2562 13.1973 15.1345 -0.00479686 0.0154346 0.00143178
127 2 -0.667634 6.5276 11.409 15.1639 -0.0103602 0.0166274 0.0163034
128 2 -0.717336 7.81201 15.0499 1.91494 -0.014918 -0.00403473 0.000674898
129 2 -0.84096 8.2724 13.6842 3.99634 0.0126494 -0.000106632 0.0112655
130 2 -0.674928 2.41126 9.39907 9.79445 0.0164564 0.0107371 0.019047
131 2 -0.523831 14.765 7.38882 9.84321 -0.00864729 0.00179118 0.0127228
132 2 -0.684829 14.7421 9.08004 7.81174 -0.0114271 0.0118878 -0.0163072
133 2 -0.731323 2.06713 11.5862 10.9888 -0.00783546 -0.0127871 -0.00475063
134 2 -0.662998 4.34233 9.86061 11.0703 0.00824544 -0.00871937 -0.0235688
135 2 -0.728738 4.24456 11.4975 9.38242 -0.000801925 -0.000746183 -0.0082673
136 2 -0.756839 2.31842 13.1782 13.0393 -0.0014839 -0.0141352 -0.0167667
137 2 -0.69098 15.1343 11.1444 13.2179 -0.0108415 0.0102059 -0.0155332
138 2 -0.633841 14.6633 13.3225 11.3343 0.0135362 0.000909006 -0.00284893
139 2 -0.699126 5.82013 9.28448 13.6526 -0.0199803 0.00113309 0.0113679
140 2 -0.710691 7.73669 8.99367 14.6744 0.0157183 0.00466452 0.0202324
141 2 -0.815533 7.36019 11.1051 12.8392 -0.00803882 -0.00694162 -0.015392
142 2 -0.7011 5.78836 13.6121 9.1498 0.00878384 0.0214386 -0.011893
143 2 -0.773798 8.03241 15.0077 9.64077 -0.00160299 -0.0115408 0.000637919
144 2 -0.736596 7.04086 13.0487 11.4112 0.0105521 -0.00787987 0.00280275
145 2 -0.646481 9.53877 2.6195 2.65673 0.0165967 0.00558332 -0.00972986
146 2 -0.626816 9.58598 14.8628 14.9075 0.00598527 0.00124641 -0.0177763
147 2 -0.530097 9.93496 4.47496 5.00487 -0.00482051 -0.00576102 -0.00498993
148 2 -0.647199 11.6764 2.68513 4.19701 -0.0263244 -0.01473 -0.00875619
149 2 -0.666539 11.0776 4.73476 2.76294 -0.0123797 -0.00406118 0.00479039
150 2 -0.769172 9.45755 6.62355 5.67272 0.0121592 -0.0332651 0.0259965
151 2 -0.80337 11.0638 6.13281 7.68412 0.0115738 -0.00480434 0.00719257
152 2 -0.847684 11.0507 8.12165 5.84133 -0.00267783 -0.00661272 -0.00907976
153 2 -0.658848 8.99192 7.62909 7.71053 0.00378366 -0.00114888 0.00967596
154 2 -0.632908 13.6071 2.05848 6.22995 0.0158513 0.00992508 0.0174673
155 2 -0.636455 11.6971 14.5968 6.04875 -0.00672914 -0.00425346 -0.0082662
156 2 -0.639286 13.1866 14.8433 4.13384 -0.000865501 -0.0155482 -0.0152673
157 2 -0.740965 13.0166 4.15853 7.79318 -0.00647183 0.00837634 -0.00184844
158 2 -0.853149 12.8328 6.26225 2.25139 -0.00221431 0.00476843 -0.00805261
159 2 -0.845353 11.0407 5.60457 14.7784 0.00981549 0.00187317 -0.00843141
160 2 -0.779646 12.6651 3.83312 15.3495 -0.0143712 -0.00614662 0.00295118
161 2 -0.76499 12.8856 7.89458 4.12476 0.00184907 0.0128045 0.00621538
162 2 -0.857908 9.85633 2.57579 9.13225 -0.015971 0.00178278 0.0100858
163 2 -0.9004 9.6229 14.6991 7.98918 0.014443 -0.00247328 -0.0147882
164 2 -0.730216 9.18614 4.13399 11.0632 -0.010124 -0.00404136 -0.00921338
165 2 -0.856798 11.2504 2.63957 11.3922 0.00330461 0.00887872 0.00616799
166 2 -0.787234 11.2127 4.40833 9.85623 -0.00393618 -0.00232136 -0.00705184
167 2 -0.718239 9.41909 6.43662 12.5561 -0.00770825 -0.00665794 -0.0039205
168 2 -0.731455 9.9471 7.79476 14.9727 0.00189356 0.000129543 0.0209465
169 2 -0.789884 11.5015 7.63957 12.9767 0.00475297 0.00178913 0.00202513
170 2 -0.753458 12.8024 1.8828 13.5844 0.00645624 0.0194082 0.000623362
171 2 -0.615007 11.0594 14.9325 12.9175 -0.0108986 -0.0314579 -0.00235388
172 2 -0.628192 13.0401 14.8983 11.601 -0.0121877 -1.69232e-05 -0.00765579
173 2 -0.763693 12.7034 6.09585 9.41726 -0.0107313 0.00193148 0.00490846
174 2 -0.58428 12.7104 7.89564 11.0703 0.00627744 0.0153375 -0.00543677
175 2 -0.654251 9.00898 9.39827 2.34386 -0.011981 -0.0169136 -0.00715303
176 2 -0.727696 9.52353 11.1449 3.97196 -0.0105885 -0.0107277 -0.0219341
177 2 -0.75409 11.6008 10.0354 3.89049 0.00377874 0.000776013 0.00170869
178 2 -0.719791 11.3678 11.8707 2.41845 -0.0050847 0.00444654 0.0140234
179 2 -0.848541 9.71084 13.0619 5.86683 -0.000392242 0.00478261 -0.00172984
180 2 -0.775253 11.4378 13.1704 7.89183 0.00736775 -0.00700484 0.0130838
181 2 -0.729829 13.3846 9.51396 5.81811 0.00171312 -0.0160523 0.00571532
182 2 -0.669278 12.934 11.1276 8.10143 -0.0225867 -0.00797268 0.0073903
183 2 -0.544024 13.4078 12.754 1.933 -0.0109819 -0.00206178 -0.0105733
184 2 -0.73627 11.1913 12.8924 14.4349 -0.0167169 0.0105565 0.00533594
185 2 -0.738951 12.7998 10.8985 14.7623 0.0169525 -0.00265086 -0.00729509
186 2 -0.689052 9.44573 9.0672 9.63194 -0.0111167 -0.0100012 -0.0005561
187 2 -0.806816 9.48827 11.6014 11.0724 -0.00260333 -0.00584584 0.0108181
188 2 -0.725285 10.7928 9.71626 11.6724 0.00410675 0.00508071 -0.0164117
189 2 -0.756031 11.2672 10.7854 9.52293 0.00432119 0.0105041 -0.0205132
190 2 -0.607681 8.91074 12.9255 13.0275 0.0161431 -0.00270472 -0.00165105
191 2 -0.697069 13.5538 9.11578 12.9153 0.00118054 0.0307884 -0.0148145
192 2 -0.745914 12.7413 12.7812 10.0399 0.012287 -0.0144756 -0.0106597
193 2 -0.553974 9.10314 1.93855 4.69188 -0.0062802 -0.0198395 -0.00378102
194 2 -0.578832 15.608 1.61745 12.3299 0.000675054 -0.00817593 0.0250838
195 2 -0.595348 12.5845 15.3932 8.91317 0.006404 0.00453792 -0.00796543
196 2 -0.633364 10.3216 2.70754 14.3139 0.00404501 0.000450859 0.010529
197 2 -0.683583 3.56035 10.2657 14.1256 0.0149888 0.0192094 0.00357299
198 2 -0.651996 6.23355 13.2201 6.4036 -0.00190932 0.0139818 0.00543149
199 2 -0.672307 6.80612 10.7564 10.3181 -0.0061334 0.00605653 0.00416667
200 2 -0.607259 9.03492 12.2237 8.06022 -0.00490642 0.00555127 -0.00518444
201 3 0.317904 7.97524 1.81229 5.01298 0.0381298 0.0387242 0.0473211
202 3 0.390478 9.58388 15.5114 4.87176 0.0506784 -0.0739484 -0.0550361
203 3 0.504616 1.63792 15.2731 12.6469 -0.0507786 -0.0930909 -0.00833358
204 3 0.397411 15.0888 2.2809 12.8616 -0.0011157 0.0145042 -0.0473832
205 3 0.369504 11.633 1.64755 8.62475 -0.00431631 -0.00877484 0.0317919
206 3 0.338063 13.3843 15.7111 8.14222 0.0355034 -0.00934758 -0.016172
207 3 0.411743 10.9934 3.33 14.0715 -0.0289949 0.063142 0.0268937
208 3 0.432219 10.9194 1.96587 14.3068 0.00836305 -0.0329081 -0.00154996
209 3 0.374084 4.28188 10.3419 14.7347 -0.00429538 0.0521941 0.0182403
210 3 0.433332 2.81186 10.9176 14.2326 -0.00606281 0.0656553 0.0522465
211 3 0.425668 5.41065 13.5607 6.35908 0.0288163 0.0584592 -0.0101375
212 3 0.396123 6.86128 13.3872 5.60147 -0.000818111 0.00152028 -0.0684258
213 3 0.349515 6.71686 11.1488 9.38463 0.0449929 0.0600672 0.0857208
214 3 0.468162 6.02505 10.2714 10.4781 0.0636149 0.0177097 0.0953564
215 3 0.35719 9.48452 11.8606 8.79879 0.00781956 -0.000863554 -0.0232827
216 3 0.345712 8.05184 12.119 8.244 -0.117087 0.0445624 -0.0555094
