ITEM: TIMESTEP
0
ITEM: NUMBER OF ATOMS
192
ITEM: BOX BOUNDS pp pp pp
-1.3298298203115877e-01 1.4432982982031248e+01
-1.3298298203115877e-01 1.4432982982031248e+01
-1.3298298203115877e-01 1.4432982982031248e+01
ITEM: ATOMS id type q x y z
1 1 1.17952 14.0326 14.1937 14.2864
2 1 1.44992 1.35149 1.51783 1.23252
3 1 1.32831 -0.0739361 3.40942 3.20951
4 1 1.20832 1.31324 5.13657 5.37638
5 1 1.39433 3.72447 0.194593 2.98096
6 1 1.11829 5.28278 2.06705 5.00967
7 1 1.22083 3.43307 3.22392 -0.0579793
8 1 1.37991 4.9428 5.37227 1.96935
9 1 1.1549 14.1772 -0.1072 6.92716
10 1 1.08661 1.96174 1.62422 8.68364
11 1 1.33852 14.2301 3.02856 11.1766
12 1 1.07613 1.24363 5.20403 12.2959
13 1 1.32668 3.45103 0.222201 10.741
14 1 1.26529 5.37508 1.74232 12.8138
15 1 1.28414 3.53675 3.8636 7.1375
16 1 1.56853 5.14888 5.65536 9.0816
17 1 1.284 0.155505 7.12698 14.1878
18 1 1.16251 1.90624 9.21346 1.36732
19 1 1.36383 -0.0150808 10.9575 3.83935
20 1 1.29947 1.93862 13.0882 4.98377
21 1 1.36725 3.03977 7.04078 3.61597
22 1 1.23027 4.76363 8.62635 5.52445
23 1 1.31346 3.86445 10.7434 14.2755
24 1 1.19523 5.57894 12.8414 1.45633
25 1 1.30537 0.146474 6.95621 7.90656
26 1 1.33719 1.75292 9.20902 9.25582
27 1 1.52537 13.8922 10.8547 10.7552
28 1 1.07102 1.66844 12.6124 12.1134
29 1 1.13437 3.34016 7.48202 11.0979
30 1 1.24168 5.69605 8.92646 12.3125
31 1 1.03185 3.05434 11.3402 7.19152
32 1 1.2125 5.32769 12.7672 8.87956
33 1 1.3278 7.62485 14.2294 0.0351817
34 1 1.27864 9.20877 1.80501 1.65501
35 1 1.52816 7.41276 3.60862 3.29738
36 1 1.26768 9.04705 5.34731 5.48994
37 1 1.27367 10.5547 0.0401813 3.58665
38 1 1.46348 12.4448 1.99004 5.54489
39 1 1.49524 11.099 3.85663 14.2092
40 1 1.51082 13.0751 5.27438 1.3924
41 1 1.11592 6.76085 14.2529 6.74922
42 1 1.07197 8.81816 1.46462 8.88482
43 1 1.21065 6.99858 3.80459 10.7391
44 1 1.1198 8.86313 5.65479 12.7525
45 1 1.29928 10.5969 14.1202 10.528
46 1 1.37608 11.8495 1.51625 12.5859
47 1 1.38016 10.5252 3.54382 7.25957
48 1 1.07842 12.5671 4.8206 9.4016
49 1 1.18264 7.29003 7.29119 0.335088
50 1 1.04238 8.90118 8.93067 2.5975
51 1 1.01877 6.69337 10.591 3.96214
52 1 1.45705 9.20476 12.3643 5.27181
53 1 1.28032 11.1629 7.08834 3.74774
54 1 1.53088 13.1784 8.74176 5.43067
55 1 1.19216 10.6484 10.5863 0.205608
56 1 1.105 12.6101 12.3945 1.7195
57 1 1.23982 7.00442 7.04057 7.15468
58 1 1.27033 9.19096 8.74368 8.79803
59 1 1.28789 7.64935 10.643 10.6376
60 1 1.44805 9.32032 12.2885 12.5196
61 1 1.28927 10.9031 7.02325 10.9053
62 1 1.5887 12.6202 8.92064 12.7779
63 1 1.25837 11.0779 10.3696 6.83581
64 1 1.5173 12.4826 12.6052 8.65691
65 2 -0.73645 0.763756 0.41668 0.390236
66 2 -0.465516 0.313592 13.8201 12.9419
67 2 -0.595657 12.7672 0.406957 13.378
68 2 -0.622912 13.2593 12.8715 0.418399
69 2 -0.740917 0.576888 2.17919 2.36919
70 2 -0.547926 2.36715 0.395265 2.04128
71 2 -0.693031 2.59842 2.45165 1.09796
72 2 -0.58159 1.09241 4.03584 4.21954
73 2 -0.579822 13.4442 2.95102 4.86845
74 2 -0.846614 13.9298 4.44543 2.31708
75 2 -0.586424 2.25736 4.13541 6.01649
76 2 -0.738619 2.12811 6.38562 4.61623
77 2 -0.601645 0.403551 5.81524 7.00472
78 2 -0.614944 4.94248 0.83332 3.64906
79 2 -0.730659 2.76853 14.0365 4.12489
80 2 -0.638203 4.32278 13.7469 2.03459
81 2 -0.55743 4.48727 3.33379 5.62075
82 2 -0.694721 6.54935 3.03158 4.34998
83 2 -0.561186 6.05495 0.714295 5.75338
84 2 -0.5952 3.96028 4.58062 1.12457
85 2 -0.455089 2.28934 4.09651 13.5693
86 2 -0.799399 4.50317 2.34841 13.8696
87 2 -0.770835 3.86949 6.00307 2.71086
88 2 -0.673055 6.22213 4.54541 2.47258
89 2 -0.652224 6.42836 6.34298 1.04077
90 2 -0.51079 0.685254 0.476487 8.46218
91 2 -0.521663 0.531509 13.8347 5.61424
92 2 -0.691098 13.6266 1.28884 6.20281
93 2 -0.733093 13.3878 13.2544 7.56054
94 2 -0.45545 0.886989 2.59504 10.0082
95 2 -0.619964 3.04279 1.4828 9.87613
96 2 -0.662857 2.82848 2.69087 7.73917
97 2 -0.711711 0.447063 3.86563 12.1612
98 2 -0.679409 13.0543 2.12288 11.4886
99 2 -0.621507 13.9241 4.23024 10.1033
100 2 -0.562228 1.30619 5.97997 13.6646
101 2 -0.522836 1.93457 6.69784 11.5228
102 2 -0.705386 4.57895 1.08432 11.7903
103 2 -0.706754 2.47428 13.6025 11.1115
104 2 -0.579566 4.39691 14.1347 9.7665
105 2 -0.538732 6.62437 0.576848 13.9713
106 2 -0.519406 6.79036 2.36454 11.8696
107 2 -0.765482 4.24782 4.76672 8.23277
108 2 -0.642663 4.02178 6.32329 10.0663
109 2 -0.738512 6.28907 5.04148 9.88645
110 2 -0.752839 5.89424 6.02468 7.85343
111 2 -0.653417 1.31623 7.91161 0.489482
112 2 -0.807042 13.6785 6.15153 0.412059
113 2 -0.792355 13.5657 7.9358 13.33
114 2 -0.507776 0.782189 9.86202 2.91482
115 2 -0.475869 3.12795 8.54598 2.41636
116 2 -0.759087 2.87137 10.0366 0.611236
117 2 -0.716628 1.0808 11.9567 4.37139
118 2 -0.74647 14.1978 9.75798 4.75091
119 2 -0.616916 13.7321 11.4153 2.46952
120 2 -0.563904 1.89946 12.465 6.60087
121 2 -0.762274 4.07235 7.81063 4.48044
122 2 -0.438021 3.51129 9.83054 6.1387
123 2 -0.563032 5.22893 9.94965 4.846
124 2 -0.568343 5.81297 8.62368 6.74153
125 2 -0.657059 4.7581 11.9237 0.478006
126 2 -0.527576 2.63838 11.443 13.2068
127 2 -0.647244 4.91051 10.0605 13.1587
128 2 -0.663674 6.65557 14.0399 1.28039
129 2 -0.506087 6.21786 11.4435 2.80799
130 2 -0.69764 0.933865 7.75365 8.82462
131 2 -0.460835 13.2603 5.92494 8.10206
132 2 -0.608584 14.145 8.0855 6.596
133 2 -0.652313 0.316547 9.82746 10.0589
134 2 -0.710263 2.4237 8.43901 10.3178
135 2 -0.636829 2.57833 10.386 8.50687
136 2 -0.657733 0.3603 11.6991 11.5436
137 2 -0.765541 12.9314 10.0234 11.6283
138 2 -0.779924 13.1315 11.9924 9.89464
139 2 -0.647693 5.13168 7.68456 11.4945
140 2 -0.53002 6.73779 8.46391 13.4839
141 2 -0.65375 6.5434 10.1133 11.6236
142 2 -0.631794 4.48317 11.9225 8.01212
143 2 -0.633802 5.65072 13.9328 8.1085
144 2 -0.525415 6.52396 11.3846 9.23873
145 2 -0.632127 8.74734 0.695253 0.251487
146 2 -0.592779 7.92133 13.235 13.2883
147 2 -0.808255 8.16859 2.66363 2.43846
148 2 -0.742777 10.2021 0.847337 2.36999
149 2 -0.510739 10.3039 3.10734 1.01229
150 2 -0.598982 8.47381 4.67177 3.89267
151 2 -0.800957 9.35482 4.36012 6.49291
152 2 -0.520065 10.4562 5.82716 4.25937
153 2 -0.685964 8.05165 6.51359 6.01795
154 2 -0.687304 11.3385 1.27259 4.76421
155 2 -0.715816 9.57564 13.528 4.3462
156 2 -0.54844 11.9207 13.8014 2.99958
157 2 -0.722846 11.7896 2.9613 6.68733
158 2 -0.722195 12.0582 4.15024 0.691736
159 2 -0.720546 10.1523 4.82112 13.4666
160 2 -0.788638 11.8854 2.73844 13.6136
161 2 -0.589875 11.9573 6.06233 2.57192
162 2 -0.499518 7.63486 0.811345 7.58008
163 2 -0.577542 8.1415 13.365 6.04308
164 2 -0.489056 8.17732 3.27185 9.76088
165 2 -0.669117 9.43999 0.306106 9.79239
166 2 -0.583361 9.95692 1.99833 7.93292
167 2 -0.601748 7.76468 4.36485 11.841
168 2 -0.55203 8.63266 6.91562 13.972
169 2 -0.670231 9.67084 6.46674 11.5908
170 2 -0.691983 11.1035 0.939266 11.4406
171 2 -0.735166 10.2579 13.2328 12.0052
172 2 -0.749637 11.2372 13.1153 9.40012
173 2 -0.618493 11.2111 4.28077 8.48858
174 2 -0.60596 11.8454 5.81972 10.7105
175 2 -0.58401 7.83677 8.45767 1.31547
176 2 -0.523652 8.33088 10.1401 3.45403
177 2 -0.60245 9.74534 7.71278 3.72567
178 2 -0.51079 9.83326 10.0753 1.7845
179 2 -0.520322 7.87863 11.9233 4.55302
180 2 -0.77077 10.2162 11.4156 5.7715
181 2 -0.815996 12.0806 7.92729 4.77537
182 2 -0.72953 12.3944 9.67808 6.26878
183 2 -0.602631 11.9089 11.0966 0.893431
184 2 -0.723135 9.80889 11.6128 13.9135
185 2 -0.676416 11.5433 9.23618 13.803
186 2 -0.648581 7.7127 7.75886 8.17891
187 2 -0.676305 8.62504 9.42419 10.0199
188 2 -0.561984 10.4717 8.28378 9.62154
189 2 -0.629658 9.97126 9.01106 7.46264
190 2 -0.785976 8.68502 11.4403 11.368
191 2 -0.621112 12.1037 8.05332 11.6412
192 2 -0.659902 11.8491 11.5511 7.57247
ITEM: TIMESTEP
1000
ITEM: NUMBER OF ATOMS
192
ITEM: BOX BOUNDS pp pp pp
-1.3077231483218910e-01 1.4430772314832272e+01
-1.3077231483218910e-01 1.4430772314832272e+01
-1.3077231483218910e-01 1.4430772314832272e+01
ITEM: ATOMS id type q x y z
1 1 1.30847 0.0378265 0.0517528 -0.100894
2 1 1.31607 2.11623 1.57996 2.03245
3 1 1.54568 14.3956 3.5713 3.64727
4 1 1.2531 1.97116 5.47744 5.15604
5 1 1.25757 3.49691 14.2953 3.82439
6 1 1.54733 5.40847 1.63033 5.5265
7 1 1.387 3.62569 3.39609 0.110841
8 1 1.12068 5.65302 5.07818 1.62868
9 1 1.4375 0.163035 14.1527 7.70373
10 1 1.46484 1.64902 2.07298 8.66525
11 1 1.46769 14.4432 3.54349 10.6797
12 1 1.39673 1.58393 5.16547 12.7033
13 1 1.11258 3.25084 0.122481 11.0121
14 1 1.35111 5.26592 1.9263 12.5379
15 1 1.45459 3.71709 3.70186 7.16093
16 1 1.15733 5.46238 5.41934 9.19087
17 1 1.18126 13.7734 7.09579 14.3612
18 1 1.37002 1.46933 8.79806 1.49172
19 1 1.12141 14.2379 11.1154 3.50177
20 1 1.44969 1.54138 12.5243 5.5259
21 1 1.29511 3.56589 7.09952 3.19056
22 1 1.18645 5.51273 8.4822 4.76051
23 1 1.4575 3.42002 10.6892 0.0967211
24 1 1.29523 5.43077 12.6714 1.77946
25 1 1.11461 0.115791 7.66948 6.87716
26 1 1.09665 2.01985 9.06671 8.50034
27 1 1.41315 0.132546 10.3755 10.7042
28 1 1.41159 1.45185 12.5647 12.6452
29 1 1.27244 3.21841 6.96914 10.5775
30 1 1.19728 5.41316 8.62868 12.6956
31 1 1.2531 4.03949 10.9655 6.68418
32 1 1.07876 5.15855 12.4675 9.21528
33 1 1.43602 6.91688 -0.0659596 14.4559
34 1 1.28649 8.74019 1.94175 1.78379
35 1 1.64933 7.03186 3.44189 3.7537
36 1 1.26559 9.05637 5.08127 5.53691
37 1 1.26469 10.8982 0.0621767 3.68778
38 1 1.21864 13.1092 1.26703 5.5171
39 1 1.18219 10.6501 3.51951 -0.204919
40 1 1.29671 12.4616 5.13354 1.8934
41 1 1.13906 7.13744 14.2193 7.35078
42 1 1.16143 9.24957 1.37937 9.00135
43 1 1.42711 7.20355 3.2698 10.7636
44 1 1.35008 8.8021 5.32753 12.3179
45 1 1.32581 11.1758 14.3028 11.2234
46 1 1.37613 12.5742 1.7863 13.0187
47 1 1.39238 11.2291 3.08487 6.91843
48 1 1.29983 12.8163 5.58554 8.82156
49 1 1.41357 7.25967 7.04304 14.3819
50 1 1.28816 8.68582 9.11199 1.4986
51 1 1.21365 7.3925 10.8924 3.41768
52 1 1.38243 8.91821 12.7943 5.31457
53 1 1.22012 10.6791 7.29311 3.52152
54 1 1.22824 12.2144 9.14906 5.42915
55 1 1.48565 10.6845 10.765 13.9584
56 1 1.0855 12.4534 12.8578 1.57368
57 1 1.25763 7.33254 7.13866 7.23034
58 1 1.3658 8.66089 9.40612 8.95277
59 1 1.64384 6.8708 10.6565 11.1004
60 1 1.50887 8.61945 12.675 12.5597
61 1 1.3076 10.63 7.27059 10.5705
62 1 1.30343 12.6376 8.70707 12.259
63 1 1.26205 10.8492 10.9779 7.14725
64 1 1.41241 12.669 12.539 9.22036
65 2 -0.616282 1.12265 0.409998 0.898662
66 2 -0.807014 0.740045 13.4969 13.4519
67 2 -0.665328 13.8413 1.45574 13.8403
68 2 -0.58463 13.2001 14.0093 0.699407
69 2 -0.614545 1.03066 2.76795 2.76361
70 2 -0.708196 3.07595 1.12975 3.10367
71 2 -0.72243 2.7564 2.3385 0.878753
72 2 -0.694592 0.816743 4.50381 4.35556
73 2 -0.75519 13.6279 2.55862 4.6236
74 2 -0.805348 13.6299 4.46789 2.78284
75 2 -0.646249 2.50662 4.57042 6.39014
76 2 -0.755066 3.20736 6.1685 4.34446
77 2 -0.588299 1.0216 6.81473 5.72693
78 2 -0.642518 4.48434 0.364219 4.92101
79 2 -0.619107 1.92299 13.8181 4.45343
80 2 -0.661796 4.60828 13.6435 2.90359
81 2 -0.759641 4.40069 2.65161 6.3151
82 2 -0.919988 6.26494 2.5815 4.76576
83 2 -0.695228 5.89286 0.651889 6.57879
84 2 -0.650392 4.85731 3.57052 1.05566
85 2 -0.646218 2.50659 4.30121 13.8372
86 2 -0.676107 4.23013 2.92291 13.2409
87 2 -0.554919 4.0969 6.00881 1.93465
88 2 -0.698469 6.3943 4.63516 3.04236
89 2 -0.604979 6.90983 5.80133 0.967571
90 2 -0.800064 0.691099 1.05307 7.9689
91 2 -0.769352 0.534437 13.1854 6.69819
92 2 -0.537548 13.6381 0.272947 6.55366
93 2 -0.655798 13.3949 13.6431 8.31964
94 2 -0.791271 0.743062 2.8982 9.51883
95 2 -0.563201 2.64513 1.62871 10.0111
96 2 -0.70062 2.5913 2.72916 7.58036
97 2 -0.759677 0.626369 4.48245 11.672
98 2 -0.634579 13.5497 2.61922 11.5893
99 2 -0.659157 13.4107 4.47949 9.68295
100 2 -0.507238 0.398697 5.99205 13.4783
101 2 -0.648608 2.29109 6.32903 11.9693
102 2 -0.618804 4.37805 0.589304 12.0144
103 2 -0.643414 2.34724 13.396 11.4116
104 2 -0.49774 4.21879 13.9847 9.7338
105 2 -0.668777 6.29624 1.01646 13.4533
106 2 -0.769081 5.94908 2.86456 11.3976
107 2 -0.64842 4.25107 4.3111 8.47915
108 2 -0.65859 4.14479 5.93149 9.95002
109 2 -0.660197 6.91979 4.52736 9.9113
110 2 -0.660973 6.14211 6.48316 8.14096
111 2 -0.65897 0.438515 7.89858 0.888838
112 2 -0.630768 12.8458 5.9933 0.442419
113 2 -0.685463 13.7688 8.02321 13.0874
114 2 -0.529909 0.175501 9.58665 2.39798
115 2 -0.693005 2.65225 8.26775 2.30983
116 2 -0.739962 2.17871 10.043 0.624852
117 2 -0.665259 0.722391 11.6728 4.57311
118 2 -0.552256 13.1253 10.6736 4.59368
119 2 -0.571899 13.7343 12.4821 2.61828
120 2 -0.727324 2.67595 11.6694 5.84585
121 2 -0.688088 4.72134 8.13347 3.5254
122 2 -0.603924 4.51007 9.7922 5.63054
123 2 -0.541681 6.8839 9.34407 3.97075
124 2 -0.618988 6.45271 7.59389 5.70277
125 2 -0.674398 4.41717 11.6039 0.913994
126 2 -0.605646 2.56329 11.6757 13.5457
127 2 -0.58171 4.1387 9.65644 13.719
128 2 -0.660842 5.68631 13.7327 0.377108
129 2 -0.710928 6.33274 11.835 2.62524
130 2 -0.523637 0.655527 9.21804 7.31471
131 2 -0.596365 13.8829 6.66484 8.09618
132 2 -0.586146 13.4395 8.17845 5.98994
133 2 -0.654537 1.30768 9.80713 9.84119
134 2 -0.647218 2.52649 7.71916 9.29409
135 2 -0.60135 3.08157 10.2108 7.82005
136 2 -0.698109 0.554735 11.4246 11.7673
137 2 -0.671598 13.5845 9.23153 11.0652
138 2 -0.661004 13.8989 11.584 9.90176
139 2 -0.560351 4.40696 7.99212 11.1936
140 2 -0.734367 6.02445 7.44461 13.437
141 2 -0.791533 6.17852 9.9547 12.2389
142 2 -0.666951 4.81972 11.9699 7.53871
143 2 -0.473769 6.61015 13.1156 8.76628
144 2 -0.692395 5.85088 11.6048 10.4653
145 2 -0.641535 7.45536 1.04701 1.04214
146 2 -0.78799 7.94494 13.6098 13.7218
147 2 -0.764721 8.08276 2.74048 2.89894
148 2 -0.502561 9.86425 1.47673 2.9751
149 2 -0.597416 9.25607 2.94109 0.611304
150 2 -0.695049 8.05602 4.30046 4.65114
151 2 -0.670324 10.1922 3.78784 6.18695
152 2 -0.559541 9.91766 6.18545 4.48738
153 2 -0.654997 8.43935 6.19245 6.63965
154 2 -0.617122 11.9658 0.228513 4.72165
155 2 -0.6697 9.49095 13.9861 4.33671
156 2 -0.634547 11.372 13.7717 2.41745
157 2 -0.629481 11.5136 1.79389 6.2661
158 2 -0.539381 11.652 3.8419 1.2365
159 2 -0.598144 9.99779 4.78743 13.2214
160 2 -0.696579 11.5415 2.38726 14.1891
161 2 -0.644927 11.7322 6.44872 2.35662
162 2 -0.618135 8.35605 0.531712 7.8381
163 2 -0.635262 8.11471 13.062 6.62875
164 2 -0.668385 8.30319 2.27793 10.0865
165 2 -0.538676 10.2192 0.323494 9.99295
166 2 -0.532846 10.3953 2.56361 8.39465
167 2 -0.661491 7.92713 3.99931 12.1127
168 2 -0.74959 7.98985 6.35412 13.1618
169 2 -0.627254 9.90236 5.99946 11.178
170 2 -0.812078 11.8988 0.744785 12.2689
171 2 -0.61415 9.63329 13.4196 11.5986
172 2 -0.7499 12.0885 13.4743 10.2469
173 2 -0.576093 12.1225 4.29987 7.52016
174 2 -0.634215 11.7342 6.26119 9.70121
175 2 -0.7617 7.66856 8.13363 0.806032
176 2 -0.634633 8.13907 10.6301 1.99011
177 2 -0.621945 9.50761 8.21827 2.45178
178 2 -0.657937 10.0163 9.60712 0.342564
179 2 -0.710298 8.03541 11.7558 4.72291
180 2 -0.633905 10.0657 11.69 5.90948
181 2 -0.676383 11.3152 8.0779 4.6639
182 2 -0.628629 11.2193 9.4453 6.49403
183 2 -0.641667 11.2903 11.723 0.314828
184 2 -0.754781 9.72746 11.6489 13.2295
185 2 -0.625888 11.8061 10.3845 12.8889
186 2 -0.711703 8.012 8.04197 8.4113
187 2 -0.815838 7.93803 10.1336 10.0709
188 2 -0.570674 9.74424 8.5657 10.0917
189 2 -0.62129 9.96509 10.039 8.33439
190 2 -0.773648 7.73348 11.7575 11.724
191 2 -0.738784 11.55 7.83192 11.7928
192 2 -0.675158 11.8338 11.9041 7.92853
ITEM: TIMESTEP
2000
ITEM: NUMBER OF ATOMS
192
ITEM: BOX BOUNDS pp pp pp
-1.2069107203114982e-01 1.4420691072031200e+01
-1.2069107203114982e-01 1.4420691072031200e+01
-1.2069107203114982e-01 1.4420691072031200e+01
ITEM: ATOMS id type q x y z
1 1 1.22302 -0.141415 14.1915 14.1905
2 1 1.43436 1.7917 1.66506 1.59007
3 1 1.60903 14.3179 3.56073 3.4186
4 1 1.30439 1.55548 5.17775 5.2161
5 1 1.30614 3.42313 14.1562 3.16107
6 1 1.38558 5.15197 1.68324 4.88469
7 1 1.40471 3.63887 3.5724 0.0347795
8 1 1.4277 5.38581 5.6984 1.51644
9 1 1.35085 14.1244 14.346 7.09658
10 1 1.34241 1.66563 1.69995 8.85128
11 1 1.35588 0.00504298 3.35117 10.8518
12 1 1.34582 1.76847 5.33136 12.8379
13 1 1.47615 3.46476 -0.0901676 10.7621
14 1 1.51717 5.36757 1.84683 12.6635
15 1 1.30658 3.60511 3.42165 6.92938
16 1 1.57869 5.11532 5.41147 9.04951
17 1 1.37763 0.0388876 7.19612 14.5874
18 1 1.39158 1.91365 8.91464 1.68183
19 1 1.34155 0.257524 10.4615 3.67687
20 1 1.2496 1.64723 12.8721 5.54913
21 1 1.31538 3.43206 6.95127 3.63169
22 1 1.01742 5.00539 9.15705 5.57095
23 1 1.30186 3.87146 10.745 -0.00335373
24 1 1.15974 5.66319 12.7494 1.63466
25 1 1.38076 14.3546 6.86074 7.51686
26 1 1.47005 1.56506 8.86244 9.21641
27 1 1.2633 14.3862 10.8019 10.9466
28 1 1.34943 1.91898 12.302 12.535
29 1 1.57432 3.4732 7.20309 10.9291
30 1 1.42691 5.70782 8.96745 12.3296
31 1 1.29899 3.22902 10.7481 7.72715
32 1 1.38631 5.37703 12.7345 9.12627
33 1 1.53183 7.38277 -0.00542705 14.0786
34 1 1.19013 9.10143 1.72286 1.74907
35 1 1.33291 7.16003 3.6921 3.29797
36 1 1.35329 8.80684 5.52993 5.33878
37 1 1.14842 10.8625 0.158509 3.6338
38 1 1.26451 12.455 1.94861 5.35383
39 1 1.14652 11.0114 3.59313 14.2805
40 1 1.53478 12.7162 5.46103 1.68531
41 1 1.63101 6.68799 14.2822 6.82593
42 1 1.65774 8.47795 1.64228 8.58361
43 1 1.53016 7.13517 3.46091 10.6383
44 1 1.52577 8.86734 5.15962 12.5143
45 1 1.30809 10.7153 0.0512421 10.4345
46 1 1.25976 12.6162 1.34042 12.3915
47 1 1.51982 10.1462 3.52476 7.08878
48 1 1.31373 12.2749 5.21286 9.05334
49 1 1.54397 7.50038 7.43385 14.2961
50 1 1.4323 8.96322 9.01028 1.72785
51 1 1.52978 7.09551 10.621 3.65647
52 1 1.47877 8.90558 12.6114 5.53017
53 1 1.41592 10.7044 7.06058 3.35602
54 1 1.29938 12.7771 8.72883 5.25677
55 1 1.38034 10.6839 11.1448 0.148253
56 1 1.30945 12.9173 12.6521 2.09844
57 1 1.29819 7.067 7.27705 7.38245
58 1 1.43928 9.41023 8.71899 9.01951
59 1 1.37993 7.49445 11.0559 10.6773
60 1 1.45297 9.20925 12.8071 12.4878
61 1 1.26843 10.7251 6.99598 11.132
62 1 1.25431 12.618 9.33725 13.0254
63 1 1.54365 10.783 10.5885 6.96097
64 1 1.37316 12.3513 12.3425 8.99416
65 2 -0.538417 0.919991 0.821721 0.421591
66 2 -0.635527 0.974551 13.2854 13.2032
67 2 -0.712054 13.6307 0.0815723 12.957
68 2 -0.659062 13.9183 13.4422 1.13357
69 2 -0.720755 0.547999 2.48441 2.53355
70 2 -0.650374 2.3698 0.332055 2.02429
71 2 -0.744103 2.79573 2.39767 0.809931
72 2 -0.814776 0.683159 4.49098 4.18748
73 2 -0.716601 13.4829 3.21279 4.63846
74 2 -0.816026 13.477 4.24387 2.30137
75 2 -0.653289 2.51442 4.19157 5.87762
76 2 -0.599681 2.56637 5.6869 3.96538
77 2 -0.626572 1.07458 6.14376 6.81283
78 2 -0.653728 4.06902 0.901786 3.95333
79 2 -0.680046 2.5803 13.4278 4.1195
80 2 -0.589987 4.75812 14.0423 2.05119
81 2 -0.715382 4.18883 2.49658 5.79585
82 2 -0.65052 6.22302 2.81582 4.36775
83 2 -0.740215 5.78504 0.341349 5.6175
84 2 -0.744534 4.59226 4.89279 0.653384
85 2 -0.658963 2.39944 4.59612 14.1156
86 2 -0.742992 4.31938 2.67673 13.5109
87 2 -0.709462 4.51408 6.18278 2.78463
88 2 -0.658658 6.39663 4.4652 2.02022
89 2 -0.722886 6.65131 6.79931 0.916993
90 2 -0.703556 0.650018 0.608202 8.1189
91 2 -0.676323 0.391934 13.2042 6.45067
92 2 -0.659985 13.4011 0.608654 5.92871
93 2 -0.577324 13.0067 13.4439 7.92609
94 2 -0.725458 0.710051 2.71904 9.52815
95 2 -0.681463 2.68921 1.14567 10.1945
96 2 -0.697584 2.74968 2.4276 8.02194
97 2 -0.653332 1.05643 4.06717 11.8413
98 2 -0.657932 13.6059 2.45728 11.755
99 2 -0.590293 13.4527 4.42594 10.2081
100 2 -0.642375 0.941937 6.61108 13.3827
101 2 -0.737353 2.71262 6.19229 11.9129
102 2 -0.619424 4.39315 0.804134 11.8131
103 2 -0.722133 3.10419 13.3567 11.7903
104 2 -0.743307 4.58004 14.0173 9.9135
105 2 -0.821062 6.38651 0.985399 13.4948
106 2 -0.720329 6.26639 2.85658 11.8613
107 2 -0.704773 4.49485 4.5677 7.81259
108 2 -0.834906 4.24316 6.45284 9.7843
109 2 -0.739786 6.04619 4.47028 9.95246
110 2 -0.700132 6.06388 6.2999 8.33428
111 2 -0.698335 1.34232 7.77065 0.732438
112 2 -0.827079 13.4113 6.44459 0.666365
113 2 -0.629209 13.8046 8.54051 13.7945
114 2 -0.774566 1.25804 10.0288 2.56458
115 2 -0.664287 2.69909 7.7554 2.3779
116 2 -0.611691 3.24463 9.71231 1.16264
117 2 -0.5737 1.26108 11.7779 4.68756
118 2 -0.728695 14.0336 9.32607 4.58735
119 2 -0.645489 13.834 11.451 3.02335
120 2 -0.489157 2.16991 11.8775 6.94509
121 2 -0.599511 3.60709 7.61329 5.0439
122 2 -0.572014 4.27238 10.3132 6.39364
123 2 -0.663756 6.10721 10.2607 4.77072
124 2 -0.575629 5.79512 8.50562 6.8206
125 2 -0.691437 4.83784 11.7899 0.543109
126 2 -0.668583 2.68998 11.3852 13.6493
127 2 -0.512397 4.78888 9.44452 13.8714
128 2 -0.556861 7.03241 13.4277 0.849446
129 2 -0.663667 6.18321 11.6737 2.97222
130 2 -0.714254 0.498178 8.04664 8.15949
131 2 -0.723502 12.9553 6.34812 8.18262
132 2 -0.603861 13.6107 7.45302 6.24913
133 2 -0.606753 0.343411 9.57404 10.0734
134 2 -0.807186 2.37681 8.11038 10.2672
135 2 -0.817577 2.25103 10.1095 8.67861
136 2 -0.709 0.93184 11.1676 12.1006
137 2 -0.637044 13.1747 9.93548 11.532
138 2 -0.639103 13.8142 11.9286 9.79191
139 2 -0.750191 4.46407 8.25182 11.6322
140 2 -0.778419 6.61528 8.38663 13.2896
141 2 -0.716946 6.33931 10.1115 11.3619
142 2 -0.667878 4.14404 11.8829 8.33079
143 2 -0.78111 5.97348 13.4555 7.85164
144 2 -0.755945 6.59116 12.1154 9.96206
145 2 -0.621828 8.12866 0.975652 0.618588
146 2 -0.873927 8.1603 13.5538 13.3421
147 2 -0.641551 7.8944 2.34838 2.86111
148 2 -0.626011 10.034 0.608094 2.215
149 2 -0.542129 10.427 2.3912 0.800598
150 2 -0.737728 7.93232 4.66084 4.24449
151 2 -0.79334 9.80894 4.66186 6.11378
152 2 -0.707243 10.0385 6.44255 4.56205
153 2 -0.709934 7.84389 6.23728 6.53744
154 2 -0.715273 11.6494 1.38111 4.27609
155 2 -0.566844 10.0027 13.6307 5.02605
156 2 -0.594262 12.1015 13.5133 3.10076
157 2 -0.630828 11.1617 2.57613 6.48408
158 2 -0.627118 12.0017 4.7672 0.505115
159 2 -0.757838 9.77312 4.30127 13.402
160 2 -0.599063 11.6878 2.25628 13.1461
161 2 -0.729729 11.4619 5.71715 2.49269
162 2 -0.790986 7.44584 0.790623 7.67246
163 2 -0.838209 7.88313 13.4213 6.23848
164 2 -0.877802 7.61262 2.39322 9.66501
165 2 -0.660192 9.58816 0.736483 9.26906
166 2 -0.909942 9.24907 2.51917 7.66206
167 2 -0.755134 7.80699 4.42362 11.721
168 2 -0.719488 8.08872 6.29073 13.2623
169 2 -0.622253 9.33015 6.22809 11.4103
170 2 -0.620661 11.6816 1.26185 10.9896
171 2 -0.722344 9.73208 14.0436 11.5671
172 2 -0.733009 11.387 13.377 9.66538
173 2 -0.627911 11.4734 4.06843 8.36114
174 2 -0.711514 11.4315 5.99041 10.1764
175 2 -0.784014 8.5399 8.29333 0.369873
176 2 -0.792513 7.75217 9.57125 2.77368
177 2 -0.803154 9.87017 7.96832 2.39718
178 2 -0.671117 9.64132 10.4805 1.12108
179 2 -0.679231 8.20927 11.4785 4.33567
180 2 -0.755999 9.90095 11.4954 6.06067
181 2 -0.675534 11.8162 7.97072 4.05623
182 2 -0.699208 11.6906 9.77605 5.92137
183 2 -0.662938 11.7942 11.7906 1.20387
184 2 -0.736406 10.2776 11.9491 13.371
185 2 -0.679593 11.5635 9.94353 13.9519
186 2 -0.692418 8.23841 7.84636 8.23982
187 2 -0.576966 8.31722 9.93772 9.68786
188 2 -0.660351 9.74164 7.902 10.3158
189 2 -0.806467 10.2736 9.52218 8.14921
190 2 -0.718675 8.74281 11.6381 11.4571
191 2 -0.505232 11.3922 8.23817 12.295
192 2 -0.739469 11.6022 11.4833 7.91784
ITEM: TIMESTEP
3000
ITEM: NUMBER OF ATOMS
192
ITEM: BOX BOUNDS pp pp pp
-1.0176048054526277e-01 1.4401760480545303e+01
-1.0176048054526277e-01 1.4401760480545303e+01
-1.0176048054526277e-01 1.4401760480545303e+01
ITEM: ATOMS id type q x y z
1 1 1.55945 -0.111916 14.3022 0.093803
2 1 1.41183 1.70696 1.54319 1.73377
3 1 1.51364 14.2981 3.76924 3.5701
4 1 1.37315 1.87963 5.48433 5.40535
5 1 1.35359 3.41996 14.3435 3.76974
6 1 1.11918 5.68654 1.65704 5.66181
7 1 1.40494 3.5345 3.27643 14.3535
8 1 1.41205 5.18704 5.01215 1.76078
9 1 1.29999 14.3148 14.1341 7.2431
10 1 1.34667 1.70542 1.83715 8.5917
11 1 1.4489 0.0907361 3.20396 10.7443
12 1 1.34783 1.70696 5.20211 12.591
13 1 1.4321 3.76121 14.211 10.5763
14 1 1.36724 5.50153 1.45859 12.2878
15 1 1.10801 3.87031 3.97035 7.35141
16 1 1.1986 5.7637 5.77492 9.22887
17 1 1.43638 14.1545 6.97729 14.3285
18 1 1.74247 1.25031 8.86978 1.48295
19 1 1.45341 14.1857 10.759 3.16234
20 1 1.53759 1.47143 12.5617 5.19793
21 1 1.61029 3.22956 7.02778 3.09415
22 1 1.22998 5.16771 8.86714 4.97248
23 1 1.52825 3.13334 10.967 0.182318
24 1 1.38188 5.06098 12.803 1.77992
25 1 1.22038 -0.0115279 7.5382 7.20746
26 1 1.61776 1.89089 9.14589 9.18556
27 1 1.63503 -0.0914403 10.9091 10.6446
28 1 1.18333 1.64472 12.6877 12.4879
29 1 1.42928 3.55 7.22611 10.9012
30 1 1.19326 5.21723 8.81022 12.807
31 1 1.34224 3.53074 10.6156 6.84375
32 1 1.30737 5.52864 12.3874 8.83707
33 1 1.65516 6.94543 14.3093 -0.116775
34 1 1.48064 8.68266 1.67557 1.63071
35 1 1.40151 7.29295 3.4279 3.73797
36 1 1.31689 9.47674 5.25978 5.62303
37 1 1.505 10.5805 0.0476285 3.25043
38 1 1.31166 12.6322 1.51493 5.16372
39 1 1.41353 10.8476 3.54179 0.163381
40 1 1.36528 12.2821 5.45082 1.9546
41 1 1.582 7.54125 14.3018 7.54623
42 1 1.53898 9.35351 1.64194 9.24516
43 1 1.32527 7.38565 3.70208 11.0058
44 1 1.31977 9.32827 5.74413 12.7818
45 1 1.34273 10.6315 14.135 11.1833
46 1 1.31886 12.685 1.64981 12.8099
47 1 1.49474 11.0713 3.3198 7.33319
48 1 1.43321 12.7329 5.21894 8.91327
49 1 1.28391 7.03834 7.12687 0.097042
50 1 1.3532 8.90497 8.80255 1.73816
51 1 1.41813 7.19334 10.782 3.31235
52 1 1.28168 8.85448 12.8255 5.031
53 1 1.56963 10.889 7.40614 3.67658
54 1 1.27737 12.6244 9.40857 5.44452
55 1 1.28132 10.7026 10.6304 14.0199
56 1 1.36114 12.1448 12.4843 1.45475
57 1 1.27692 7.41544 7.18116 7.01737
58 1 1.36067 9.17438 9.06089 8.77691
59 1 1.47862 6.81701 10.3098 10.7498
60 1 1.39373 8.42102 12.406 12.4303
61 1 1.50171 11.0204 7.13809 10.4862
62 1 1.37276 12.913 9.16078 12.2526
63 1 1.46902 10.4959 11.1139 6.89238
64 1 1.42315 12.2661 12.5745 8.94322
65 2 -0.7655 0.828998 0.493648 1.09153
66 2 -0.700315 0.848484 13.349 13.8997
67 2 -0.736843 13.6316 1.02051 13.8178
68 2 -0.697165 13.4981 13.4268 1.00793
69 2 -0.629783 0.725358 3.03624 2.51452
70 2 -0.771263 2.51153 0.766154 2.74445
71 2 -0.734314 2.48598 2.31208 0.513232
72 2 -0.66769 1.00849 4.44666 4.40178
73 2 -0.791565 13.6 2.69178 4.44024
74 2 -0.683957 13.6503 4.93931 2.96767
75 2 -0.705529 2.91138 5.13227 6.41806
76 2 -0.76898 2.42167 6.35189 4.23408
77 2 -0.591716 0.581947 6.51802 5.95391
78 2 -0.580447 4.30474 0.613148 4.6918
79 2 -0.65841 2.26177 14.0138 4.81936
80 2 -0.732109 4.63029 13.3631 3.16472
81 2 -0.543854 4.41784 2.52457 6.66592
82 2 -0.690804 6.73128 2.55058 5.25841
83 2 -0.640383 6.38503 0.314061 6.66046
84 2 -0.785963 4.61473 4.02536 0.713437
85 2 -0.703307 2.83724 4.21984 13.263
86 2 -0.592689 4.39458 2.18019 13.3119
87 2 -0.829743 4.22565 6.11078 2.25777
88 2 -0.758936 6.39518 3.99291 2.75294
89 2 -0.639891 6.08047 6.01804 0.922752
90 2 -0.662668 0.812557 0.424741 8.12401
91 2 -0.738475 0.649117 12.9619 6.3634
92 2 -0.580007 13.1219 0.511419 6.20035
93 2 -0.661417 13.082 13.6308 8.16746
94 2 -0.730068 0.746587 2.1757 9.84008
95 2 -0.491467 2.94212 1.25082 9.31549
96 2 -0.649946 2.43037 3.08876 8.24946
97 2 -0.682806 0.92434 4.16308 11.7091
98 2 -0.667059 13.6208 2.39169 11.6312
99 2 -0.710147 13.453 4.34288 9.95057
100 2 -0.663563 0.406706 5.87529 13.2322
101 2 -0.662622 2.36533 6.19603 11.3258
102 2 -0.77037 4.59737 0.793428 11.2264
103 2 -0.654985 2.66869 13.7339 11.6163
104 2 -0.777718 4.56149 13.291 9.72869
105 2 -0.862946 6.27135 0.482383 13.2755
106 2 -0.635629 6.81805 2.71999 12.0295
107 2 -0.600853 4.99773 4.96363 7.73577
108 2 -0.608352 4.84704 7.02192 9.84851
109 2 -0.707583 6.33376 4.59073 10.2098
110 2 -0.615076 6.86387 6.6387 8.48004
111 2 -0.874146 0.423384 7.77483 0.772826
112 2 -0.723873 13.1065 6.27093 0.791791
113 2 -0.707797 13.6229 8.11909 13.0919
114 2 -0.870055 0.343562 9.52357 2.48475
115 2 -0.798395 2.29563 7.84326 2.14463
116 2 -0.88056 2.00451 10.0519 0.978289
117 2 -0.708558 0.734774 11.99 4.00565
118 2 -0.726597 13.6452 10.2644 4.58179
119 2 -0.690691 13.133 11.7009 2.62014
120 2 -0.708132 2.59209 11.8503 5.89087
121 2 -0.734032 3.93356 8.05572 3.97176
122 2 -0.665658 4.61804 9.76728 6.29693
123 2 -0.662878 6.28194 9.74224 4.14396
124 2 -0.519488 6.24993 8.26198 5.95826
125 2 -0.800507 3.82086 11.9493 1.0377
126 2 -0.631804 2.7142 11.5886 13.3208
127 2 -0.600757 4.07429 10.1303 13.7578
128 2 -0.763507 6.11163 13.3665 0.723351
129 2 -0.640007 6.20009 11.7142 2.3843
130 2 -0.692328 1.17624 8.4125 8.08505
131 2 -0.606647 13.7435 6.57898 8.10441
132 2 -0.556753 13.1457 8.6423 6.82854
133 2 -0.804915 0.646239 9.58183 9.95533
134 2 -0.781004 2.82205 8.28384 10.034
135 2 -0.730265 2.63915 9.97709 8.00085
136 2 -0.722983 0.883537 11.8993 11.0837
137 2 -0.810888 13.7604 10.3815 11.8997
138 2 -0.750272 13.4438 11.7335 9.82821
139 2 -0.663319 3.98102 8.06881 12.0774
140 2 -0.599284 5.82878 7.46895 13.1952
141 2 -0.74492 5.94731 9.37104 11.4201
142 2 -0.555064 4.60411 11.698 7.55625
143 2 -0.691432 6.64576 13.6498 8.6472
144 2 -0.643453 6.17281 10.988 9.28603
145 2 -0.845512 7.76257 0.615269 1.04841
146 2 -0.738675 7.60032 13.1135 13.6389
147 2 -0.725087 8.20085 2.56511 2.88219
148 2 -0.731459 9.9311 1.2636 2.459
149 2 -0.687499 9.60245 2.55963 0.480996
150 2 -0.573735 8.4498 4.31997 4.49811
151 2 -0.770295 10.1315 4.17903 6.33454
152 2 -0.609476 9.8911 6.85903 4.58724
153 2 -0.673579 8.31643 5.98023 6.44618
154 2 -0.701545 11.624 0.54894 4.40199
155 2 -0.685224 9.2798 13.9555 3.93834
156 2 -0.748589 11.0541 13.4344 2.35775
157 2 -0.595335 11.7879 2.03084 6.59014
158 2 -0.75323 11.4254 4.17132 1.48127
159 2 -0.723765 10.3949 4.6636 13.6982
160 2 -0.648656 12.0483 2.59848 14.0757
161 2 -0.841905 11.7878 6.38945 3.08669
162 2 -0.825529 8.45749 0.78802 8.23803
163 2 -0.721883 8.20697 13.2663 6.62294
164 2 -0.663135 8.37594 2.58402 10.3121
165 2 -0.80006 9.91192 0.794807 10.3737
166 2 -0.824614 10.2791 2.44489 8.30484
167 2 -0.632137 8.28014 4.94026 11.9073
168 2 -0.678249 8.28312 6.56139 13.7301
169 2 -0.757543 10.1283 6.74936 11.7819
170 2 -0.616482 11.8827 0.475999 11.8986
171 2 -0.764997 9.65709 12.9903 11.6363
172 2 -0.571994 11.8974 13.4505 10.3927
173 2 -0.796078 11.8621 4.56832 7.73921
174 2 -0.783663 11.768 6.0542 9.7162
175 2 -0.769886 7.64309 7.99717 1.12743
176 2 -0.661404 8.34355 10.0486 2.67157
177 2 -0.729417 9.55786 7.93273 2.81029
178 2 -0.650231 9.60885 9.85973 0.601537
179 2 -0.652784 8.28956 11.5758 4.22393
180 2 -0.597658 10.2503 12.2454 5.72031
181 2 -0.675357 11.6266 8.15426 4.75075
182 2 -0.65044 11.2754 10.2011 5.88755
183 2 -0.74202 11.8313 11.5393 0.364429
184 2 -0.624808 9.57107 11.632 13.2828
185 2 -0.711478 11.7004 9.90377 13.0713
186 2 -0.616071 8.25269 8.34558 7.60316
187 2 -0.653889 8.06962 9.49563 9.98603
188 2 -0.664641 10.4908 8.10043 9.38406
189 2 -0.748541 9.74957 10.0755 7.82814
190 2 -0.805142 7.40753 11.4432 11.5669
191 2 -0.61313 12.1654 8.12673 10.8123
192 2 -0.801521 11.2921 11.992 7.96546
ITEM: TIMESTEP
4000
ITEM: NUMBER OF ATOMS
192
ITEM: BOX BOUNDS pp pp pp
-7.6459792247904446e-02 1.4376459792247918e+01
-7.6459792247904446e-02 1.4376459792247918e+01
-7.6459792247904446e-02 1.4376459792247918e+01
ITEM: ATOMS id type q x y z
1 1 1.52234 0.129606 -0.0457347 0.00264877
2 1 1.43646 1.84193 1.80427 1.79504
3 1 1.49519 14.2233 3.65445 3.2916
4 1 1.75655 1.55198 5.2183 5.13021
5 1 1.42127 3.56174 13.9083 3.36329
6 1 1.29238 5.1759 1.64171 4.85723
7 1 1.53739 3.78595 3.6829 -0.0268117
8 1 1.40444 5.39757 5.7094 1.67868
9 1 1.20511 0.00790286 14.2334 7.15143
10 1 1.48794 1.64468 1.7132 8.92822
11 1 1.38883 -0.0278208 3.90313 10.5711
12 1 1.32633 1.94297 5.44727 12.5876
13 1 1.37727 3.41784 0.00675384 10.7978
14 1 1.61112 5.17058 1.74694 12.5525
15 1 1.45781 3.29837 3.46338 6.9474
16 1 1.5577 5.30557 5.11433 8.52861
17 1 1.45253 0.291304 7.37763 0.172957
18 1 1.45231 2.25982 8.96671 1.78029
19 1 1.471 0.190825 10.9781 3.84775
20 1 1.43154 2.0553 12.5425 5.70385
21 1 1.47674 3.41168 7.20063 3.86042
22 1 1.61185 5.2951 9.17687 5.50847
23 1 1.43944 3.70643 10.787 -0.0232204
24 1 1.55308 5.88998 12.6315 1.67165
25 1 1.67143 0.0435713 6.99331 7.07621
26 1 1.52034 1.42312 8.59628 9.26696
27 1 1.26744 14.336 10.4513 11.0795
28 1 1.38422 1.72381 12.4042 12.8446
29 1 1.39398 3.60557 7.26943 10.6572
30 1 1.48839 5.43022 9.09139 12.2693
31 1 1.65399 3.35514 10.4767 7.5953
32 1 1.27968 5.01777 12.7925 8.57233
33 1 1.53105 7.19064 0.430998 -0.0026171
34 1 1.22731 9.27732 1.9418 2.07885
35 1 1.38653 7.03656 3.77685 3.41214
36 1 1.48379 8.9379 5.45165 5.46675
37 1 1.65393 11.0089 -0.0594303 3.71883
38 1 1.44713 12.7422 1.70209 5.40666
39 1 1.20849 10.927 3.59279 0.183944
40 1 1.74618 12.5839 5.56432 1.64343
41 1 1.59965 7.03027 0.0131199 6.86448
42 1 1.45645 8.73972 1.42596 8.92617
43 1 1.47008 6.91645 3.09059 10.5364
44 1 1.34242 8.34957 5.06295 12.6549
45 1 1.35554 11.0205 14.3181 10.283
46 1 1.2177 12.5133 1.82575 12.3024
47 1 1.23911 10.6664 3.47108 7.15481
48 1 1.27459 12.336 5.34999 8.80634
49 1 1.36062 7.01932 7.46595 14.213
50 1 1.46095 8.99807 8.93536 1.44996
51 1 1.53662 7.32374 10.3691 3.57761
52 1 1.24451 8.99077 12.423 5.40066
53 1 1.64207 10.6909 7.18937 3.47534
54 1 1.50237 12.5748 8.9839 4.96592
55 1 1.45877 11.1055 10.937 14.3491
56 1 1.28605 12.7043 12.6981 1.99719
57 1 1.49834 7.11322 7.27121 7.1408
58 1 1.17463 8.65905 8.71141 9.32534
59 1 1.2744 7.13512 11.2413 10.4881
60 1 1.28678 8.86561 12.7567 12.5932
61 1 1.51232 10.4584 6.8862 11.0505
62 1 1.30954 12.5182 8.6951 12.9319
63 1 1.22316 10.6622 10.2365 6.93113
64 1 1.50969 12.5848 12.0824 8.73012
65 2 -0.756357 0.927758 1.06934 0.793386
66 2 -0.819161 0.736195 13.283 13.7091
67 2 -0.552983 13.4039 0.476132 13.3909
68 2 -0.639877 13.6239 13.9776 1.12663
69 2 -0.749741 1.04617 2.99107 2.32474
70 2 -0.668936 2.65693 0.329563 2.33046
71 2 -0.692202 2.82576 2.5245 0.830985
72 2 -0.846236 0.367588 4.81962 4.08453
73 2 -0.700952 13.177 2.73365 4.0787
74 2 -0.811483 13.5193 4.4656 2.26193
75 2 -0.839063 2.29361 4.18994 5.86518
76 2 -0.799809 2.73639 6.06796 4.7765
77 2 -0.8886 0.888363 5.98149 6.20155
78 2 -0.698905 4.0336 0.685338 4.21743
79 2 -0.72937 3.06852 12.8589 4.51072
80 2 -0.736325 4.86442 13.3524 2.62393
81 2 -0.576276 4.13532 2.05896 6.15064
82 2 -0.77227 5.99525 2.9107 3.94221
83 2 -0.72948 6.10681 0.745772 5.7476
84 2 -0.798507 4.64405 4.5411 0.914322
85 2 -0.779519 3.03756 4.79544 13.5623
86 2 -0.852085 4.63479 2.71957 13.6143
87 2 -0.62808 4.45989 5.99087 2.89073
88 2 -0.589925 6.8955 5.15687 2.71899
89 2 -0.767002 6.01892 6.73178 0.814205
90 2 -0.670713 0.499188 0.963457 8.15374
91 2 -0.730701 1.27726 13.757 6.19352
92 2 -0.683982 13.5616 1.11837 6.48525
93 2 -0.657248 13.5233 12.8088 7.83011
94 2 -0.683252 0.704282 2.73395 9.60493
95 2 -0.74954 2.35204 1.06454 10.1101
96 2 -0.757227 2.6485 2.77536 8.11186
97 2 -0.679128 0.945692 4.95383 11.4624
98 2 -0.645654 13.4107 3.02396 11.5352
99 2 -0.741739 13.4867 4.77925 9.81029
100 2 -0.670504 0.879338 6.36154 13.6205
101 2 -0.64567 2.60085 6.74126 11.7741
102 2 -0.783197 4.14255 0.668376 11.9323
103 2 -0.625726 2.28918 13.199 11.546
104 2 -0.66478 4.27427 13.9342 9.54121
105 2 -0.815943 6.10818 0.947505 13.5792
106 2 -0.830954 5.96855 2.27455 11.2936
107 2 -0.795177 4.1969 4.50901 7.63941
108 2 -0.616286 4.6066 6.06387 9.52421
109 2 -0.724777 6.11624 4.14241 9.65691
110 2 -0.720612 6.31771 5.87923 7.72331
111 2 -0.819858 1.04065 8.44189 0.995653
112 2 -0.730155 13.4939 6.31193 0.669418
113 2 -0.668161 13.6683 8.36127 13.9489
114 2 -0.572007 1.31629 9.99258 3.18975
115 2 -0.876852 2.68252 7.92745 2.75081
116 2 -0.802516 3.39185 9.91769 1.18454
117 2 -0.785173 0.816535 11.8212 4.9127
118 2 -0.789319 13.5078 9.88615 4.14249
119 2 -0.720551 13.8833 11.9027 2.76287
120 2 -0.823715 2.52729 11.53 7.00373
121 2 -0.714484 4.43577 7.90025 4.75256
122 2 -0.857088 4.2898 9.82599 6.4594
123 2 -0.837937 6.2199 9.65412 4.39639
124 2 -0.816328 6.18936 8.30499 6.46117
125 2 -0.662519 5.0439 11.8716 0.668002
126 2 -0.789706 2.85985 11.8819 13.872
127 2 -0.751058 4.41978 9.70627 13.408
128 2 -0.782652 6.75193 13.7026 1.00295
129 2 -0.675189 6.34962 11.5141 2.73089
130 2 -0.826701 0.801472 7.87053 8.0092
131 2 -0.682682 13.3832 6.46141 8.01172
132 2 -0.688745 13.6854 7.94144 6.16889
133 2 -0.701912 0.673535 8.98606 10.5634
134 2 -0.731816 2.47328 7.56303 9.69998
135 2 -0.784761 2.50506 9.65504 8.58681
136 2 -0.671474 0.877343 11.1048 12.0676
137 2 -0.685022 13.2469 9.8115 11.9174
138 2 -0.689249 13.5368 11.6338 9.79556
139 2 -0.750869 4.64305 8.3013 11.2006
140 2 -0.682798 6.26056 7.86809 12.6737
141 2 -0.682281 6.22619 10.1176 11.4052
142 2 -0.753634 4.36164 11.3084 8.4764
143 2 -0.720448 5.79812 13.5686 7.45016
144 2 -0.552739 6.11304 12.6109 9.92381
145 2 -0.744087 8.1951 0.979127 0.987236
146 2 -0.665386 7.88661 13.8144 13.2671
147 2 -0.60072 8.54482 3.12112 3.04053
148 2 -0.66852 10.228 1.17277 3.10862
149 2 -0.611886 10.4518 2.89592 1.5585
150 2 -0.562079 7.59111 4.61982 4.65681
151 2 -0.682866 9.6088 4.21716 6.03781
152 2 -0.769583 9.60781 6.43368 4.41711
153 2 -0.752087 8.27495 6.52432 6.37769
154 2 -0.821906 12.0463 0.751148 4.45258
155 2 -0.723979 10.0923 13.6971 4.75482
156 2 -0.807061 11.5432 13.6732 2.5476
157 2 -0.658706 11.6513 2.39548 6.5005
158 2 -0.776436 11.6625 4.76035 0.6773
159 2 -0.536469 9.20182 4.17248 13.7787
160 2 -0.655039 11.5374 2.51828 13.2113
161 2 -0.832283 11.7033 6.37227 2.49142
162 2 -0.850485 7.87437 0.877972 7.72693
163 2 -0.678471 7.97621 13.3775 6.52295
164 2 -0.760116 8.03773 1.92326 10.2028
165 2 -0.755787 9.79844 0.488771 9.53475
166 2 -0.632221 9.55043 2.86213 8.17955
167 2 -0.689828 7.35346 4.15334 11.7363
168 2 -0.642446 7.73333 6.05199 13.7148
169 2 -0.729374 9.44154 5.94447 11.8093
170 2 -0.641044 12.1804 0.798339 11.0505
171 2 -0.541321 10.0109 13.4532 11.6562
172 2 -0.731743 11.7034 13.3138 9.37705
173 2 -0.685135 11.3971 4.95735 7.65596
174 2 -0.715422 11.262 6.35813 9.929
175 2 -0.80005 8.0406 8.44699 0.426785
176 2 -0.835422 8.0212 9.49616 2.58786
177 2 -0.73613 10.0498 7.93045 2.26422
178 2 -0.627597 10.0251 10.2498 0.685036
179 2 -0.754203 7.98465 11.4718 4.52234
180 2 -0.625903 9.72155 11.5661 6.49087
181 2 -0.842361 11.7333 7.87676 4.25489
182 2 -0.773022 11.4283 9.68552 5.57363
183 2 -0.69822 11.6816 11.6143 1.10903
184 2 -0.609232 10.1489 12.0406 13.369
185 2 -0.696998 11.5657 9.56826 13.8378
186 2 -0.681116 7.82091 7.5468 8.52607
187 2 -0.625959 7.96878 10.3197 9.59746
188 2 -0.638606 9.52752 8.03648 10.5934
189 2 -0.572249 9.88201 9.37561 8.18128
190 2 -0.639256 8.18892 11.5911 11.6022
191 2 -0.602568 11.0839 7.84542 12.1573
192 2 -0.669128 11.9099 11.0915 7.63572
ITEM: TIMESTEP
5000
ITEM: NUMBER OF ATOMS
192
ITEM: BOX BOUNDS pp pp pp
-4.6120385033425748e-02 1.4346120385033396e+01
-4.6120385033425748e-02 1.4346120385033396e+01
-4.6120385033425748e-02 1.4346120385033396e+01
ITEM: ATOMS id type q x y z
1 1 1.52816 14.3113 14.1995 0.193776
2 1 1.27423 1.98775 1.80128 1.52164
3 1 1.18629 -0.0351257 3.53094 3.47644
4 1 1.56694 1.88256 5.24937 5.19477
5 1 1.37891 3.75608 0.25016 3.71576
6 1 1.35943 5.45266 1.73651 5.66393
7 1 1.75255 3.5827 3.85112 14.2527
8 1 1.31427 5.36214 5.20401 2.16286
9 1 1.46226 0.217259 14.2355 6.98142
10 1 1.46003 2.04953 1.71052 8.65475
11 1 1.35486 0.136603 3.18197 10.5441
12 1 1.39266 1.6977 4.99105 12.2487
13 1 1.39401 3.69911 0.203052 10.8439
14 1 1.21437 5.65941 1.95348 12.5884
15 1 1.27061 3.92267 3.81839 7.18771
16 1 1.40006 5.37614 5.53772 9.13444
17 1 1.45968 14.0238 6.76218 14.15
18 1 1.36088 1.5964 8.83463 1.39556
19 1 1.38047 0.264491 10.5081 3.56669
20 1 1.36212 2.11011 12.3653 5.20432
21 1 1.43047 3.47497 7.39741 3.4174
22 1 1.31645 5.4012 8.99346 5.20315
23 1 1.59593 3.29441 10.8036 14.184
24 1 1.58859 4.84983 12.342 1.87084
25 1 1.48391 0.193633 6.89637 7.05258
26 1 1.30758 1.73477 9.1608 8.95876
27 1 1.51812 14.2588 11.2088 10.6777
28 1 1.46978 1.67134 12.7716 12.4687
29 1 1.45709 3.40365 7.19127 10.7317
30 1 1.32781 5.10334 8.7868 12.8764
31 1 1.47663 3.62989 10.8169 7.16907
32 1 1.52903 5.20768 12.6088 9.02694
33 1 1.55408 6.7648 14.0452 0.115145
34 1 1.44031 8.93845 1.60804 1.51405
35 1 1.33393 7.40473 3.36372 3.60529
36 1 1.42989 8.95027 5.32782 5.40034
37 1 1.27749 10.6171 0.14943 3.76
38 1 1.2012 12.4216 1.80316 5.58168
39 1 1.6073 10.64 3.51427 14.3395
40 1 1.31713 12.1706 5.22277 1.77304
41 1 1.48537 7.21734 0.0330081 7.34036
42 1 1.37003 8.8093 1.7656 9.13604
43 1 1.46293 7.15535 3.98595 10.9149
44 1 1.48955 9.32726 5.56835 12.4743
45 1 1.5083 10.6694 14.1238 11.0345
46 1 1.27626 12.4431 1.75736 12.541
47 1 1.20321 10.5316 3.63804 7.48178
48 1 1.29779 12.7914 5.13254 9.05319
49 1 1.25626 7.04893 6.99771 0.29339
50 1 1.42152 8.94359 9.04892 1.85991
51 1 1.67422 7.11204 10.8314 3.30413
52 1 1.56629 8.63081 12.4063 5.29604
53 1 1.34989 10.7596 7.48802 3.9812
54 1 1.66846 12.7604 9.15722 5.68909
55 1 1.36999 10.7424 10.4789 14.2546
56 1 1.30593 12.4328 12.3107 1.97685
57 1 1.21278 7.02467 7.03048 6.7959
58 1 1.38999 8.77188 8.82869 8.50417
59 1 1.2076 6.90437 10.4239 10.6292
60 1 1.43611 8.67339 12.2918 12.47
61 1 1.55974 10.8662 7.53442 10.3402
62 1 1.52085 12.6927 8.9491 12.4631
63 1 1.76604 10.6414 10.8764 6.94445
64 1 1.65773 12.3355 12.6329 8.86386
65 2 -0.73669 0.794179 0.809638 1.05312
66 2 -0.798162 0.828503 13.5749 13.6
67 2 -0.618113 13.5042 0.880729 13.7835
68 2 -0.724584 13.2123 13.1559 0.835888
69 2 -0.560476 1.16851 2.4711 2.81135
70 2 -0.575869 3.4134 1.00298 2.30737
71 2 -0.847282 2.70975 2.93969 0.63108
72 2 -0.731742 1.09652 4.40988 4.21207
73 2 -0.554391 13.8033 2.38061 4.50027
74 2 -0.642546 13.1485 4.69943 3.01216
75 2 -0.70152 3.04876 4.37604 5.89874
76 2 -0.751794 2.50881 6.39618 4.18819
77 2 -0.883317 1.12716 5.91628 6.31794
78 2 -0.663215 4.18917 1.4158 4.6044
79 2 -0.707817 3.02641 13.5472 4.75801
80 2 -0.713014 4.57658 13.6354 2.79571
81 2 -0.588599 5.0994 3.23891 6.11444
82 2 -0.596453 6.45564 2.30286 4.51038
83 2 -0.735314 5.98544 0.575178 6.4707
84 2 -0.719036 4.4739 4.65296 0.701923
85 2 -0.843338 2.65977 4.64426 13.3841
86 2 -0.651756 4.82627 3.17141 13.4996
87 2 -0.676 4.68816 6.6518 2.64991
88 2 -0.674752 6.14307 4.26558 3.2109
89 2 -0.67465 6.3561 5.98846 1.20946
90 2 -0.757644 1.25222 0.859176 7.66579
91 2 -0.659115 0.738122 13.413 5.81188
92 2 -0.617919 13.6049 0.839144 6.43847
93 2 -0.683594 13.3921 13.6552 8.10219
94 2 -0.773329 0.941576 2.58822 9.4699
95 2 -0.673303 2.84444 0.661813 9.47426
96 2 -0.656569 3.30088 2.80029 8.22593
97 2 -0.71681 1.34411 3.63982 11.468
98 2 -0.654964 13.6361 2.03904 11.2717
99 2 -0.728664 13.6434 4.65565 10.2166
100 2 -0.657943 0.432167 6.06454 12.9183
101 2 -0.724044 2.67987 6.02236 11.3966
102 2 -0.634328 4.61874 1.37912 11.2877
103 2 -0.620984 2.44438 14.1377 11.9496
104 2 -0.762212 4.47788 13.456 10.1406
105 2 -0.630191 5.94463 0.417978 13.3309
106 2 -0.629629 6.79188 2.98741 12.1159
107 2 -0.718703 4.88594 4.33305 8.3747
108 2 -0.778155 4.47419 6.58583 9.64175
109 2 -0.702076 5.84258 4.67488 10.4448
110 2 -0.634608 6.68673 6.49984 8.21628
111 2 -0.653375 0.773764 7.50356 0.60665
112 2 -0.724717 12.9269 5.87839 0.571161
113 2 -0.729902 13.4138 8.00474 13.5444
114 2 -0.710975 0.496568 9.4766 2.42143
115 2 -0.726143 2.75171 8.5924 2.61791
116 2 -0.781526 2.12901 9.7782 0.372283
117 2 -0.760841 1.54824 11.3602 4.12705
118 2 -0.77037 13.6915 9.98434 4.81995
119 2 -0.621011 13.4186 11.4931 3.07169
120 2 -0.779681 2.55509 11.6322 6.55814
121 2 -0.752594 4.32549 7.99417 4.55952
122 2 -0.670428 4.90444 9.93107 6.41945
123 2 -0.709346 6.56694 9.52919 3.97178
124 2 -0.696688 6.31576 8.31959 6.26418
125 2 -0.878023 3.85672 11.7218 0.965894
126 2 -0.74484 2.81673 11.9314 13.1971
127 2 -0.829887 4.19304 9.88993 13.4202
128 2 -0.770261 5.78141 13.1273 0.766346
129 2 -0.863004 5.91806 11.6213 2.76228
130 2 -0.688418 1.12163 7.88246 7.84241
131 2 -0.700039 13.6236 6.07871 8.17728
132 2 -0.766562 13.5726 8.00471 6.41954
133 2 -0.621979 1.01976 10.3247 9.68849
134 2 -0.65896 2.41385 8.42963 10.2021
135 2 -0.735233 2.91829 10.0956 8.23752
136 2 -0.811284 0.967617 12.0271 11.2788
137 2 -0.673165 13.7596 10.1339 11.8157
138 2 -0.892635 13.1707 11.7991 9.79779
139 2 -0.641117 4.32092 8.05045 11.7037
140 2 -0.617959 5.91533 7.39183 13.556
141 2 -0.588026 5.82812 9.7001 11.6089
142 2 -0.662132 4.3863 12.1224 7.74121
143 2 -0.635081 6.16387 13.6151 8.28367
144 2 -0.663609 6.17225 11.4726 9.20988
145 2 -0.76364 7.83724 0.622236 0.630001
146 2 -0.660638 7.46296 13.0404 13.5341
147 2 -0.69036 7.90984 2.4791 2.2891
148 2 -0.764911 10.0658 0.978722 2.58803
149 2 -0.802292 9.51635 2.77771 0.708506
150 2 -0.733818 8.53534 4.1241 4.53503
151 2 -0.678087 9.42413 4.49517 6.67429
152 2 -0.767203 9.93862 6.57374 4.89467
153 2 -0.654204 7.49486 5.73981 5.73383
154 2 -0.687107 11.3943 0.757806 5.03804
155 2 -0.640067 9.36668 13.7698 4.60791
156 2 -0.604904 11.5038 13.1258 3.0863
157 2 -0.647006 11.6554 3.01364 6.39113
158 2 -0.815921 11.6687 3.88159 0.948633
159 2 -0.831926 10.1809 4.65098 13.3283
160 2 -0.741475 11.263 2.42569 13.3316
161 2 -0.577445 11.6347 6.58079 2.38665
162 2 -0.82643 7.88048 0.861176 8.43293
163 2 -0.669373 7.58485 13.4315 6.14013
164 2 -0.686365 7.83064 2.78712 10.1553
165 2 -0.620395 9.84317 0.727255 10.0395
166 2 -0.651934 9.94364 2.14028 8.05577
167 2 -0.738321 8.33954 4.94323 11.393
168 2 -0.604801 8.3056 6.16346 13.5198
169 2 -0.688089 10.2542 6.54013 11.4132
170 2 -0.738044 11.6748 0.569569 11.979
171 2 -0.757949 9.44306 13.349 11.6985
172 2 -0.777836 11.2116 13.2577 9.92943
173 2 -0.636897 11.2339 4.64172 8.58391
174 2 -0.576339 11.8145 6.50203 9.72259
175 2 -0.6889 8.11552 8.13502 0.960088
176 2 -0.839725 7.86231 10.097 2.15149
177 2 -0.729713 9.90764 8.50805 3.10021
178 2 -0.706879 9.92727 9.40583 0.472724
179 2 -0.933617 7.75295 11.6664 4.37396
180 2 -0.957824 9.58889 11.5908 6.20595
181 2 -0.776662 11.8244 8.29421 4.86843
182 2 -0.87119 11.8187 10.0841 6.58144
183 2 -0.658396 11.4757 11.375 1.05348
184 2 -0.714556 9.8706 11.5793 13.2367
185 2 -0.721496 12.0645 9.8088 13.4987
186 2 -0.585364 8.55681 7.66161 7.43061
187 2 -0.614882 8.0619 9.39065 9.95207
188 2 -0.747971 9.81248 8.1071 9.36148
189 2 -0.744364 9.79383 9.88052 7.8066
190 2 -0.705098 7.74597 11.4619 11.4868
191 2 -0.813047 11.9038 8.30459 11.2737
192 2 -0.83387 11.6408 11.8388 7.89152
ITEM: TIMESTEP
6000
ITEM: NUMBER OF ATOMS
192
ITEM: BOX BOUNDS pp pp pp
-1.2020447262799827e-02 1.4312020447262775e+01
-1.2020447262799827e-02 1.4312020447262775e+01
-1.2020447262799827e-02 1.4312020447262775e+01
ITEM: ATOMS id type q x y z
1 1 1.36435 0.0100675 0.0234848 -0.0710478
2 1 1.41716 1.99482 1.68868 1.83373
3 1 1.36054 14.3458 3.6424 3.24455
4 1 1.09805 1.68233 5.55667 4.93944
5 1 1.35371 3.34472 13.8772 3.79258
6 1 1.27262 5.14973 1.57416 5.30171
7 1 1.66244 3.82417 3.30327 14.2009
8 1 1.38488 5.46109 5.26481 1.58919
9 1 1.53319 0.0757539 0.165278 7.06431
10 1 1.41018 1.42648 1.9965 9.25642
11 1 1.57275 14.5622 4.12576 10.9886
12 1 1.38089 2.04231 5.56846 12.8574
13 1 1.40147 3.06022 13.9281 10.447
14 1 1.32519 5.25683 1.19013 12.2825
15 1 1.39493 3.18993 3.27224 7.02084
16 1 1.41763 5.15397 5.1856 8.82223
17 1 1.4582 0.033399 7.57189 14.3625
18 1 1.43113 1.95034 9.34839 1.98784
19 1 1.38479 14.0802 10.7084 3.81589
20 1 1.2808 1.48493 12.0735 5.87011
21 1 1.59281 3.84918 7.08244 3.42951
22 1 1.37734 5.53181 9.15713 4.8745
23 1 1.55984 3.73201 10.8564 14.272
24 1 1.58073 5.52538 12.324 1.80144
25 1 1.20462 0.216174 7.06333 7.36036
26 1 1.26312 1.8509 9.01932 9.32988
27 1 1.17425 14.3218 10.5559 11.1491
28 1 1.49997 1.66589 12.5344 12.6957
29 1 1.17853 3.76024 7.18797 10.6849
30 1 1.26748 5.73255 9.29363 12.4621
31 1 1.38384 3.92486 10.3746 7.24621
32 1 1.2857 5.19046 12.5359 8.75979
33 1 1.54686 7.06181 0.0408962 0.0215525
34 1 1.34845 8.9 1.88417 1.86466
35 1 1.52313 7.03387 3.36863 3.53816
36 1 1.54143 8.56944 5.16662 5.39925
37 1 1.41019 10.9891 14.2939 3.43006
38 1 1.16365 12.5105 1.82765 5.10679
39 1 1.42047 10.738 3.86213 -0.0141562
40 1 1.5162 12.471 5.53355 1.73021
41 1 1.34471 7.0186 0.0908665 7.09476
42 1 1.48932 8.98626 1.50805 9.12056
43 1 1.26917 6.83853 3.48786 10.6488
44 1 1.21557 8.61164 5.40931 12.33
45 1 1.40035 11.2484 14.1968 10.9147
46 1 1.43308 12.6499 2.08474 12.522
47 1 1.3252 10.5653 3.29089 7.21033
48 1 1.29824 12.5253 5.14575 8.83137
49 1 1.61812 7.03514 7.22313 14.3201
50 1 1.44601 8.84191 8.80629 1.70671
51 1 1.67937 7.54705 10.9142 3.41353
52 1 1.62094 9.11242 12.7838 5.25613
53 1 1.45615 10.4411 6.8856 3.61962
54 1 1.10737 12.067 8.68457 5.65477
55 1 1.47804 10.5283 10.4146 14.1184
56 1 1.27775 12.5245 12.3615 1.58285
57 1 1.30117 6.99278 7.21044 7.12126
58 1 1.49318 8.67256 9.36997 9.02127
59 1 1.67448 7.12945 11.2682 10.6912
60 1 1.4365 9.23866 12.8524 12.7603
61 1 1.356 10.6271 7.25636 10.3348
62 1 1.63988 12.3795 8.70306 12.3356
63 1 1.54769 10.5999 10.9264 7.33795
64 1 1.35273 12.9975 12.4407 8.92351
65 2 -0.648576 0.940886 1.16071 0.988017
66 2 -0.787369 1.21224 13.4855 13.7906
67 2 -0.771761 13.4911 1.11195 13.4019
68 2 -0.64495 13.6454 13.6621 1.14548
69 2 -0.724145 1.0557 2.54613 2.80922
70 2 -0.649113 2.60331 0.265359 2.69221
71 2 -0.735679 3.26935 2.33798 0.920778
72 2 -0.598904 1.26214 4.82742 3.54421
73 2 -0.723365 13.3722 2.88366 4.21934
74 2 -0.794131 13.5812 4.77965 2.39511
75 2 -0.580697 2.53664 4.50715 6.30937
76 2 -0.618877 3.14241 6.36415 4.63832
77 2 -0.591121 0.895277 6.65522 5.88778
78 2 -0.627811 4.55847 0.356274 4.40084
79 2 -0.59169 2.22817 12.813 4.52892
80 2 -0.66175 4.51358 12.9988 2.80595
81 2 -0.682148 3.75587 2.30048 5.84291
82 2 -0.669935 5.9521 2.36084 3.83249
83 2 -0.777225 5.87328 0.724778 6.4357
84 2 -0.76757 4.7048 4.15873 0.801229
85 2 -0.779679 2.84457 4.15607 13.5166
86 2 -0.688434 4.3804 2.27899 13.0428
87 2 -0.763715 4.73246 5.96234 2.91224
88 2 -0.68995 6.46006 4.32931 2.40226
89 2 -0.763341 6.01623 6.12811 0.194402
90 2 -0.75507 0.585302 0.966929 8.27226
91 2 -0.716716 1.21844 13.6489 6.5444
92 2 -0.637592 13.6729 1.37498 6.0685
93 2 -0.770053 13.5089 13.5076 7.75081
94 2 -0.746811 1.05851 2.88264 10.5262
95 2 -0.684813 2.46872 0.984102 9.99205
96 2 -0.765643 2.37401 2.66615 8.19288
97 2 -0.807152 1.27296 4.88182 11.7152
98 2 -0.758239 13.6433 3.13711 11.8609
99 2 -0.799179 13.4931 4.85272 10.0088
100 2 -0.732126 1.02365 6.6828 13.5866
101 2 -0.596105 3.2202 6.37595 12.0235
102 2 -0.639175 4.35534 -0.0150786 11.4149
103 2 -0.798567 2.09916 13.0037 11.3143
104 2 -0.697336 3.90493 13.4098 9.12203
105 2 -0.706287 6.19268 0.949182 13.6268
106 2 -0.582489 6.41487 1.96968 11.5223
107 2 -0.668577 4.31484 4.18426 7.83092
108 2 -0.696886 4.26755 6.40507 9.36745
109 2 -0.798618 5.74783 4.47444 10.0359
110 2 -0.678553 6.28534 5.9403 7.86292
111 2 -0.700148 1.02678 8.56288 0.906608
112 2 -0.658998 13.5666 6.87747 1.14257
113 2 -0.732758 13.1234 7.72962 13.2508
114 2 -0.720185 0.920396 9.89044 3.01243
115 2 -0.731714 2.78901 7.96471 2.7508
116 2 -0.82596 3.00834 10.2451 1.2234
117 2 -0.727773 0.416181 11.0722 5.10577
118 2 -0.514372 13.0385 9.53099 4.30324
119 2 -0.640422 13.2439 11.8561 2.81519
120 2 -0.660805 2.6837 11.4014 6.61654
121 2 -0.79316 4.83432 8.06823 3.99344
122 2 -0.67483 4.50557 10.1578 5.81385
123 2 -0.815878 6.52999 9.91567 3.92395
124 2 -0.603232 6.30004 8.53894 6.34053
125 2 -0.783538 4.99217 11.62 0.522396
126 2 -0.764437 2.90062 11.7925 13.3089
127 2 -0.703643 4.57537 10.0326 13.3172
128 2 -0.737638 6.23617 13.5199 1.12628
129 2 -0.829559 6.82667 11.6355 2.24923
130 2 -0.641231 0.890879 8.13103 8.39328
131 2 -0.598933 12.9887 5.87404 7.53459
132 2 -0.537704 13.6152 7.98045 6.79003
133 2 -0.577325 1.52714 10.179 10.6762
134 2 -0.59922 2.26793 7.8729 10.204
135 2 -0.66877 3.12305 9.40865 8.36629
136 2 -0.588446 0.179613 11.7401 12.66
137 2 -0.807272 13.5151 9.33738 11.6048
138 2 -0.664977 13.9546 11.8263 10.0589
139 2 -0.484667 4.35753 8.44644 11.838
140 2 -0.760291 6.60261 7.95518 13.0679
141 2 -0.808918 6.09852 10.3584 11.3368
142 2 -0.739031 4.96138 11.1425 8.0341
143 2 -0.602792 6.54538 13.0486 7.81693
144 2 -0.683886 6.36199 12.4217 9.9959
145 2 -0.658876 7.74932 1.3434 0.817396
146 2 -0.84678 8.22976 13.737 13.5171
147 2 -0.696688 8.39571 2.88821 3.05946
148 2 -0.724771 9.89226 1.1117 2.68468
149 2 -0.550282 9.95559 3.0604 1.36536
150 2 -0.790257 7.5764 4.20109 4.82938
151 2 -0.742124 9.4134 4.77608 6.50754
152 2 -0.762527 9.42476 5.9605 4.27404
153 2 -0.664672 7.46272 6.43875 5.91591
154 2 -0.576373 12.1909 0.0549347 4.38115
155 2 -0.775002 10.0902 13.4444 4.33547
156 2 -0.681298 11.4989 13.2088 2.44679
157 2 -0.642145 11.3599 2.23613 6.19113
158 2 -0.790038 11.2941 5.00814 0.881173
159 2 -0.567296 9.51058 4.31132 13.4493
160 2 -0.747903 11.3825 2.79108 13.5341
161 2 -0.758616 11.5465 6.04976 2.81001
162 2 -0.695856 7.83612 0.926699 8.22516
163 2 -0.609328 8.21811 14.0628 5.68161
164 2 -0.648507 7.9999 2.56993 9.73465
165 2 -0.672891 10.0625 0.53596 9.80906
166 2 -0.71908 9.72665 2.22896 7.94274
167 2 -0.679619 7.85941 4.22053 11.6417
168 2 -0.681106 8.18146 6.44906 13.4884
169 2 -0.59563 10.0292 6.19628 11.5762
170 2 -0.770558 11.6755 1.14299 11.6679
171 2 -0.722513 10.632 13.1279 12.0322
172 2 -0.687318 12.0132 13.2618 9.9473
173 2 -0.70311 11.5479 3.80981 8.1717
174 2 -0.62804 11.4637 6.36575 9.32459
175 2 -0.884414 7.53997 8.18643 0.976197
176 2 -0.807857 8.51073 10.0351 2.77044
177 2 -0.676595 9.43936 7.71924 2.67163
178 2 -0.746102 10.1028 9.3241 0.717456
179 2 -0.813959 7.92861 12.0877 4.47581
180 2 -0.80735 9.96818 12.0209 6.20113
181 2 -0.615011 10.9284 8.22584 4.53944
182 2 -0.69212 11.4647 9.82292 6.5989
183 2 -0.646356 11.6062 11.1313 0.821512
184 2 -0.770541 9.53871 11.4352 13.2916
185 2 -0.824648 11.5706 9.68486 13.2153
186 2 -0.701024 7.74763 8.22844 8.28967
187 2 -0.889003 8.03472 10.404 9.94444
188 2 -0.748041 9.88362 8.3887 9.49378
189 2 -0.796377 9.57101 10.4881 8.25267
190 2 -0.654735 8.09209 12.1109 11.6227
191 2 -0.729634 11.8043 7.7841 11.1553
192 2 -0.66112 11.8501 11.4806 8.25445
ITEM: TIMESTEP
7000
ITEM: NUMBER OF ATOMS
192
ITEM: BOX BOUNDS pp pp pp
2.2035762864775599e-02 1.4277964237135194e+01
2.2035762864775599e-02 1.4277964237135194e+01
2.2035762864775599e-02 1.4277964237135194e+01
ITEM: ATOMS id type q x y z
1 1 1.37596 0.200592 14.2387 14.1145
2 1 1.60113 1.86992 1.75906 1.84624
3 1 1.28169 14.2169 3.27195 3.66521
4 1 1.39265 1.61057 5.20907 5.4534
5 1 1.61315 4.00377 0.379933 3.99315
6 1 1.488 5.90078 2.2071 5.30472
7 1 1.49526 3.31732 3.78647 0.0809788
8 1 1.37021 4.92051 5.47325 1.96545
9 1 1.45438 0.314491 0.0841799 7.03862
10 1 1.40617 2.16911 1.79696 8.83068
11 1 1.35098 14.0044 3.54145 10.3375
12 1 1.32739 1.79662 5.5323 12.2254
13 1 1.55872 3.61076 0.0377749 10.8304
14 1 1.53875 5.21054 1.64522 12.8567
15 1 1.30198 3.66113 3.80687 7.18792
16 1 1.28312 5.52423 5.4491 9.10347
17 1 1.11627 0.0324092 7.29776 14.091
18 1 1.6056 1.84423 8.89796 1.86927
19 1 1.59738 0.261908 11.0704 3.60865
20 1 1.71991 2.11521 12.7908 5.21201
21 1 1.65227 3.18982 7.34404 4.00624
22 1 1.55854 5.23699 8.7553 5.61525
23 1 1.44223 3.67254 10.4763 14.1704
24 1 1.37859 5.07129 12.3047 2.02182
25 1 1.48029 14.1048 6.89348 7.19201
26 1 1.4055 2.00982 8.57762 8.64581
27 1 1.35321 14.2495 10.0406 10.5405
28 1 1.48823 1.81374 12.2757 12.2777
29 1 1.46436 3.78683 7.32364 10.7932
30 1 1.54754 5.74 8.83649 12.525
31 1 1.47479 3.48201 10.8372 6.86602
32 1 1.57744 5.24337 12.565 9.0297
33 1 1.33375 6.89047 14.1395 0.363915
34 1 1.53204 8.78047 1.81022 1.97654
35 1 1.31529 7.46848 4.11927 3.39291
36 1 1.22133 9.26664 5.87431 5.02249
37 1 1.47927 10.3054 14.2744 3.90796
38 1 1.54875 12.202 1.72695 5.69873
39 1 1.46688 10.7583 3.2524 0.321297
40 1 1.45928 12.7954 5.18943 1.84808
41 1 1.43768 6.99651 14.191 7.1992
42 1 1.31571 8.65045 1.73715 8.97919
43 1 1.26236 7.15198 3.43873 11.2195
44 1 1.49681 9.10949 5.14045 12.8065
45 1 1.61895 10.6741 14.0894 10.531
46 1 1.53987 12.5673 1.65003 12.2598
47 1 1.2607 10.0902 3.68944 7.15264
48 1 1.62977 12.0434 5.39838 8.69097
49 1 1.4787 7.10095 7.08226 0.345865
50 1 1.51529 9.06468 8.76677 1.77134
51 1 1.43488 6.7666 10.281 3.37075
52 1 1.42607 8.44073 12.1632 5.31232
53 1 1.39459 11.2867 7.43645 3.3213
54 1 1.26965 13.0775 9.16616 5.30834
55 1 1.28848 10.2683 10.9977 0.0881582
56 1 1.47851 12.2015 12.6004 2.00578
57 1 1.32745 7.2327 7.09077 7.18789
58 1 1.44639 9.14903 8.9846 8.64559
59 1 1.30011 7.0342 10.4754 10.4266
60 1 1.47284 8.78597 12.78 12.4286
61 1 1.6549 10.4304 7.01254 10.6539
62 1 1.3528 12.1127 9.02373 12.5354
63 1 1.42196 10.8997 10.7446 6.9655
64 1 1.33243 12.7555 12.6396 8.84998
65 2 -0.769597 1.06956 0.99826 0.64942
66 2 -0.740051 0.880494 13.0122 13.269
67 2 -0.742115 13.5824 0.890835 13.1144
68 2 -0.593262 13.168 13.4583 1.05028
69 2 -0.6885 1.05993 2.05203 3.08402
70 2 -0.696746 2.86043 1.09704 2.88254
71 2 -0.840956 2.7615 2.65224 1.08663
72 2 -0.645163 1.06045 3.90359 4.76111
73 2 -0.695797 13.2404 2.51422 4.82012
74 2 -0.770266 13.821 4.25404 2.46065
75 2 -0.614118 3.09228 5.00169 6.19364
76 2 -0.711284 1.99184 6.39279 4.39207
77 2 -0.700533 0.370493 5.69038 6.28032
78 2 -0.819378 5.24428 0.934677 4.53798
79 2 -0.939946 3.17877 13.8698 4.93052
80 2 -0.681795 4.77326 13.7942 2.91386
81 2 -0.658966 4.76397 3.00894 6.09207
82 2 -0.783895 6.83278 3.16319 4.49168
83 2 -0.66476 6.26586 1.47418 6.57564
84 2 -0.74712 3.74729 4.95736 0.964169
85 2 -0.689508 2.62893 4.35319 13.1628
86 2 -0.641158 4.52271 2.91853 13.2439
87 2 -0.704166 4.11188 6.29311 3.27229
88 2 -0.63263 6.07739 4.45787 2.45823
89 2 -0.733186 5.94703 6.39804 1.21154
90 2 -0.737661 1.47559 0.598376 8.1704
91 2 -0.806672 0.930754 13.3753 5.98738
92 2 -0.725316 13.2546 1.08754 6.51446
93 2 -0.70722 13.9865 13.26 7.90753
94 2 -0.595386 0.923682 2.57876 9.56507
95 2 -0.742102 3.07964 1.42088 10.1644
96 2 -0.776704 2.52328 2.93695 7.83316
97 2 -0.579084 1.09143 4.64162 10.9692
98 2 -0.806231 13.3534 2.75881 11.4494
99 2 -0.762926 13.1056 4.28746 9.26989
100 2 -0.593009 0.643753 6.0201 13.5138
101 2 -0.792297 2.63895 6.59876 11.8073
102 2 -0.736551 4.36085 0.518477 12.1497
103 2 -0.768014 2.57547 13.3723 11.4801
104 2 -0.825105 4.56716 13.2557 10.2739
105 2 -0.764429 6.05331 1.04438 14.0647
106 2 -0.687383 5.90089 2.5625 11.7799
107 2 -0.681392 4.63193 4.89531 7.90246
108 2 -0.692712 4.59497 5.91025 10.1635
109 2 -0.641961 6.55113 4.64889 10.0638
110 2 -0.685616 6.3431 7.00796 8.40776
111 2 -0.679471 1.17813 7.89768 0.789526
112 2 -0.536542 13.2104 5.89865 0.490004
113 2 -0.585811 13.0238 8.62656 13.7617
114 2 -0.741409 0.85069 10.1082 2.52004
115 2 -0.917839 2.63935 8.2683 2.91434
116 2 -0.762958 2.58629 9.65772 0.732595
117 2 -0.779588 1.26159 12.2818 4.0202
118 2 -0.808357 14.0358 10.2401 4.69443
119 2 -0.719263 13.2698 11.8982 2.80364
120 2 -0.846375 2.75655 11.5063 5.65109
121 2 -0.83773 4.00632 7.98072 5.17525
122 2 -0.782553 4.62321 9.96854 6.38601
123 2 -0.723348 5.71329 9.57896 4.31981
124 2 -0.703382 6.5538 7.88171 6.03035
125 2 -0.721357 4.36344 11.1959 1.20084
126 2 -0.709703 3.01929 11.5885 13.1738
127 2 -0.709783 4.98333 9.66697 13.6501
128 2 -0.693812 6.04209 12.9759 0.928308
129 2 -0.763194 6.22068 11.5282 2.80346
130 2 -0.729286 1.18417 7.53422 7.76936
131 2 -0.841812 12.9249 6.42016 8.11322
132 2 -0.600768 0.0428265 7.8584 6.08353
133 2 -0.764388 1.03505 9.52049 9.61296
134 2 -0.774264 3.17735 8.07848 9.5799
135 2 -0.65639 2.45142 9.79137 7.5895
136 2 -0.617794 1.0474 11.3487 11.1895
137 2 -0.754161 13.2322 9.74912 11.6709
138 2 -0.557873 13.3028 11.1427 9.71448
139 2 -0.800068 4.45127 8.40909 11.5363
140 2 -0.792779 6.27066 7.77076 13.4388
141 2 -0.767382 6.76659 9.6899 11.7741
142 2 -0.674404 4.22023 12.0136 7.93623
143 2 -0.791871 5.77803 13.4798 7.98846
144 2 -0.750074 5.99176 11.2922 9.62375
145 2 -0.745528 8.02794 0.60297 1.53015
146 2 -0.634603 7.68193 13.7401 13.0163
147 2 -0.753214 8.12572 3.21971 2.27805
148 2 -0.812716 9.67394 1.25268 3.16311
149 2 -0.791886 9.92148 2.08761 0.889216
150 2 -0.641044 8.57008 5.47878 3.59418
151 2 -0.639285 9.43371 4.5346 5.83021
152 2 -0.686746 10.7136 6.8582 4.61729
153 2 -0.61362 7.99297 6.20145 5.94334
154 2 -0.685197 11.2495 0.600629 5.14254
155 2 -0.701596 9.76759 13.2325 4.84394
156 2 -0.744983 11.4703 13.6489 3.0762
157 2 -0.666704 11.3637 2.64167 6.68419
158 2 -0.70938 11.8634 4.05607 1.21215
159 2 -0.767283 10.1966 4.42843 13.7621
160 2 -0.639389 11.717 2.53802 13.3376
161 2 -0.770702 12.2371 6.39971 2.80433
162 2 -0.788489 7.88557 0.659836 8.20347
163 2 -0.765793 7.5746 13.1574 6.09531
164 2 -0.641653 8.22706 2.3766 10.4412
165 2 -0.60728 10.2055 0.677605 9.21175
166 2 -0.74814 9.00432 2.93381 8.06345
167 2 -0.687904 8.36763 3.90827 12.188
168 2 -0.643123 7.98297 5.84018 13.5448
169 2 -0.787825 9.51481 6.01793 11.4884
170 2 -0.81069 11.5488 0.621967 11.557
171 2 -0.89261 9.61916 13.4409 11.2803
172 2 -0.770105 11.8151 13.2493 9.78135
173 2 -0.743064 11.1763 4.87111 7.48907
174 2 -0.90152 11.51 6.31637 9.74333
175 2 -0.760123 8.40616 7.59988 0.843547
176 2 -0.80277 7.93144 9.10973 2.64292
177 2 -0.755816 10.4643 8.50132 2.166
178 2 -0.630453 9.36176 9.62683 0.447119
179 2 -0.714601 7.67756 11.1128 4.46351
180 2 -0.649061 9.52588 11.2832 6.1386
181 2 -0.617168 12.3566 8.46354 3.98706
182 2 -0.747687 11.918 9.96077 6.23111
183 2 -0.73122 11.5197 11.6159 1.0622
184 2 -0.792183 9.23232 11.9628 13.6276
185 2 -0.591585 11.2711 10.1439 13.2822
186 2 -0.708806 8.44029 8.17355 7.55306
187 2 -0.623232 8.11426 10.2093 9.06721
188 2 -0.814393 9.60405 8.01728 9.88044
189 2 -0.728375 10.3867 9.65145 7.9901
190 2 -0.516662 7.8229 11.6593 11.4696
191 2 -0.763227 11.0643 7.9246 11.6561
192 2 -0.567342 11.4093 12.0943 7.92342
ITEM: TIMESTEP
8000
ITEM: NUMBER OF ATOMS
192
ITEM: BOX BOUNDS pp pp pp
5.4173444235367185e-02 1.4245826555764577e+01
5.4173444235367185e-02 1.4245826555764577e+01
5.4173444235367185e-02 1.4245826555764577e+01
ITEM: ATOMS id type q x y z
1 1 1.39446 14.1533 0.297784 0.11562
2 1 1.36419 1.99335 1.86762 1.96674
3 1 1.33418 14.5307 3.89616 3.80133
4 1 1.37429 2.05346 5.64639 5.68441
5 1 1.52796 3.42074 13.8546 3.28049
6 1 1.45365 4.89023 1.51856 5.31501
7 1 1.51326 4.0693 3.55092 0.0997726
8 1 1.29294 5.93361 5.38562 1.8028
9 1 1.41263 13.7865 14.0378 7.05081
10 1 1.60062 1.41586 1.31865 9.00955
11 1 1.55894 14.2583 3.46656 10.9422
12 1 1.31108 2.13973 5.14281 12.5685
13 1 1.604 3.7094 0.00556315 10.5951
14 1 1.66978 5.59186 1.85434 12.1653
15 1 1.38793 2.98335 3.36279 7.43118
16 1 1.5166 5.10284 5.38289 8.69153
17 1 1.32241 0.208869 7.0008 14.0479
18 1 1.47981 1.9858 8.69043 1.67402
19 1 1.57601 13.9815 10.1224 3.50303
20 1 1.40422 1.27477 12.3535 5.05383
21 1 1.63584 3.75074 6.88212 3.55283
22 1 1.49696 5.26814 9.01559 5.2622
23 1 1.57004 3.75516 10.6662 0.262223
24 1 1.73296 5.56193 12.4052 1.76806
25 1 1.61616 14.3875 7.40709 7.21714
26 1 1.3615 1.67477 9.51563 8.78114
27 1 1.54742 0.231447 11.2811 10.9004
28 1 1.42664 2.18753 12.6676 12.8238
29 1 1.18572 3.56665 7.33151 10.3803
30 1 1.30429 5.30669 9.06939 12.4749
31 1 1.59931 3.41827 10.8718 6.75342
32 1 1.62013 5.31908 12.3851 8.81872
33 1 1.49521 7.22136 0.115444 0.06918
34 1 1.3799 8.90162 1.79696 1.93366
35 1 1.29918 7.1193 3.55276 4.02706
36 1 1.47706 9.15064 5.11596 5.59218
37 1 1.45155 10.7771 14.1419 3.57291
38 1 1.61226 12.558 1.87642 5.18437
39 1 1.49413 10.3174 3.70361 0.0900699
40 1 1.42144 12.597 5.18373 1.77555
41 1 1.47741 6.89296 0.453823 7.12622
42 1 1.60661 8.77418 2.14499 8.7036
43 1 1.50673 7.15562 3.88087 10.4704
44 1 1.53182 8.6234 5.50341 12.4964
45 1 1.4071 10.3787 0.259377 10.5435
46 1 1.56052 12.1353 1.78063 12.4569
47 1 1.49413 11.1023 3.56945 7.22138
48 1 1.50923 12.9452 5.37386 8.88347
49 1 1.62583 6.98749 7.35586 14.1663
50 1 1.53858 8.87411 8.81803 1.84696
51 1 1.59533 7.22252 10.8754 3.86622
52 1 1.4429 8.8944 12.7101 5.68158
53 1 1.2655 10.5984 6.68973 3.47873
54 1 1.54072 12.2444 8.6552 5.64389
55 1 1.5916 10.7307 10.6991 14.3327
56 1 1.61212 12.6775 12.2423 1.84526
57 1 1.57914 7.18738 7.03451 6.9371
58 1 1.55726 9.05791 8.60675 8.75239
59 1 1.41526 7.12549 10.84 10.7706
60 1 1.39751 9.0421 12.4444 12.6287
61 1 1.27462 10.8503 6.94921 10.6356
62 1 1.36786 12.6205 9.12654 12.396
63 1 1.25661 10.6524 10.7892 7.32964
64 1 1.27037 12.3899 12.4555 9.28423
65 2 -0.684635 0.835329 1.4891 0.732769
66 2 -0.635649 1.08055 14.0052 13.3591
67 2 -0.70137 12.9435 0.54384 13.1359
68 2 -0.778664 13.6948 13.399 1.12149
69 2 -0.664593 1.4968 2.80418 3.08224
70 2 -0.835745 2.43061 0.658068 2.72849
71 2 -0.6453 3.49064 2.68318 1.16275
72 2 -0.722021 1.32655 4.77238 4.62398
73 2 -0.694455 13.6116 3.02361 4.97214
74 2 -0.786324 13.2903 4.37978 2.87354
75 2 -0.633008 2.00467 4.59994 6.93501
76 2 -0.753943 3.2349 6.02815 4.8058
77 2 -0.783641 1.34857 7.19045 6.3824
78 2 -0.784708 4.21279 0.487996 4.54324
79 2 -0.691956 2.39895 12.6802 3.93802
80 2 -0.879184 4.48112 13.3372 2.30015
81 2 -0.580625 3.69578 2.46863 5.95467
82 2 -0.654295 5.94422 2.43857 4.41518
83 2 -0.747667 5.57528 1.24587 6.71514
84 2 -0.643755 5.32865 4.05865 1.02079
85 2 -0.776728 2.8371 4.08013 13.4271
86 2 -0.774039 4.94962 2.77753 13.2856
87 2 -0.668813 4.42536 5.7662 2.81947
88 2 -0.634569 6.9104 4.8131 2.97041
89 2 -0.805333 6.30559 6.75948 1.1452
90 2 -0.702695 0.201298 0.902885 8.24274
91 2 -0.744162 0.848641 13.3119 6.20201
92 2 -0.815772 13.1403 1.02226 6.2543
93 2 -0.649285 13.2221 12.8107 7.79382
94 2 -0.658247 0.682809 2.12593 10.2509
95 2 -0.812771 2.46251 0.425758 9.64529
96 2 -0.774912 1.9394 2.60846 8.2939
97 2 -0.6543 1.27918 4.28651 11.1303
98 2 -0.774866 13.2975 2.79474 11.9166
99 2 -0.77275 13.4981 4.67147 10.1192
100 2 -0.681853 0.993387 5.68185 13.5281
101 2 -0.637693 2.76521 6.27718 11.5496
102 2 -0.813851 4.48152 1.27717 11.1694
103 2 -0.794549 2.85144 13.3776 11.6339
104 2 -0.856636 4.72832 13.482 9.71459
105 2 -0.789126 6.30609 0.929775 13.1039
106 2 -0.811548 6.63025 2.58489 11.3528
107 2 -0.739838 4.15032 4.17868 7.84219
108 2 -0.760225 4.21122 6.40793 9.29695
109 2 -0.732009 5.83222 4.78569 9.89663
110 2 -0.76722 6.27196 5.99403 7.74104
111 2 -0.711087 1.56067 7.72991 0.670508
112 2 -0.655138 13.6897 6.16536 1.07445
113 2 -0.745289 13.6002 8.1664 13.3362
114 2 -0.772649 0.736063 9.29546 2.67222
115 2 -0.781992 2.78984 7.63115 2.64867
116 2 -0.782877 2.64831 10.1449 1.12701
117 2 -0.681572 0.394732 11.0471 4.64536
118 2 -0.732173 13.0237 9.08937 4.33444
119 2 -0.834337 13.2869 11.394 2.97279
120 2 -0.723508 2.35878 11.4104 5.83933
121 2 -0.777244 4.6732 7.95858 4.17244
122 2 -0.763223 4.15786 10.0823 5.66837
123 2 -0.730176 6.42013 10.0431 4.997
124 2 -0.72539 6.17919 7.91187 5.94364
125 2 -0.891855 5.08449 11.2643 0.96095
126 2 -0.861111 3.19646 11.8197 13.5701
127 2 -0.720124 4.12634 9.33017 13.7257
128 2 -0.778563 6.5555 13.5406 1.26955
129 2 -0.84615 6.37947 11.7386 2.93556
130 2 -0.72745 0.458049 8.64597 8.23742
131 2 -0.83066 13.9094 6.21223 8.00719
132 2 -0.807556 12.931 7.90063 6.69837
133 2 -0.736418 1.07537 10.7309 9.69167
134 2 -0.570879 2.91382 8.75121 9.39208
135 2 -0.709785 2.81194 9.80534 7.63586
136 2 -0.721424 1.03755 11.6328 12.1623
137 2 -0.758335 13.6875 10.1443 11.5153
138 2 -0.683079 13.8298 12.4846 10.0971
139 2 -0.543064 4.78812 8.30038 10.9957
140 2 -0.737473 5.94617 7.76274 13.1453
141 2 -0.787883 6.34916 9.87776 11.7511
142 2 -0.809273 4.50267 11.4739 7.83614
143 2 -0.694362 6.16432 13.3008 7.79124
144 2 -0.813538 6.14719 11.6977 9.91115
145 2 -0.732317 8.32179 1.1502 0.554089
146 2 -0.70304 7.84382 13.0569 13.6132
147 2 -0.593122 7.77306 2.36923 2.99321
148 2 -0.737475 10.0479 0.980934 2.65542
149 2 -0.720795 9.71373 3.13335 1.35684
150 2 -0.740933 8.31524 3.99819 5.06382
151 2 -0.677335 10.4553 4.90543 6.73663
152 2 -0.679121 9.75189 5.50355 4.15541
153 2 -0.798271 8.27532 6.20393 6.25095
154 2 -0.802023 11.6737 1.1269 4.13352
155 2 -0.722378 9.9024 13.2567 4.55097
156 2 -0.766273 11.6536 12.9343 2.6438
157 2 -0.755078 11.5304 2.50584 6.13019
158 2 -0.644552 11.6148 4.68519 0.36823
159 2 -0.783431 9.21006 4.35349 13.5176
160 2 -0.747085 11.3643 2.70948 13.4353
161 2 -0.754025 11.616 6.13756 2.4192
162 2 -0.814631 7.5573 1.54759 8.08277
163 2 -0.791079 7.80854 13.7685 6.26697
164 2 -0.793282 8.25188 3.38961 9.45142
165 2 -0.784281 9.51605 0.91846 9.35953
166 2 -0.744137 9.75861 2.85043 7.63896
167 2 -0.764585 7.87812 4.93052 11.2722
168 2 -0.860158 7.61601 6.14415 13.4069
169 2 -0.700819 9.86249 5.99442 11.4907
170 2 -0.779446 11.2032 1.38599 11.373
171 2 -0.704431 9.52095 13.765 11.7429
172 2 -0.715688 11.6749 13.6285 9.86269
173 2 -0.762649 12.2261 4.21189 8.18387
174 2 -0.63441 11.5569 6.54317 9.32928
175 2 -0.784124 7.7007 8.54592 0.73758
176 2 -0.693716 8.19953 9.89496 2.96161
177 2 -0.729047 9.33974 7.69272 2.64039
178 2 -0.78449 9.97288 9.63898 1.12273
179 2 -0.772541 8.03319 11.6752 4.8486
180 2 -0.678865 10.2032 12.0904 6.51069
181 2 -0.668172 11.3211 7.74863 4.86109
182 2 -0.600759 12.0112 10.1298 6.32395
183 2 -0.848584 12.0498 11.3663 0.756235
184 2 -0.848441 9.67867 11.5865 13.7311
185 2 -0.739751 11.3785 9.84914 13.1909
186 2 -0.817823 8.14253 7.949 7.76736
187 2 -0.532303 8.26696 9.88478 9.68835
188 2 -0.706025 9.75595 7.91447 9.96027
189 2 -0.742338 9.64883 9.60546 7.79548
190 2 -0.700649 8.33468 11.7042 11.3445
191 2 -0.629159 11.7694 8.40949 11.3381
192 2 -0.616821 11.3052 11.2301 8.79486
ITEM: TIMESTEP
9000
ITEM: NUMBER OF ATOMS
192
ITEM: BOX BOUNDS pp pp pp
8.2563541567067134e-02 1.4217436458432866e+01
8.2563541567067134e-02 1.4217436458432866e+01
8.2563541567067134e-02 1.4217436458432866e+01
ITEM: ATOMS id type q x y z
1 1 1.32787 -0.0231038 13.845 14.0414
2 1 1.5448 1.69142 1.47327 1.84017
3 1 1.47966 0.247434 3.63138 3.44096
4 1 1.51958 2.11413 5.5706 5.13886
5 1 1.41531 3.90008 0.268001 3.72861
6 1 1.72215 5.73296 2.03953 5.17222
7 1 1.53799 3.26844 3.2706 14.1766
8 1 1.62603 5.31503 5.19777 1.70039
9 1 1.22646 0.327661 0.559193 7.1108
10 1 1.25874 2.17259 2.4083 8.9747
11 1 1.36038 13.8687 3.53639 10.5956
12 1 1.38289 1.29355 5.36634 12.6716
13 1 1.44206 3.5649 0.350997 10.9061
14 1 1.6388 5.43766 1.98885 12.6625
15 1 1.44796 4.16968 4.02061 6.97146
16 1 1.56594 5.7289 5.59227 9.22971
17 1 1.7725 0.0761109 7.18322 0.463209
18 1 1.38454 1.99737 8.97886 1.61663
19 1 1.39224 0.195995 10.5667 3.68581
20 1 1.30436 1.9893 12.5334 5.39965
21 1 1.60844 3.78945 7.29388 3.35207
22 1 1.31312 5.49618 8.60637 5.65342
23 1 1.66245 3.46984 11.0323 14.0321
24 1 1.42563 5.24886 12.5137 1.67681
25 1 1.63223 0.312248 6.81823 7.19679
26 1 1.7696 1.87563 8.47953 9.03237
27 1 1.25265 0.030993 10.475 10.2214
28 1 1.58889 1.65151 12.3583 12.103
29 1 1.60383 3.5047 6.92907 10.9398
30 1 1.56073 5.20379 8.93798 12.3962
31 1 1.44621 3.49942 10.2816 7.18896
32 1 1.42029 5.17817 12.3601 8.94529
33 1 1.36327 7.09089 14.0662 -0.135015
34 1 1.40118 8.8876 1.83092 1.90489
35 1 1.3848 7.26126 3.95201 3.46204
36 1 1.52819 8.78022 5.64281 5.62593
37 1 1.63142 10.4635 -0.123734 3.88483
38 1 1.6798 12.3679 1.85225 5.07329
39 1 1.61856 10.9666 3.73806 0.194538
40 1 1.75625 12.4092 5.444 2.12037
41 1 1.75757 6.8947 -0.0944467 7.10212
42 1 1.59812 9.01103 1.525 8.53278
43 1 1.46049 7.26955 3.34765 10.7564
44 1 1.51144 9.03213 5.33088 12.5861
45 1 1.53961 10.7148 13.8944 10.2753
46 1 1.32467 12.2095 1.62746 12.1222
47 1 1.46179 10.6161 3.54028 6.92926
48 1 1.47901 12.2002 5.67264 8.83889
49 1 1.61626 6.97725 7.17735 -0.00518757
50 1 1.51167 8.51606 8.95747 2.02885
51 1 1.78246 6.5993 10.7633 3.59248
52 1 1.73977 8.48217 12.3039 5.37077
53 1 1.54689 10.7204 7.45946 3.74446
54 1 1.18187 12.7661 9.02439 5.72497
55 1 1.52536 10.7449 10.587 0.334093
56 1 1.5807 12.3881 12.3673 2.11345
57 1 1.68423 7.46599 7.2676 7.62904
58 1 1.8041 9.29666 9.03372 9.06205
59 1 1.46445 6.94903 10.6034 10.6807
60 1 1.34286 9.03899 12.2492 12.417
61 1 1.53957 10.9218 7.5412 11.0396
62 1 1.43629 12.7645 9.10057 12.6776
63 1 1.15543 10.5618 10.8495 6.99054
64 1 1.30492 12.6728 12.4465 8.50198
65 2 -0.740274 1.05126 0.46804 0.863268
66 2 -0.878109 0.561873 13.0492 12.8931
67 2 -0.577406 13.433 1.46774 13.0877
68 2 -0.753394 13.3969 13.254 1.16962
69 2 -0.732459 0.67209 2.45266 2.50354
70 2 -0.671947 2.4983 1.04488 3.22371
71 2 -0.822258 2.70219 2.44499 1.20328
72 2 -0.769612 1.40872 4.50776 4.18488
73 2 -0.771805 13.4668 2.39002 4.30287
74 2 -0.860748 13.1384 4.39446 2.94887
75 2 -0.715629 3.37982 4.81784 5.80048
76 2 -0.762496 2.67556 6.77528 4.29914
77 2 -0.854442 1.05069 5.8776 6.27328
78 2 -0.717915 5.03955 1.54359 3.92565
79 2 -0.646683 3.52075 13.3931 4.82146
80 2 -0.724636 4.74078 13.7158 2.73622
81 2 -0.779608 5.06537 3.08444 6.07088
82 2 -0.753469 6.8745 2.73885 4.53727
83 2 -0.809571 6.09357 0.966265 6.22596
84 2 -0.722214 4.26646 4.28919 0.891745
85 2 -0.707113 2.23163 4.27489 13.2835
86 2 -0.85578 4.07914 2.64697 13.075
87 2 -0.859269 4.51847 6.16599 2.61945
88 2 -0.782969 6.01091 4.15209 2.67101
89 2 -0.872308 6.1039 6.09313 0.737782
90 2 -0.599399 1.64281 1.28937 7.9096
91 2 -0.647141 1.21829 13.7577 6.11521
92 2 -0.723543 13.1221 1.08227 6.23026
93 2 -0.585808 13.8676 13.6126 8.31331
94 2 -0.716588 0.646525 2.81205 9.62684
95 2 -0.683195 2.99826 1.77039 10.211
96 2 -0.688091 3.39384 3.00372 8.02729
97 2 -0.641918 0.0322265 4.77002 11.7714
98 2 -0.672734 12.7437 2.53447 10.829
99 2 -0.643731 13.1845 4.8061 9.60689
100 2 -0.836604 1.11778 6.67417 13.6862
101 2 -0.667989 2.41427 5.77709 11.6203
102 2 -0.714251 4.77658 0.77564 12.0975
103 2 -0.711733 2.4663 13.6175 11.6766
104 2 -0.704751 4.08044 13.4274 10.0743
105 2 -0.695486 6.24387 1.31748 13.8471
106 2 -0.863757 6.59362 2.37981 11.8382
107 2 -0.729447 5.10022 5.03231 7.75665
108 2 -0.864252 4.75258 6.23425 10.3388
109 2 -0.773376 6.40679 4.49154 9.93197
110 2 -0.815544 6.96 6.32827 8.76329
111 2 -0.823711 0.69858 8.1736 1.49694
112 2 -0.913723 13.482 6.15753 1.2004
113 2 -0.787083 13.3468 7.96608 13.5755
114 2 -0.575427 1.35254 10.1437 2.544
115 2 -0.788418 2.94151 8.38326 2.81508
116 2 -0.790063 2.44862 10.2045 0.490299
117 2 -0.702438 1.07153 11.455 4.54747
118 2 -0.617246 13.4664 9.29471 4.12647
119 2 -0.747179 13.2979 11.7523 3.07146
120 2 -0.658112 2.62775 11.3966 6.36122
121 2 -0.696211 4.92687 7.64355 4.53966
122 2 -0.643355 4.04926 9.12276 6.26422
123 2 -0.770006 6.07906 10.159 4.8195
124 2 -0.759878 6.29639 8.28639 6.96775
125 2 -0.756482 3.90535 12.0617 0.998523
126 2 -0.803609 2.82665 11.578 12.7152
127 2 -0.705344 4.50979 9.99719 13.5215
128 2 -0.704831 5.99318 12.963 0.271076
129 2 -0.889432 5.62799 11.3218 2.65081
130 2 -0.815588 1.46968 7.24931 8.05122
131 2 -0.86048 13.1419 6.23005 7.78188
132 2 -0.67787 13.8837 8.30429 6.77203
133 2 -0.766122 0.6405 9.3101 9.37657
134 2 -0.930974 2.57854 7.82584 10.147
135 2 -0.825773 2.79357 9.27881 8.13731
136 2 -0.734473 1.19011 11.3654 10.8694
137 2 -0.690519 13.4971 9.15614 11.4353
138 2 -0.676576 12.9968 11.0789 9.13912
139 2 -0.795097 4.02787 7.86269 12.0182
140 2 -0.822723 6.08736 8.25667 13.412
141 2 -0.834057 5.71811 9.98625 11.4411
142 2 -0.720628 4.48796 11.319 8.18293
143 2 -0.78923 5.72718 13.1626 7.70987
144 2 -0.739285 6.4786 11.6948 9.73233
145 2 -0.644281 8.08335 0.697012 1.02404
146 2 -0.726794 8.164 13.4385 13.0359
147 2 -0.691377 8.25683 3.12237 2.26927
148 2 -0.719521 9.6125 0.978409 3.022
149 2 -0.680245 10.1106 2.61786 0.701429
150 2 -0.668864 8.15624 5.19022 4.14694
151 2 -0.762703 9.42907 4.49161 6.21884
152 2 -0.648687 10.2263 6.30788 4.5882
153 2 -0.926474 7.83162 6.33391 6.46965
154 2 -0.820095 11.2019 1.01502 4.58346
155 2 -0.84644 9.71955 12.8316 4.65938
156 2 -0.823095 11.4099 13.3275 2.86609
157 2 -0.776443 11.3274 2.82752 5.80813
158 2 -0.892037 11.8824 4.50753 1.07228
159 2 -0.778974 9.90187 4.78062 13.7824
160 2 -0.657351 11.6227 2.82336 13.0526
161 2 -0.833908 11.4674 6.57666 2.70404
162 2 -0.898325 7.86976 0.651876 7.97182
163 2 -0.937308 7.70238 13.4216 6.01764
164 2 -0.67828 8.08511 2.65061 9.6364
165 2 -0.876681 10.0555 0.836654 9.41284
166 2 -0.693218 9.62832 2.16974 7.34349
167 2 -0.72878 8.20536 4.34598 11.7813
168 2 -0.765896 8.0745 6.5803 13.1284
169 2 -0.63589 9.98411 6.04557 11.5264
170 2 -0.723197 11.3036 0.413689 11.605
171 2 -0.733008 9.90133 12.8346 11.1924
172 2 -0.714548 12.0255 13.2365 9.80036
173 2 -0.689574 10.9796 4.2701 8.1985
174 2 -0.730216 11.6826 6.65021 9.85844
175 2 -0.783012 7.49686 8.02213 1.15619
176 2 -0.867998 7.68538 9.96549 2.97978
177 2 -0.764264 9.50138 8.29746 3.08773
178 2 -0.678708 9.56691 9.43234 0.977254
179 2 -0.823176 7.57826 11.9072 4.26645
180 2 -0.738462 9.11392 11.1 6.18129
181 2 -0.663839 11.6414 7.93385 4.90988
182 2 -0.623737 11.9468 10.3045 6.03439
183 2 -0.809432 11.4764 11.1631 1.52996
184 2 -0.732704 9.69476 11.0648 13.4205
185 2 -0.779381 11.9627 10.2229 13.7418
186 2 -0.970879 8.58907 7.95971 8.26294
187 2 -0.777278 8.089 9.86201 9.60605
188 2 -0.889481 10.3128 8.50108 10.0358
189 2 -0.79905 10.127 9.99265 8.27207
190 2 -0.65141 7.7833 11.2688 11.8569
191 2 -0.755739 11.4307 8.16595 12.2395
192 2 -0.603185 11.5849 12.4507 7.40089
ITEM: TIMESTEP
10000
ITEM: NUMBER OF ATOMS
192
ITEM: BOX BOUNDS pp pp pp
1.0540549279780809e-01 1.4194594507202130e+01
1.0540549279780809e-01 1.4194594507202130e+01
1.0540549279780809e-01 1.4194594507202130e+01
ITEM: ATOMS id type q x y z
1 1 1.43568 0.17573 0.300233 13.9578
2 1 1.54458 1.71983 1.86165 1.96922
3 1 1.69263 13.8532 3.38157 4.06796
4 1 1.65763 1.82811 5.15155 5.33848
5 1 1.38624 3.34835 13.88 3.69834
6 1 1.3324 5.33375 1.76456 4.99167
7 1 1.607 3.23529 3.77079 0.221068
8 1 1.33395 5.39505 5.31108 1.47875
9 1 1.74258 14.2943 14.0327 7.40474
10 1 1.70661 2.10928 1.63261 9.09302
11 1 1.47212 0.347078 3.71703 10.3963
12 1 1.45837 2.12264 5.57534 12.3119
13 1 1.57971 3.70602 13.74 10.8797
14 1 1.44094 4.95656 1.96262 12.662
15 1 1.77152 3.6808 3.44835 7.19
16 1 1.65666 5.22878 5.23881 9.05378
17 1 1.30778 14.2335 7.00033 -0.0536467
18 1 1.57463 1.69597 9.07882 1.6677
19 1 1.43211 14.1226 10.7863 3.46009
20 1 1.76935 1.67969 12.2519 5.54707
21 1 1.29243 3.25146 7.18016 3.50925
22 1 1.5186 5.32564 8.9362 5.33018
23 1 1.56944 3.96951 10.5581 14.098
24 1 1.47266 5.50087 12.2499 2.02509
25 1 1.6809 0.457954 7.29834 6.91911
26 1 1.69226 1.82647 9.12132 8.92374
27 1 1.6771 0.153298 10.5197 11.1411
28 1 1.47936 1.98008 12.3327 12.8751
29 1 1.74035 3.76618 7.30519 10.5422
30 1 1.66453 5.56803 9.14359 11.8894
31 1 1.5753 3.70342 10.7164 7.15765
32 1 1.68573 5.5136 12.6394 8.66135
33 1 1.30892 6.79002 0.528151 0.254902
34 1 1.49237 8.80506 2.02134 1.99892
35 1 1.35613 7.10878 3.7187 3.73217
36 1 1.76457 8.54175 5.40018 5.72528
37 1 1.52281 10.6535 14.1531 3.20495
38 1 1.55451 12.1957 1.37376 5.76015
39 1 1.51661 10.7848 3.55983 13.9025
40 1 1.5587 12.6401 4.99918 1.90776
41 1 1.49089 7.58854 0.255198 6.76698
42 1 1.58178 8.80548 1.88394 9.09092
43 1 1.69578 6.88612 3.48109 10.7964
44 1 1.52272 8.77038 5.26001 12.194
45 1 1.3247 10.791 0.361692 10.6509
46 1 1.54178 12.6687 2.08434 12.0746
47 1 1.39905 10.5929 3.5868 7.26288
48 1 1.61112 12.6781 5.49361 8.58449
49 1 1.488 7.24203 7.40402 13.8967
50 1 1.57328 8.76771 8.78183 1.98461
51 1 1.85572 7.17651 10.4169 3.73987
52 1 1.41696 9.09602 12.1457 5.06122
53 1 1.23987 10.5686 6.68879 3.5701
54 1 1.27153 12.2786 9.031 5.11815
55 1 1.42963 10.5012 10.7924 0.698101
56 1 1.27869 12.5664 12.6017 1.57096
57 1 1.65341 6.68095 7.15509 7.25661
58 1 1.52041 8.87793 8.94745 8.7501
59 1 1.68412 7.51878 11.0634 10.4838
60 1 1.17245 8.98804 12.9953 12.7786
61 1 1.51787 10.5616 7.24851 10.5931
62 1 1.35238 12.0526 8.87271 12.7664
63 1 1.3058 10.968 11.037 7.48698
64 1 1.53238 12.8116 12.3124 9.39264
65 2 -0.733743 0.750432 0.813874 1.33879
66 2 -0.754622 1.58128 13.6734 13.603
67 2 -0.861909 13.5597 1.17116 13.0132
68 2 -0.725476 13.2479 13.0861 0.293032
69 2 -0.717307 0.564134 2.34407 3.14269
70 2 -0.742325 2.77123 1.09802 2.79762
71 2 -0.837963 1.98556 2.87411 0.932114
72 2 -0.936777 0.888524 4.10987 4.69783
73 2 -0.79771 12.7887 2.43506 4.7909
74 2 -0.882971 12.9985 4.31102 3.23183
75 2 -0.815952 2.79975 4.35388 6.31355
76 2 -0.808511 2.67882 6.33091 4.74426
77 2 -0.835971 0.908603 5.97614 6.29308
78 2 -0.712403 4.46841 0.597711 4.3029
79 2 -0.824981 2.66071 13.3546 5.00591
80 2 -0.685404 4.08161 12.6557 2.6468
81 2 -0.797386 4.51576 2.49811 6.23255
82 2 -0.732629 6.56047 2.33182 4.04343
83 2 -0.664666 6.67455 1.032 5.80753
84 2 -0.762483 4.31537 4.11339 1.25998
85 2 -0.857743 3.05228 4.71008 13.1681
86 2 -0.791334 3.93125 2.61732 13.6367
87 2 -0.555956 4.15063 6.29224 2.44863
88 2 -0.615335 6.29443 4.94923 2.66197
89 2 -0.689196 6.22563 6.26144 0.492891
90 2 -0.761848 1.49205 0.598174 8.00222
91 2 -0.906712 0.681056 13.0417 6.38406
92 2 -0.892226 13.2303 0.83132 6.7335
93 2 -0.825213 13.81 13.2295 8.67947
94 2 -0.802971 0.888987 2.36297 9.65238
95 2 -0.886756 2.73579 0.694794 10.0093
96 2 -0.895864 2.81213 2.54058 8.02471
97 2 -0.719705 1.66997 4.71277 11.0506
98 2 -0.850997 13.6027 3.26588 11.4945
99 2 -0.822095 13.6268 4.5772 9.23776
100 2 -0.779971 1.43083 6.44069 13.3138
101 2 -0.666038 3.10717 7.02377 11.8562
102 2 -0.777904 4.73342 0.682094 11.8082
103 2 -0.765985 2.93601 12.7563 11.6589
104 2 -0.825192 4.53602 12.9409 9.90206
105 2 -0.654551 6.16723 1.81034 13.7529
106 2 -0.789007 5.6493 2.9614 11.5309
107 2 -0.912682 4.30618 4.49847 8.04518
108 2 -0.845256 4.15896 5.91824 10.0678
109 2 -0.888347 6.42429 4.43593 9.76996
110 2 -0.909225 5.99253 6.32203 8.28329
111 2 -0.672659 0.696647 8.3501 0.712613
112 2 -0.714955 13.7502 5.81552 1.16689
113 2 -0.675517 12.8075 7.50462 13.2732
114 2 -0.817108 1.02199 10.2793 2.29227
115 2 -0.813281 2.36627 7.95322 2.3997
116 2 -0.696266 2.55491 9.89402 0.477567
117 2 -0.869221 0.806212 11.5123 4.64636
118 2 -0.689897 13.2135 9.66975 3.92777
119 2 -0.570799 12.9467 12.0711 3.12522
120 2 -0.887535 2.60387 11.1657 6.18897
121 2 -0.683597 4.53801 8.34082 4.14926
122 2 -0.751464 4.38629 9.42312 6.60604
123 2 -0.889568 6.4031 9.95831 4.9213
124 2 -0.777578 6.27889 7.82284 5.94151
125 2 -0.756163 5.01386 10.9911 1.1104
126 2 -0.718725 3.36111 11.8813 13.6458
127 2 -0.844547 4.70346 9.83326 12.9969
128 2 -0.693472 6.19256 13.6435 1.61639
129 2 -0.901935 6.43519 11.4181 2.92061
130 2 -0.912271 1.18067 8.29888 7.76032
131 2 -0.789256 13.3369 6.62758 7.90045
132 2 -0.682698 13.7506 7.94796 5.87022
133 2 -0.872206 0.909206 9.95282 9.9053
134 2 -0.861104 2.65969 8.02443 9.83352
135 2 -0.801963 2.83386 10.054 8.307
136 2 -0.762396 1.20875 11.1626 12.1992
137 2 -0.765793 13.2469 9.8116 11.9954
138 2 -0.853457 13.3738 11.6924 10.6689
139 2 -0.915491 5.00699 8.09553 10.998
140 2 -0.79494 6.56813 8.43228 12.8996
141 2 -0.797128 6.32729 10.3831 11.0639
142 2 -0.815906 4.93785 11.5077 7.89398
143 2 -0.748222 6.3759 13.623 7.8954
144 2 -0.741247 6.58217 11.8857 9.41171
145 2 -0.701176 7.85578 1.46096 1.01731
146 2 -0.665213 7.90637 14.0843 13.3678
147 2 -0.649836 8.47117 3.35488 2.77184
148 2 -0.811693 9.84411 1.37402 2.83626
149 2 -0.608404 9.85654 2.69342 0.514798
150 2 -0.822777 7.57502 4.66256 4.85235
151 2 -0.771193 9.31332 4.40103 6.6435
152 2 -0.721023 9.35649 6.05818 4.56842
153 2 -0.869316 7.77735 6.25336 6.64748
154 2 -0.698517 11.4867 14.6653 4.52122
155 2 -0.708717 9.68448 13.1895 3.97844
156 2 -0.759347 11.1476 13.286 2.03481
157 2 -0.709044 11.0592 2.1716 6.69178
158 2 -0.777407 11.7617 4.08741 1.12729
159 2 -0.700142 10.0437 4.71134 13.121
160 2 -0.790918 11.4955 2.50253 12.9539
161 2 -0.62869 11.59 6.204 2.35816
162 2 -0.794543 8.34961 1.21277 7.68209
163 2 -0.701005 8.12344 13.0033 6.2264
164 2 -0.906737 8.00827 2.65897 10.0668
165 2 -0.769762 9.69929 0.822978 9.62397
166 2 -0.638092 9.99936 3.07913 8.59877
167 2 -0.814768 7.72363 4.20633 11.9465
168 2 -0.676668 8.12239 6.31719 13.1392
169 2 -0.801462 9.72401 6.34255 11.3311
170 2 -0.729944 11.8789 1.43413 10.785
171 2 -0.635328 10.2618 13.8932 12.1196
172 2 -0.605648 11.4077 13.18 9.46502
173 2 -0.699478 11.5274 4.92435 7.49297
174 2 -0.657356 11.8161 6.03185 9.76772
175 2 -0.716582 8.4508 7.88492 0.626357
176 2 -0.820563 7.52315 9.13439 2.9114
177 2 -0.625889 9.44962 7.66196 2.71371
178 2 -0.81159 9.5998 9.98708 1.66995
179 2 -0.866714 8.43883 11.0309 4.14929
180 2 -0.593614 10.2369 12.0305 6.17562
181 2 -0.617327 11.5092 8.04671 4.31225
182 2 -0.58784 11.4531 10.1367 6.08679
183 2 -0.620887 11.9604 11.1383 1.38859
184 2 -0.621537 9.4124 11.665 13.9215
185 2 -0.684138 11.1749 9.79098 13.7582
186 2 -0.723639 7.673 8.36402 8.0301
187 2 -0.846624 8.23432 10.072 9.7303
188 2 -0.792327 10.0422 7.87273 9.37691
189 2 -0.684751 9.81504 9.94587 7.98605
190 2 -0.70987 8.37157 11.9405 11.53
191 2 -0.692924 10.9705 8.46613 11.5544
192 2 -0.787441 12.1747 11.2907 8.38749
ITEM: TIMESTEP
11000
ITEM: NUMBER OF ATOMS
192
ITEM: BOX BOUNDS pp pp pp
1.2122652066189143e-01 1.4178773479338044e+01
1.2122652066189143e-01 1.4178773479338044e+01
1.2122652066189143e-01 1.4178773479338044e+01
ITEM: ATOMS id type q x y z
1 1 1.41268 14.0569 14.0579 0.190386
2 1 1.53259 1.56427 2.15985 1.66837
3 1 1.50219 14.0033 4.15712 3.47801
4 1 1.50826 1.97358 5.56037 5.12773
5 1 1.88862 3.31485 0.56902 3.39634
6 1 1.71693 5.03333 1.80819 5.52433
7 1 1.45435 3.92966 3.87921 14.2075
8 1 1.75117 5.76661 5.4291 2.09547
9 1 1.50921 0.362929 14.0597 6.93092
10 1 1.50158 1.96892 1.70973 8.84212
11 1 1.55092 0.300278 3.17887 10.8132
12 1 1.50891 1.87332 5.26567 12.4176
13 1 1.6042 3.55106 0.286771 11.017
14 1 1.54006 5.53972 1.8804 12.4919
15 1 1.43553 3.41771 3.81917 7.05414
16 1 1.48362 5.26266 5.32904 9.15982
17 1 1.63212 0.254336 7.01011 14.1285
18 1 1.33642 1.97847 8.46745 2.03394
19 1 1.25978 0.303392 10.365 3.79255
20 1 1.51356 2.25545 12.5722 5.18195
21 1 1.50617 4.22524 7.14253 3.89152
22 1 1.40815 6.03188 9.06318 5.52735
23 1 1.43286 3.10824 10.5914 0.191213
24 1 1.36396 4.67002 12.4186 1.92797
25 1 1.44677 14.1625 6.82006 6.98155
26 1 1.58789 1.69341 8.96082 8.4205
27 1 1.76782 0.195958 10.7726 10.1774
28 1 1.34047 1.55978 12.3184 12.2843
29 1 1.28999 3.35841 7.23378 10.5897
30 1 1.58165 5.14266 9.19541 12.5798
31 1 1.51775 3.84682 10.7528 7.22755
32 1 1.49296 5.37266 12.4218 9.30993
33 1 1.3952 6.83947 13.7897 14.1567
34 1 1.32217 8.77854 1.32593 2.12667
35 1 1.5482 7.28874 3.48781 3.82422
36 1 1.26246 8.87293 5.55189 5.44804
37 1 1.31404 11.015 13.8709 3.67129
38 1 1.61925 12.6783 2.10409 5.43934
39 1 1.59666 10.3283 3.43022 0.337745
40 1 1.54713 12.0004 5.4536 1.76639
41 1 1.49858 7.03291 0.135521 7.13358
42 1 1.47579 8.73389 2.24597 8.42355
43 1 1.60532 7.43697 3.80779 10.8082
44 1 1.64823 8.87061 5.58613 12.7619
45 1 1.36576 10.3251 0.260476 10.4682
46 1 1.09339 12.1272 1.65729 12.6797
47 1 1.45978 10.7147 3.83343 6.91187
48 1 1.37939 12.3762 4.94732 9.085
49 1 1.67111 6.85266 7.37455 0.13796
50 1 1.38352 9.129 9.26272 1.32828
51 1 1.33081 7.03819 10.8049 3.26373
52 1 1.29809 9.02968 12.513 5.37158
53 1 1.35692 10.4471 7.35918 3.49903
54 1 1.50472 12.4675 8.71557 5.45122
55 1 1.47755 11.2516 10.8233 13.7833
56 1 1.56404 12.7056 12.1287 1.99091
57 1 1.31651 7.20333 6.98598 7.47955
58 1 1.43767 9.04102 8.83575 9.19812
59 1 1.76892 7.20121 10.4949 10.8377
60 1 1.54539 8.95589 12.3654 12.2917
61 1 1.18305 10.89 6.90602 10.8737
62 1 1.43922 12.9194 8.98087 12.1819
63 1 1.69067 10.4652 10.5025 7.11324
64 1 1.48045 12.2345 12.5173 8.60321
65 2 -0.773095 1.06736 1.13215 0.527831
66 2 -0.706515 0.44469 13.0427 13.0765
67 2 -0.678458 12.793 0.246765 13.4038
68 2 -0.682764 13.8021 13.2975 1.58311
69 2 -0.746705 0.353191 3.00418 2.42396
70 2 -0.926321 2.52358 1.63841 2.73056
71 2 -0.717056 2.57972 3.15764 0.973358
72 2 -0.768285 0.967589 5.29598 3.87484
73 2 -0.776339 13.3505 3.25746 4.75171
74 2 -0.790735 12.905 5.01091 2.86616
75 2 -0.778958 2.81668 4.46433 5.74845
76 2 -0.779242 3.17763 6.57801 4.87224
77 2 -0.83509 0.920815 5.85741 6.27577
78 2 -0.916637 3.99142 0.97861 4.6727
79 2 -0.857047 2.40994 13.5285 3.89594
80 2 -0.845234 4.31887 13.8893 2.60721
81 2 -0.814026 4.23803 2.45716 6.57972
82 2 -0.684219 5.82724 2.89338 4.731
83 2 -0.779705 6.25869 1.04839 5.90526
84 2 -0.833021 4.97118 4.70597 1.05099
85 2 -0.651894 3.45137 4.77598 12.9479
86 2 -0.768033 4.68502 2.9063 13.3126
87 2 -0.900696 4.94114 6.06315 3.2042
88 2 -0.78168 6.6148 4.13822 2.65578
89 2 -0.839455 6.46937 6.62979 1.5511
90 2 -0.738147 1.06165 0.646802 8.18487
91 2 -0.74344 1.66547 13.4405 6.35288
92 2 -0.818963 13.6984 1.22755 6.15252
93 2 -0.703097 13.5362 12.9651 7.67605
94 2 -0.867068 1.23059 2.37598 10.0425
95 2 -0.784016 2.9505 0.865801 9.74978
96 2 -0.652816 2.14248 3.11064 7.81339
97 2 -0.805127 0.887555 4.23548 11.6782
98 2 -0.587889 13.1219 1.9026 11.482
99 2 -0.735906 13.4016 4.19531 10.1107
100 2 -0.846677 0.895821 5.85331 13.4437
101 2 -0.678539 2.23342 6.50075 11.6949
102 2 -0.800748 4.57892 1.35877 11.3133
103 2 -0.700458 2.90817 13.6429 12.216
104 2 -0.756316 4.49076 13.1938 10.3531
105 2 -0.804649 6.11576 0.815076 13.4167
106 2 -0.728577 6.82692 2.75123 11.7468
107 2 -0.758548 4.36932 4.46137 8.20464
108 2 -0.69345 4.41843 6.00716 10.3751
109 2 -0.765582 6.46337 4.73714 9.938
110 2 -0.700511 5.98518 6.23917 8.02995
111 2 -0.751433 1.21696 7.38985 1.27853
112 2 -0.727968 13.0498 6.50319 0.805611
113 2 -0.684089 14.1301 8.37027 13.3926
114 2 -0.767836 0.877234 9.25663 2.87122
115 2 -0.583531 3.59489 8.53047 3.0723
116 2 -0.690917 2.72965 9.15675 0.869682
117 2 -0.603234 1.31859 11.3666 4.84124
118 2 -0.632715 13.5153 9.91997 5.26063
119 2 -0.776112 13.4918 11.5934 3.13277
120 2 -0.709678 3.09591 11.6752 6.14482
121 2 -0.661364 5.2703 7.73711 4.92707
122 2 -0.678706 4.94057 10.0369 6.22849
123 2 -0.711724 6.78972 9.65774 4.17251
124 2 -0.698007 6.57027 8.35061 6.78925
125 2 -0.716176 3.40496 11.8984 1.18699
126 2 -0.7159 2.12908 11.0523 13.0484
127 2 -0.783554 4.36533 10.1142 13.5634
128 2 -0.677834 5.70596 12.7226 0.728056
129 2 -0.635217 5.39392 11.276 2.91141
130 2 -0.755715 1.33707 7.60243 8.01745
131 2 -0.582368 13.326 6.01709 8.42563
132 2 -0.847849 13.2483 7.91201 6.46836
133 2 -0.893213 1.15732 10.1075 9.2518
134 2 -0.644964 2.75152 8.42564 9.63416
135 2 -0.741316 2.6849 9.72126 7.45132
136 2 -0.747973 1.16648 11.8444 10.8145
137 2 -0.888705 13.4733 10.1502 11.2623
138 2 -0.753615 13.1212 11.4901 9.36464
139 2 -0.603753 4.03052 7.96412 11.7817
140 2 -0.823572 5.72647 8.25611 13.6193
141 2 -0.972533 6.26266 9.70247 11.7093
142 2 -0.77791 4.63173 11.3691 8.47822
143 2 -0.719785 5.93616 13.4111 7.87598
144 2 -0.820629 6.52667 11.6102 10.0047
145 2 -0.604121 7.40725 0.864741 1.24412
146 2 -0.805414 7.87874 12.9467 13.2086
147 2 -0.706862 8.04003 2.29133 3.20223
148 2 -0.724683 9.77308 0.891223 3.14041
149 2 -0.724814 9.3245 2.39839 0.816324
150 2 -0.757459 7.85578 4.54156 4.76194
151 2 -0.637284 10.3449 4.82715 5.59941
152 2 -0.623752 9.10691 6.89394 4.37639
153 2 -0.606562 8.12419 5.70381 6.85098
154 2 -0.697884 12.0584 0.741452 4.32974
155 2 -0.684446 10.16 12.5975 4.19502
156 2 -0.727812 11.571 13.1442 2.36102
157 2 -0.876059 11.7097 2.66862 6.36434
158 2 -0.759407 11.1834 4.03387 1.3645
159 2 -0.823439 9.64481 4.63905 13.6939
160 2 -0.665345 11.7081 2.94713 13.6907
161 2 -0.752765 11.0156 6.30119 2.4629
162 2 -0.854802 7.81669 1.25901 7.72502
163 2 -0.724572 8.30591 13.3015 6.52319
164 2 -0.714393 8.36915 3.26261 9.50659
165 2 -0.673154 9.67566 1.19845 9.36269
166 2 -0.724273 9.34951 3.48701 7.52472
167 2 -0.855668 8.10086 4.58454 11.8572
168 2 -0.867626 7.6841 6.43147 13.4501
169 2 -0.745728 10.0592 6.48013 12.1963
170 2 -0.537414 10.8696 1.69492 11.4537
171 2 -0.811141 9.29672 13.4718 11.2961
172 2 -0.755355 11.269 13.5117 9.52998
173 2 -0.735249 11.4724 4.80942 7.73813
174 2 -0.636235 11.1665 5.59814 9.83861
175 2 -0.715833 8.01127 8.4284 0.456905
176 2 -0.639813 8.23214 10.2952 2.11324
177 2 -0.68886 9.71931 8.17469 2.3833
178 2 -0.65475 10.1156 10.4528 0.862366
179 2 -0.611281 7.64287 11.7697 4.31344
180 2 -0.785157 9.60404 11.2809 6.09792
181 2 -0.744804 11.9404 7.90636 4.2853
182 2 -0.747736 11.1762 9.30858 6.25514
183 2 -0.850411 12.2663 11.4024 0.723492
184 2 -0.771178 10.0723 11.416 12.9567
185 2 -0.780679 11.8803 9.44475 13.1146
186 2 -0.684175 8.20664 7.58157 8.7404
187 2 -0.792667 7.85777 9.70373 9.76626
188 2 -0.590755 10.5465 8.26475 9.97436
189 2 -0.807269 9.74771 9.82296 8.27421
190 2 -0.775269 8.50781 11.1262 11.3233
191 2 -0.60397 12.474 7.64389 11.3755
192 2 -0.81916 11.3994 11.4379 7.80032
ITEM: TIMESTEP
12000
ITEM: NUMBER OF ATOMS
192
ITEM: BOX BOUNDS pp pp pp
1.2961055475530348e-01 1.4170389445244579e+01
1.2961055475530348e-01 1.4170389445244579e+01
1.2961055475530348e-01 1.4170389445244579e+01
ITEM: ATOMS id type q x y z
1 1 1.44418 0.202886 14.171 0.503096
2 1 1.31569 1.81766 2.02246 2.15603
3 1 1.59024 13.9878 3.85175 3.7652
4 1 1.93743 1.67384 5.67671 5.33032
5 1 1.51461 3.83577 13.9254 3.48215
6 1 1.63501 4.96672 1.96926 5.45004
7 1 1.59515 3.76796 3.24128 14.0825
8 1 1.57769 5.42686 4.81851 2.14025
9 1 1.53168 0.354907 0.30835 7.14901
10 1 1.62974 2.03364 1.90699 9.15831
11 1 1.48579 0.271654 3.56585 11.1061
12 1 1.42082 2.05114 5.44404 12.6407
13 1 1.52071 3.92484 13.9718 10.6968
14 1 1.77148 5.44582 1.84466 12.1343
15 1 1.77409 3.1341 3.67648 7.04382
16 1 1.71362 5.28872 5.46792 8.37428
17 1 1.54202 0.127406 7.56811 13.6319
18 1 1.46142 1.67196 8.80785 1.81556
19 1 1.49845 0.299634 10.4737 3.69087
20 1 1.36447 1.94031 12.511 5.3359
21 1 1.45682 3.53457 6.79948 3.35087
22 1 1.40762 5.20731 8.97405 4.66208
23 1 1.57096 3.62262 10.6182 14.1754
24 1 1.5567 5.7167 12.5947 1.43642
25 1 1.52009 14.1062 7.32267 7.40674
26 1 1.64254 2.06189 8.9059 9.13403
27 1 1.49976 13.9951 10.5683 10.5955
28 1 1.46193 1.68494 12.3314 12.5835
29 1 1.42817 3.81953 6.86917 10.546
30 1 1.30771 5.22792 8.54651 12.5796
31 1 1.44655 3.78447 10.5179 7.11796
32 1 1.2443 5.50686 12.2938 8.9243
33 1 1.63663 7.18252 0.568759 13.9674
34 1 1.64981 8.98643 1.92271 2.01077
35 1 1.67967 7.25292 3.36504 4.08145
36 1 1.43271 9.05384 5.33028 5.30556
37 1 1.52735 10.9298 14.4488 3.87036
38 1 1.62035 12.5306 2.14608 5.58402
39 1 1.55207 10.578 3.858 0.320294
40 1 1.71611 12.9471 5.4306 1.54533
41 1 1.39115 7.13178 0.325622 7.30704
42 1 1.39602 9.14211 1.94078 9.11224
43 1 1.64324 6.90579 3.98654 10.4405
44 1 1.51828 8.96388 5.24082 12.2361
45 1 1.60703 10.6942 14.3144 11.038
46 1 1.81597 12.6125 1.80509 12.8536
47 1 1.61246 11.0909 3.98059 7.34914
48 1 1.42496 12.5924 5.62004 9.55042
49 1 1.48821 7.08661 6.65626 0.199911
50 1 1.66507 8.75448 8.46517 1.93168
51 1 1.59982 7.14304 10.7695 3.27038
52 1 1.47313 8.63147 12.5906 5.29015
53 1 1.4012 10.9947 7.0599 3.35406
54 1 1.62675 12.2328 9.05173 5.46387
55 1 1.48517 10.5724 10.1761 0.120612
56 1 1.33559 12.3923 12.2459 1.96875
57 1 1.50218 7.01037 7.18592 6.60244
58 1 1.19668 8.66555 9.03096 8.56101
59 1 1.5184 7.24642 10.4752 10.905
60 1 1.28201 9.00953 12.3772 12.7031
61 1 1.18916 10.2528 7.06357 10.1767
62 1 1.40589 12.0391 8.78588 11.8544
63 1 1.56979 10.546 11.1026 7.00475
64 1 1.39641 12.2958 12.7103 8.87112
65 2 -0.676623 1.16011 0.62394 1.81328
66 2 -0.778248 0.869997 13.2995 13.3729
67 2 -0.907855 13.4889 1.30686 13.8882
68 2 -0.705452 13.0174 13.1248 0.932872
69 2 -0.710388 0.954039 2.6655 3.33828
70 2 -0.63559 3.29835 1.00078 2.56646
71 2 -0.69675 2.37916 2.91462 0.949504
72 2 -0.938828 0.631623 5.13433 4.45725
73 2 -0.886488 12.884 2.97883 4.32159
74 2 -0.820781 13.7483 4.30183 2.29847
75 2 -0.987892 2.29957 4.58502 6.13645
76 2 -0.94171 2.86849 6.23745 4.58256
77 2 -0.87625 0.867705 6.56986 6.26282
78 2 -0.734703 4.8398 0.635711 4.57101
79 2 -0.745645 2.58927 13.632 4.34485
80 2 -0.793516 4.62665 13.0399 2.50196
81 2 -0.882425 3.8108 2.47877 6.16408
82 2 -0.894871 5.99626 2.83184 4.89888
83 2 -0.559155 5.95425 1.38448 6.81384
84 2 -0.754242 4.81941 3.72606 1.26535
85 2 -0.705499 3.19964 4.41529 13.347
86 2 -0.89844 4.31861 2.41598 12.9894
87 2 -0.754747 4.21161 5.71141 2.3068
88 2 -0.759524 6.63897 4.46594 3.14533
89 2 -0.683206 6.32565 5.46091 1.05375
90 2 -0.745073 0.921071 1.31769 8.17693
91 2 -0.650384 1.57743 13.619 6.67865
92 2 -0.812951 13.7234 1.30209 6.1672
93 2 -0.648941 13.7618 13.1787 8.10689
94 2 -0.71525 1.37447 2.51121 10.4674
95 2 -0.749168 2.96673 0.844882 9.95656
96 2 -0.913396 2.56281 2.96011 8.24109
97 2 -0.718688 0.713143 4.55013 12.2567
98 2 -0.841214 13.4318 2.47822 11.8206
99 2 -0.797505 13.5492 4.58244 10.0713
100 2 -0.834608 1.21338 6.68465 13.2601
101 2 -0.686096 2.75627 5.57413 11.2915
102 2 -0.944691 5.10841 0.589908 11.4513
103 2 -0.647881 2.7884 13.4015 11.6322
104 2 -0.623799 4.16449 13.045 9.32232
105 2 -0.897474 6.68502 1.53822 12.9196
106 2 -0.777665 5.8712 3.28092 11.5018
107 2 -0.878303 4.21439 4.57763 7.75258
108 2 -0.86466 4.67191 6.46003 9.3807
109 2 -0.849715 6.21637 4.5621 9.25558
110 2 -0.825912 6.29185 6.00071 7.28586
111 2 -0.795076 0.733419 8.58416 0.542136
112 2 -0.720822 13.5745 6.67141 0.826563
113 2 -0.690682 12.6212 7.64167 12.9956
114 2 -0.875822 1.07194 9.32723 3.03558
115 2 -0.621377 2.31178 7.38191 2.12242
116 2 -0.71207 3.00443 9.90603 1.47513
117 2 -0.76089 1.14874 11.3447 4.63439
118 2 -0.822879 13.1806 9.72128 4.54558
119 2 -0.667432 13.5526 11.8957 3.11487
120 2 -0.673586 2.97991 11.7021 6.22631
121 2 -0.754791 4.63388 7.80336 3.57413
122 2 -0.66106 4.33754 9.4105 6.06769
123 2 -0.810507 5.97953 10.0903 4.01711
124 2 -0.672449 6.32545 8.08853 5.44416
125 2 -0.756205 4.92149 11.4084 0.513174
126 2 -0.832594 2.56718 11.3217 13.3713
127 2 -0.698993 3.9778 9.70574 13.0524
128 2 -0.784841 5.85538 13.8856 0.57408
129 2 -0.868412 6.76444 11.9132 2.24969
130 2 -0.719782 1.17601 8.31963 7.84833
131 2 -0.809698 13.0787 6.69559 8.43086
132 2 -0.68558 13.2625 8.41179 6.65191
133 2 -0.828539 1.2496 9.84496 10.0215
134 2 -0.873271 2.9594 7.95572 9.82802
135 2 -0.738402 2.86886 9.64985 8.07789
136 2 -0.70206 0.510283 11.5005 11.6469
137 2 -0.845375 13.2468 9.61988 11.5232
138 2 -0.634865 13.1639 11.3332 9.22975
139 2 -0.709543 4.63928 7.22926 11.9544
140 2 -0.704248 6.06278 7.77555 13.8182
141 2 -0.677944 6.21649 9.4385 11.6651
142 2 -0.682851 4.99592 10.984 7.99088
143 2 -0.726377 6.1357 13.6419 8.27022
144 2 -0.674771 6.07564 11.505 10.3046
145 2 -0.786107 7.86227 1.50494 1.00085
146 2 -0.806368 8.1183 13.5235 13.6551
147 2 -0.805913 7.90314 2.45911 3.00998
148 2 -0.795695 9.85327 1.32688 3.2728
149 2 -0.882795 9.83741 2.87841 1.30231
150 2 -0.840286 7.93635 4.38263 4.95451
151 2 -0.754613 9.97284 4.37269 6.40845
152 2 -0.679425 10.0624 6.11812 4.30372
153 2 -0.663685 8.36966 6.70891 6.04953
154 2 -0.823003 11.5198 0.872997 5.11036
155 2 -0.625853 9.9256 13.207 4.41434
156 2 -0.691107 11.5581 13.5087 2.72902
157 2 -0.888842 12.1216 3.07269 6.65915
158 2 -0.850965 11.7344 4.8974 0.847532
159 2 -0.799387 9.93947 4.33445 12.9791
160 2 -0.673824 11.2773 2.68545 13.6442
161 2 -0.799788 12.2629 6.14666 2.61117
162 2 -0.722269 8.35421 1.07446 7.91323
163 2 -0.699822 7.58365 13.8177 5.89786
164 2 -0.669353 8.00521 3.04882 9.59798
165 2 -0.825724 10.0414 1.28067 10.1463
166 2 -0.579721 10.3094 2.7318 8.15215
167 2 -0.844744 7.9767 4.68561 11.1199
168 2 -0.803499 8.10826 5.98968 13.3017
169 2 -0.592131 9.13465 6.72425 11.3848
170 2 -0.878054 11.6738 0.962587 12.1131
171 2 -0.739709 9.54654 13.2072 11.4202
172 2 -0.764298 11.5743 13.6475 9.92441
173 2 -0.757855 11.5405 4.74821 8.53605
174 2 -0.686893 11.4308 5.95863 10.5932
175 2 -0.779707 7.88143 7.29457 1.52001
176 2 -0.785863 8.09731 9.58605 2.91854
177 2 -0.822259 9.96799 7.8927 2.65885
178 2 -0.836917 9.43638 9.33188 0.863423
179 2 -0.717767 7.65435 11.7027 4.50554
180 2 -0.821484 9.49188 11.6554 5.98828
181 2 -0.698765 11.3422 8.09337 4.79101
182 2 -0.798652 11.1953 9.98701 6.24442
183 2 -0.66368 11.6272 10.9504 1.20474
184 2 -0.68906 10.1321 11.5088 13.5886
185 2 -0.734669 11.1501 9.73841 12.7817
186 2 -0.653668 7.42793 8.35567 7.63607
187 2 -0.7411 8.20505 9.68909 10.1308
188 2 -0.57787 9.82377 7.68032 8.81963
189 2 -0.656719 9.63142 10.2743 8.05532
190 2 -0.714831 7.86609 11.2588 11.9954
191 2 -0.665218 11.251 8.39321 10.5785
192 2 -0.790758 11.2351 12.2977 7.86822
ITEM: TIMESTEP
13000
ITEM: NUMBER OF ATOMS
192
ITEM: BOX BOUNDS pp pp pp
1.3081965878899027e-01 1.4169180341210893e+01
1.3081965878899027e-01 1.4169180341210893e+01
1.3081965878899027e-01 1.4169180341210893e+01
ITEM: ATOMS id type q x y z
1 1 1.35807 0.617042 14.1065 13.9576
2 1 1.51042 1.9899 2.07186 1.8927
3 1 1.62385 0.208966 3.58359 3.67605
4 1 1.44581 2.32083 4.82707 5.51209
5 1 1.86125 3.65035 0.539423 3.80535
6 1 1.7305 5.66631 2.16348 5.34326
7 1 1.50368 3.72517 3.98118 13.8182
8 1 1.12703 5.32134 5.59875 1.93093
9 1 1.30233 14.0476 13.9975 6.7257
10 1 1.43071 1.92503 1.44542 8.45429
11 1 1.49168 0.494638 3.36374 10.625
12 1 1.52659 1.80199 5.62537 12.2741
13 1 1.55526 3.61157 14.113 10.4498
14 1 1.47073 5.20912 1.94294 12.1559
15 1 1.50905 4.06133 3.39541 7.50941
16 1 1.45392 5.30781 5.61273 9.32586
17 1 1.41444 13.8898 7.03017 14.3782
18 1 1.50515 1.80822 8.55429 2.01632
19 1 1.49046 14.1324 10.5269 3.49748
20 1 1.33656 1.93033 12.332 5.02845
21 1 1.41615 3.72936 7.28113 4.15736
22 1 1.39482 5.21041 8.91037 6.08862
23 1 1.30965 3.54891 10.4862 0.37977
24 1 1.6044 5.13713 12.6444 2.10027
25 1 1.41696 0.371512 6.70885 7.28601
26 1 1.59785 1.87166 8.80019 8.73533
27 1 1.68892 13.8672 10.3464 10.2852
28 1 1.33907 1.76399 12.0034 12.1168
29 1 1.47713 3.65018 7.68348 10.9434
30 1 1.56769 5.45957 9.01067 12.8662
31 1 1.32726 3.36145 10.9725 7.42073
32 1 1.38027 5.42647 12.6575 8.69262
33 1 1.60978 6.6591 13.9902 13.7704
34 1 1.44959 8.60436 1.89792 1.28557
35 1 1.62632 7.18346 3.72157 3.28259
36 1 1.43517 8.98884 5.47441 5.00688
37 1 1.48418 10.5114 0.422803 3.36058
38 1 1.51754 12.2618 2.06757 5.07165
39 1 1.76575 10.924 3.53112 0.286963
40 1 1.36367 12.4148 5.27211 2.27565
41 1 1.4463 7.37062 0.174987 7.06107
42 1 1.42158 9.13831 2.08736 8.77864
43 1 1.48808 7.25901 3.66685 10.7332
44 1 1.4772 8.98074 5.22066 12.7797
45 1 1.46484 10.5806 0.204958 10.65
46 1 1.61436 12.6029 1.67379 12.5652
47 1 1.66595 10.7426 3.74061 6.88898
48 1 1.56715 12.259 5.38981 8.86459
49 1 1.38037 7.27589 7.17171 0.297923
50 1 1.2943 8.93041 9.14401 2.17064
51 1 1.36975 6.66305 10.6401 3.81554
52 1 1.482 8.99365 12.1918 5.25228
53 1 1.41453 10.7848 7.34035 3.54143
54 1 1.51142 12.6173 8.53399 5.48305
55 1 1.22869 10.8319 10.8088 0.11692
56 1 1.33036 12.6298 12.7909 1.98514
57 1 1.49941 7.16456 6.81502 7.33306
58 1 1.28776 8.63807 8.71119 9.12656
59 1 1.55859 6.83632 10.7263 10.7606
60 1 1.34259 8.88498 12.4443 12.3063
61 1 1.42889 10.5922 7.01664 10.8046
62 1 1.54149 12.3442 8.9011 12.5517
63 1 1.36163 10.6333 10.1491 7.21463
64 1 1.63605 12.1722 12.3647 8.80568
65 2 -0.742627 1.50313 0.790381 0.959135
66 2 -0.645379 0.660857 12.9966 12.5369
67 2 -0.79214 13.5489 1.07727 13.5621
68 2 -0.661349 13.6744 13.1508 0.836119
69 2 -0.793122 0.766536 2.86944 2.39975
70 2 -0.842653 2.82961 1.67224 3.09435
71 2 -0.683303 2.68997 3.02326 0.691499
72 2 -0.734928 1.38184 3.98612 4.57253
73 2 -0.806214 13.0097 3.28995 4.59991
74 2 -0.75356 13.6973 4.84471 2.95479
75 2 -0.710652 2.90272 3.67655 6.51458
76 2 -0.721706 2.80152 6.07719 4.56293
77 2 -0.63976 1.17116 5.53481 6.33685
78 2 -0.945216 4.5566 1.30534 4.69767
79 2 -0.798768 2.51617 13.7582 4.32753
80 2 -0.936699 4.31883 13.7974 2.70883
81 2 -0.845736 5.18779 2.98612 6.52436
82 2 -0.876508 6.22132 3.21312 4.32383
83 2 -0.761391 6.81425 1.21703 5.95104
84 2 -0.697976 4.141 5.11499 0.806359
85 2 -0.761994 3.08793 4.99877 12.7649
86 2 -0.866004 4.47244 3.03041 12.9447
87 2 -0.599622 5.05386 6.71587 3.54228
88 2 -0.694449 6.28868 4.25728 2.03695
89 2 -0.659462 6.48594 6.54662 1.66331
90 2 -0.676056 1.19569 0.944247 7.14761
91 2 -0.662192 0.786106 12.8509 6.26893
92 2 -0.647346 13.5483 1.22387 5.53694
93 2 -0.680422 13.1622 13.0029 7.80879
94 2 -0.693477 1.02844 2.72353 9.38647
95 2 -0.727207 2.42253 0.43093 9.48847
96 2 -0.718806 3.28624 2.23624 8.19034
97 2 -0.785753 0.958068 4.39986 11.7473
98 2 -0.717758 13.7691 2.31841 11.312
99 2 -0.625234 13.3634 4.50404 9.64499
100 2 -0.687031 0.986437 6.4759 13.3859
101 2 -0.765875 2.54459 6.51683 11.2084
102 2 -0.731331 4.06651 1.37586 11.0774
103 2 -0.667292 2.65657 13.241 11.2616
104 2 -0.67903 4.83298 13.9137 9.38036
105 2 -0.799953 5.56624 0.405496 12.9034
106 2 -0.776965 6.40968 2.5117 11.3951
107 2 -0.742413 4.29347 4.76039 8.46306
108 2 -0.658302 4.68584 7.0102 9.90086
109 2 -0.833642 6.46184 4.89556 10.1764
110 2 -0.785368 6.03892 6.35851 8.14308
111 2 -0.702852 1.03785 7.36435 1.19825
112 2 -0.684398 12.8657 5.86131 0.839731
113 2 -0.719957 13.4639 8.46212 13.5807
114 2 -0.753907 0.513667 9.28947 2.5405
115 2 -0.764547 2.81031 8.24851 3.13773
116 2 -0.746211 2.508 9.52162 0.952434
117 2 -0.744795 1.48193 11.3231 3.93616
118 2 -0.741196 13.141 9.78826 4.58587
119 2 -0.752974 13.477 11.6898 2.96537
120 2 -0.678283 3.0744 11.8152 6.02642
121 2 -0.7587 4.04736 8.05312 5.45747
122 2 -0.638805 4.56943 9.65871 7.2649
123 2 -0.721116 6.12383 9.98731 5.05316
124 2 -0.687507 6.44969 8.03988 6.65391
125 2 -0.741317 4.55933 11.3686 1.55777
126 2 -0.669221 2.98345 11.5772 13.0134
127 2 -0.759307 4.55375 9.40329 14.0484
128 2 -0.791737 5.99687 13.25 0.852964
129 2 -0.66957 5.97502 12.093 3.3125
130 2 -0.823062 1.46052 7.56615 7.97475
131 2 -0.72077 12.9783 6.52383 8.19644
132 2 -0.667554 13.4953 7.44064 6.22966
133 2 -0.810785 0.493576 9.23716 9.54647
134 2 -0.768094 2.98202 8.64906 9.91756
135 2 -0.771841 2.21625 9.92765 7.77158
136 2 -0.761343 1.00088 10.8811 11.1953
137 2 -0.803462 12.7807 9.73966 11.2392
138 2 -0.847204 13.1624 11.4561 9.48057
139 2 -0.874094 4.67525 8.02251 12.0872
140 2 -0.720706 6.8458 8.42745 13.595
141 2 -0.760895 5.97904 10.2124 12.0478
142 2 -0.728993 4.10206 11.9534 8.46084
143 2 -0.703589 6.12755 13.2911 7.41942
144 2 -0.689861 5.88606 11.8381 10.2144
145 2 -0.768959 7.49439 1.19836 0.388482
146 2 -0.750882 7.95769 13.0777 13.2444
147 2 -0.761322 8.11212 2.79674 2.62445
148 2 -0.63944 9.21138 0.912505 2.61402
149 2 -0.896073 9.7259 2.77066 0.701536
150 2 -0.794436 8.12003 4.78683 4.06302
151 2 -0.822961 10.0769 4.54422 5.68618
152 2 -0.728162 9.52939 6.86385 4.49721
153 2 -0.603259 7.41682 5.8711 6.07089
154 2 -0.894903 11.3519 1.48633 3.99206
155 2 -0.678259 9.69152 13.4903 4.67659
156 2 -0.820307 11.312 13.4695 2.50808
157 2 -0.788714 11.6679 2.54168 6.50154
158 2 -0.693307 11.7961 3.6811 1.48755
159 2 -0.730206 10.3453 4.7838 13.5345
160 2 -0.846267 11.7125 2.74366 13.3122
161 2 -0.75053 11.1205 6.12876 2.61102
162 2 -0.719595 7.78548 0.96863 8.29319
163 2 -0.702098 8.20862 12.99 6.41333
164 2 -0.708561 8.20577 2.87348 9.7465
165 2 -0.714664 10.2247 1.54516 9.69412
166 2 -0.853009 9.79073 3.23564 7.92805
167 2 -0.729647 8.17593 4.00729 12.0767
168 2 -0.738722 8.38298 6.28896 13.6562
169 2 -0.666143 9.61677 6.28598 11.7606
170 2 -0.753012 11.6811 0.794959 11.8362
171 2 -0.690545 9.25069 13.951 11.261
172 2 -0.87852 11.4767 13.348 9.79653
173 2 -0.816816 11.6833 4.67748 7.62182
174 2 -0.802343 11.2307 5.88294 9.95678
175 2 -0.563991 8.40867 7.91206 1.10962
176 2 -0.649572 7.7759 10.142 2.59633
177 2 -0.753314 10.2265 8.63528 2.93761
178 2 -0.530222 9.62786 10.3914 1.12749
179 2 -0.654211 7.71986 11.5761 4.49859
180 2 -0.716181 9.8988 11.2094 5.96314
181 2 -0.737689 12.1051 7.46246 4.54125
182 2 -0.741569 11.7442 9.11051 6.63862
183 2 -0.553693 12.0804 11.4126 1.09677
184 2 -0.644874 10.2739 11.9455 12.9385
185 2 -0.698156 11.1702 9.43114 13.4295
186 2 -0.761258 8.40813 7.54787 8.06411
187 2 -0.710157 7.33292 9.85117 9.58923
188 2 -0.667181 9.42315 8.15519 10.3739
189 2 -0.710433 9.72303 9.82289 8.38145
190 2 -0.752421 8.00605 11.2279 11.4845
191 2 -0.725886 11.6648 7.7651 11.9068
192 2 -0.709128 11.6052 11.363 7.73864
ITEM: TIMESTEP
14000
ITEM: NUMBER OF ATOMS
192
ITEM: BOX BOUNDS pp pp pp
1.2586962388785405e-01 1.4174130376112029e+01
1.2586962388785405e-01 1.4174130376112029e+01
1.2586962388785405e-01 1.4174130376112029e+01
ITEM: ATOMS id type q x y z
1 1 1.6453 13.9947 0.433747 0.42645
2 1 1.72501 1.60587 2.00015 2.40583
3 1 1.3576 0.250627 3.95266 4.13748
4 1 1.49112 2.3422 5.86301 5.21625
5 1 1.47767 3.54834 13.9099 3.20012
6 1 1.58109 5.26209 1.64977 5.16429
7 1 1.60237 3.63127 3.49625 0.271125
8 1 1.59717 5.80199 5.1563 1.68544
9 1 1.41683 0.245821 14.1813 7.6112
10 1 1.72677 2.30758 1.8113 8.95544
11 1 1.66531 0.25582 3.45594 10.6557
12 1 1.74258 1.67781 5.06829 12.6422
13 1 1.33817 3.8121 0.129094 11.0141
14 1 1.46599 5.67931 2.17281 12.6253
15 1 1.59749 3.40586 3.48403 6.52832
16 1 1.34473 5.13825 4.99503 8.51369
17 1 1.39666 14.2093 7.28692 0.43338
18 1 1.31391 2.56658 8.87906 1.4924
19 1 1.19627 0.58944 10.5259 3.01309
20 1 1.32707 1.70227 12.3976 5.41367
21 1 1.54904 4.51076 7.35089 3.34688
22 1 1.41951 5.50639 9.25892 5.48485
23 1 1.67786 3.84952 10.5887 13.5022
24 1 1.29203 5.39474 12.1214 1.53022
25 1 1.30914 14.2226 7.30824 6.8716
26 1 1.43202 1.64411 8.75051 9.01308
27 1 1.48605 0.126781 11.1946 10.8383
28 1 1.54331 1.94549 12.8568 12.9054
29 1 1.36907 3.04744 6.55755 10.418
30 1 1.26288 5.29923 8.21363 11.9833
31 1 1.63099 3.2473 10.4661 7.16329
32 1 1.53825 4.99327 12.3831 8.74925
33 1 1.4521 7.19225 0.305566 0.683148
34 1 1.85895 9.3071 1.68497 2.18088
35 1 1.6461 7.31308 3.43824 3.6436
36 1 1.28758 8.90923 5.54193 5.31458
37 1 1.80491 11.2152 0.510985 4.1332
38 1 1.65422 12.799 2.28738 6.0816
39 1 1.32889 10.3459 3.84355 0.091679
40 1 1.47283 12.2469 5.21624 2.16462
41 1 1.49388 6.87541 13.9848 7.07889
42 1 1.64887 8.79721 1.77742 8.7701
43 1 1.52017 7.16022 3.75697 10.3175
44 1 1.52461 8.79382 5.56451 11.9855
45 1 1.34568 10.2948 14.0554 10.9029
46 1 1.48677 12.1846 2.00558 12.3198
47 1 1.60246 10.5494 3.78749 7.40668
48 1 1.24177 12.6124 5.48601 8.75618
49 1 1.52937 7.18136 6.96774 13.9327
50 1 1.49293 8.49553 8.82041 1.75497
51 1 1.66426 7.1739 10.7833 3.62876
52 1 1.64202 9.16759 12.395 5.00969
53 1 1.24428 10.6988 7.4106 3.48807
54 1 1.4374 12.7503 9.2383 4.97647
55 1 1.31832 10.4546 10.6848 0.511919
56 1 1.57575 12.5016 12.5755 2.05478
57 1 1.41356 6.81596 7.18463 7.26964
58 1 1.2259 8.71601 8.90591 8.76947
59 1 1.28953 6.7246 10.5174 10.5515
60 1 1.44873 8.19992 12.3049 12.6117
61 1 1.45008 10.9522 7.18664 10.5068
62 1 1.38341 12.2688 8.94947 12.7215
63 1 1.22854 10.6329 10.4277 6.8079
64 1 1.30162 12.0583 12.2254 8.93644
65 2 -0.771686 0.279496 1.47468 1.57751
66 2 -0.869956 1.12466 13.7132 13.8188
67 2 -0.695448 12.9461 1.40194 13.5525
68 2 -0.862488 13.0912 13.4968 0.939799
69 2 -0.821706 1.272 2.92585 3.48469
70 2 -0.85533 2.38488 0.783338 2.77354
71 2 -0.736811 2.5921 2.69982 1.47819
72 2 -0.672293 1.1437 5.22943 4.23493
73 2 -0.697412 14.0163 2.99349 5.57259
74 2 -0.642528 12.8287 4.1304 3.42822
75 2 -0.886377 2.67256 4.76821 6.1997
76 2 -0.710576 3.38424 6.7152 4.36314
77 2 -0.661119 1.40935 7.02646 5.67164
78 2 -0.789524 4.61126 0.657909 4.24376
79 2 -0.601112 2.61171 12.8695 3.97595
80 2 -0.655764 4.12647 12.7262 2.23909
81 2 -0.827167 4.02523 2.5337 5.49794
82 2 -0.862338 6.38078 2.57388 4.45025
83 2 -0.75143 5.91871 1.07281 6.56713
84 2 -0.80381 4.37437 4.68882 1.01438
85 2 -0.816301 2.35366 3.9852 13.6512
86 2 -0.952515 4.60139 2.75607 13.5144
87 2 -0.812996 5.39707 6.20899 2.79417
88 2 -0.838118 6.53654 4.1677 2.54186
89 2 -0.847284 6.90482 5.75121 0.716705
90 2 -0.785456 1.67997 0.801424 8.05323
91 2 -0.583108 0.963975 13.7038 6.13115
92 2 -0.768695 13.5149 1.298 7.16784
93 2 -0.639846 13.3433 12.9417 7.9874
94 2 -0.82592 1.49594 2.72046 9.81472
95 2 -0.819762 3.10095 0.945029 10.0637
96 2 -0.78083 2.69338 2.72339 7.82365
97 2 -0.906668 0.785396 4.21778 11.8058
98 2 -0.779721 13.2215 2.32595 11.1179
99 2 -0.722157 13.6204 4.52431 9.91152
100 2 -0.750813 1.00776 6.24845 13.4236
101 2 -0.848229 2.52462 5.66353 11.5905
102 2 -0.611846 5.47167 0.985487 11.5948
103 2 -0.667062 2.59616 14.1819 12.1521
104 2 -0.762735 4.26616 13.0028 10.0975
105 2 -0.703935 6.77342 1.39566 13.7293
106 2 -0.679265 6.63213 3.11222 11.7955
107 2 -0.742588 4.70399 4.14071 7.24243
108 2 -0.59947 3.65564 5.56121 9.08934
109 2 -0.78541 5.80583 4.17562 9.7701
110 2 -0.784483 5.86018 6.35597 8.13272
111 2 -0.733824 1.14367 8.16113 1.09841
112 2 -0.610445 13.3261 6.18364 1.68214
113 2 -0.687301 12.9219 7.90987 13.8025
114 2 -0.631342 1.95646 9.91751 2.61404
115 2 -0.720697 3.37923 7.86968 2.51547
116 2 -0.772298 2.85671 9.61178 14.0007
117 2 -0.60899 0.888115 11.3863 4.60045
118 2 -0.616673 13.5339 9.17221 3.60312
119 2 -0.761088 13.5326 11.5885 2.28715
120 2 -0.76819 2.25244 11.4533 6.60329
121 2 -0.756434 5.32883 8.49753 4.0723
122 2 -0.741861 4.13443 9.8681 5.82751
123 2 -0.72336 6.49755 10.4642 5.00471
124 2 -0.719759 6.54689 8.63909 6.49917
125 2 -0.773561 4.88038 11.0042 0.471681
126 2 -0.905642 3.14765 11.8834 13.2784
127 2 -0.71252 4.66145 9.63609 12.4749
128 2 -0.641673 5.97812 13.8277 1.68333
129 2 -0.730099 5.98916 11.2087 2.65674
130 2 -0.691383 0.483961 8.19668 8.30441
131 2 -0.667661 13.3934 6.15144 7.40867
132 2 -0.660491 13.2255 8.38731 6.14186
133 2 -0.637293 0.998399 10.1894 10.0172
134 2 -0.742534 1.97046 7.64577 10.1144
135 2 -0.881153 2.72327 9.37567 8.05025
136 2 -0.792678 1.02194 12.0112 11.9204
137 2 -0.597263 13.1229 10.0646 11.5496
138 2 -0.748868 13.2859 11.9803 9.99673
139 2 -0.690673 4.41888 7.34674 11.0002
140 2 -0.632915 5.7627 7.73198 13.6495
141 2 -0.595111 6.38479 9.02363 11.0325
142 2 -0.853232 4.0645 11.5144 7.93975
143 2 -0.819372 6.17576 13.0407 7.95471
144 2 -0.675356 6.07059 11.2785 9.32122
145 2 -0.881282 8.26982 0.672896 1.83003
146 2 -0.833019 7.60492 13.2435 13.7612
147 2 -0.903272 8.46409 2.70436 2.81821
148 2 -0.969032 10.4366 1.22954 3.08704
149 2 -0.751219 10.1012 2.42816 1.13237
150 2 -0.754772 8.05292 4.7698 4.39761
151 2 -0.7331 9.83101 4.4396 6.08137
152 2 -0.557613 10.2454 6.45469 4.60515
153 2 -0.727991 7.95229 6.66528 6.44417
154 2 -0.892039 12.1315 1.2843 5.08182
155 2 -0.852144 10.3286 13.4147 4.72874
156 2 -0.782876 12.128 13.6337 3.33419
157 2 -0.831796 11.9179 3.30262 6.80648
158 2 -0.714318 11.6179 4.64042 0.902317
159 2 -0.728695 9.3939 4.6647 13.1466
160 2 -0.659815 11.1888 3.14597 12.9408
161 2 -0.721272 11.6045 6.27364 3.02564
162 2 -0.725479 7.67385 0.914569 7.91127
163 2 -0.662386 8.12942 13.3064 5.76728
164 2 -0.807364 7.77722 2.49256 9.61275
165 2 -0.741128 9.5321 0.836574 9.78337
166 2 -0.911637 9.76807 2.61961 7.9452
167 2 -0.826139 8.34423 4.62664 10.7487
168 2 -0.834752 7.85142 6.53843 12.5658
169 2 -0.684389 10.0571 6.6339 11.6049
170 2 -0.740351 11.3041 0.822661 11.9479
171 2 -0.675341 8.96679 13.1721 11.6495
172 2 -0.670478 11.0343 13.0449 9.75967
173 2 -0.72541 11.1959 4.32751 8.60289
174 2 -0.719155 12.0241 6.7416 9.38749
175 2 -0.790963 7.84067 8.24533 0.511824
176 2 -0.868741 7.72855 9.7508 2.75976
177 2 -0.636886 8.99235 7.64512 2.67926
178 2 -0.759757 9.93626 9.57173 1.32273
179 2 -0.940396 8.38987 11.714 3.96353
180 2 -0.711094 9.8281 11.7267 6.24496
181 2 -0.66216 11.5521 8.39937 4.6543
182 2 -0.642918 11.9764 10.3655 5.83076
183 2 -0.780569 11.4812 11.5944 1.29266
184 2 -0.541609 9.53057 11.1515 13.0921
185 2 -0.62841 11.0945 9.60453 13.4461
186 2 -0.611974 7.4671 7.74865 8.57348
187 2 -0.531571 8.20067 9.79866 9.94003
188 2 -0.614783 10.0761 8.20527 9.86223
189 2 -0.623804 9.25643 9.77964 7.53136
190 2 -0.706304 7.24082 11.3876 11.9311
191 2 -0.623325 11.8685 7.87821 11.7637
192 2 -0.549399 11.6601 10.772 8.09351
ITEM: TIMESTEP
15000
ITEM: NUMBER OF ATOMS
192
ITEM: BOX BOUNDS pp pp pp
1.1532610915061703e-01 1.4184673890849290e+01
1.1532610915061703e-01 1.4184673890849290e+01
1.1532610915061703e-01 1.4184673890849290e+01
ITEM: ATOMS id type q x y z
1 1 1.55533 0.433577 13.7475 14.0071
2 1 1.59172 2.02682 1.45552 1.67899
3 1 1.37074 14.0456 3.07443 3.32369
4 1 1.46827 1.38981 5.04063 5.37812
5 1 1.49099 3.69646 0.10888 3.82209
6 1 1.69031 5.21321 2.08769 5.51475
7 1 1.46112 3.86157 3.75598 0.281755
8 1 1.38474 5.3619 5.80577 2.06492
9 1 1.39104 0.40354 14.2365 6.94777
10 1 1.2988 1.94543 1.89648 9.01466
11 1 1.3339 0.227778 3.71264 10.7954
12 1 1.61414 2.02841 5.46894 12.672
13 1 1.40039 3.58969 13.9958 10.903
14 1 1.51968 5.26287 1.86017 12.4167
15 1 1.42393 3.79246 3.77735 7.41159
16 1 1.33814 5.57881 6.00525 9.10835
17 1 1.53673 0.283935 7.50176 14.215
18 1 1.63473 1.74955 9.11508 2.20736
19 1 1.61539 13.9531 10.4715 4.05424
20 1 1.62588 2.05932 12.1133 5.35319
21 1 1.77452 3.1383 7.07641 3.96265
22 1 1.49928 5.25893 8.71351 5.27529
23 1 1.45838 3.3179 10.9656 0.301269
24 1 1.58201 5.53288 12.6502 1.77219
25 1 1.66594 13.8218 6.75215 7.33904
26 1 1.48676 1.82446 8.81063 8.40262
27 1 1.56856 14.1375 10.6217 10.1539
28 1 1.55575 1.71168 11.9553 12.1403
29 1 1.19982 3.49713 7.62142 10.9952
30 1 1.54561 5.28559 9.48574 12.6167
31 1 1.64635 4.03994 10.5233 7.27404
32 1 1.43061 5.69844 12.5684 8.76535
33 1 1.84539 7.18292 0.17958 -0.090673
34 1 1.76631 8.97049 2.07821 1.63666
35 1 1.54674 6.89688 3.5349 3.58125
36 1 1.79489 8.92833 4.9878 5.3088
37 1 1.74671 10.3076 14.0117 3.33405
38 1 1.57913 12.1559 1.50095 5.2392
39 1 1.68317 10.7089 3.61306 13.9083
40 1 1.3281 12.5183 5.20758 1.59687
41 1 1.73972 7.29511 0.366296 6.85691
42 1 1.42871 8.83423 1.79591 9.3182
43 1 1.4341 6.9709 3.87055 10.6723
44 1 1.5055 8.95848 5.62164 12.3269
45 1 1.53413 10.9372 0.182279 10.5869
46 1 1.46596 12.6339 1.82322 12.4773
47 1 1.61746 10.49 3.29933 7.27569
48 1 1.62678 12.081 5.06221 9.0616
49 1 1.42392 7.00786 7.62901 14.0916
50 1 1.50844 9.05669 9.08969 1.97
51 1 1.62482 6.67913 10.5345 3.45194
52 1 1.3208 8.59379 12.2741 5.0328
53 1 1.62849 10.6744 6.79596 3.51239
54 1 1.50446 12.0525 8.46333 5.68152
55 1 1.69415 10.8836 10.8067 0.226849
56 1 1.55575 12.6631 12.5273 1.98589
57 1 1.65865 7.30167 7.14155 6.88076
58 1 1.37393 8.59103 9.03522 8.85053
59 1 1.48903 7.20021 11.0256 10.9442
60 1 1.73367 9.36182 12.6707 12.6019
61 1 1.49958 10.7326 7.36721 10.6285
62 1 1.53281 12.6385 9.10457 12.3687
63 1 1.49084 10.3591 10.7348 7.00477
64 1 1.49943 12.4107 12.5147 8.35713
65 2 -0.808085 1.68927 0.369646 0.706056
66 2 -0.802905 0.757399 13.083 12.655
67 2 -0.63709 13.8 0.960205 13.2378
68 2 -0.929418 13.5255 13.2604 0.996768
69 2 -0.703569 0.903205 1.9674 2.79479
70 2 -0.770274 2.83004 0.943444 2.77959
71 2 -0.690657 2.8403 2.71084 0.866254
72 2 -0.730209 0.770218 3.79929 4.39248
73 2 -0.775066 12.6168 2.29225 4.07739
74 2 -0.5967 13.9415 4.11789 2.07005
75 2 -0.66062 2.7869 4.56808 6.37902
76 2 -0.869336 2.18026 6.09516 4.56631
77 2 -0.829657 0.322478 5.76736 6.1977
78 2 -0.793959 4.04643 1.33094 4.96802
79 2 -0.799708 2.58364 13.1606 4.31217
80 2 -0.772746 4.83956 13.4052 2.99878
81 2 -0.787919 5.00738 3.06528 6.75045
82 2 -0.828434 5.92466 2.51731 4.26235
83 2 -0.87917 6.27507 1.14233 6.16959
84 2 -0.715521 4.76473 4.50962 1.43696
85 2 -0.839534 2.85449 4.82198 13.7174
86 2 -0.735624 4.97717 2.85294 13.616
87 2 -0.733809 4.14644 6.42543 2.89949
88 2 -0.705007 6.21823 4.96435 3.16759
89 2 -0.737024 6.10107 7.08939 1.19638
90 2 -0.712336 1.4184 1.19453 7.566
91 2 -0.763355 1.5006 12.923 6.44897
92 2 -0.797453 13.2263 0.824792 6.09412
93 2 -0.791239 13.5275 13.4567 7.89879
94 2 -0.68952 1.49865 2.45429 10.293
95 2 -0.692721 2.91668 0.636249 9.74096
96 2 -0.75349 3.12707 2.96572 8.41587
97 2 -0.700856 1.00387 4.7386 11.8358
98 2 -0.614078 13.7465 3.04511 12.0384
99 2 -0.801251 13.069 4.15451 9.95616
100 2 -0.758361 0.98082 6.2665 13.4521
101 2 -0.74292 2.95634 6.24389 11.5264
102 2 -0.701364 4.06185 0.820721 12.1756
103 2 -0.701746 2.98309 12.77 11.7197
104 2 -0.58383 4.64336 12.948 10.2178
105 2 -0.843074 6.20604 0.900173 12.975
106 2 -0.77493 6.11359 2.91535 11.3904
107 2 -0.589092 4.47785 5.21829 8.31226
108 2 -0.604005 4.82041 6.79622 10.3436
109 2 -0.677402 6.70132 4.74997 9.31466
110 2 -0.78662 6.27446 6.7526 7.9353
111 2 -0.786764 1.50027 8.37782 0.903562
112 2 -0.66223 13.4436 6.57624 1.07857
113 2 -0.871377 13.7237 8.55795 13.4324
114 2 -0.895591 0.598063 9.64285 2.95551
115 2 -0.855411 2.66031 8.2344 3.14252
116 2 -0.659264 2.98746 10.0527 1.6532
117 2 -0.814176 1.2071 10.8947 4.74393
118 2 -0.751855 13.1699 9.31461 4.92924
119 2 -0.790371 13.2825 11.6028 3.32614
120 2 -0.760376 3.20533 11.3869 5.9954
121 2 -0.83893 4.12969 7.61897 4.95249
122 2 -0.794687 4.93539 9.62921 6.55736
123 2 -0.805285 5.48792 9.84456 4.21996
124 2 -0.774443 6.70289 8.13749 5.94854
125 2 -0.681039 4.50906 12.1389 0.59556
126 2 -0.834106 2.03239 11.3047 13.6092
127 2 -0.779954 4.25647 9.96662 13.8266
128 2 -0.862566 6.33079 13.773 0.997064
129 2 -0.879694 6.33163 11.4636 2.36054
130 2 -0.798855 0.806289 7.6693 7.88914
131 2 -0.80526 13.1704 5.95354 8.44707
132 2 -0.746034 12.5957 7.6863 6.99989
133 2 -0.676976 0.625873 9.31039 9.38875
134 2 -0.593539 2.81101 8.1304 9.58773
135 2 -0.869794 2.93648 9.6308 7.80369
136 2 -0.91543 1.20063 11.1451 10.9686
137 2 -0.729193 12.955 9.80124 11.0598
138 2 -0.744743 13.3734 11.4584 9.17828
139 2 -0.669849 4.46891 9.12552 11.3882
140 2 -0.849888 6.22771 8.44826 12.988
141 2 -0.74774 6.26987 10.6722 12.0775
142 2 -0.834376 4.8323 11.4826 8.29814
143 2 -0.837183 6.7571 13.3412 7.73555
144 2 -0.679047 6.82645 12.1137 9.67114
145 2 -0.844619 8.0928 1.2402 0.613344
146 2 -0.938133 8.19541 13.3439 13.2664
147 2 -0.756371 7.87519 2.64516 2.53561
148 2 -0.898945 9.65845 1.07875 2.60379
149 2 -0.966402 9.86068 3.0865 0.921727
150 2 -0.85465 7.9908 4.06818 4.55314
151 2 -0.8581 9.7497 4.38214 6.36161
152 2 -0.865403 9.87155 5.86087 4.41167
153 2 -0.797055 7.87699 5.83675 6.09888
154 2 -0.7731 11.0053 0.539456 4.64021
155 2 -0.728588 9.12345 13.1024 3.74173
156 2 -0.84061 11.4777 13.3292 2.70769
157 2 -0.796644 11.3444 2.32052 6.44384
158 2 -0.740848 11.5842 4.74691 0.531441
159 2 -0.795412 10.0192 4.69665 12.971
160 2 -0.866484 11.8393 2.61847 13.4735
161 2 -0.774071 11.5062 5.85695 2.73393
162 2 -0.711241 7.86377 1.48559 7.85858
163 2 -0.770587 8.11262 13.7649 5.81796
164 2 -0.658749 7.98096 2.71715 10.2802
165 2 -0.834418 9.47404 0.711806 10.0775
166 2 -0.782988 9.71917 2.92012 8.64193
167 2 -0.687492 7.99885 4.37679 11.7918
168 2 -0.684657 7.86864 6.33639 13.2834
169 2 -0.79469 9.60437 6.68725 11.4454
170 2 -0.821458 12.1364 0.921457 11.2996
171 2 -0.828242 10.3317 13.5315 11.8571
172 2 -0.775731 11.4411 13.2924 9.51247
173 2 -0.830442 11.4579 4.26124 7.89352
174 2 -0.777815 11.3165 6.28457 9.76877
175 2 -0.700639 8.17682 8.41216 0.706013
176 2 -0.766672 8.02168 9.90724 2.91328
177 2 -0.803279 9.86196 7.90257 2.66581
178 2 -0.821224 10.0348 9.82898 1.00657
179 2 -0.731188 7.53591 11.1772 4.64185
180 2 -0.695549 9.96306 11.5523 5.74003
181 2 -0.78052 11.6625 7.4287 4.72908
182 2 -0.66405 10.9048 9.64283 5.93225
183 2 -0.788818 11.6475 11.4257 1.43052
184 2 -0.87061 10.3764 12.0464 13.5762
185 2 -0.806799 11.5003 10.0512 13.0838
186 2 -0.750242 8.32297 8.07837 7.57834
187 2 -0.689023 7.54269 9.80937 9.89406
188 2 -0.63749 9.52624 8.03199 9.7116
189 2 -0.75452 9.66457 10.1347 8.20306
190 2 -0.750203 8.41615 11.5756 11.7363
191 2 -0.7053 12.0659 7.9123 11.6192
192 2 -0.76334 11.6684 11.3593 7.63793
ITEM: TIMESTEP
16000
ITEM: NUMBER OF ATOMS
192
ITEM: BOX BOUNDS pp pp pp
1.0143150073857399e-01 1.4198568499261388e+01
1.0143150073857399e-01 1.4198568499261388e+01
1.0143150073857399e-01 1.4198568499261388e+01
ITEM: ATOMS id type q x y z
1 1 1.43838 0.0943733 0.232949 14.2724
2 1 1.51738 2.18758 2.12904 1.96338
3 1 1.74028 14.3269 3.70152 3.49391
4 1 1.50437 1.94773 5.4169 5.16839
5 1 1.37174 3.88878 0.0422963 3.47602
6 1 1.38064 5.64526 1.67277 5.38584
7 1 1.35705 3.73925 3.80555 14.0238
8 1 1.45572 5.55325 5.08311 1.97476
9 1 1.43388 -0.0695223 14.2741 7.13662
10 1 1.53734 1.78523 1.95187 8.78712
11 1 1.36366 13.8931 3.81167 10.3448
12 1 1.57555 1.82724 5.24626 12.2302
13 1 1.72819 3.30562 14.1526 10.5773
14 1 1.69022 5.08393 1.83988 12.2602
15 1 1.55914 3.64182 3.42287 6.89316
16 1 1.61357 5.41524 5.0928 8.70385
17 1 1.58422 13.9186 6.76651 0.130564
18 1 1.45671 1.70428 8.67744 1.57504
19 1 1.6563 0.286572 10.6778 3.11518
20 1 1.36027 1.82334 12.6419 4.94057
21 1 1.50901 3.50646 6.96491 3.09236
22 1 1.6154 5.2128 8.72495 5.0406
23 1 1.42524 3.32907 10.3459 13.8777
24 1 1.64554 5.12398 11.9686 1.72702
25 1 1.5088 0.443585 7.55935 7.38846
26 1 1.17689 2.35787 8.91615 9.25893
27 1 1.27702 0.335398 10.7371 11.1331
28 1 1.68598 2.03655 12.6517 12.6956
29 1 1.64846 4.0859 6.75878 10.7456
30 1 1.2849 5.57764 8.70811 12.6545
31 1 1.29192 3.594 10.8418 6.72545
32 1 1.49418 5.25314 12.4004 8.92744
33 1 1.69678 6.52422 14.1131 0.118821
34 1 1.71323 8.22986 1.74608 1.981
35 1 1.45757 7.35791 3.70719 4.09357
36 1 1.46318 9.0816 5.73915 5.40815
37 1 1.12972 10.4809 0.250381 3.64517
38 1 1.53805 12.5511 2.15162 5.29447
39 1 1.71497 10.2793 3.4839 0.48262
40 1 1.76172 12.1238 5.40181 2.24025
41 1 1.3891 7.50145 13.9884 7.39161
42 1 1.59431 9.0796 1.98618 8.83067
43 1 1.69283 7.10185 3.3388 10.5415
44 1 1.30451 8.89761 5.17093 12.2117
45 1 1.34462 10.8356 0.483224 10.7675
46 1 1.326 12.4885 2.38049 12.7712
47 1 1.61577 10.6668 3.84903 7.05499
48 1 1.66482 12.3209 5.69334 8.63574
49 1 1.45119 7.46178 6.97125 0.15072
50 1 1.66254 8.97505 8.95456 1.97702
51 1 1.50338 7.12058 10.6724 3.65717
52 1 1.204 8.94356 11.8913 5.68939
53 1 1.71759 11.0074 7.68822 3.77907
54 1 1.67972 12.9219 9.40856 5.3719
55 1 1.52366 10.3284 10.8067 0.0811656
56 1 1.45398 12.1681 12.5251 1.79774
57 1 1.74074 7.04749 7.20125 7.19064
58 1 1.80904 8.63712 8.87936 9.0068
59 1 1.47603 7.2529 10.8058 10.5678
60 1 1.59769 8.60862 12.8895 12.4293
61 1 1.51174 10.3853 7.20195 10.5449
62 1 1.28365 12.2728 8.85744 12.6759
63 1 1.7204 10.9864 10.3198 7.71848
64 1 1.48904 12.6745 12.2237 9.24021
65 2 -0.643524 1.13547 0.988144 1.23739
66 2 -0.777696 1.42349 13.6793 13.5905
67 2 -0.683649 13.6642 1.58003 13.4288
68 2 -0.718331 13.2861 13.2375 0.689833
69 2 -0.882197 1.55355 3.22422 2.67668
70 2 -0.700008 3.02113 1.40631 2.98451
71 2 -0.65939 3.12157 2.53127 0.642185
72 2 -0.834125 0.788449 4.65802 4.49333
73 2 -0.886037 13.6565 2.68248 4.45342
74 2 -0.902426 13.2016 4.44073 2.80055
75 2 -0.773368 2.93934 4.55146 5.95191
76 2 -0.769373 2.38357 6.27517 3.89261
77 2 -0.656126 1.20791 6.60884 6.3334
78 2 -0.670653 5.29828 0.619263 4.25304
79 2 -0.729501 2.75556 13.7876 4.51933
80 2 -0.81407 4.19023 12.9897 2.42825
81 2 -0.75691 4.29793 2.34305 5.95985
82 2 -0.69505 6.34149 3.1016 5.09883
83 2 -0.686379 6.84524 0.916713 6.36142
84 2 -0.662866 4.91559 3.98343 1.02802
85 2 -0.779492 2.63023 4.21852 12.9224
86 2 -0.676365 4.81129 3.15882 12.9629
87 2 -0.793223 4.84719 6.03216 2.87493
88 2 -0.640558 6.15843 4.067 2.90973
89 2 -0.636867 6.80437 5.59732 0.928027
90 2 -0.746047 0.991606 0.752813 8.13552
91 2 -0.580724 0.646014 13.2682 5.81057
92 2 -0.792284 13.2374 1.16056 6.38842
93 2 -0.612516 13.6132 12.941 8.00695
94 2 -0.732102 0.723854 2.68668 9.66656
95 2 -0.743922 2.31967 0.998936 9.95477
96 2 -0.84575 2.82506 2.93761 8.24813
97 2 -0.768411 0.57444 4.94344 11.3225
98 2 -0.671514 13.0856 3.31137 11.6464
99 2 -0.798056 12.8624 4.38428 9.16849
100 2 -0.71542 1.08521 5.86733 13.6469
101 2 -0.848912 2.95908 6.07636 11.7671
102 2 -0.915751 4.03397 1.00418 11.6613
103 2 -0.882536 2.42993 13.2428 11.3097
104 2 -0.836331 4.29292 13.5486 9.48687
105 2 -0.787973 5.62721 1.0326 13.5393
106 2 -0.840907 6.34596 2.39063 11.4825
107 2 -0.778683 4.54182 4.36644 7.52565
108 2 -0.901444 4.60446 5.70981 9.84872
109 2 -0.864278 6.4697 4.11097 9.32346
110 2 -0.839624 6.06531 6.24859 7.72571
111 2 -0.760592 0.532298 7.69874 1.15156
112 2 -0.847127 12.8757 6.09607 1.15714
113 2 -0.806313 13.1646 7.64186 13.3373
114 2 -0.770451 1.09741 9.30228 2.92341
115 2 -0.767378 3.14027 7.83727 1.92985
116 2 -0.814882 2.12983 9.52651 0.425188
117 2 -0.784229 1.20834 11.7598 3.71616
118 2 -0.852104 13.7198 10.3413 4.39019
119 2 -0.776126 13.3154 11.2118 2.22984
120 2 -0.621653 2.6398 12.1043 6.37435
121 2 -0.759313 4.24011 7.82722 4.30467
122 2 -0.718614 4.29128 9.86772 5.79294
123 2 -0.821427 6.00384 9.89602 4.47498
124 2 -0.776561 6.11853 7.85106 6.01813
125 2 -0.769442 4.28689 10.8288 1.21206
126 2 -0.907286 3.03068 11.5616 13.0722
127 2 -0.703099 4.10932 9.16556 12.9708
128 2 -0.86139 5.80857 12.8235 0.606596
129 2 -0.796666 6.25985 11.4938 2.71263
130 2 -0.762439 1.41405 8.38908 8.14661
131 2 -0.771448 13.1886 6.76356 8.05667
132 2 -0.734481 13.6834 8.49936 6.45583
133 2 -0.591624 1.21898 9.39331 10.4552
134 2 -0.758186 3.74143 7.88143 9.88515
135 2 -0.52345 2.72947 10.1 7.98636
136 2 -0.721216 0.791064 11.7363 12.3224
137 2 -0.642308 13.0723 9.89342 11.6049
138 2 -0.677477 13.9698 11.7052 9.94075
139 2 -0.619576 5.30955 7.23354 11.5955
140 2 -0.764491 6.24551 7.77447 13.7252
141 2 -0.654532 6.48317 9.53156 11.5425
142 2 -0.660761 4.87065 11.5531 7.7086
143 2 -0.670871 6.48204 13.271 8.37596
144 2 -0.765611 5.99154 11.3165 9.8525
145 2 -0.843142 7.17736 1.03238 1.22382
146 2 -0.871955 7.71773 13.6466 13.3402
147 2 -0.799146 7.878 2.3524 3.30474
148 2 -0.661162 9.55633 1.0574 2.5536
149 2 -0.814601 9.12842 2.80107 1.24298
150 2 -0.810284 8.02792 5.02347 4.44176
151 2 -0.831156 9.71724 4.44119 5.98695
152 2 -0.708396 9.91314 6.97515 4.96946
153 2 -0.733306 8.35618 6.56647 6.73967
154 2 -0.613384 11.5563 1.4383 4.14366
155 2 -0.513991 9.8985 13.1009 5.12167
156 2 -0.709997 11.6996 13.5904 2.63306
157 2 -0.769108 11.5847 2.62958 6.40788
158 2 -0.820027 11.0963 4.27188 1.55535
159 2 -0.743667 9.5919 4.19412 13.4447
160 2 -0.77008 11.2185 2.52493 13.8783
161 2 -0.987882 11.5447 6.45309 3.14873
162 2 -0.778019 8.04358 0.876889 8.55758
163 2 -0.682933 7.75798 12.6978 6.51237
164 2 -0.813031 8.37617 2.71002 10.0364
165 2 -0.773653 10.1874 1.09537 9.4395
166 2 -0.831277 9.72563 3.21235 8.16367
167 2 -0.730337 7.63607 4.35323 11.5775
168 2 -0.655683 8.64779 6.53008 13.2546
169 2 -0.700118 10.058 5.84367 11.2533
170 2 -0.629894 11.9153 1.23566 11.4867
171 2 -0.680752 9.84201 13.7759 11.9693
172 2 -0.640667 11.7186 13.1612 10.1634
173 2 -0.829 11.6359 4.89007 7.40275
174 2 -0.786149 11.4833 6.64911 9.43962
175 2 -0.815355 8.24196 7.74907 1.2093
176 2 -0.801862 7.85524 9.72702 2.66817
177 2 -0.881261 10.1697 8.64695 3.00115
178 2 -0.798278 9.46708 10.1086 1.15909
179 2 -0.652983 8.44081 11.6494 4.20178
180 2 -0.668548 10.1018 11.1833 6.81516
181 2 -0.873225 11.9983 8.56971 4.57299
182 2 -0.741019 11.875 10.0244 6.44123
183 2 -0.759922 11.0682 11.9286 0.859184
184 2 -0.74404 9.3599 11.7733 13.3205
185 2 -0.718491 11.0377 9.46896 13.6367
186 2 -0.900666 7.68785 8.34021 7.94098
187 2 -0.950555 8.32054 10.1309 9.7896
188 2 -0.925357 9.11101 7.77821 9.83344
189 2 -0.82724 9.85825 9.3321 8.02336
190 2 -0.778968 7.69546 12.2249 11.3458
191 2 -0.663443 11.2265 8.04117 11.5986
192 2 -0.921017 11.805 11.155 8.61312
ITEM: TIMESTEP
17000
ITEM: NUMBER OF ATOMS
192
ITEM: BOX BOUNDS pp pp pp
8.5662536841028647e-02 1.4214337463158923e+01
8.5662536841028647e-02 1.4214337463158923e+01
8.5662536841028647e-02 1.4214337463158923e+01
ITEM: ATOMS id type q x y z
1 1 1.42564 0.375944 14.1429 14.0373
2 1 1.53283 1.90828 1.74735 1.85174
3 1 1.61842 0.332535 3.42897 3.80907
4 1 1.40471 2.06349 5.40715 5.43784
5 1 1.55167 3.45271 14.082 3.66276
6 1 1.42455 5.27835 1.83347 4.97046
7 1 1.43751 3.53627 3.74874 0.543915
8 1 1.28299 5.47224 5.62566 1.73418
9 1 1.4022 14.044 14.3491 7.40382
10 1 1.28901 1.94797 1.81342 8.96935
11 1 1.35818 14.2358 3.62328 10.3959
12 1 1.61563 1.81911 5.30521 12.756
13 1 1.34192 4.0636 0.168895 10.8384
14 1 1.42466 5.22629 2.15163 12.9736
15 1 1.33031 4.06228 3.70043 7.25732
16 1 1.43829 5.40855 5.53678 9.58472
17 1 1.43003 14.3274 7.27547 0.248345
18 1 1.27777 2.05846 9.29302 2.27093
19 1 1.48453 13.8243 10.5856 3.97594
20 1 1.37647 1.78121 12.3846 5.52323
21 1 1.64862 3.73362 7.22284 3.77951
22 1 1.62641 5.41738 9.03841 5.65473
23 1 1.58408 3.59215 10.9391 14.1878
24 1 1.68993 5.3884 12.395 2.0179
25 1 1.58843 14.0547 7.00704 6.72462
26 1 1.40847 1.48101 8.88736 8.49853
27 1 1.494 14.0745 10.8643 10.1781
28 1 1.28968 1.85345 12.284 11.9977
29 1 1.35035 3.34498 7.12407 10.8058
30 1 1.49872 5.17594 9.29171 12.1385
31 1 1.33879 3.53422 10.7266 7.35712
32 1 1.43048 5.75258 12.7127 8.90865
33 1 1.65356 7.1901 0.0889995 0.256331
34 1 1.27481 9.11691 2.11632 1.58937
35 1 1.43474 7.20458 3.50074 3.26018
36 1 1.40388 8.63832 4.81854 5.4639
37 1 1.59791 10.9087 0.155076 3.47949
38 1 1.6749 12.3401 1.90416 5.54727
39 1 1.40639 11.3804 3.71829 14.0718
40 1 1.64893 12.7556 5.28752 2.08619
41 1 1.46307 7.24946 0.275788 6.6987
42 1 1.23749 8.43105 1.92968 9.17361
43 1 1.36725 7.35925 3.71573 11.4283
44 1 1.23914 9.39551 5.7114 12.6504
45 1 1.55804 10.3192 13.774 10.5775
46 1 1.40262 12.5465 1.47864 11.9863
47 1 1.62855 10.4955 3.38772 7.42353
48 1 1.57462 12.3247 5.42219 8.77486
49 1 1.10349 6.84907 7.33906 13.5889
50 1 1.58885 8.6434 8.81367 1.69655
51 1 1.68964 7.23525 10.5471 3.76546
52 1 1.59415 9.02073 12.6174 4.93251
53 1 1.40818 10.4132 6.70038 3.27738
54 1 1.4788 11.9125 8.60926 5.30329
55 1 1.71929 10.7524 10.4683 0.27992
56 1 1.55383 12.7275 12.3548 1.82238
57 1 1.22962 7.08491 6.96168 7.09686
58 1 1.50882 8.99905 8.68576 8.74224
59 1 1.65325 7.23843 10.5095 10.3851
60 1 1.45157 8.81233 12.1699 12.685
61 1 1.48557 10.9735 7.30703 10.6203
62 1 1.51932 12.5809 9.0876 12.5
63 1 1.41055 10.5542 10.7279 7.01056
64 1 1.43426 12.0931 12.5333 8.68451
65 2 -0.793865 1.23143 1.22734 0.497505
66 2 -0.756753 0.894196 13.3182 12.9369
67 2 -0.687298 13.2741 0.638159 13.153
68 2 -0.756104 13.9356 13.0081 1.1501
69 2 -0.829817 1.10876 2.29526 3.04398
70 2 -0.750952 2.89444 0.680504 2.32697
71 2 -0.698134 3.12892 2.75081 1.72675
72 2 -0.775599 1.1425 4.44673 4.6863
73 2 -0.82417 13.3038 2.70299 4.55649
74 2 -0.757678 13.9517 4.64035 2.83918
75 2 -0.63595 2.73635 4.5018 6.56222
76 2 -0.712353 3.3649 5.94468 4.657
77 2 -0.755458 1.1545 6.88093 5.89961
78 2 -0.752373 4.0096 1.0642 4.63507
79 2 -0.76898 2.47085 13.0431 4.22608
80 2 -0.815633 4.6485 13.1871 3.07454
81 2 -0.662508 4.75223 2.98052 6.07712
82 2 -0.658614 5.97245 2.43965 3.55455
83 2 -0.692757 5.88952 0.901972 6.05925
84 2 -0.632894 3.965 4.91731 1.51402
85 2 -0.802812 2.43821 4.24386 13.7122
86 2 -0.809038 4.75064 3.42842 13.7173
87 2 -0.646165 4.82854 6.67248 2.85891
88 2 -0.700555 6.39668 4.73052 2.6841
89 2 -0.563653 5.64441 6.96374 0.914552
90 2 -0.722836 0.808224 0.593053 8.73788
91 2 -0.621798 0.643638 13.5616 6.27915
92 2 -0.779071 13.5011 1.25354 6.38763
93 2 -0.762289 12.9336 13.2497 7.55912
94 2 -0.79966 1.01786 2.91184 9.32648
95 2 -0.623733 3.40121 1.35861 9.82716
96 2 -0.582223 3.03896 2.54213 7.93399
97 2 -0.687011 0.818632 4.5411 11.8064
98 2 -0.714111 13.625 2.43133 11.249
99 2 -0.801964 13.197 4.7535 9.86171
100 2 -0.803673 0.88918 6.07719 13.7346
101 2 -0.851718 2.82666 6.19882 12.121
102 2 -0.71768 4.75096 0.993646 12.027
103 2 -0.642759 2.99442 13.0948 10.9948
104 2 -0.690249 5.30018 13.5459 10.2311
105 2 -0.641158 6.00182 0.97605 13.8259
106 2 -0.690168 6.59831 2.83757 12.4353
107 2 -0.683859 4.66846 4.88618 8.27551
108 2 -0.793308 4.60031 6.71035 10.0301
109 2 -0.690009 6.06725 4.44401 10.5502
110 2 -0.581358 6.29079 6.41395 8.64975
111 2 -0.478441 1.15295 8.0914 1.61012
112 2 -0.739847 13.5138 6.44132 1.25676
113 2 -0.768633 13.7549 8.57107 13.7738
114 2 -0.6411 0.359599 9.84476 2.7947
115 2 -0.75944 2.73689 8.08236 3.04367
116 2 -0.77256 2.97508 9.84874 1.14076
117 2 -0.726674 0.819205 11.166 4.96637
118 2 -0.839614 12.691 9.55723 4.52335
119 2 -0.801816 13.2579 11.7487 3.04189
120 2 -0.715965 2.91034 11.9545 6.44374
121 2 -0.808419 4.34801 8.09367 4.87925
122 2 -0.729657 4.61357 10.0765 6.4674
123 2 -0.887284 6.25891 9.858 4.67857
124 2 -0.758588 6.27315 8.33967 6.75414
125 2 -0.802044 4.64427 11.7499 0.886097
126 2 -0.766046 2.95912 11.849 13.1996
127 2 -0.73137 4.672 10.3429 13.3003
128 2 -0.801351 6.26765 13.4127 1.13446
129 2 -0.732876 6.14759 11.279 2.88213
130 2 -0.779974 0.38224 7.87383 7.9281
131 2 -0.706823 13.3298 5.81335 7.49239
132 2 -0.777179 12.8325 7.43431 5.91765
133 2 -0.793621 0.648981 9.71745 9.40654
134 2 -0.615584 2.52688 8.03507 9.78047
135 2 -0.76008 2.36864 9.66929 7.42703
136 2 -0.797532 1.15581 11.337 10.9117
137 2 -0.665837 13.1414 9.95649 11.365
138 2 -0.730203 12.7617 11.5815 9.73208
139 2 -0.643407 3.80841 8.48834 11.5671
140 2 -0.700155 6.35221 8.44398 12.4238
141 2 -0.76538 5.86955 9.92894 10.9615
142 2 -0.620259 4.93274 11.5319 8.26479
143 2 -0.701739 6.13031 13.4715 7.72444
144 2 -0.746419 7.03001 11.8022 9.6356
145 2 -0.753543 8.10136 1.23957 0.702527
146 2 -0.78613 7.85588 13.1576 13.418
147 2 -0.717087 7.89659 3.03435 1.92451
148 2 -0.744897 10.0701 1.09338 2.78553
149 2 -0.675123 10.5133 2.96988 0.993726
150 2 -0.797006 7.81267 3.72155 4.64125
151 2 -0.753448 9.34892 4.24881 6.65298
152 2 -0.59695 9.66755 5.4107 4.10234
153 2 -0.697408 7.60962 5.97081 5.94899
154 2 -0.822414 11.3557 0.87885 4.80972
155 2 -0.762672 9.84264 13.0227 3.82541
156 2 -0.744527 11.7821 13.4781 2.48707
157 2 -0.924494 11.3923 2.58182 6.4688
158 2 -0.791653 12.2855 4.2716 1.05096
159 2 -0.661986 10.9339 4.98147 13.2667
160 2 -0.648171 11.8143 2.75838 12.6243
161 2 -0.839146 11.5018 5.77844 2.82796
162 2 -0.72529 7.83399 1.24897 7.602
163 2 -0.85556 8.3269 13.6502 5.84401
164 2 -0.648489 7.47646 2.82726 10.0684
165 2 -0.733031 9.24271 0.667609 10.1894
166 2 -0.746898 9.56645 2.92817 8.57075
167 2 -0.706642 8.64477 4.54163 11.8996
168 2 -0.649773 7.96901 6.29661 13.4224
169 2 -0.653639 9.70892 6.65586 11.3938
170 2 -0.719273 11.6903 0.378082 11.2199
171 2 -0.688703 9.97375 13.1574 11.9298
172 2 -0.839953 10.8771 12.8021 9.61543
173 2 -0.797987 11.4331 4.51096 7.92093
174 2 -0.796458 11.4387 6.55802 9.35346
175 2 -0.626175 7.92649 8.47047 0.446779
176 2 -0.883142 7.77787 9.51361 2.74005
177 2 -0.699037 9.40409 7.34644 2.05082
178 2 -0.846828 9.80914 9.68636 1.19014
179 2 -0.875282 7.9235 11.8719 4.18194
180 2 -0.729398 10.2072 11.8898 5.97104
181 2 -0.723496 10.8894 7.74099 4.32278
182 2 -0.677798 10.6603 9.28865 6.24731
183 2 -0.741982 11.3707 11.5235 1.27633
184 2 -0.736583 9.7373 11.3343 13.7189
185 2 -0.851665 11.4738 9.88831 13.2323
186 2 -0.655514 8.59277 7.53343 7.75688
187 2 -0.76146 8.06696 9.34169 9.86259
188 2 -0.655397 10.1309 8.29155 9.65305
189 2 -0.685048 9.65818 10.0925 8.15714
190 2 -0.683645 8.10899 11.0864 11.5503
191 2 -0.804799 11.6901 8.13766 11.8056
192 2 -0.688104 11.7722 11.292 7.68715
ITEM: TIMESTEP
18000
ITEM: NUMBER OF ATOMS
192
ITEM: BOX BOUNDS pp pp pp
6.8822781649163112e-02 1.4231177218350751e+01
6.8822781649163112e-02 1.4231177218350751e+01
6.8822781649163112e-02 1.4231177218350751e+01
ITEM: ATOMS id type q x y z
1 1 1.54055 13.9504 0.25774 0.213107
2 1 1.38433 1.63934 1.97058 1.7687
3 1 1.53249 13.9241 3.70933 3.45071
4 1 1.52929 1.72654 5.22055 5.19629
5 1 1.34607 3.60266 0.0423247 3.3867
6 1 1.73265 5.29131 1.60418 5.38922
7 1 1.64355 3.62657 3.1531 13.9549
8 1 1.54398 5.31111 4.52128 2.02037
9 1 1.41953 0.318436 0.196896 6.92055
10 1 1.23726 1.42692 1.54741 9.24875
11 1 1.52324 14.09 3.72628 10.8288
12 1 1.531 1.86477 5.39214 12.3551
13 1 1.47864 3.42778 13.8591 10.6445
14 1 1.38238 5.43178 1.59647 11.9081
15 1 1.296 3.3317 3.14909 6.89215
16 1 1.43448 5.36893 5.40813 8.38388
17 1 1.29272 0.203447 7.17002 0.0809584
18 1 1.4839 1.95091 8.74794 1.73345
19 1 1.72996 0.298043 10.4997 3.72195
20 1 1.63572 2.05219 12.2047 5.45749
21 1 1.59474 3.75835 6.7542 3.44876
22 1 1.40309 5.46795 8.90731 5.04876
23 1 1.40965 3.48373 10.7455 0.0711021
24 1 1.62249 5.5051 12.7183 1.33702
25 1 1.47777 0.17201 7.16697 7.30638
26 1 1.55481 2.13274 8.70942 8.96396
27 1 1.61133 0.302911 10.5392 10.8255
28 1 1.6165 1.4733 12.706 12.6396
29 1 1.32705 3.838 6.9044 10.6231
30 1 1.30524 5.40658 8.85263 12.6282
31 1 1.66075 3.78793 10.3608 7.1852
32 1 1.44828 5.24231 12.0099 9.0869
33 1 1.43744 7.02882 0.798763 0.348326
34 1 1.51319 8.94012 1.71134 2.43679
35 1 1.56896 7.51649 3.56533 4.2806
36 1 1.79927 9.05859 5.78851 5.36822
37 1 1.62363 11.0176 14.0056 3.71234
38 1 1.47582 12.6857 1.86848 5.24366
39 1 1.53209 10.3383 3.53679 0.456955
40 1 1.72915 12.1939 5.59321 1.98868
41 1 1.43849 6.91195 14.1177 7.33358
42 1 1.26717 9.06688 2.16629 8.58394
43 1 1.39275 7.16188 3.68903 10.4361
44 1 1.6691 8.57745 5.11363 12.6026
45 1 1.12544 10.8618 0.0567365 10.6479
46 1 1.45464 12.2511 2.0077 12.6902
47 1 1.60713 10.7616 3.8505 6.72393
48 1 1.60763 12.2609 5.45822 9.0412
49 1 1.3225 6.85214 6.79036 0.365652
50 1 1.48101 8.88873 9.08363 1.74248
51 1 1.74703 7.24633 11.0631 3.33927
52 1 1.57087 8.88795 12.6941 5.43036
53 1 1.60983 10.7625 7.53459 3.66825
54 1 1.60215 12.685 9.09075 5.71789
55 1 1.33745 10.8104 10.5845 13.9736
56 1 1.55062 12.6083 12.2605 1.82398
57 1 1.36317 7.29426 7.57508 7.15288
58 1 1.59469 8.88249 9.231 9.04096
59 1 1.41665 7.22803 10.725 11.1094
60 1 1.3349 8.74509 13.0794 12.6364
61 1 1.52047 10.0055 6.95074 10.6305
62 1 1.26198 12.4858 8.76682 12.1302
63 1 1.53069 10.6364 10.7611 7.22587
64 1 1.26425 12.9297 12.3139 8.83603
65 2 -0.709558 0.65863 0.705102 1.49912
66 2 -0.821431 0.907565 13.7713 13.5279
67 2 -0.851954 12.817 0.977388 13.6446
68 2 -0.772448 13.2181 13.0793 0.715035
69 2 -0.780617 0.866614 3.11294 2.38179
70 2 -0.69085 2.40431 0.944004 2.94227
71 2 -0.806211 2.4476 2.38457 0.460697
72 2 -0.762967 0.774472 4.67923 3.96955
73 2 -0.704903 13.7637 3.03149 4.93776
74 2 -0.888486 12.773 4.41 2.81524
75 2 -0.758901 2.49921 4.2112 6.01399
76 2 -0.800799 2.77417 6.24799 4.51345
77 2 -0.714099 1.06319 6.20345 6.31298
78 2 -0.751045 4.912 0.730083 4.2396
79 2 -0.6289 3.11297 12.9225 4.34412
80 2 -0.733472 4.5703 13.3581 2.32616
81 2 -0.878881 4.06675 2.16749 6.09468
82 2 -0.825242 6.47194 2.63439 4.97388
83 2 -0.775497 5.8307 0.705374 6.41619
84 2 -0.853659 4.36928 3.71259 1.02037
85 2 -0.717657 2.77491 4.23024 13.1179
86 2 -0.735626 4.45967 2.58888 12.842
87 2 -0.826328 4.65637 5.73838 2.66898
88 2 -0.722549 6.36148 4.12856 3.019
89 2 -0.616355 6.10466 5.51619 0.848314
90 2 -0.586655 0.869216 1.61762 7.78106
91 2 -0.782407 1.29699 13.5148 6.00145
92 2 -0.749235 13.2514 1.14139 6.43708
93 2 -0.708266 13.9314 13.4249 7.93592
94 2 -0.707108 0.353101 2.44209 9.94198
95 2 -0.623098 2.48829 0.274502 9.36243
96 2 -0.457898 2.8413 2.30828 8.68335
97 2 -0.766312 1.21457 4.32254 11.2534
98 2 -0.75476 13.0517 3.22258 11.9285
99 2 -0.756292 13.4029 4.77498 9.79712
100 2 -0.806298 0.976294 6.40082 13.1039
101 2 -0.759846 2.71444 6.27421 11.4639
102 2 -0.774836 4.49453 0.485832 11.5636
103 2 -0.818367 2.47777 13.4547 11.7862
104 2 -0.744981 4.06752 12.7517 9.73248
105 2 -0.629862 6.58397 1.6762 13.1315
106 2 -0.685949 6.06439 2.56198 10.6652
107 2 -0.639608 4.4487 4.55326 7.53556
108 2 -0.687609 4.52918 5.80408 9.62164
109 2 -0.675557 6.62023 4.88009 9.33538
110 2 -0.691917 5.88579 6.59955 7.46562
111 2 -0.741022 0.621779 8.05618 1.27077
112 2 -0.692911 13.2978 6.05105 0.920436
113 2 -0.570276 13.5993 8.48385 13.2202
114 2 -0.746273 1.36958 9.57114 2.92595
115 2 -0.715251 3.09016 7.71429 2.38422
116 2 -0.780484 2.55219 9.56311 0.538869
117 2 -0.885015 1.27692 11.2233 4.66713
118 2 -0.855475 13.6366 9.58449 4.54585
119 2 -0.783952 13.7683 11.5485 2.837
120 2 -0.752048 2.79212 11.555 6.57986
121 2 -0.719124 4.61401 7.9327 4.02165
122 2 -0.775554 4.35287 9.6959 5.90285
123 2 -0.69166 6.32984 10.1691 4.29723
124 2 -0.665031 6.69418 8.52123 5.9976
125 2 -0.792126 4.75086 11.6242 0.5742
126 2 -0.673551 2.58476 11.8941 13.5905
127 2 -0.659842 4.26843 9.94409 12.9522
128 2 -0.824888 5.92698 13.9256 0.458846
129 2 -0.823101 6.62193 11.9652 2.30565
130 2 -0.749127 0.876618 7.81687 8.64749
131 2 -0.702324 13.2231 6.49707 8.34002
132 2 -0.87598 13.5537 8.09612 6.41402
133 2 -0.730446 1.5667 9.70064 10.0812
134 2 -0.750787 3.46374 8.06957 9.43299
135 2 -0.86354 2.64746 9.71441 7.98072
136 2 -0.795881 0.587651 11.5406 11.9536
137 2 -0.770533 13.4012 9.46416 11.2318
138 2 -0.767271 13.7901 11.4971 9.90669
139 2 -0.591485 4.7669 7.51253 11.9793
140 2 -0.622339 5.7776 7.78752 13.9424
141 2 -0.761997 6.67113 9.35544 11.9193
142 2 -0.875486 4.82742 11.1357 7.96027
143 2 -0.691858 5.99346 13.258 8.27766
144 2 -0.701206 6.22424 11.7352 10.6265
145 2 -0.746543 7.4145 1.44016 1.74022
146 2 -0.75009 8.07383 14.1018 13.7403
147 2 -0.750073 8.41136 2.43479 3.80538
148 2 -0.809696 10.0369 0.757908 2.74491
149 2 -0.811659 9.67492 2.79375 1.64051
150 2 -0.905277 8.32389 4.8153 4.4714
151 2 -0.95978 10.1691 5.00347 6.08397
152 2 -0.827392 9.5566 6.86176 4.31947
153 2 -0.860768 8.17367 6.55587 6.28929
154 2 -0.843506 12.1346 0.840439 4.17783
155 2 -0.836777 10.0204 13.2577 4.60467
156 2 -0.815289 11.7664 12.8871 2.92186
157 2 -0.724409 11.6497 3.00589 5.54439
158 2 -0.743776 11.1972 4.86677 1.09315
159 2 -0.720836 9.12945 4.3151 13.9757
160 2 -0.801727 11.3632 2.95622 13.6435
161 2 -0.945159 11.6795 6.73805 2.74865
162 2 -0.642525 7.82541 1.37205 7.97877
163 2 -0.829324 7.81344 13.3823 6.2598
164 2 -0.703507 8.49603 3.11114 9.86584
165 2 -0.538581 9.76498 0.585749 9.22944
166 2 -0.836157 9.7406 3.06308 7.49007
167 2 -0.799546 7.56392 4.37024 11.8799
168 2 -0.746553 7.90591 6.12804 13.4776
169 2 -0.821619 9.503 5.81468 11.5855
170 2 -0.634191 11.8913 1.067 11.3304
171 2 -0.653265 9.88978 13.9264 11.9295
172 2 -0.520099 12.1647 13.109 10.0895
173 2 -0.763235 11.7045 4.45473 8.03145
174 2 -0.819346 11.1026 6.06065 9.91624
175 2 -0.604563 7.88484 7.86169 1.64204
176 2 -0.841793 7.96421 9.99902 2.54598
177 2 -0.680461 10.2487 8.70207 2.73857
178 2 -0.748908 9.59454 9.83423 0.574674
179 2 -0.781381 8.08474 12.0144 4.14155
180 2 -0.764755 9.90016 11.535 6.2106
181 2 -0.728902 11.4222 8.32176 4.97761
182 2 -0.750174 12.0509 10.2926 6.48253
183 2 -0.693981 11.6816 11.1564 0.940306
184 2 -0.555379 9.65768 11.8745 13.1572
185 2 -0.619507 11.8275 10.1222 12.8435
186 2 -0.790663 7.7953 8.79374 8.12774
187 2 -0.774728 8.22248 10.3328 10.0507
188 2 -0.854186 9.06464 7.92848 9.8537
189 2 -0.919168 10.0764 9.73951 8.13386
190 2 -0.632305 8.1763 11.9984 11.5919
191 2 -0.625159 10.7666 7.93049 11.6775
192 2 -0.619724 11.6848 12.0057 7.75618
ITEM: TIMESTEP
19000
ITEM: NUMBER OF ATOMS
192
ITEM: BOX BOUNDS pp pp pp
5.3348144764999716e-02 1.4246651855234894e+01
5.3348144764999716e-02 1.4246651855234894e+01
5.3348144764999716e-02 1.4246651855234894e+01
ITEM: ATOMS id type q x y z
1 1 1.54478 0.611166 0.284418 0.217823
2 1 1.48728 2.35575 1.89444 2.0622
3 1 1.52675 14.1762 2.95334 3.72683
4 1 1.45074 1.98967 4.87029 5.33663
5 1 1.33945 3.65101 14.1948 3.99486
6 1 1.40234 5.85549 1.89884 5.26102
7 1 1.35525 3.66597 3.92016 14.2227
8 1 1.34198 5.52858 6.03307 1.774
9 1 1.55844 13.6631 13.9853 7.27239
10 1 1.45125 1.60149 1.41533 8.64574
11 1 1.40831 0.113705 3.67713 10.5186
12 1 1.41141 1.81447 5.54969 12.448
13 1 1.59025 3.4893 0.0430957 10.653
14 1 1.56224 5.28466 1.72455 12.6651
15 1 1.45841 3.766 3.11293 7.03744
16 1 1.46787 5.04975 5.13006 9.19052
17 1 1.67527 14.2378 7.26438 0.145774
18 1 1.39443 1.76953 9.41113 1.86202
19 1 1.34903 13.8816 10.8727 3.46206
20 1 1.3005 1.47003 12.5075 5.47029
21 1 1.36151 3.16143 7.17439 3.47916
22 1 1.59021 4.8759 8.78758 5.54359
23 1 1.57937 3.90537 10.9486 14.2429
24 1 1.60855 5.38117 12.4029 2.11741
25 1 1.42267 0.415538 7.23572 6.90709
26 1 1.34323 1.81938 9.28494 8.67674
27 1 1.31687 14.1877 10.8621 10.5463
28 1 1.47461 1.91986 12.5822 12.514
29 1 1.32299 3.69883 7.54269 10.7225
30 1 1.55071 5.55957 8.92133 12.7021
31 1 1.43946 3.76195 11.0897 7.11462
32 1 1.48256 5.63441 12.8304 8.92725
33 1 1.52866 6.954 13.9548 14.2123
34 1 1.74281 8.72195 1.63827 1.54378
35 1 1.55933 7.47201 3.8543 3.16401
36 1 1.52272 8.90549 5.34987 5.36413
37 1 1.41211 10.2317 0.0660821 3.58984
38 1 1.44052 11.9061 2.02662 5.54651
39 1 1.42075 10.9091 3.03632 13.9172
40 1 1.23847 12.7068 4.86116 1.72287
41 1 1.46591 7.52745 0.0983949 7.03091
42 1 1.54259 9.04805 1.79115 9.31389
43 1 1.50315 7.29208 3.82459 11.044
44 1 1.42195 9.4491 5.52389 12.3824
45 1 1.53693 10.6484 13.9124 10.929
46 1 1.61624 12.9599 1.22792 12.1509
47 1 1.38272 10.5634 3.95174 7.52536
48 1 1.05489 12.5882 5.80007 9.04953
49 1 1.41154 7.70242 7.24548 14.1719
50 1 1.3968 9.41677 9.0893 1.94368
51 1 1.23045 6.91751 10.2352 3.75995
52 1 1.42995 8.70373 12.2402 5.20882
53 1 1.37292 10.8124 6.96264 3.70376
54 1 1.53409 12.5486 8.82564 5.34124
55 1 1.6159 11.0309 11.0907 0.101354
56 1 1.51181 12.4846 13.19 1.75463
57 1 1.5479 6.58187 6.60851 6.91069
58 1 1.22655 8.36266 8.59726 8.35762
59 1 1.43777 7.03783 10.5371 10.4698
60 1 1.55479 8.65833 12.0755 12.5297
61 1 1.17402 10.6784 7.66325 10.8097
62 1 1.44849 12.68 9.05781 12.4793
63 1 1.54978 10.3951 10.2933 6.95297
64 1 1.52686 11.8248 12.0845 8.88167
65 2 -0.810175 1.56564 1.28953 0.912489
66 2 -0.828675 1.48185 13.1939 13.759
67 2 -0.809454 13.8849 1.01812 13.2898
68 2 -0.801174 13.8007 14.0624 1.27013
69 2 -0.783748 1.04204 2.18991 2.99039
70 2 -0.76642 3.37359 1.19032 2.86859
71 2 -0.665523 3.03931 3.41729 1.32716
72 2 -0.727092 0.945093 3.75045 4.75914
73 2 -0.769599 13.08 2.32122 4.67981
74 2 -0.733036 13.1845 3.89022 2.75749
75 2 -0.787106 3.02318 4.33238 6.28113
76 2 -0.724263 2.36728 5.98802 4.24602
77 2 -0.663649 1.06122 6.12863 6.08942
78 2 -0.723353 4.85931 0.819009 4.62581
79 2 -0.696145 2.2912 13.7624 4.80351
80 2 -0.775554 4.56417 12.9471 3.27872
81 2 -0.789276 5.11146 2.66209 6.33774
82 2 -0.688545 6.59791 2.89251 4.03099
83 2 -0.69172 7.24029 1.30081 5.95075
84 2 -0.646882 4.65377 5.25803 0.704352
85 2 -0.804755 2.65994 4.64701 13.2647
86 2 -0.687507 4.57519 2.5391 13.7757
87 2 -0.634662 4.51826 7.20571 2.46296
88 2 -0.683949 6.5212 4.9619 2.76384
89 2 -0.683998 6.78206 6.66322 1.21468
90 2 -0.883011 0.409873 0.57637 8.09586
91 2 -0.665403 0.108041 13.072 6.05311
92 2 -0.632194 12.6066 0.860829 6.60875
93 2 -0.722605 12.6153 12.9999 7.68872
94 2 -0.642948 1.04827 2.71836 9.38362
95 2 -0.826285 2.4379 0.663946 9.79652
96 2 -0.727395 2.74629 2.10581 7.40436
97 2 -0.718837 1.06494 4.4895 11.3548
98 2 -0.725014 13.8313 2.37676 11.3923
99 2 -0.678282 13.0663 4.3761 9.79509
100 2 -0.770053 1.00286 6.59955 13.354
101 2 -0.519127 2.35349 6.81368 11.2465
102 2 -0.772824 4.35897 1.32055 11.5933
103 2 -0.847122 2.9955 13.0652 11.496
104 2 -0.761166 4.72251 13.8241 9.87473
105 2 -0.76634 5.80125 0.744213 13.6345
106 2 -0.679238 6.59395 2.78661 12.152
107 2 -0.635097 4.32505 3.87011 8.59238
108 2 -0.686769 4.11281 6.04666 10.1505
109 2 -0.716377 6.28537 4.67029 10.0814
110 2 -0.776234 5.72208 5.77754 7.91903
111 2 -0.76822 0.72883 8.40685 0.85449
112 2 -0.763354 13.68 5.95468 0.968153
113 2 -0.858407 13.3967 7.9634 13.3568
114 2 -0.771797 0.772952 10.3023 2.56126
115 2 -0.70065 2.48453 8.4066 2.93737
116 2 -0.62872 3.19942 10.0934 1.33594
117 2 -0.624708 0.552139 11.3667 4.8266
118 2 -0.67093 13.4794 9.49357 4.13713
119 2 -0.726392 12.796 12.0078 2.57097
120 2 -0.70282 2.72753 12.1306 6.54315
121 2 -0.667473 3.85869 7.87719 4.79787
122 2 -0.830878 3.98317 9.81677 6.17435
123 2 -0.766838 6.17031 9.21878 4.88975
124 2 -0.746835 5.4625 7.5606 6.44007
125 2 -0.895678 4.53415 11.906 0.997758
126 2 -0.711289 2.65461 11.3716 13.2971
127 2 -0.851629 4.53659 9.83944 13.449
128 2 -0.826582 6.27226 13.3332 1.27263
129 2 -0.68074 6.22994 10.9311 2.514
130 2 -0.670843 1.63052 7.98123 7.96291
131 2 -0.611586 13.7321 6.31262 7.91855
132 2 -0.778745 13.6472 8.2765 6.215
133 2 -0.670547 0.450278 9.81041 9.37362
134 2 -0.557646 2.52683 8.59361 10.1849
135 2 -0.717977 2.8386 10.3521 8.06409
136 2 -0.627205 0.731406 12.2708 11.3549
137 2 -0.75315 13.4464 10.1627 11.7057
138 2 -0.723886 13.1472 11.7763 9.62372
139 2 -0.766106 4.80732 7.97591 11.6651
140 2 -0.768202 6.4414 7.80363 13.4624
141 2 -0.792228 6.1809 9.88301 11.6334
142 2 -0.727855 4.5876 11.7653 8.40317
143 2 -0.830189 6.32753 13.6156 7.84816
144 2 -0.721379 6.55199 11.9996 10.0432
145 2 -0.76829 7.84481 0.979144 0.522449
146 2 -0.806797 7.94839 13.3117 13.115
147 2 -0.774882 8.10375 2.97766 1.84526
148 2 -0.813999 8.90138 0.566058 2.55604
149 2 -0.760856 9.89833 2.26496 0.800167
150 2 -0.763751 8.46601 4.47488 4.12043
151 2 -0.745133 9.55951 4.33993 6.34448
152 2 -0.674957 9.34761 6.60333 4.57752
153 2 -0.708489 7.42881 5.68722 5.89463
154 2 -0.695581 11.0135 1.27567 4.44416
155 2 -0.684537 10.0187 13.055 4.50368
156 2 -0.724045 11.2241 13.7537 2.5507
157 2 -0.717859 11.5131 3.34105 6.55234
158 2 -0.654481 11.6024 4.01498 0.57478
159 2 -0.656787 10.3138 4.25471 13.0317
160 2 -0.687755 11.9414 1.97603 12.9721
161 2 -0.557528 11.3689 5.55509 2.92906
162 2 -0.719403 8.48563 0.935484 8.27947
163 2 -0.7974 8.258 13.1852 6.4193
164 2 -0.781183 8.06403 2.97808 10.1005
165 2 -0.786059 9.9984 0.962714 10.2903
166 2 -0.675017 10.0123 2.50512 8.33909
167 2 -0.750191 8.22625 4.9962 11.5521
168 2 -0.798214 8.56396 6.19106 13.4474
169 2 -0.690372 10.684 6.27727 11.61
170 2 -0.844177 11.8623 0.221052 11.8248
171 2 -0.683866 9.49175 12.9842 11.5
172 2 -0.744815 10.7789 12.9215 9.68699
173 2 -0.590593 10.7995 5.29351 8.35449
174 2 -0.514288 12.1011 7.29969 9.87301
175 2 -0.721066 8.65596 8.56578 0.71298
176 2 -0.619807 8.47274 9.72303 3.02742
177 2 -0.742611 10.4542 8.19053 2.86008
178 2 -0.691807 10.3681 10.3747 1.33443
179 2 -0.717994 7.41426 11.5899 4.69603
180 2 -0.712796 9.67939 11.1384 5.85154
181 2 -0.750478 11.767 7.4514 4.7086
182 2 -0.781951 11.6656 9.68025 6.24036
183 2 -0.746996 11.5863 12.4125 0.6081
184 2 -0.775364 9.66629 11.5888 13.5461
185 2 -0.750658 11.9201 10.3046 13.4204
186 2 -0.750497 7.75462 7.49089 7.48158
187 2 -0.743177 7.29058 9.77747 9.21314
188 2 -0.596144 9.4594 8.203 9.56178
189 2 -0.618852 9.38781 9.02533 7.06496
190 2 -0.699445 8.32185 10.8736 11.5958
191 2 -0.680477 11.19 8.69214 11.8207
192 2 -0.816591 10.9346 11.0293 8.17218
ITEM: TIMESTEP
20000
ITEM: NUMBER OF ATOMS
192
ITEM: BOX BOUNDS pp pp pp
3.9014229172035009e-02 1.4260985770827832e+01
3.9014229172035009e-02 1.4260985770827832e+01
3.9014229172035009e-02 1.4260985770827832e+01
ITEM: ATOMS id type q x y z
1 1 1.69408 13.6173 0.027388 14.0157
2 1 1.42747 1.15143 1.60815 1.64317
3 1 1.55168 0.138997 3.77562 3.56528
4 1 1.28079 1.38141 5.67434 5.59388
5 1 1.33148 3.21053 14.2569 3.21671
6 1 1.44901 4.93564 1.86312 5.40849
7 1 1.33236 3.1621 3.3972 0.00229194
8 1 1.41914 5.02879 4.79838 2.03485
9 1 1.36724 0.858435 14.2786 7.13549
10 1 1.39908 2.32074 2.02386 9.08217
11 1 1.42607 14.3413 3.75616 10.6026
12 1 1.40227 2.01418 5.52844 12.5692
13 1 1.63004 3.55352 14.2147 11.2495
14 1 1.17964 5.60284 1.88078 12.6997
15 1 1.37137 3.81316 4.06767 7.37926
16 1 1.49923 6.00222 5.51273 8.96076
17 1 1.73725 0.382018 7.20195 0.28316
18 1 1.76806 2.22332 8.83423 1.94878
19 1 1.52068 14.1139 10.1837 3.34549
20 1 1.33475 1.82464 12.0417 4.93435
21 1 1.41037 3.55709 7.00109 3.81646
22 1 1.49282 5.58801 8.99777 5.49765
23 1 1.69043 3.58202 10.9214 14.386
24 1 1.37283 5.60252 12.8601 1.64655
25 1 1.35735 13.5877 7.36051 7.46436
26 1 1.4311 1.73743 8.85952 9.10009
27 1 1.56523 14.203 10.3963 11.1163
28 1 1.73935 1.60475 12.5027 12.6915
29 1 1.30151 3.82056 7.09427 10.4409
30 1 1.4079 5.1265 9.00189 12.4383
31 1 1.44522 3.78417 10.7131 7.1763
32 1 1.47353 5.38956 12.603 9.15944
33 1 1.31245 7.68564 0.0440108 -0.0310361
34 1 1.41239 9.04658 1.97161 2.15455
35 1 1.5786 7.09095 3.64334 3.92014
36 1 1.4667 9.21288 5.38444 5.54548
37 1 1.33601 11.2982 14.3591 3.51943
38 1 1.35771 13.0617 1.72298 5.41568
39 1 1.38822 10.3635 3.95009 0.160079
40 1 1.5088 12.5966 5.56719 1.85002
41 1 1.54147 6.85147 -0.184402 6.88621
42 1 1.37337 8.98769 1.47701 8.33442
43 1 1.36125 7.55782 3.2429 10.522
44 1 1.33593 8.3935 5.61104 12.2285
45 1 1.21833 11.0111 14.4421 10.504
46 1 1.47624 12.1536 2.26035 12.3797
47 1 1.55175 10.804 3.30441 6.86868
48 1 1.64306 12.0997 5.09233 8.88501
49 1 1.47101 6.40968 6.9551 0.0322344
50 1 1.61705 8.53156 8.72037 1.73298
51 1 1.42054 7.17732 10.7244 3.50995
52 1 1.20635 8.9938 12.7468 5.20602
53 1 1.46056 10.3785 7.24947 3.56833
54 1 1.43371 12.0343 9.1708 5.3796
55 1 1.5549 10.496 9.90851 14.07
56 1 1.32608 12.2811 12.0215 1.54339
57 1 1.5699 7.61021 7.2943 7.00715
58 1 1.57051 8.93914 9.10337 9.20533
59 1 1.63282 7.19147 10.7439 10.8305
60 1 1.34272 9.31828 12.404 12.2131
61 1 1.75432 10.6487 7.09306 10.7411
62 1 1.84222 12.5884 8.39813 12.6358
63 1 1.5085 10.6092 11.2632 7.43433
64 1 1.47472 12.992 12.7151 8.93618
65 2 -0.828211 14.2621 1.05274 0.74814
66 2 -0.835656 0.6089 13.527 13.1735
67 2 -0.764225 12.8468 0.939666 13.0494
68 2 -0.772934 12.9372 13.0498 0.353041
69 2 -0.78983 1.05368 2.6725 2.78073
70 2 -0.71302 1.95781 0.405869 2.46818
71 2 -0.605033 2.08919 2.1291 0.303665
72 2 -0.752043 0.907146 4.73983 4.35618
73 2 -0.708037 13.3501 3.11413 4.59947
74 2 -0.747745 13.2061 4.49887 2.74946
75 2 -0.645986 2.74 5.00736 6.79501
76 2 -0.712132 2.45045 6.21073 4.60737
77 2 -0.611729 0.0867226 6.46256 6.15496
78 2 -0.712549 4.24103 0.96967 4.28846
79 2 -0.670205 2.67514 12.7918 3.80854
80 2 -0.658959 4.37389 13.8297 2.12915
81 2 -0.701855 4.02735 2.58113 6.39555
82 2 -0.758857 5.90141 2.91622 4.7092
83 2 -0.717517 6.033 0.990665 6.37114
84 2 -0.681695 3.64129 3.97584 1.40627
85 2 -0.799507 2.51835 4.31393 13.1327
86 2 -0.609502 4.6235 2.82156 13.49
87 2 -0.692634 4.33297 6.02769 2.72213
88 2 -0.787816 6.26316 4.25346 2.5842
89 2 -0.672519 5.5109 5.98105 0.866182
90 2 -0.768043 1.72169 0.91169 8.11526
91 2 -0.607255 1.28729 13.3581 5.8574
92 2 -0.689655 14.3533 0.949762 5.95796
93 2 -0.707342 14.1442 13.1813 8.05501
94 2 -0.68243 1.18514 2.54767 10.0349
95 2 -0.700263 3.00648 1.13908 10.3472
96 2 -0.736191 3.145 3.38818 8.53902
97 2 -0.618875 0.520333 4.88112 11.5437
98 2 -0.71443 13.1698 2.99618 11.2721
99 2 -0.747083 13.4052 4.64848 9.63248
100 2 -0.766703 1.01469 6.1144 13.6375
101 2 -0.744713 3.13297 6.17077 11.5168
102 2 -0.683663 4.45188 0.751801 12.3444
103 2 -0.884343 2.64613 13.1704 11.6149
104 2 -0.705982 4.74407 13.6003 10.3708
105 2 -0.58669 7.04977 1.39249 14.0113
106 2 -0.656158 6.17581 2.65918 11.3556
107 2 -0.712101 5.28253 4.55653 7.99911
108 2 -0.749858 5.27069 6.35704 9.93756
109 2 -0.572218 7.20949 4.33491 9.26309
110 2 -0.751881 6.79832 6.37234 7.94553
111 2 -0.926827 1.62067 7.83601 0.993228
112 2 -0.858714 13.7605 6.13411 1.10731
113 2 -0.970973 13.8119 7.97969 13.5099
114 2 -0.835503 0.797922 9.2727 2.56273
115 2 -0.821975 3.07347 8.31854 3.08854
116 2 -0.874818 2.90875 10.0143 1.34847
117 2 -0.755944 0.780759 11.1019 4.27645
118 2 -0.782271 12.7949 9.69498 4.15014
119 2 -0.649014 13.6385 11.2386 2.14449
120 2 -0.632887 2.55133 11.4041 6.41644
121 2 -0.5964 4.66641 7.76251 4.83881
122 2 -0.816741 4.44379 9.71114 6.27551
123 2 -0.734914 5.88469 10.1646 4.44541
124 2 -0.843695 6.52698 7.9631 6.07133
125 2 -0.720157 4.83826 11.6697 0.683501
126 2 -0.873037 2.53518 11.6774 13.5828
127 2 -0.748689 4.19011 10.1147 13.2912
128 2 -0.721062 6.43866 13.7233 0.656157
129 2 -0.709748 6.57799 11.9575 2.67159
130 2 -0.70512 0.563513 8.35198 8.21005
131 2 -0.809363 12.7209 6.2545 8.11763
132 2 -0.6786 12.6977 8.01856 6.35379
133 2 -0.820766 0.990698 9.74781 10.1442
134 2 -0.693633 2.65402 7.5765 9.25623
135 2 -0.593544 2.75962 9.77455 8.06865
136 2 -0.804611 0.818872 11.3032 12.1434
137 2 -0.893993 13.1968 9.49651 11.6331
138 2 -0.6617 13.3428 11.6953 10.0488
139 2 -0.663797 4.56842 8.39948 10.9225
140 2 -0.795418 5.57221 7.98064 13.444
141 2 -0.740578 6.17591 10.1364 11.755
142 2 -0.783797 4.43411 11.6878 8.29939
143 2 -0.794852 6.05974 13.6712 8.17849
144 2 -0.801686 6.43158 11.5962 9.7992
145 2 -0.618725 8.39761 0.750413 1.54211
146 2 -0.711934 8.80293 13.4624 13.2994
147 2 -0.760102 7.99997 2.71576 3.06983
148 2 -0.664925 10.4833 1.23423 2.467
149 2 -0.701148 9.49472 3.31347 1.23811
150 2 -0.752502 7.91067 4.3389 4.92849
151 2 -0.800763 10.4356 4.57 5.99573
152 2 -0.705305 9.22257 6.51158 4.3862
153 2 -0.768015 8.81411 6.3701 6.6291
154 2 -0.721986 12.3881 0.841732 4.29837
155 2 -0.546602 10.5823 13.6615 4.84316
156 2 -0.680869 11.7642 13.0685 2.68349
157 2 -0.708725 11.8014 2.19745 6.4866
158 2 -0.702407 11.4489 4.7985 1.15295
159 2 -0.58073 9.52035 5.15472 13.6081
160 2 -0.761992 11.3028 3.03236 13.4077
161 2 -0.659704 11.7569 6.61135 3.12399
162 2 -0.730631 8.1144 0.528035 7.44229
163 2 -0.772944 7.68458 13.3964 5.7095
164 2 -0.683733 8.48427 2.20522 9.80891
165 2 -0.597898 10.2904 0.840854 8.89285
166 2 -0.693706 9.45 2.61697 7.21385
167 2 -0.72895 8.31779 4.26911 11.241
168 2 -0.742315 7.1745 6.15819 13.0785
169 2 -0.770543 9.53602 6.48757 11.5325
170 2 -0.659744 11.0745 1.42286 11.5899
171 2 -0.661103 10.4778 13.1472 11.3769
172 2 -0.623715 12.4388 14.0281 9.78788
173 2 -0.802812 11.5073 3.88672 8.1877
174 2 -0.773458 11.007 5.87434 9.80467
175 2 -0.69508 7.39825 8.11923 0.809872
176 2 -0.877818 7.92358 9.6977 2.69262
177 2 -0.718665 9.35011 7.3877 2.3905
178 2 -0.876235 9.4106 9.21375 0.632028
179 2 -0.616984 8.44114 11.2087 4.43934
180 2 -0.683546 9.72951 12.1972 6.51522
181 2 -0.716446 10.9296 8.31395 4.48127
182 2 -0.704965 11.2365 10.2509 6.38307
183 2 -0.641999 11.0735 11.1223 1.00133
184 2 -0.683206 9.94353 11.2163 13.232
185 2 -0.967503 11.6266 9.07812 13.5747
186 2 -0.782897 8.26865 8.44392 8.02821
187 2 -0.858378 7.95213 9.54523 10.3794
188 2 -0.85091 9.83013 8.04302 9.92561
189 2 -0.763328 9.93931 10.2573 8.44915
190 2 -0.764936 8.15561 11.9848 11.1498
191 2 -0.972857 11.8224 7.6234 11.6572
192 2 -0.742895 11.7855 12.1512 8.02014
ITEM: TIMESTEP
21000
ITEM: NUMBER OF ATOMS
192
ITEM: BOX BOUNDS pp pp pp
2.6731160334505510e-02 1.4273268839665359e+01
2.6731160334505510e-02 1.4273268839665359e+01
2.6731160334505510e-02 1.4273268839665359e+01
ITEM: ATOMS id type q x y z
1 1 1.2494 0.369196 14.2582 0.0752241
2 1 1.43912 2.12228 1.91985 1.82522
3 1 1.33705 0.034946 3.48954 3.59548
4 1 1.53122 1.87799 5.29381 5.21589
5 1 1.58958 3.71392 0.207369 3.77678
6 1 1.48554 5.81186 1.79699 5.48415
7 1 1.3732 3.84884 3.78175 0.0780326
8 1 1.52641 5.87554 5.45427 1.53509
9 1 1.57831 13.7798 0.117259 7.29497
10 1 1.23189 1.72944 2.14508 8.58715
11 1 1.338 0.262699 3.53939 10.8297
12 1 1.29386 1.71406 5.33858 12.6501
13 1 1.36254 3.21201 0.24138 10.7099
14 1 1.39737 5.10023 1.64189 12.4413
15 1 1.49694 3.9561 3.70442 6.7866
16 1 1.5558 5.08294 5.26026 8.98721
17 1 1.31885 13.9075 7.39008 0.0890952
18 1 1.34198 1.78273 9.02777 1.86808
19 1 1.49971 0.567177 10.9964 3.94923
20 1 1.37396 1.89074 13.1223 5.81078
21 1 1.56131 3.69059 7.10251 3.22707
22 1 1.36043 5.3509 8.77869 4.96166
23 1 1.42253 3.85285 10.2665 14.0719
24 1 1.52065 5.08385 12.3776 2.09761
25 1 1.47344 0.159787 7.12651 7.1099
26 1 1.47706 1.81157 8.97812 8.92545
27 1 1.42239 13.9344 10.9133 10.1321
28 1 1.31553 1.88513 12.1295 12.3678
29 1 1.41099 3.47201 7.14107 10.595
30 1 1.38502 5.50043 8.51105 12.4233
31 1 1.50826 3.60583 10.6791 7.01973
32 1 1.3189 5.37693 12.414 8.91407
33 1 1.23451 6.89321 14.0441 0.230826
34 1 1.44022 8.55402 1.81689 1.54899
35 1 1.59246 7.38188 3.64144 3.63712
36 1 1.43965 9.03364 5.58051 5.45476
37 1 1.59195 10.1551 14.1198 3.42167
38 1 1.52736 12.2085 1.72262 5.26915
39 1 1.34191 10.6285 3.26481 14.0171
40 1 1.37005 12.336 5.08681 1.90194
41 1 1.50793 7.50887 14.1576 7.145
42 1 1.2247 8.76913 1.95141 8.96276
43 1 1.36624 7.00612 3.97656 11.222
44 1 1.60271 9.10425 5.64507 12.4221
45 1 1.6652 10.1978 0.245975 11.0262
46 1 1.27882 12.5563 1.63635 12.4916
47 1 1.43896 10.5606 3.51823 7.2037
48 1 1.19612 12.6823 5.25656 8.97185
49 1 1.33728 7.91598 7.58651 14.2647
50 1 1.54833 9.40081 9.0779 2.27039
51 1 1.6311 7.24438 10.7011 3.5636
52 1 1.68977 9.05043 12.2273 5.44651
53 1 1.55519 10.9339 7.10785 3.82199
54 1 1.64916 12.7678 9.14181 5.26271
55 1 1.47704 10.8869 10.871 0.286543
56 1 1.35144 12.6082 12.7873 2.23821
57 1 1.31882 6.92128 6.78758 7.10316
58 1 1.3769 8.73325 8.44561 8.97194
59 1 1.27324 7.25895 10.5643 10.7364
60 1 1.49455 8.80475 12.4969 12.7826
61 1 1.40141 10.8425 7.01319 10.5819
62 1 1.39773 12.3372 9.19772 12.2865
63 1 1.49986 10.6787 10.3734 7.0768
64 1 1.46239 11.5963 12.7157 8.81601
65 2 -0.748924 1.3808 0.94048 0.772744
66 2 -0.559286 0.873772 12.5496 13.4964
67 2 -0.632102 13.3541 0.477692 13.199
68 2 -0.586538 13.6733 13.7502 1.19246
69 2 -0.674209 0.895289 2.33747 2.6272
70 2 -0.752499 2.65748 1.0152 3.08567
71 2 -0.719079 3.22589 2.98902 1.44548
72 2 -0.771341 0.80647 4.29979 4.79682
73 2 -0.668005 12.9149 2.56769 4.23772
74 2 -0.772055 13.3283 4.37845 2.73068
75 2 -0.79968 3.06 4.61182 5.84086
76 2 -0.761997 2.85478 6.00871 3.94983
77 2 -0.71769 1.24717 6.48685 6.11801
78 2 -0.738154 4.88004 1.22122 4.39032
79 2 -0.770119 2.91788 14.0537 5.09459
80 2 -0.881034 4.30438 13.2085 3.12166
81 2 -0.790461 4.67455 2.45737 6.40144
82 2 -0.792012 6.73909 2.37963 4.36031
83 2 -0.79166 6.91349 1.15223 6.51327
84 2 -0.848015 4.99352 4.70837 0.655863
85 2 -0.763705 2.48467 4.369 13.5921
86 2 -0.746809 4.26108 2.48767 13.4151
87 2 -0.651804 4.72143 6.4275 1.98547
88 2 -0.742076 6.47937 4.72455 2.9774
89 2 -0.671987 6.989 6.37353 0.868383
90 2 -0.682621 0.430129 1.30805 7.98993
91 2 -0.768424 0.532518 13.474 6.60858
92 2 -0.788 13.0638 0.848519 6.08289
93 2 -0.766313 12.5097 13.6166 7.81078
94 2 -0.629353 1.1862 3.40751 9.55774
95 2 -0.66278 2.14431 1.08444 9.84909
96 2 -0.593491 2.6115 3.04624 7.45103
97 2 -0.694327 0.605484 4.64293 11.8129
98 2 -0.60742 13.7042 2.16714 11.3968
99 2 -0.524759 13.1662 4.25351 10.1622
100 2 -0.61031 0.615658 6.40975 13.4779
101 2 -0.597635 2.2684 6.0104 11.1939
102 2 -0.724701 4.36506 1.19716 11.1218
103 2 -0.688709 2.3667 13.5446 11.7687
104 2 -0.598066 4.12409 13.4881 9.8103
105 2 -0.54246 5.67685 0.193553 13.0697
106 2 -0.698456 5.88094 2.8783 11.8311
107 2 -0.76654 4.68347 4.01516 8.19554
108 2 -0.763352 3.98348 6.32918 9.33273
109 2 -0.71087 6.12199 4.95436 10.1594
110 2 -0.765602 5.84171 5.97904 7.87617
111 2 -0.68268 0.435234 8.25833 1.32249
112 2 -0.622744 13.0171 6.22896 0.538154
113 2 -0.688657 13.3418 8.5533 13.2402
114 2 -0.76864 1.14251 9.95468 2.8822
115 2 -0.795571 3.04302 8.30746 2.67198
116 2 -0.664219 2.55794 10.0848 0.62847
117 2 -0.664534 1.03681 12.2512 4.6828
118 2 -0.829878 13.765 10.2127 4.91589
119 2 -0.65605 13.7414 11.8601 3.12849
120 2 -0.709418 2.56018 11.6158 6.32527
121 2 -0.750155 4.81333 7.76108 3.92379
122 2 -0.709452 4.31165 9.91292 5.88459
123 2 -0.681999 6.21684 9.50313 3.97239
124 2 -0.620437 6.45387 7.7091 5.83927
125 2 -0.662775 4.60268 11.297 0.813501
126 2 -0.611579 3.24266 11.0592 12.7654
127 2 -0.738042 4.30017 8.98149 13.3392
128 2 -0.709383 5.55991 13.4436 1.07778
129 2 -0.839357 6.14778 11.4731 2.8095
130 2 -0.753388 1.08026 7.7471 8.2209
131 2 -0.590991 13.9548 5.66895 7.72618
132 2 -0.779657 13.4751 8.00563 6.31878
133 2 -0.771762 0.819116 10.0826 9.42331
134 2 -0.724204 2.78431 8.43264 10.1852
135 2 -0.77727 2.7473 9.71127 7.83631
136 2 -0.606668 0.891833 11.8065 11.2607
137 2 -0.703428 13.0502 9.83873 10.9422
138 2 -0.680391 13.0348 11.9845 9.63757
139 2 -0.780036 4.62407 7.55517 11.5816
140 2 -0.723462 6.82024 8.0746 13.2891
141 2 -0.668128 6.31077 10.0024 11.8166
142 2 -0.78262 4.80505 11.4391 7.94904
143 2 -0.657368 6.321 13.6415 8.3231
144 2 -0.677092 6.40824 11.6184 9.95629
145 2 -0.682824 7.34488 1.43861 0.585427
146 2 -0.803032 7.91059 13.2501 13.8116
147 2 -0.7753 8.34095 2.9782 2.51283
148 2 -0.797264 9.44889 0.716294 2.30349
149 2 -0.654913 9.48499 2.16827 0.283504
150 2 -0.729914 8.29929 4.53983 4.31147
151 2 -0.718673 9.95174 4.53981 6.04818
152 2 -0.724565 10.2231 6.76209 5.23899
153 2 -0.754903 7.81301 5.69244 6.2762
154 2 -0.668215 10.75 0.833789 4.5162
155 2 -0.901738 9.41323 12.9823 4.14655
156 2 -0.79518 11.5314 13.6283 2.83422
157 2 -0.721461 11.6039 2.6757 6.39667
158 2 -0.64471 11.3201 4.00298 1.20262
159 2 -0.645933 9.82721 4.50712 13.3809
160 2 -0.696008 11.4146 2.83246 12.831
161 2 -0.742377 11.8333 6.19081 2.99332
162 2 -0.598648 8.75948 0.400756 7.84537
163 2 -0.877473 8.13684 13.1204 6.27196
164 2 -0.529267 8.17155 3.15741 10.1727
165 2 -0.74789 9.66011 1.24576 10.0283
166 2 -0.704171 9.29784 2.77518 7.72789
167 2 -0.868764 7.94147 4.90485 11.9308
168 2 -0.775252 9.14597 6.85447 13.2788
169 2 -0.651149 10.0899 5.72337 11.1551
170 2 -0.741497 11.4426 0.811954 11.5291
171 2 -0.805115 9.22053 13.6922 11.9088
172 2 -0.69619 10.6074 13.3309 9.87107
173 2 -0.599547 11.5116 4.08872 8.40243
174 2 -0.720932 11.9763 6.37687 9.89538
175 2 -0.657462 8.22821 8.63187 1.19828
176 2 -0.867033 8.44917 9.89648 3.14824
177 2 -0.837848 10.0386 7.66294 2.77132
178 2 -0.853275 10.2795 9.90987 1.30824
179 2 -0.75237 7.74808 11.3514 4.885
180 2 -0.936987 10.0402 11.3235 6.14828
181 2 -0.811629 11.9888 8.20517 4.35161
182 2 -0.821927 11.7136 9.58705 6.25113
183 2 -0.656713 11.7738 12.1626 0.971213
184 2 -0.70844 9.72393 11.674 13.8976
185 2 -0.720991 11.3453 10.2284 13.1575
186 2 -0.68734 7.40047 7.88941 8.40931
187 2 -0.660344 8.36737 9.50994 10.1959
188 2 -0.783531 9.47026 7.50707 9.835
189 2 -0.674541 9.59517 9.19069 7.68547
190 2 -0.566637 8.68336 11.6651 11.4509
191 2 -0.636689 11.6933 7.79639 11.8605
192 2 -0.756144 11.2608 11.3498 8.41696
ITEM: TIMESTEP
22000
ITEM: NUMBER OF ATOMS
192
ITEM: BOX BOUNDS pp pp pp
1.5503835496278207e-02 1.4284496164503581e+01
1.5503835496278207e-02 1.4284496164503581e+01
1.5503835496278207e-02 1.4284496164503581e+01
ITEM: ATOMS id type q x y z
1 1 1.40746 0.122356 13.8892 0.0885494
2 1 1.20844 1.59072 1.92746 1.78602
3 1 1.70027 0.322607 3.77204 3.94273
4 1 1.71653 1.78385 5.78177 5.49017
5 1 1.37144 3.54254 0.0296926 3.6446
6 1 1.43524 5.18816 1.59328 5.70028
7 1 1.12433 3.5527 3.55876 0.201176
8 1 1.28251 4.95852 5.53097 1.81186
9 1 1.38716 0.34029 14.0505 7.33756
10 1 1.30011 1.90679 1.85686 8.80594
11 1 1.16639 -0.0276207 3.79103 10.5074
12 1 1.51388 1.70404 5.36627 12.5225
13 1 1.66211 3.86867 -0.141953 10.6176
14 1 1.29093 5.62773 1.77231 12.4346
15 1 1.51793 3.44905 3.91069 6.95815
16 1 1.37465 5.25549 5.43879 8.83877
17 1 1.53352 13.9984 7.16553 14.2991
18 1 1.45806 1.418 9.13515 1.62203
19 1 1.70859 13.9054 10.7076 3.73789
20 1 1.47881 1.73634 12.3797 5.31998
21 1 1.4335 3.25302 7.42897 3.56072
22 1 1.7387 5.23298 8.96314 5.14309
23 1 1.45801 3.76041 10.6576 0.174739
24 1 1.31306 5.56551 12.5018 1.90471
25 1 1.75343 14.3056 7.60818 7.04897
26 1 1.52024 2.0748 8.8177 8.79396
27 1 1.65882 0.270346 10.5 10.7584
28 1 1.34966 2.17882 12.4964 12.5787
29 1 1.3518 3.73987 7.07487 10.6907
30 1 1.51157 5.64373 8.9774 12.3075
31 1 1.63358 3.74917 10.8048 7.19878
32 1 1.75874 5.64615 12.7757 8.62762
33 1 1.42891 7.25879 14.2116 0.0671236
34 1 1.70717 8.8242 1.83303 1.69824
35 1 1.03549 6.60859 3.22187 3.30002
36 1 1.3701 8.60046 4.81602 5.33502
37 1 1.36553 10.7271 0.339231 3.73813
38 1 1.36612 12.843 1.72236 5.56803
39 1 1.50299 10.5662 3.6161 0.138866
40 1 1.52683 12.6034 5.34378 2.00105
41 1 1.44138 7.4817 0.117108 6.77561
42 1 1.48921 9.28493 1.73412 8.64675
43 1 1.41118 6.96558 3.58759 10.4998
44 1 1.33242 8.55538 5.51759 12.3945
45 1 1.37732 10.9546 14.3774 10.3554
46 1 1.35689 12.8447 1.79025 12.6531
47 1 1.31887 11.0923 3.75868 7.15261
48 1 1.41001 12.5869 5.96238 9.01445
49 1 1.45252 6.76261 7.05276 0.059856
50 1 1.44787 8.7121 8.71096 2.03654
51 1 1.74 7.21925 10.7562 3.71435
52 1 1.60183 9.42174 12.5111 5.30179
53 1 1.51955 10.4383 6.78878 3.66943
54 1 1.61647 12.089 8.84268 5.34531
55 1 1.30605 10.8529 10.7715 -0.054325
56 1 1.39247 12.2237 12.5567 1.80442
57 1 1.61524 6.87764 7.02527 6.93025
58 1 1.51465 8.81944 8.72012 8.76306
59 1 1.78933 7.20893 10.7622 10.4443
60 1 1.30159 8.961 12.4082 12.3711
61 1 1.35004 10.4115 7.15897 10.9715
62 1 1.51096 12.5225 8.92246 12.3554
63 1 1.73233 10.7215 10.5982 7.43421
64 1 1.44011 12.7437 12.3391 8.9855
65 2 -0.633489 0.666252 0.625354 1.1455
66 2 -0.729388 1.42676 13.1321 13.8113
67 2 -0.688383 13.9144 1.01029 13.5381
68 2 -0.756367 13.1138 13.1236 0.630382
69 2 -0.682883 1.33515 3.26772 2.98195
70 2 -0.603116 2.89892 1.21174 2.71024
71 2 -0.623176 2.57542 2.47367 0.662872
72 2 -0.932985 0.844318 4.92006 4.77012
73 2 -0.821801 13.7414 2.62825 4.49603
74 2 -0.736662 13.7115 4.40145 2.79421
75 2 -0.91178 2.81609 4.71022 5.87251
76 2 -0.784196 2.17357 7.06489 4.66497
77 2 -0.894268 0.943231 6.50956 6.65998
78 2 -0.781875 4.25801 0.530556 4.81423
79 2 -0.70561 2.28121 13.3457 4.09574
80 2 -0.602124 4.98353 13.6459 3.00916
81 2 -0.708947 4.35472 2.65008 6.5392
82 2 -0.633729 5.96278 2.63046 4.83014
83 2 -0.745629 6.00073 0.767563 6.73598
84 2 -0.569215 3.56554 4.38656 1.56774
85 2 -0.684427 2.5973 4.7178 13.5235
86 2 -0.58247 5.15636 2.52662 13.7334
87 2 -0.708021 4.30646 6.36758 3.11131
88 2 -0.594353 6.19375 4.89223 2.49469
89 2 -0.791324 5.43756 6.49223 0.795732
90 2 -0.796597 0.774222 0.907765 8.37907
91 2 -0.76542 0.791945 12.9976 6.264
92 2 -0.69901 13.6128 0.788557 6.50252
93 2 -0.69436 13.6527 12.8491 7.85894
94 2 -0.576035 1.29939 2.82711 9.8403
95 2 -0.612871 3.13288 1.16911 10.0761
96 2 -0.687508 2.39804 2.79232 7.58946
97 2 -0.593462 1.11833 4.10667 11.6508
98 2 -0.604193 13.0987 2.75594 11.3833
99 2 -0.665078 13.6479 5.18042 9.85716
100 2 -0.65108 0.415972 6.00314 12.8263
101 2 -0.67871 2.67796 6.33103 11.6484
102 2 -0.703945 4.46371 0.730675 11.6886
103 2 -0.836303 3.00034 13.1795 11.4685
104 2 -0.943552 4.70281 13.3541 9.64498
105 2 -0.708972 6.84488 1.03669 13.2695
106 2 -0.719464 6.02799 2.56951 11.0293
107 2 -0.757181 4.05341 4.75572 8.20184
108 2 -0.672564 4.76814 5.92814 10.4453
109 2 -0.67264 6.28231 4.14524 9.31115
110 2 -0.863673 5.85732 6.48391 7.79105
111 2 -0.809608 0.685461 8.22594 0.458754
112 2 -0.845614 13.381 6.1409 0.955895
113 2 -0.741394 12.9405 7.80338 13.4176
114 2 -0.761544 0.59395 9.88614 2.75663
115 2 -0.65155 2.11602 7.87317 2.53189
116 2 -0.709853 2.62037 9.91462 1.0626
117 2 -0.791875 0.706089 11.4134 4.46865
118 2 -0.825601 12.9012 9.79315 4.3501
119 2 -0.791683 12.8583 11.5543 2.78353
120 2 -0.783989 2.90012 11.7349 6.38396
121 2 -0.816288 4.21639 8.62725 4.16866
122 2 -0.824332 4.33918 9.80473 6.18355
123 2 -0.879995 5.96633 10.0233 4.28103
124 2 -0.914105 6.13327 8.07046 5.99804
125 2 -0.680531 4.0872 11.8121 1.2146
126 2 -0.657492 2.69857 11.1784 13.4992
127 2 -0.721782 4.57568 9.79813 13.4571
128 2 -0.785626 6.21973 13.2461 0.686123
129 2 -0.816825 6.63326 11.8654 2.88893
130 2 -0.819145 0.934725 8.58071 7.9226
131 2 -0.725181 13.455 7.14115 8.28015
132 2 -0.836522 13.3593 8.25126 6.053
133 2 -0.663048 1.09908 9.40362 10.0835
134 2 -0.758316 3.05698 7.68292 9.31812
135 2 -0.78912 2.87814 10.1667 8.32098
136 2 -0.770172 0.899002 11.5213 11.5532
137 2 -0.766097 13.7394 9.34355 11.4694
138 2 -0.737837 13.6857 11.1068 9.62865
139 2 -0.692445 4.38951 8.34185 11.6535
140 2 -0.790993 6.5963 8.03301 13.1448
141 2 -0.89944 6.42182 9.74617 11.2694
142 2 -0.873124 4.94852 11.7723 7.83072
143 2 -0.709503 6.80893 13.7075 8.14698
144 2 -0.825006 6.43914 11.7328 9.57828
145 2 -0.788109 8.15441 0.564379 1.24179
146 2 -0.604544 8.60888 13.4954 13.5759
147 2 -0.759014 7.78515 2.7955 2.27992
148 2 -0.720957 9.88895 1.36321 2.75558
149 2 -0.85297 9.65982 2.51887 0.660966
150 2 -0.524751 7.77556 3.61325 4.72172
151 2 -0.645095 9.80194 4.1316 6.19113
152 2 -0.750867 9.36619 5.85826 4.39469
153 2 -0.698969 7.69458 5.70078 6.41674
154 2 -0.602971 11.7674 0.422394 5.06943
155 2 -0.808743 9.67199 13.5714 4.2334
156 2 -0.598777 11.7133 14.2304 2.62144
157 2 -0.72429 11.8161 2.79245 6.11678
158 2 -0.760809 11.519 4.41492 1.06217
159 2 -0.646224 9.59581 4.43302 13.5769
160 2 -0.617721 11.6578 2.53644 13.3494
161 2 -0.789898 11.8145 6.17359 3.04933
162 2 -0.723677 8.52381 1.1377 7.41023
163 2 -0.77398 8.38003 13.277 6.29429
164 2 -0.611437 8.21504 2.40687 9.61603
165 2 -0.812426 10.3769 0.785519 9.1559
166 2 -0.681001 10.4315 2.87952 8.28625
167 2 -0.753412 7.85702 4.79713 11.2117
168 2 -0.664136 7.30559 5.79747 13.4233
169 2 -0.727714 9.5699 6.64922 12.2528
170 2 -0.594533 12.0872 0.7483 11.655
171 2 -0.567022 9.79243 13.4116 11.287
172 2 -0.745977 11.7623 13.1818 9.98832
173 2 -0.70605 12.0098 5.15033 7.82425
174 2 -0.654492 11.5788 6.0948 10.3053
175 2 -0.754193 7.73025 7.81314 1.08935
176 2 -0.83372 8.20249 9.81841 3.11468
177 2 -0.80875 9.5508 7.81086 2.89256
178 2 -0.543448 9.75269 9.6393 1.00784
179 2 -0.740957 8.24035 11.4732 4.57261
180 2 -0.804243 10.2505 11.7046 6.17296
181 2 -0.759898 11.2355 7.62547 4.78756
182 2 -0.791948 11.6264 9.83943 6.48038
183 2 -0.713149 11.0502 11.9315 1.03593
184 2 -0.696313 9.89928 11.3182 13.0112
185 2 -0.738123 11.9484 9.86603 13.5747
186 2 -0.770234 8.07829 7.72986 7.73323
187 2 -0.8532 8.20501 9.90768 9.68454
188 2 -0.730501 9.35432 7.77381 9.95453
189 2 -0.893626 9.84223 9.52732 7.8377
190 2 -0.781146 7.6976 11.7727 11.4511
191 2 -0.718733 11.4306 8.34929 11.4179
192 2 -0.773675 11.5532 11.4484 8.35975
ITEM: TIMESTEP
23000
ITEM: NUMBER OF ATOMS
192
ITEM: BOX BOUNDS pp pp pp
5.2250769608095382e-03 1.4294774923039093e+01
5.2250769608095382e-03 1.4294774923039093e+01
5.2250769608095382e-03 1.4294774923039093e+01
ITEM: ATOMS id type q x y z
1 1 1.6297 0.0970973 0.0870543 0.582126
2 1 1.48363 1.85718 2.17723 2.07844
3 1 1.26476 14.0872 3.67972 3.79854
4 1 1.45746 2.22739 5.64119 5.47318
5 1 1.70422 3.82277 0.253707 3.57042
6 1 1.54258 5.67729 2.05586 5.32104
7 1 1.49443 3.42757 3.77902 0.0756545
8 1 1.71678 5.76082 5.19345 1.28124
9 1 1.53041 14.2016 0.0850437 7.14955
10 1 1.48523 1.84659 1.6031 8.82142
11 1 1.3942 -0.0370348 3.09684 10.6366
12 1 1.59143 1.76893 5.06349 12.2122
13 1 1.34871 3.43027 13.6772 10.5383
14 1 1.41029 4.88521 1.73985 12.3783
15 1 1.30795 3.70083 3.5442 7.20415
16 1 1.42112 5.63971 5.58469 9.04309
17 1 1.31336 0.225898 7.23003 14.0765
18 1 1.36395 2.26974 9.07271 2.03545
19 1 1.74993 0.38433 10.8357 3.67723
20 1 1.48917 1.90434 12.8019 5.28883
21 1 1.47597 4.20817 6.76522 3.25419
22 1 1.37244 5.18719 8.54675 5.60114
23 1 1.40033 3.57533 10.8189 14.1592
24 1 1.55547 5.10896 12.7881 1.60683
25 1 1.31576 14.1906 7.02712 6.79133
26 1 1.25792 1.54583 8.72487 8.91589
27 1 1.41558 14.2521 11.0482 10.579
28 1 1.53734 1.60158 12.6359 12.8235
29 1 1.53355 3.46482 7.01403 10.5339
30 1 1.52023 5.5145 8.88979 12.2924
31 1 1.48009 3.20362 10.4923 6.92958
32 1 1.34972 5.1356 11.8625 8.86419
33 1 1.52504 6.91672 0.342091 14.2249
34 1 1.43852 8.96211 1.90809 1.59699
35 1 1.62669 7.42414 3.72395 3.40236
36 1 1.60388 8.94095 5.65894 5.39202
37 1 1.29923 10.7549 14.1332 3.39127
38 1 1.35216 12.2245 1.77791 5.20218
39 1 1.58627 10.8853 3.79491 14.3461
40 1 1.63282 12.7399 5.53905 1.74112
41 1 1.37868 6.5769 14.1457 7.25379
42 1 1.17827 8.37218 1.74323 9.09882
43 1 1.41265 6.80919 3.45396 11.1375
44 1 1.39892 8.92506 5.48761 12.6234
45 1 1.38449 10.4943 0.25409 10.9037
46 1 1.25013 12.5703 1.62628 12.7432
47 1 1.27725 10.2104 3.34932 7.06065
48 1 1.41184 12.4837 4.94665 8.8062
49 1 1.52284 7.2067 7.38997 14.2361
50 1 1.36581 9.12587 9.09884 1.60429
51 1 1.43074 6.82174 10.6189 3.59053
52 1 1.35582 8.68087 12.3834 5.61841
53 1 1.36612 10.8346 7.24713 3.61015
54 1 1.3483 12.5904 9.15437 5.31473
55 1 1.5056 10.8489 10.8385 13.9598
56 1 1.56276 12.6769 12.13 1.84486
57 1 1.45881 7.41576 7.42454 7.37338
58 1 1.49657 9.10033 9.04295 9.41697
59 1 1.82731 7.26694 10.8373 10.9487
60 1 1.75146 8.73805 12.7542 12.7379
61 1 1.47488 10.8199 6.70909 10.6592
62 1 1.22118 12.5259 9.03596 12.3796
63 1 1.36689 10.857 10.7013 7.49492
64 1 1.52721 12.4257 12.88 9.08994
65 2 -0.837239 0.938892 1.18807 1.13199
66 2 -0.735316 1.02343 13.1828 14.2066
67 2 -0.690569 13.5733 0.683891 13.6367
68 2 -0.80014 13.3793 13.5599 1.27269
69 2 -0.643317 1.08567 2.64592 3.38967
70 2 -0.743131 2.83583 1.26187 2.86877
71 2 -0.721116 2.86054 3.28572 1.51281
72 2 -0.537678 0.820826 4.83111 4.74663
73 2 -0.635012 12.6529 3.09265 4.33439
74 2 -0.71025 13.5204 4.43041 2.57582
75 2 -0.651475 3.13758 4.52896 6.04333
76 2 -0.661998 3.01495 6.13774 4.13693
77 2 -0.726207 1.4511 6.37577 6.46095
78 2 -0.790587 4.75055 0.70963 4.60615
79 2 -0.789123 2.77396 13.8804 4.44801
80 2 -0.885694 4.63764 13.9212 2.38733
81 2 -0.701283 4.86662 3.06807 5.98152
82 2 -0.821729 6.73634 2.66724 4.25929
83 2 -0.778369 6.21915 1.18841 6.44316
84 2 -0.890693 4.7715 4.44685 0.488776
85 2 -0.86643 2.43449 4.26552 13.3016
86 2 -0.641889 3.87826 2.29636 13.4796
87 2 -0.896823 4.90016 5.7216 2.38891
88 2 -0.751805 6.80941 4.19319 2.09513
89 2 -0.860481 6.85076 6.24035 0.93659
90 2 -0.799993 0.569 0.885044 8.31468
91 2 -0.77206 0.766081 13.5337 6.14453
92 2 -0.635677 13.6471 1.21527 5.91952
93 2 -0.838573 13.2744 13.4739 7.86248
94 2 -0.789146 1.21246 2.43742 9.8618
95 2 -0.714703 2.82342 0.425151 9.23222
96 2 -0.68817 2.39629 2.70717 7.61954
97 2 -0.715941 0.533714 4.23484 11.5167
98 2 -0.664809 13.822 2.23139 11.9182
99 2 -0.720758 13.2552 3.83649 9.44037
100 2 -0.675945 0.834558 6.2235 12.9923
101 2 -0.848994 2.71002 5.88908 11.3759
102 2 -0.616714 4.3973 0.46952 11.2387
103 2 -0.731136 2.75255 13.1908 11.8113
104 2 -0.661258 4.16883 12.3482 9.98355
105 2 -0.794271 6.01354 1.01545 13.1606
106 2 -0.741862 5.36759 2.89979 11.492
107 2 -0.60991 4.75437 4.47504 8.00951
108 2 -0.771288 4.52656 6.47482 9.59544
109 2 -0.688557 6.05096 4.54268 10.3283
110 2 -0.740989 6.67776 6.16483 8.08895
111 2 -0.5143 1.01493 7.85668 1.14829
112 2 -0.705085 13.6683 5.98574 0.620266
113 2 -0.670497 13.6673 8.38998 13.4923
114 2 -0.791844 1.12979 9.72322 2.89292
115 2 -0.731011 3.32019 8.03434 2.62149
116 2 -0.762162 2.66005 9.82589 0.730894
117 2 -0.900607 1.46305 11.78 4.27294
118 2 -0.768515 13.6636 10.3875 4.70137
119 2 -0.861977 13.7781 11.4307 2.63495
120 2 -0.680462 2.79578 12.0812 6.55345
121 2 -0.725844 4.68492 7.4754 4.63782
122 2 -0.760945 4.02826 9.71666 5.85758
123 2 -0.675521 6.07262 9.38583 4.43097
124 2 -0.753391 6.03132 7.92024 6.83395
125 2 -0.754491 4.07073 12.1399 0.795818
126 2 -0.704891 2.63577 11.6114 13.3467
127 2 -0.672698 4.56992 10.0661 12.8972
128 2 -0.77305 5.90227 13.5598 0.551075
129 2 -0.734064 5.78316 11.4105 2.81335
130 2 -0.632644 0.488009 7.90307 8.03774
131 2 -0.603702 12.9805 5.81618 7.53339
132 2 -0.729232 13.5506 7.87584 5.71844
133 2 -0.642646 0.77193 9.64804 10.2776
134 2 -0.722451 2.60843 7.59652 9.3915
135 2 -0.695387 2.10386 9.6092 7.61451
136 2 -0.760443 0.69588 11.8522 11.8855
137 2 -0.586668 13.0698 10.2613 11.2642
138 2 -0.830407 13.2927 11.7306 9.68819
139 2 -0.737245 4.59087 7.78829 11.5176
140 2 -0.834344 6.04355 8.06143 13.4914
141 2 -0.874041 6.73186 9.6605 11.7871
142 2 -0.755837 3.89723 10.8772 8.12344
143 2 -0.728481 5.62143 13.2077 8.12914
144 2 -0.798089 6.42687 11.4479 9.85855
145 2 -0.769884 7.80418 1.31823 0.685338
146 2 -0.797918 8.32285 13.6769 13.7554
147 2 -0.792238 8.46012 2.92484 2.72325
148 2 -0.626413 9.76367 0.448479 2.08622
149 2 -0.781585 9.84089 2.94862 0.726106
150 2 -0.795806 7.86762 5.02988 4.45831
151 2 -0.733834 9.73876 4.69522 6.16644
152 2 -0.729272 10.2996 6.19152 4.63011
153 2 -0.806157 8.55168 6.62936 6.47048
154 2 -0.781857 11.6397 0.764378 4.16499
155 2 -0.53239 9.71352 13.0415 4.43124
156 2 -0.654785 11.5814 12.8372 2.90445
157 2 -0.660035 11.0358 2.24507 6.21032
158 2 -0.808801 11.8137 4.49592 1.00233
159 2 -0.721033 9.73817 4.96191 13.7804
160 2 -0.746733 11.853 3.08838 13.401
161 2 -0.730148 12.2246 6.44272 2.79284
162 2 -0.58802 7.59254 0.365243 8.48908
163 2 -0.720742 7.73979 13.4069 6.3447
164 2 -0.774072 7.87737 2.75796 10.3466
165 2 -0.627351 9.8912 1.11411 9.66714
166 2 -0.64469 8.96207 2.6956 7.82966
167 2 -0.603801 7.56764 4.14265 12.4691
168 2 -0.711615 8.17622 6.7351 13.1085
169 2 -0.866398 9.7001 6.06349 11.3734
170 2 -0.691175 11.5261 0.51862 12.0998
171 2 -0.776435 9.39867 13.5543 11.553
172 2 -0.736459 11.6309 13.7677 10.0805
173 2 -0.581091 11.6574 3.77517 7.9663
174 2 -0.817675 11.8661 6.00206 9.84739
175 2 -0.7571 8.34888 8.36795 0.571956
176 2 -0.670363 7.87585 9.92964 2.85841
177 2 -0.680012 10.0237 7.98627 2.46418
178 2 -0.689361 10.0084 10.2385 0.876198
179 2 -0.658849 7.9237 11.5728 4.46536
180 2 -0.600718 9.5257 11.339 6.46142
181 2 -0.633724 11.5274 8.57447 4.06294
182 2 -0.715927 11.7223 9.67005 6.44054
183 2 -0.757739 12.1272 11.3734 0.657675
184 2 -0.803761 9.82819 11.9359 13.3985
185 2 -0.713525 11.1783 9.70563 13.0088
186 2 -0.777081 8.00837 8.42807 8.42709
187 2 -0.840468 8.37427 10.2255 10.1549
188 2 -0.679159 10.3237 8.29226 10.0232
189 2 -0.677933 9.9339 9.77321 8.2076
190 2 -0.885995 7.70857 11.7537 12.0554
191 2 -0.563089 11.7878 7.67703 11.5796
192 2 -0.677535 11.2124 12.0049 8.3472
ITEM: TIMESTEP
24000
ITEM: NUMBER OF ATOMS
192
ITEM: BOX BOUNDS pp pp pp
-3.3216203955230839e-03 1.4303321620395408e+01
-3.3216203955230839e-03 1.4303321620395408e+01
-3.3216203955230839e-03 1.4303321620395408e+01
ITEM: ATOMS id type q x y z
1 1 1.427 14.1552 13.9158 13.8526
2 1 1.23006 2.09286 1.47444 1.41387
3 1 1.23707 14.4207 3.46658 2.98185
4 1 1.40967 1.74275 5.46307 5.00844
5 1 1.31518 3.46363 14.1176 3.62228
6 1 1.54306 5.18607 1.7029 5.56822
7 1 1.33701 4.07519 3.51216 0.10735
8 1 1.34328 5.24235 5.59339 2.18765
9 1 1.48443 14.2693 0.0678722 7.3769
10 1 1.59731 1.60055 1.90216 9.03516
11 1 1.56148 14.2628 3.52293 10.8555
12 1 1.44075 1.69829 4.91547 12.7958
13 1 1.42812 3.63407 0.182534 10.658
14 1 1.49364 5.59846 2.08026 12.2378
15 1 1.48959 3.34426 3.81372 7.22713
16 1 1.50287 5.3963 5.45001 8.81612
17 1 1.47494 0.133803 7.12984 0.191877
18 1 1.76829 1.40879 9.1543 1.83029
19 1 1.6756 14.1098 10.8485 3.57184
20 1 1.38381 1.74063 12.3771 5.54607
21 1 1.64411 3.24713 7.72608 3.72747
22 1 1.57445 5.36591 8.91625 5.40063
23 1 1.49358 3.35439 10.5934 14.3141
24 1 1.33779 5.42936 12.426 1.61831
25 1 1.53681 0.0815808 7.23328 7.21776
26 1 1.50009 2.01179 8.78604 9.06175
27 1 1.55921 -0.0851467 10.6214 10.3472
28 1 1.37113 1.77545 12.3468 12.1041
29 1 1.34372 3.69069 7.10667 10.9028
30 1 1.6057 5.46301 8.84181 12.9484
31 1 1.1328 3.75491 10.5519 7.0701
32 1 1.21929 5.47933 12.7828 8.94738
33 1 1.27266 7.22329 -0.0536541 13.9413
34 1 1.29817 9.2786 1.72422 1.52127
35 1 1.44356 7.14174 2.96176 3.57712
36 1 1.42031 8.85093 4.94117 5.56992
37 1 1.56846 10.833 0.388628 3.74873
38 1 1.45943 12.7668 2.05934 5.2956
39 1 1.26087 10.3814 3.82226 14.0242
40 1 1.32667 12.3799 5.32324 1.56154
41 1 1.10779 7.36514 0.173505 7.13206
42 1 1.3968 9.25601 2.05672 8.58983
43 1 1.47228 7.2457 3.58933 10.1937
44 1 1.31605 8.15692 5.71418 12.5005
45 1 1.36205 10.4622 -0.0192377 10.7851
46 1 1.63264 12.2626 1.59897 12.5589
47 1 1.59957 11.2522 3.88112 7.24193
48 1 1.50822 12.7649 5.63989 9.27436
49 1 1.20422 7.12122 7.18608 0.64556
50 1 1.42084 9.28969 8.79615 2.26553
51 1 1.43029 7.06129 10.8967 3.90637
52 1 1.30533 9.16503 12.7804 5.27006
53 1 1.40946 10.843 6.72119 3.93921
54 1 1.59136 12.6828 8.84309 5.48425
55 1 1.21772 10.8617 10.9205 0.130062
56 1 1.27517 12.6219 12.8005 2.0143
57 1 1.52725 6.98462 7.12357 6.94935
58 1 1.54875 8.61383 8.73136 8.77913
59 1 1.34287 7.03231 10.3384 10.7139
60 1 1.37028 8.73596 12.1964 12.2132
61 1 1.36419 10.3493 7.22908 10.7199
62 1 1.21449 12.7316 8.86953 12.4316
63 1 1.36031 10.5805 10.6768 7.13659
64 1 1.53438 12.1444 12.6169 8.87796
65 2 -0.597845 0.903007 0.579307 0.251887
66 2 -0.744285 1.15323 13.1268 13.259
67 2 -0.755838 13.1271 0.225362 12.8828
68 2 -0.753839 13.1854 13.3076 0.642669
69 2 -0.598762 1.0783 2.74393 1.74375
70 2 -0.707675 2.33706 0.764399 2.72628
71 2 -0.663749 3.49674 2.20079 0.769505
72 2 -0.670858 0.797757 4.6891 3.77514
73 2 -0.695584 13.2847 2.81464 4.00893
74 2 -0.552239 13.1547 3.96713 2.09108
75 2 -0.707069 2.71996 4.37786 5.95707
76 2 -0.839657 2.41154 6.60958 4.37346
77 2 -0.655958 1.0221 6.31957 6.1676
78 2 -0.648559 4.15121 0.738032 4.65122
79 2 -0.713651 2.71033 13.3275 4.82935
80 2 -0.631063 4.5841 13.5772 2.47821
81 2 -0.686891 4.36022 2.80866 6.5066
82 2 -0.824726 6.01528 2.29367 4.46935
83 2 -0.697666 5.77326 0.704395 6.49417
84 2 -0.70047 4.41742 4.82894 1.14887
85 2 -0.675677 2.58113 3.95971 13.6703
86 2 -0.718101 5.203 3.27224 13.3477
87 2 -0.665627 4.21345 6.69203 2.79797
88 2 -0.581518 6.54799 4.20234 2.76322
89 2 -0.683015 6.268 6.61783 1.97224
90 2 -0.851495 0.544706 1.11631 8.35405
91 2 -0.681645 1.02686 13.5117 6.46085
92 2 -0.712652 13.5141 1.08151 6.32191
93 2 -0.764813 13.3674 13.329 8.23539
94 2 -0.824893 1.14653 2.87126 10.2232
95 2 -0.753603 2.83079 0.978589 9.56616
96 2 -0.772099 2.241 2.91875 7.98193
97 2 -0.849151 0.64874 4.50688 11.884
98 2 -0.756087 13.3101 2.2743 11.6908
99 2 -0.793623 13.5106 4.26712 9.77027
100 2 -0.680514 1.19894 6.11605 13.8387
101 2 -0.57538 2.89529 6.08724 11.9289
102 2 -0.712224 4.38532 1.2427 11.8377
103 2 -0.692365 2.76551 13.2761 11.1843
104 2 -0.662716 4.93007 13.903 9.9336
105 2 -0.668566 6.73957 1.15024 12.8945
106 2 -0.744912 6.20043 2.52359 10.9658
107 2 -0.737781 4.40032 4.94258 7.67262
108 2 -0.709481 4.63503 6.1063 10.1056
109 2 -0.721012 6.15527 4.05386 9.16475
110 2 -0.842006 6.28382 6.4648 8.13798
111 2 -0.908512 0.53819 8.0545 1.29783
112 2 -0.717705 13.1557 6.09522 0.459452
113 2 -0.646179 13.7499 7.79717 13.1823
114 2 -0.904949 0.338587 10.0854 2.40694
115 2 -0.89612 2.29493 8.80034 2.98988
116 2 -0.877534 2.25736 9.77055 0.613219
117 2 -0.849449 0.790168 11.5343 4.57323
118 2 -0.786384 13.2249 9.87323 4.42332
119 2 -0.776696 12.9193 11.6283 3.00741
120 2 -0.631621 2.3961 11.3496 6.82381
121 2 -0.908067 4.17959 8.46381 4.59136
122 2 -0.761282 5.07505 10.1834 6.34497
123 2 -0.767139 6.25785 9.60833 4.42382
124 2 -0.764874 6.15269 7.57537 5.67995
125 2 -0.729872 4.16608 11.4643 1.13849
126 2 -0.650053 2.73768 11.481 13.1181
127 2 -0.816204 4.37796 9.76343 13.2949
128 2 -0.69901 6.07625 13.1359 0.467058
129 2 -0.69419 6.3018 11.8969 3.00899
130 2 -0.740291 1.44374 7.93178 7.88735
131 2 -0.824474 13.5485 6.2435 8.05387
132 2 -0.879787 13.7859 8.26752 6.35235
133 2 -0.785071 0.840756 9.43149 9.80053
134 2 -0.744686 2.51215 7.6832 10.0402
135 2 -0.609869 3.36962 9.54291 8.67803
136 2 -0.693078 1.08806 11.4573 10.7579
137 2 -0.707069 13.7327 9.82239 11.5479
138 2 -0.686221 13.0951 11.6056 10.006
139 2 -0.675488 4.97525 8.00373 11.6794
140 2 -0.735707 6.40161 8.29541 14.1509
141 2 -0.73719 6.4666 9.51488 12.1395
142 2 -0.524701 4.45841 11.7792 8.07924
143 2 -0.567232 6.98446 13.1891 8.14444
144 2 -0.511671 6.05367 11.8898 10.1879
145 2 -0.614267 8.48259 0.526205 0.600047
146 2 -0.708671 7.96328 13.3983 12.8646
147 2 -0.605649 7.89775 2.03498 2.48128
148 2 -0.746534 10.0564 1.41918 2.94563
149 2 -0.665079 9.298 3.02841 0.75217
150 2 -0.671217 8.11468 3.80925 4.52376
151 2 -0.706326 10.0216 4.6245 6.71851
152 2 -0.721098 9.92056 5.63955 4.77202
153 2 -0.685857 7.67544 5.86519 6.23001
154 2 -0.712598 11.6568 0.884998 4.92436
155 2 -0.781495 10.0041 13.4552 4.19595
156 2 -0.668439 12.0241 14.2638 2.75955
157 2 -0.804628 11.814 2.95715 6.15701
158 2 -0.668935 11.4025 4.29454 0.659967
159 2 -0.653654 9.19091 4.67483 13.0973
160 2 -0.695409 11.6014 2.59794 13.4713
161 2 -0.707212 11.8367 5.88992 2.98284
162 2 -0.59271 8.42481 1.51079 7.24815
163 2 -0.571864 8.48963 14.0487 5.94331
164 2 -0.817799 8.45632 2.95381 9.51195
165 2 -0.633163 9.7029 0.631359 9.26722
166 2 -0.704926 10.5741 2.93577 8.28049
167 2 -0.645152 7.45519 4.87301 11.1291
168 2 -0.65216 7.05978 5.93331 13.5028
169 2 -0.704331 9.36508 6.48495 11.6027
170 2 -0.780301 11.0674 1.14906 11.8658
171 2 -0.694532 9.81756 13.0546 11.3661
172 2 -0.681261 11.7087 13.664 10.0556
173 2 -0.706001 11.8012 4.92771 8.30572
174 2 -0.720523 11.7631 6.4033 10.2456
175 2 -0.71058 8.26247 8.14095 1.34651
176 2 -0.603381 8.38699 10.1345 3.16834
177 2 -0.801694 10.0098 7.91761 3.27769
178 2 -0.604121 10.1448 9.67522 1.23172
179 2 -0.650686 7.51568 11.9074 4.92115
180 2 -0.678718 10.1011 12.1042 6.39003
181 2 -0.704686 11.9381 7.55552 4.94755
182 2 -0.707092 11.7229 9.67995 6.44483
183 2 -0.563945 11.2248 11.9332 1.32771
184 2 -0.652899 9.92084 11.2545 13.3334
185 2 -0.547352 12.2067 9.91285 13.5893
186 2 -0.815712 8.0577 8.17087 7.49194
187 2 -0.867499 7.64285 9.3508 9.72205
188 2 -0.712178 9.48312 7.55382 9.42109
189 2 -0.677803 9.90495 9.5694 8.02441
190 2 -0.725669 8.11385 11.3904 11.061
191 2 -0.595865 11.1306 8.41417 11.6581
192 2 -0.796917 11.3772 11.6223 8.20958
ITEM: TIMESTEP
25000
ITEM: NUMBER OF ATOMS
192
ITEM: BOX BOUNDS pp pp pp
-1.0319083856914268e-02 1.4310319083856754e+01
-1.0319083856914268e-02 1.4310319083856754e+01
-1.0319083856914268e-02 1.4310319083856754e+01
ITEM: ATOMS id type q x y z
1 1 1.50224 14.3201 14.5783 0.61441
2 1 1.47754 1.9652 1.91293 2.10982
3 1 1.43198 0.434437 3.39576 4.08693
4 1 1.3782 2.15978 5.58539 5.61371
5 1 1.27709 3.72671 14.442 3.74609
6 1 1.47731 5.5358 2.01117 5.24805
7 1 1.55823 3.25085 3.47888 -0.0376918
8 1 1.387 5.39636 5.27716 1.61282
9 1 1.28715 14.1289 -0.0657497 7.05718
10 1 1.41454 1.51427 1.94408 8.7494
11 1 1.66602 14.0845 3.53919 10.6507
12 1 1.63323 1.69919 5.26663 12.4207
13 1 1.50195 3.0313 14.4711 10.7522
14 1 1.51454 5.01467 1.53447 12.6254
15 1 1.39241 3.63312 3.56646 7.37903
16 1 1.76693 5.63607 5.24295 9.03142
17 1 1.58051 0.178116 6.97623 0.0726557
18 1 1.64339 1.97918 8.79253 1.75301
19 1 1.52512 0.214384 10.5262 3.36499
20 1 1.42939 2.08897 12.2346 5.26911
21 1 1.34673 3.86066 7.12351 3.3987
22 1 1.487 5.59626 8.77064 5.26548
23 1 1.46875 3.51432 10.6611 14.3224
24 1 1.45659 5.3158 12.329 1.85274
25 1 1.58938 -0.189281 7.40893 6.79089
26 1 1.37037 1.71576 9.07387 8.60527
27 1 1.41562 0.0472827 10.6749 10.8282
28 1 1.34986 1.45295 12.5403 12.9149
29 1 1.36348 3.37869 6.8197 10.2415
30 1 1.187 5.29737 8.88471 12.0463
31 1 1.31178 4.00833 10.4572 7.09725
32 1 1.2585 4.83382 12.644 9.09226
33 1 1.4142 7.22665 0.0457869 0.282114
34 1 1.51186 9.22186 1.72971 1.9628
35 1 1.46869 7.38879 3.71446 3.39355
36 1 1.61361 8.84141 5.67749 5.43869
37 1 1.42549 10.7046 14.0984 3.68594
38 1 1.60665 12.3387 1.78709 5.40364
39 1 1.5387 10.9408 3.536 0.142038
40 1 1.25089 12.8582 5.32878 2.23074
41 1 1.32205 6.76085 14.138 7.00029
42 1 1.21664 8.74796 1.63978 9.22138
43 1 1.39688 6.93776 3.47291 11.0576
44 1 1.30061 9.12052 5.46152 12.4822
45 1 1.36347 10.8379 14.3027 10.9296
46 1 1.52344 12.7434 1.639 12.6337
47 1 1.42987 10.5215 3.63341 7.19392
48 1 1.35842 12.6309 5.45189 8.63192
49 1 1.33826 7.28676 7.53348 14.0688
50 1 1.5734 9.15637 8.99014 1.70226
51 1 1.44141 7.15763 10.6277 3.55776
52 1 1.54056 8.81209 12.3985 5.27416
53 1 1.66147 10.6628 7.05826 3.40585
54 1 1.71684 12.3864 8.95361 4.91825
55 1 1.57304 10.8824 10.7463 14.1947
56 1 1.53741 12.4269 12.2877 1.90174
57 1 1.42237 7.15521 7.3611 7.3985
58 1 1.41519 9.17499 9.361 8.90939
59 1 1.29493 6.9378 11.1583 10.4564
60 1 1.49366 8.6684 12.6837 12.7196
61 1 1.20551 10.6845 7.08638 10.6392
62 1 1.4925 12.5844 8.71574 12.5777
63 1 1.65742 10.8781 10.7277 6.67917
64 1 1.53104 12.4793 12.4263 8.85367
65 2 -0.795363 0.610231 1.2936 1.55123
66 2 -0.692736 1.059 13.8908 -0.223166
67 2 -0.709618 13.4991 0.701031 13.7078
68 2 -0.64397 13.0001 13.5577 1.1937
69 2 -0.830102 1.54855 2.71759 3.39921
70 2 -0.7203 3.06483 0.880399 2.34108
71 2 -0.725053 2.12572 3.01302 0.908379
72 2 -0.67796 1.03377 4.55386 5.0369
73 2 -0.777746 13.3918 2.76442 4.69819
74 2 -0.588897 14.1455 4.76713 3.14658
75 2 -0.732178 3.00731 4.91915 6.67461
76 2 -0.584887 3.08501 5.94586 4.26759
77 2 -0.723367 1.09018 6.73 6.33652
78 2 -0.699274 5.01818 0.850001 4.30638
79 2 -0.693901 2.57215 13.5141 4.67322
80 2 -0.642189 4.28668 13.191 2.90297
81 2 -0.71478 4.3489 2.7735 6.1737
82 2 -0.751868 6.46806 2.98355 4.3337
83 2 -0.739652 6.01047 0.959008 6.21805
84 2 -0.661367 4.14693 4.67339 0.66702
85 2 -0.816263 2.49116 4.36928 13.3682
86 2 -0.80041 3.99209 2.2445 13.5854
87 2 -0.699607 4.82602 5.93438 2.93395
88 2 -0.65968 6.13933 4.00255 2.1853
89 2 -0.652832 6.34156 6.04841 0.678243
90 2 -0.645523 0.697508 1.37325 7.52986
91 2 -0.550171 0.850422 13.3796 6.1391
92 2 -0.781494 13.0488 0.937785 6.33966
93 2 -0.769962 13.4562 13.4103 8.33165
94 2 -0.73916 0.188807 2.50289 9.6252
95 2 -0.759353 2.09614 1.01926 9.84362
96 2 -0.748439 2.64902 3.05605 8.5237
97 2 -0.812483 0.662086 4.60116 11.5213
98 2 -0.84216 13.3688 2.79053 11.7848
99 2 -0.77775 13.4919 4.42737 9.61871
100 2 -0.782311 1.25606 6.13533 13.6122
101 2 -0.767588 2.68236 5.87872 11.1858
102 2 -0.832124 4.24362 0.750639 11.4346
103 2 -0.662621 2.2065 13.378 11.7103
104 2 -0.642168 3.43847 13.7117 9.49308
105 2 -0.672341 5.82972 0.67467 13.8195
106 2 -0.794448 5.87112 2.59534 12.0135
107 2 -0.815661 4.86798 4.17732 8.36496
108 2 -0.802995 4.80243 6.3404 9.6592
109 2 -0.782639 6.4173 4.71202 10.1689
110 2 -0.768347 6.67464 6.17184 8.29429
111 2 -0.727922 0.861976 8.28186 0.623202
112 2 -0.714651 13.6583 6.00331 0.970287
113 2 -0.735861 13.7805 7.81586 13.3676
114 2 -0.824828 1.35056 9.56189 2.95677
115 2 -0.837751 2.79166 7.69297 2.20679
116 2 -0.831052 2.65328 9.86388 0.873595
117 2 -0.752618 0.972269 11.4837 4.4535
118 2 -0.797713 13.2971 9.62115 3.88578
119 2 -0.745329 13.8927 11.4125 2.24826
120 2 -0.719081 2.99366 11.5948 6.33964
121 2 -0.736922 4.2829 8.05296 4.59324
122 2 -0.818389 5.21643 9.86539 6.26843
123 2 -0.792962 6.61351 9.17841 4.20545
124 2 -0.703771 6.17159 7.53477 6.07285
125 2 -0.768059 4.30396 11.4265 1.02378
126 2 -0.6943 2.14259 11.4034 13.6506
127 2 -0.56069 4.54428 10.3232 12.9799
128 2 -0.669864 6.5624 13.1062 1.02342
129 2 -0.740056 6.00582 11.2171 2.5263
130 2 -0.680852 0.575617 8.18266 7.88308
131 2 -0.719042 12.9035 6.67816 7.73077
132 2 -0.864121 13.4855 8.39805 5.93203
133 2 -0.743543 1.02898 10.1477 9.72663
134 2 -0.577613 2.36837 7.58905 9.02052
135 2 -0.686435 2.75481 9.34608 7.57581
136 2 -0.691094 0.665819 11.7957 11.767
137 2 -0.716569 13.4256 9.77432 11.6711
138 2 -0.651111 12.9252 11.4338 9.96031
139 2 -0.620551 3.97404 8.01953 11.1981
140 2 -0.719908 6.30235 8.36343 13.1667
141 2 -0.648041 6.05241 9.98182 11.1573
142 2 -0.684179 4.43423 11.2808 8.47858
143 2 -0.642197 5.51921 13.2584 7.7668
144 2 -0.709311 5.98965 12.3046 10.2606
145 2 -0.675356 8.08317 0.652702 1.44402
146 2 -0.790952 8.2056 13.9226 13.4721
147 2 -0.802239 8.47482 2.58247 2.93499
148 2 -0.660726 10.2151 0.522523 2.29063
149 2 -0.796282 9.85945 2.711 0.913228
150 2 -0.758988 8.04007 4.79533 4.30707
151 2 -0.736527 9.52437 4.70149 6.50356
152 2 -0.833163 9.45158 6.46774 4.35742
153 2 -0.717669 8.30516 6.61604 6.49524
154 2 -0.826197 11.7342 0.778364 4.34394
155 2 -0.751115 9.3659 13.5101 4.27997
156 2 -0.728629 11.6066 12.8874 3.11534
157 2 -0.821538 11.5284 2.81052 6.3197
158 2 -0.656872 11.7363 4.33232 1.08381
159 2 -0.649879 9.93993 4.3975 13.52
160 2 -0.712318 12.038 2.59937 13.7159
161 2 -0.794846 11.5407 6.20609 2.62642
162 2 -0.59706 7.95659 0.534794 8.00517
163 2 -0.680085 7.54607 13.2988 5.90625
164 2 -0.694044 7.56652 2.67634 9.89557
165 2 -0.707727 9.55425 0.82705 10.3016
166 2 -0.650179 9.77771 2.60096 8.21622
167 2 -0.640235 7.93834 4.4516 12.0046
168 2 -0.684492 8.31505 6.6942 13.1232
169 2 -0.654955 10.4412 5.90486 11.5976
170 2 -0.771895 11.886 0.514426 11.908
171 2 -0.611576 9.92955 13.1755 12.0415
172 2 -0.676749 11.4432 13.4075 9.73837
173 2 -0.647889 11.1802 4.81838 8.01626
174 2 -0.528584 11.9829 6.2594 9.78449
175 2 -0.767882 8.25276 8.43173 0.522012
176 2 -0.640921 8.22467 10.2278 2.37313
177 2 -0.864008 9.72565 7.80781 2.35013
178 2 -0.74468 10.3059 9.81464 1.15851
179 2 -0.806475 8.00254 11.5986 4.27496
180 2 -0.87191 9.60962 11.3623 6.08552
181 2 -0.93869 11.7309 7.75381 4.26604
182 2 -0.924859 11.767 10.1862 5.57321
183 2 -0.781611 11.5749 11.8523 0.836586
184 2 -0.660452 9.63204 11.5587 13.6967
185 2 -0.841101 11.7313 9.80981 13.4476
186 2 -0.67638 7.85771 8.58856 8.1671
187 2 -0.649793 8.46506 10.5977 9.64265
188 2 -0.707963 9.70571 8.136 9.57805
189 2 -0.763483 10.096 9.79452 7.61939
190 2 -0.678145 7.94156 11.899 11.6083
191 2 -0.686079 11.903 7.77434 11.6537
192 2 -0.813001 11.674 11.7026 7.69223
ITEM: TIMESTEP
26000
ITEM: NUMBER OF ATOMS
192
ITEM: BOX BOUNDS pp pp pp
-1.4832675911122806e-02 1.4314832675910987e+01
-1.4832675911122806e-02 1.4314832675910987e+01
-1.4832675911122806e-02 1.4314832675910987e+01
ITEM: ATOMS id type q x y z
1 1 1.39248 14.1559 14.1195 14.0349
2 1 1.33847 1.50714 1.59708 1.53662
3 1 1.62794 13.976 3.45818 3.08179
4 1 1.40451 1.66724 4.85473 5.08409
5 1 1.58608 3.68631 0.12299 3.5424
6 1 1.69656 5.60958 1.76705 5.32551
7 1 1.38864 3.66506 3.17712 0.00421655
8 1 1.42685 5.06611 5.09564 1.88503
9 1 1.47457 -0.0657424 0.0974348 7.00948
10 1 1.44887 1.65742 1.79319 8.88
11 1 1.41679 0.271118 3.28068 11.1099
12 1 1.42697 2.28104 5.46987 12.7423
13 1 1.54098 3.75739 14.4285 10.4776
14 1 1.52196 5.40465 1.78574 12.2607
15 1 1.34666 3.52086 3.389 7.01805
16 1 1.34828 5.11643 5.57785 8.72972
17 1 1.40887 14.1234 7.23807 -0.0168641
18 1 1.27495 1.56189 9.0651 1.9953
19 1 1.41166 14.1617 11.1671 3.85483
20 1 1.40951 2.04192 12.4132 5.5223
21 1 1.72181 3.26873 6.90184 3.56718
22 1 1.4393 5.14799 8.60595 5.49701
23 1 1.31162 3.72052 11.0004 0.196898
24 1 1.43692 5.51294 12.7172 1.8414
25 1 1.32975 14.3749 6.86556 7.40137
26 1 1.32845 1.7872 8.74848 9.03668
27 1 1.35285 0.288368 10.971 10.8741
28 1 1.49392 2.09994 12.8107 12.5752
29 1 1.45882 3.8171 7.4631 10.9533
30 1 1.48921 5.34675 9.10083 12.8756
31 1 1.42321 3.66176 10.5244 7.40871
32 1 1.10668 5.71513 12.5088 8.90613
33 1 1.51495 7.25119 14.331 14.1384
34 1 1.56049 9.01775 2.02218 1.50593
35 1 1.71322 7.24079 3.72789 3.59033
36 1 1.70171 8.93653 5.31202 5.56444
37 1 1.5079 10.5776 0.166174 3.32778
38 1 1.51469 12.377 1.73799 5.16756
39 1 1.5788 10.7012 3.57969 14.0196
40 1 1.49029 12.2566 5.36636 1.53315
41 1 1.54002 7.55385 14.3646 6.98945
42 1 1.36962 8.84549 1.98543 8.95177
43 1 1.33497 7.11706 3.86577 10.5471
44 1 1.73751 9.02235 5.40053 12.4995
45 1 1.50539 10.648 -0.0696856 10.5117
46 1 1.57655 12.4092 1.64966 12.5546
47 1 1.55138 10.9481 3.60694 7.16159
48 1 1.41318 12.7105 5.1921 9.29536
49 1 1.51149 7.28122 7.15424 0.252567
50 1 1.38506 8.81342 9.21621 1.71558
51 1 1.41119 6.86005 10.754 3.93341
52 1 1.51353 9.3612 12.5715 5.16739
53 1 1.15794 10.6738 7.29482 3.45088
54 1 1.26836 12.7423 8.93155 5.36922
55 1 1.624 10.4896 10.9708 14.2153
56 1 1.45959 12.3855 12.6684 1.74119
57 1 1.49046 7.15997 7.09252 7.09499
58 1 1.32697 9.08123 8.6468 8.85613
59 1 1.18835 7.30207 10.292 10.7132
60 1 1.5301 8.72739 12.4255 12.3408
61 1 1.50384 10.7666 7.00692 10.7475
62 1 1.32546 12.4474 9.06456 12.4459
63 1 1.40904 10.8839 10.7242 7.29825
64 1 1.51292 12.7589 12.452 9.04459
65 2 -0.758425 0.345923 0.875073 0.630543
66 2 -0.745449 0.801455 13.4572 12.8014
67 2 -0.722089 12.7827 0.351274 13.2635
68 2 -0.769074 13.4098 13.1842 0.795177
69 2 -0.749852 0.610516 2.77643 2.06008
70 2 -0.678491 2.72562 1.22073 2.54908
71 2 -0.641736 2.34577 2.36306 0.318375
72 2 -0.777483 0.517798 4.30279 4.00251
73 2 -0.751371 13.0972 2.68721 4.05845
74 2 -0.78224 12.7759 4.08823 2.27425
75 2 -0.679498 2.41451 3.63162 5.77442
76 2 -0.849877 2.5592 5.94145 4.43118
77 2 -0.605957 0.915806 5.75541 6.35542
78 2 -0.782397 4.61794 0.884762 4.45548
79 2 -0.753455 2.71642 13.4265 4.13069
80 2 -0.801662 4.61889 13.9412 2.5343
81 2 -0.775481 4.46094 2.36327 6.16097
82 2 -0.885597 6.54503 2.76959 4.44119
83 2 -0.797993 6.30912 0.706028 5.99085
84 2 -0.699161 4.44618 3.71093 1.34966
85 2 -0.741397 2.78671 4.45427 13.7358
86 2 -0.794155 4.72619 2.40336 13.4063
87 2 -0.827512 4.01142 5.98127 2.50627
88 2 -0.769428 5.97023 4.60248 3.07686
89 2 -0.696047 6.17653 6.25541 1.08757
90 2 -0.803764 0.765224 0.975929 7.83485
91 2 -0.68654 0.961359 13.3473 6.24545
92 2 -0.830462 13.494 0.811925 5.88864
93 2 -0.724895 13.472 13.6709 8.42883
94 2 -0.727275 0.773604 2.17505 10.1196
95 2 -0.705775 3.00736 1.09617 9.70142
96 2 -0.706279 2.62752 2.82809 8.14318
97 2 -0.617536 1.58512 4.44356 11.7044
98 2 -0.7464 13.7262 2.33405 11.8838
99 2 -0.675763 13.6285 4.36949 10.4712
100 2 -0.603977 1.05 6.25466 13.6216
101 2 -0.701477 2.66598 6.71411 11.8963
102 2 -0.798536 4.36288 1.23522 11.3192
103 2 -0.744434 2.76878 13.4687 11.2818
104 2 -0.631556 5.16137 13.6843 10.0788
105 2 -0.664532 6.06188 0.543956 13.37
106 2 -0.706137 6.40092 2.90546 11.5598
107 2 -0.714039 4.17809 4.4573 8.15042
108 2 -0.624887 4.31456 6.061 10.1413
109 2 -0.645829 6.40178 5.03496 9.64538
110 2 -0.806428 5.95643 6.67419 8.07499
111 2 -0.641396 0.541229 8.47201 0.882976
112 2 -0.723209 13.5102 6.15772 0.909147
113 2 -0.670828 12.9295 7.65933 13.6549
114 2 -0.607931 0.467315 9.76344 2.87388
115 2 -0.793653 2.35235 8.08105 2.94319
116 2 -0.543862 2.33809 10.484 1.00771
117 2 -0.7667 1.03525 11.6639 4.74985
118 2 -0.670119 13.4753 10.3653 5.01538
119 2 -0.770926 13.1367 11.8777 2.97325
120 2 -0.746428 2.72789 11.3619 6.56989
121 2 -0.826595 4.07328 7.58091 4.58298
122 2 -0.777311 4.71725 9.57121 6.59198
123 2 -0.706047 5.97645 9.86226 4.70805
124 2 -0.717207 6.48497 8.09192 5.8754
125 2 -0.802643 4.96838 11.7034 0.815159
126 2 -0.725433 2.55106 11.827 13.6717
127 2 -0.718289 4.14888 9.7048 13.7022
128 2 -0.721425 6.61276 13.2811 0.825582
129 2 -0.667498 6.10439 12.0703 3.20441
130 2 -0.712829 1.3839 7.47169 8.10992
131 2 -0.787262 13.3181 6.23625 8.28031
132 2 -0.643046 13.537 7.96955 6.50755
133 2 -0.584461 1.04237 10.3031 9.59588
134 2 -0.74978 2.95495 8.31943 10.0139
135 2 -0.679202 2.63078 9.75768 8.35602
136 2 -0.632957 1.42547 11.7146 11.5865
137 2 -0.669577 13.5115 10.0559 11.9114
138 2 -0.716775 13.4793 11.9132 10.2517
139 2 -0.837301 4.67282 8.01088 12.0835
140 2 -0.694055 6.51126 8.35785 14.1366
141 2 -0.659473 6.01774 10.0829 12.0418
142 2 -0.589856 4.27695 11.8583 8.296
143 2 -0.690153 6.97764 13.2815 7.83261
144 2 -0.592134 6.25987 11.1284 9.75744
145 2 -0.775786 8.0665 1.17641 0.335595
146 2 -0.691538 7.72662 13.5284 12.7688
147 2 -0.74583 8.09635 2.99893 2.46865
148 2 -0.732852 9.35299 1.13646 2.69215
149 2 -0.849731 10.2034 2.63305 0.949617
150 2 -0.856694 8.34589 4.3299 4.39083
151 2 -0.818367 9.7589 4.52604 6.56501
152 2 -0.660658 9.67712 6.44592 4.82437
153 2 -0.877932 7.87919 6.04121 6.26596
154 2 -0.809607 11.437 1.11053 4.08133
155 2 -0.800394 10.3896 13.3538 4.40077
156 2 -0.737264 11.0416 13.4831 2.18367
157 2 -0.821556 11.4617 2.75007 5.99486
158 2 -0.759852 11.2712 4.81935 0.412734
159 2 -0.861026 9.52374 4.19222 13.1332
160 2 -0.832954 11.6008 2.82225 12.9766
161 2 -0.689345 11.2904 6.47187 2.21999
162 2 -0.785653 7.75002 1.17544 7.99719
163 2 -0.778262 8.51765 13.6926 5.98076
164 2 -0.675997 8.30262 2.77507 10.1706
165 2 -0.711834 9.59682 0.741137 9.81901
166 2 -0.737032 10.0204 2.80197 8.18524
167 2 -0.689547 7.86249 4.92899 11.6079
168 2 -0.719478 7.9568 6.40969 13.3113
169 2 -0.851953 10.0802 6.233 11.9634
170 2 -0.711022 11.4647 0.876349 11.4253
171 2 -0.702647 9.59092 13.4038 11.4565
172 2 -0.731435 11.5164 13.0556 9.7557
173 2 -0.743249 12.0124 4.24337 8.12692
174 2 -0.699604 11.7503 5.8297 10.3654
175 2 -0.762049 8.42574 7.86234 0.847931
176 2 -0.634819 7.33358 9.78698 2.76268
177 2 -0.565323 9.72446 8.75598 2.89084
178 2 -0.792881 9.76723 9.96923 0.900246
179 2 -0.672431 8.03565 11.8267 4.43959
180 2 -0.764656 10.1395 11.723 6.23205
181 2 -0.604988 11.7819 8.30512 4.25365
182 2 -0.589042 11.5605 9.4796 6.49292
183 2 -0.710576 11.5453 11.5578 0.716629
184 2 -0.798975 9.46847 12.0313 13.7148
185 2 -0.687968 11.2972 10.2043 13.0992
186 2 -0.680039 8.46199 7.68543 7.74557
187 2 -0.662585 7.90858 8.87381 9.96352
188 2 -0.73216 10.0218 7.41428 9.48689
189 2 -0.71191 9.81104 9.97766 8.2924
190 2 -0.760494 8.12639 11.1271 11.8156
191 2 -0.73627 11.745 8.13644 11.4849
192 2 -0.748123 11.9727 11.1996 8.29085
ITEM: TIMESTEP
27000
ITEM: NUMBER OF ATOMS
192
ITEM: BOX BOUNDS pp pp pp
-1.5443128134560169e-02 1.4315443128134378e+01
-1.5443128134560169e-02 1.4315443128134378e+01
-1.5443128134560169e-02 1.4315443128134378e+01
ITEM: ATOMS id type q x y z
1 1 1.27033 0.192927 -0.0652616 0.152551
2 1 1.30786 2.33075 1.82319 1.68868
3 1 1.39779 0.227695 3.67526 3.47221
4 1 1.47871 1.46251 5.48038 5.75463
5 1 1.43138 3.8598 14.032 3.62297
6 1 1.19524 5.07788 1.55937 5.21968
7 1 1.27392 3.8813 3.57919 14.1579
8 1 1.37941 5.65031 5.2221 1.91146
9 1 1.48669 -0.0109072 14.2989 7.11583
10 1 1.43209 1.69324 1.99513 8.94583
11 1 1.38075 14.1652 3.57152 10.6492
12 1 1.4455 1.75462 5.53133 12.2118
13 1 1.5343 3.19498 0.175785 10.9515
14 1 1.57579 5.63631 1.56841 12.4293
15 1 1.35927 3.48077 3.52033 7.02693
16 1 1.76575 5.41378 5.29501 8.70005
17 1 1.3221 14.4201 7.13996 14.1156
18 1 1.55289 1.89668 8.46768 1.76541
19 1 1.48515 0.101044 10.2489 3.51103
20 1 1.37369 1.66125 12.3036 5.36809
21 1 1.54643 3.6004 6.71038 3.64894
22 1 1.28085 5.53165 8.70636 5.37522
23 1 1.67371 3.37732 10.3736 14.191
24 1 1.50705 5.13005 12.2538 1.49974
25 1 1.47221 13.776 7.4975 7.04579
26 1 1.38647 1.55382 8.95033 8.704
27 1 1.20891 -0.391801 10.5494 10.4864
28 1 1.39475 1.65709 12.19 12.3904
29 1 1.48316 3.55362 7.24749 10.3738
30 1 1.51957 5.48684 8.85574 12.5668
31 1 1.36314 3.73634 10.6194 7.17085
32 1 1.57494 5.0454 13.0315 8.95229
33 1 1.2386 7.23128 -0.0264415 0.210381
34 1 1.58793 9.19845 1.62699 1.98183
35 1 1.27887 7.23616 3.41527 3.59324
36 1 1.43388 8.95205 5.47703 5.262
37 1 1.54747 11.0917 14.2788 3.77807
38 1 1.47801 12.612 2.08767 5.31837
39 1 1.78882 11.0167 3.61422 0.370327
40 1 1.55844 12.6944 5.62792 1.94
41 1 1.41977 6.88197 0.332905 7.28345
42 1 1.40402 9.09527 1.71032 9.13385
43 1 1.64605 7.14308 3.62927 10.7638
44 1 1.54632 9.00052 4.89598 12.6425
45 1 1.79786 10.9542 14.1709 10.904
46 1 1.39455 12.5127 1.5434 12.7999
47 1 1.54204 10.6119 3.68303 6.97975
48 1 1.38275 12.04 5.62077 8.81435
49 1 1.24923 7.27094 6.90785 -0.156096
50 1 1.40353 8.8373 9.05825 1.66687
51 1 1.58287 6.86775 10.8984 3.49094
52 1 1.35362 8.76565 12.7696 5.16052
53 1 1.4618 10.6094 7.29406 3.65101
54 1 1.39399 12.0438 9.46427 5.30086
55 1 1.30062 11.0213 10.7999 0.33506
56 1 1.55008 12.9518 12.6072 2.20179
57 1 1.25811 7.38425 7.08317 7.31081
58 1 1.22691 8.91837 9.1816 9.20203
59 1 1.17451 6.82381 10.893 10.7989
60 1 1.46984 9.19991 12.3453 12.5735
61 1 1.42333 10.4394 7.16013 11.0994
62 1 1.20261 12.4534 8.93532 12.452
63 1 1.25272 10.5423 11.1717 7.28467
64 1 1.49456 12.5229 12.6575 8.8337
65 2 -0.594326 1.58342 0.61883 0.632279
66 2 -0.612203 1.05183 12.9111 13.7087
67 2 -0.727987 13.7748 0.826094 13.4635
68 2 -0.728144 13.5345 13.7814 1.54689
69 2 -0.628384 1.20374 2.9685 2.20394
70 2 -0.660511 2.86817 1.04011 2.88496
71 2 -0.70018 3.49753 2.37071 0.782157
72 2 -0.705659 0.925337 4.45708 4.59708
73 2 -0.693771 13.692 2.49729 4.27981
74 2 -0.767744 13.6031 4.64979 2.58546
75 2 -0.726857 2.1194 4.52495 6.71174
76 2 -0.723874 2.67717 5.8729 4.74231
77 2 -0.672995 0.352635 6.5642 5.81135
78 2 -0.7341 5.03764 0.1628 4.49085
79 2 -0.617519 2.64633 13.3073 4.20667
80 2 -0.736513 4.38803 12.9546 2.67927
81 2 -0.598581 3.51815 2.28194 6.13096
82 2 -0.574244 5.57557 2.62728 4.14134
83 2 -0.720618 5.98449 1.25293 6.52106
84 2 -0.659874 4.73741 4.7361 0.590157
85 2 -0.60226 2.38242 4.46798 13.2121
86 2 -0.67937 4.91927 2.84353 13.228
87 2 -0.767156 4.70088 5.79005 3.09571
88 2 -0.670966 6.36853 3.86856 2.29044
89 2 -0.685226 6.70474 6.23908 1.31263
90 2 -0.722885 0.927331 0.722312 8.1173
91 2 -0.743312 0.833379 13.3999 6.04935
92 2 -0.744695 13.4416 0.997151 6.1651
93 2 -0.814769 13.579 13.132 7.89627
94 2 -0.743843 0.581598 3.09523 9.49838
95 2 -0.730975 2.33871 1.29023 10.2092
96 2 -0.65616 2.96054 2.59605 8.26644
97 2 -0.744087 0.987519 4.50766 11.4328
98 2 -0.656467 13.3572 2.43903 11.4553
99 2 -0.606605 12.9371 4.48236 9.73506
100 2 -0.700251 1.08544 6.82346 12.6997
101 2 -0.673146 2.98271 6.21064 11.2664
102 2 -0.750638 4.48215 0.855786 11.8167
103 2 -0.785486 2.56153 13.2576 11.5474
104 2 -0.737631 4.01408 13.828 9.73872
105 2 -0.703012 6.58442 0.518724 12.9755
106 2 -0.771987 6.18288 2.53324 11.3317
107 2 -0.809932 4.61932 4.53763 7.7066
108 2 -0.767987 4.37203 6.06128 9.62605
109 2 -0.79761 6.43979 4.40736 9.47593
110 2 -0.87581 6.25393 6.27524 8.03734
111 2 -0.702964 1.04476 7.4251 0.937058
112 2 -0.7175 13.3541 6.45875 0.76154
113 2 -0.586996 13.6035 8.47663 13.5299
114 2 -0.761051 0.719114 9.05907 2.50655
115 2 -0.819267 2.87084 7.4244 2.59556
116 2 -0.846185 2.46874 9.48309 0.661934
117 2 -0.685711 1.31433 11.1855 4.21985
118 2 -0.731588 13.4336 9.77205 4.60053
119 2 -0.790694 13.4737 11.109 2.83346
120 2 -0.687184 2.71819 11.4522 6.1522
121 2 -0.654629 4.44708 7.95918 4.21617
122 2 -0.679294 4.8436 9.723 6.61477
123 2 -0.747397 6.09421 9.8485 4.27518
124 2 -0.675013 6.43504 7.65409 6.06101
125 2 -0.832313 3.99075 11.5732 0.581706
126 2 -0.752529 2.53028 10.9902 13.019
127 2 -0.842171 4.64079 9.55777 13.6363
128 2 -0.647804 6.02846 13.7412 1.09749
129 2 -0.850725 6.13249 11.5196 2.28798
130 2 -0.814751 0.596005 7.96572 7.82769
131 2 -0.723453 13.0796 6.26523 7.82293
132 2 -0.715745 12.7057 8.36353 6.29226
133 2 -0.613561 0.510665 10.3287 9.12454
134 2 -0.753492 2.21494 8.16805 9.80478
135 2 -0.758399 2.75851 9.61545 7.8607
136 2 -0.665607 0.41429 11.4961 11.5452
137 2 -0.62134 13.5926 9.14563 11.2342
138 2 -0.681517 12.6315 11.3319 9.62466
139 2 -0.701036 4.48455 7.91218 11.353
140 2 -0.74007 6.29669 7.84315 13.2566
141 2 -0.766061 6.37958 9.59458 11.4626
142 2 -0.686527 4.58509 12.106 7.77306
143 2 -0.753281 5.92171 14.121 8.32387
144 2 -0.666295 5.63569 12.1569 10.1215
145 2 -0.742357 8.00122 1.23743 1.07439
146 2 -0.606603 8.2009 13.3343 13.7303
147 2 -0.69611 8.50303 2.41066 3.15028
148 2 -0.775077 10.1217 0.822553 2.74643
149 2 -0.759226 10.3137 2.48822 1.13359
150 2 -0.722432 7.72919 4.53215 4.42921
151 2 -0.665128 9.58213 4.06283 5.81618
152 2 -0.79762 10.0839 6.15927 4.58617
153 2 -0.713546 8.594 6.38555 6.49511
154 2 -0.701845 11.5365 1.28112 4.30668
155 2 -0.732497 10.0065 13.729 4.87385
156 2 -0.884989 11.9966 13.2053 3.14247
157 2 -0.763383 11.7871 3.20811 5.99305
158 2 -0.88222 11.8883 4.583 1.12131
159 2 -0.826609 9.83087 4.17677 13.9254
160 2 -0.786546 11.8193 2.6168 13.9797
161 2 -0.717688 11.9042 6.83584 2.98285
162 2 -0.663685 7.86747 1.1148 8.29563
163 2 -0.558331 7.70997 13.2054 6.40995
164 2 -0.720904 8.08505 2.62363 9.94283
165 2 -0.825364 10.1611 0.708521 9.9326
166 2 -0.726413 9.90548 2.65666 7.96164
167 2 -0.998399 7.95078 4.33957 11.7664
168 2 -0.689252 8.45372 6.24554 13.0948
169 2 -0.650183 10.2549 5.69726 12.2693
170 2 -0.867201 11.5569 0.651427 12.0287
171 2 -0.888622 10.1647 13.1492 11.6857
172 2 -0.825874 12.0713 13.6637 9.96762
173 2 -0.782871 11.1242 4.82931 7.79214
174 2 -0.739746 11.0329 6.40261 9.89923
175 2 -0.627382 8.09914 8.2153 0.510299
176 2 -0.6773 8.09964 10.1598 2.51001
177 2 -0.689514 9.45281 7.85531 2.44503
178 2 -0.706607 10.1985 9.99948 1.37402
179 2 -0.772345 7.75449 11.9 4.24311
180 2 -0.620315 9.52025 11.8119 6.17568
181 2 -0.725645 10.936 8.53523 4.5882
182 2 -0.651727 11.7432 10.806 6.24429
183 2 -0.607936 12.1956 11.9983 0.872416
184 2 -0.68884 9.98134 11.6169 13.6691
185 2 -0.566884 11.883 10.3296 13.345
186 2 -0.575076 8.24458 8.7636 7.84893
187 2 -0.568037 7.88872 10.6274 9.5719
188 2 -0.727006 9.71891 8.12037 10.1741
189 2 -0.592119 10.0601 10.0768 8.59442
190 2 -0.634797 7.95786 11.5029 12.078
191 2 -0.734799 11.1276 8.0797 12.0984
192 2 -0.627947 11.1271 12.5171 7.85161
ITEM: TIMESTEP
28000
ITEM: NUMBER OF ATOMS
192
ITEM: BOX BOUNDS pp pp pp
-1.2906575463545344e-02 1.4312906575463344e+01
-1.2906575463545344e-02 1.4312906575463344e+01
-1.2906575463545344e-02 1.4312906575463344e+01
ITEM: ATOMS id type q x y z
1 1 1.45931 13.8926 0.194842 14.0914
2 1 1.32534 1.50413 1.55558 1.91544
3 1 1.35379 -0.126599 3.54623 4.20203
4 1 1.27574 1.90375 5.05502 5.95095
5 1 1.33361 3.50732 14.3258 3.29945
6 1 1.47253 5.58006 1.54931 5.16432
7 1 1.43625 3.23456 3.54641 14.3622
8 1 1.46034 5.15416 5.41583 1.86396
9 1 1.67052 0.165455 14.3526 6.98716
10 1 1.44205 1.85746 1.60842 8.88449
11 1 1.50597 0.194499 3.62281 10.5724
12 1 1.31981 1.97232 5.56137 12.2023
13 1 1.40374 3.85956 14.3764 10.5734
14 1 1.4401 5.28308 1.76175 12.7388
15 1 1.35828 3.95262 3.10064 7.13045
16 1 1.47111 5.07211 5.3528 9.05224
17 1 1.25247 14.1206 7.30316 14.339
18 1 1.30942 1.48431 9.06797 1.92855
19 1 1.49433 14.1504 11.0523 3.62066
20 1 1.55981 1.97648 12.6735 5.26994
21 1 1.37643 3.38682 7.11521 3.88197
22 1 1.53288 5.48212 8.666 5.46958
23 1 1.46589 3.48241 10.94 0.478521
24 1 1.60412 5.72541 12.2911 2.1602
25 1 1.26015 0.367928 7.22364 7.39957
26 1 1.48636 1.91055 9.33111 9.02981
27 1 1.61132 0.194148 10.9078 11.0623
28 1 1.41311 1.93894 12.8544 12.6192
29 1 1.69015 3.76127 7.70909 10.7105
30 1 1.49167 5.23079 9.33105 12.7732
31 1 1.54708 3.56006 10.8088 6.97827
32 1 1.82998 5.51777 12.5094 8.74043
33 1 1.56916 7.13409 13.9878 0.136671
34 1 1.30431 8.40357 2.15918 1.47355
35 1 1.45662 7.11065 3.76279 3.65785
36 1 1.60396 8.98014 5.55493 5.17065
37 1 1.27942 10.2124 0.524505 3.54526
38 1 1.5041 12.3922 1.41271 5.36219
39 1 1.2722 10.5126 3.63714 14.0952
40 1 1.32581 12.3991 5.13462 1.95938
41 1 1.49596 7.40576 14.0566 6.76993
42 1 1.32799 8.63249 1.87933 8.72858
43 1 1.32184 6.89473 3.68298 10.9715
44 1 1.65094 9.05354 5.73421 12.5916
45 1 1.3559 10.6873 14.3163 10.2259
46 1 1.29037 12.2996 1.88327 12.0848
47 1 1.33475 10.6 3.64892 7.05233
48 1 1.45333 12.7341 5.00298 8.71424
49 1 1.32698 6.90436 6.91323 -0.0632458
50 1 1.35576 8.67271 8.71062 1.75846
51 1 1.47091 7.5194 10.4364 3.89875
52 1 1.288 9.48457 12.2896 5.57915
53 1 1.56492 10.8484 7.40045 3.59732
54 1 1.89083 12.8674 8.80572 5.376
55 1 1.2681 10.4544 10.6667 14.2548
56 1 1.27585 12.0606 12.7208 1.71063
57 1 1.6092 7.07264 6.67668 7.15431
58 1 1.42684 9.01539 8.70158 8.7518
59 1 1.43108 7.41684 10.6729 10.4524
60 1 1.2878 9.06992 12.6334 12.3155
61 1 1.40862 11.1731 6.85962 10.4602
62 1 1.37987 12.4674 8.91103 12.4496
63 1 1.70451 11.2043 10.4604 7.25736
64 1 1.55689 12.8624 12.2436 8.92858
65 2 -0.736764 0.386157 0.923905 0.80152
66 2 -0.669096 0.777217 13.7075 13.3435
67 2 -0.74603 13.3559 1.08504 12.8918
68 2 -0.729501 12.9908 13.4279 0.680064
69 2 -0.595979 0.868199 2.69303 3.04137
70 2 -0.754599 2.72653 1.19353 2.72251
71 2 -0.659182 2.19756 2.6047 0.853265
72 2 -0.636673 0.471377 4.69383 5.07157
73 2 -0.794443 13.2573 2.52193 4.96917
74 2 -0.594715 13.0776 4.31745 3.29906
75 2 -0.659738 2.90236 3.75144 6.0688
76 2 -0.622016 2.32963 6.11168 4.80689
77 2 -0.619085 1.7303 6.20329 7.08497
78 2 -0.66288 4.42231 0.971808 4.4148
79 2 -0.834748 2.47822 13.4989 4.1041
80 2 -0.663669 5.06313 13.4259 3.01354
81 2 -0.711701 5.32206 2.35271 6.48026
82 2 -0.793831 6.1737 2.797 4.36255
83 2 -0.710584 6.43346 0.186933 5.5342
84 2 -0.685606 3.92061 4.43936 1.06812
85 2 -0.68929 2.80437 4.67318 13.2352
86 2 -0.702691 4.19321 2.61247 13.4115
87 2 -0.680907 4.4025 6.25818 3.03213
88 2 -0.650254 5.96768 4.79052 2.892
89 2 -0.718352 5.98041 5.75964 0.556737
90 2 -0.789714 0.643676 1.08965 7.95514
91 2 -0.813481 1.37453 13.6533 6.3027
92 2 -0.829392 13.2918 0.312957 6.06043
93 2 -0.685959 13.8421 13.3736 7.99279
94 2 -0.652205 1.36202 2.54735 10.1238
95 2 -0.672541 2.60106 0.246446 9.70386
96 2 -0.742839 2.88435 2.34659 8.05143
97 2 -0.796417 1.00902 4.5434 11.4735
98 2 -0.683301 13.2093 2.64387 11.0684
99 2 -0.784403 13.9938 4.15146 9.32521
100 2 -0.612482 0.742903 6.688 13.2141
101 2 -0.739777 2.74778 6.77509 11.3741
102 2 -0.689188 4.31715 1.11764 11.5511
103 2 -0.648011 3.19441 13.5476 11.9909
104 2 -0.808327 4.98428 13.6789 9.54282
105 2 -0.674481 5.99213 0.553547 13.7039
106 2 -0.761463 6.11823 2.85255 11.9291
107 2 -0.626083 3.9994 4.35931 8.1373
108 2 -0.802141 4.43368 6.41974 9.98582
109 2 -0.677502 5.93723 4.24739 9.86171
110 2 -0.781098 6.10461 5.79296 8.003
111 2 -0.677447 0.358128 8.56982 0.866563
112 2 -0.609269 13.1925 6.38634 1.35252
113 2 -0.687798 12.9186 7.82807 13.5311
114 2 -0.762225 0.588971 10.1123 2.69325
115 2 -0.652047 2.31767 7.94662 2.91586
116 2 -0.750455 2.7959 10.0427 1.4226
117 2 -0.755512 0.690745 11.7028 4.70135
118 2 -0.775402 13.4494 9.98335 4.66175
119 2 -0.656041 12.8548 11.8297 2.82948
120 2 -0.773998 3.11618 12.0408 6.15464
121 2 -0.776064 4.52706 8.04225 4.41777
122 2 -0.76154 4.63021 9.6137 6.38727
123 2 -0.763911 6.8842 9.42093 4.79654
124 2 -0.781342 5.92602 7.6169 6.4439
125 2 -0.778399 4.38926 11.6355 1.39658
126 2 -0.652831 2.38198 12.228 14.0116
127 2 -0.810528 4.51585 10.2972 13.7122
128 2 -0.850879 6.46707 12.886 0.941656
129 2 -0.788963 6.5321 11.6475 3.19712
130 2 -0.679014 0.678095 8.32668 8.57913
131 2 -0.667661 13.6019 6.09407 7.87131
132 2 -0.793284 13.9256 7.99787 6.07563
133 2 -0.737756 1.09433 10.3074 9.90922
134 2 -0.930472 2.99005 8.6862 9.84987
135 2 -0.772559 2.35325 10.3219 7.65657
136 2 -0.778254 1.25689 11.8595 11.5321
137 2 -0.776061 13.7297 9.87204 11.9479
138 2 -0.785316 13.6448 11.8751 10.208
139 2 -0.885435 4.56749 8.30036 11.8579
140 2 -0.666325 6.13236 8.35752 13.6558
141 2 -0.629485 6.45373 9.96848 11.6819
142 2 -0.802179 4.44367 11.6545 7.99776
143 2 -0.802754 6.41364 12.9771 7.71582
144 2 -0.822644 6.30371 11.6709 9.6879
145 2 -0.793281 7.70366 0.864461 0.936626
146 2 -0.67748 7.69169 13.4736 13.1076
147 2 -0.599667 7.45667 3.6014 2.09005
148 2 -0.696652 9.3169 1.5941 2.72347
149 2 -0.644564 9.43063 2.60535 0.389112
150 2 -0.793178 8.30888 4.58296 4.19385
151 2 -0.796238 9.96942 4.69776 6.00316
152 2 -0.777873 9.48932 6.84531 4.5414
153 2 -0.818063 7.62415 5.85594 6.03379
154 2 -0.782963 11.4739 1.1835 4.21637
155 2 -0.573715 10.1763 13.3535 4.11093
156 2 -0.525845 11.0938 13.933 2.32864
157 2 -0.533773 11.2322 2.17801 6.7585
158 2 -0.700558 11.7044 4.20217 0.977868
159 2 -0.840043 9.74496 4.72965 13.4569
160 2 -0.583997 11.0326 2.1303 13.1271
161 2 -0.640996 11.3725 5.99081 3.03749
162 2 -0.709919 7.89797 0.948784 7.67674
163 2 -0.83406 8.50177 13.1853 6.32309
164 2 -0.583781 7.51133 2.71252 9.52294
165 2 -0.671467 9.2571 0.653761 9.64274
166 2 -0.715877 9.49831 2.84844 7.64778
167 2 -0.708727 7.99483 4.81639 11.8184
168 2 -0.819168 8.2672 6.46236 13.5847
169 2 -0.771111 10.1691 6.34711 11.5787
170 2 -0.676543 11.4468 1.13268 10.6983
171 2 -0.627222 10.2657 13.4764 11.5893
172 2 -0.675199 11.5521 13.0392 9.51348
173 2 -0.658652 12.203 4.08064 7.60224
174 2 -0.8547 11.6521 5.57594 9.61722
175 2 -0.61883 7.56317 7.57815 1.36981
176 2 -0.761505 7.95627 9.77644 2.46195
177 2 -0.720408 10.2569 8.11577 2.48266
178 2 -0.616868 9.43769 9.56192 0.502371
179 2 -0.688481 8.63491 11.0094 4.86367
180 2 -0.744475 10.7355 11.7034 6.50074
181 2 -0.902057 11.9667 8.0713 4.41583
182 2 -0.911984 11.9259 9.50691 6.30079
183 2 -0.540849 10.8598 11.4744 1.38166
184 2 -0.654978 9.85023 12.0535 13.5545
185 2 -0.67448 11.4116 10.0282 13.0961
186 2 -0.795646 7.97331 7.40618 8.13483
187 2 -0.805183 8.18594 9.68871 9.47273
188 2 -0.67725 10.1518 7.96289 9.64822
189 2 -0.807507 10.0936 9.69726 7.93176
190 2 -0.699288 8.48111 11.5149 11.2358
191 2 -0.723466 12.0946 7.82971 11.3141
192 2 -0.830927 12.4407 11.1818 8.02413
ITEM: TIMESTEP
29000
ITEM: NUMBER OF ATOMS
192
ITEM: BOX BOUNDS pp pp pp
-6.8180138436852999e-03 1.4306818013843472e+01
-6.8180138436852999e-03 1.4306818013843472e+01
-6.8180138436852999e-03 1.4306818013843472e+01
ITEM: ATOMS id type q x y z
1 1 1.6217 0.417931 14.1163 14.2193
2 1 1.5845 2.02502 1.57249 1.64847
3 1 1.34093 0.187921 3.71001 3.04815
4 1 1.25513 1.4074 5.57106 5.03134
5 1 1.29629 3.428 13.9186 3.80054
6 1 1.43712 5.27778 1.62617 5.4377
7 1 1.34116 4.05401 3.35062 0.362655
8 1 1.43662 5.78714 5.4274 1.76777
9 1 1.18871 14.2532 14.3687 7.0568
10 1 1.43552 1.72992 1.95491 8.77602
11 1 1.37355 14.1752 3.40015 10.8809
12 1 1.52439 1.78136 4.97995 12.7315
13 1 1.45209 3.80062 0.179435 10.4376
14 1 1.40595 5.52697 1.8893 12.1869
15 1 1.35532 3.41042 3.65104 6.78575
16 1 1.69872 5.40305 5.41507 8.44976
17 1 1.67708 0.180876 7.1718 14.1682
18 1 1.48302 2.13257 8.88132 1.39143
19 1 1.28044 0.193065 10.481 3.36715
20 1 1.22031 1.58515 12.1689 5.61806
21 1 1.42447 3.64872 7.23253 3.59364
22 1 1.58877 5.22986 9.23564 5.40019
23 1 1.27287 3.44016 10.8226 13.7848
24 1 1.38709 4.90532 12.5066 1.51202
25 1 1.35501 14.0495 7.29161 7.14959
26 1 1.54021 1.71996 8.62048 9.09622
27 1 1.5586 14.1111 10.6106 10.4155
28 1 1.48833 1.84078 12.621 11.8078
29 1 1.3012 3.41214 6.63477 10.8126
30 1 1.39213 5.2041 8.80363 12.4086
31 1 1.49803 3.5322 10.4994 7.63683
32 1 1.68567 5.42802 12.2551 9.04459
33 1 1.38433 6.95825 0.125653 0.0903002
34 1 1.49268 8.93253 1.58208 1.88508
35 1 1.36044 7.50779 3.61311 3.82476
36 1 1.37731 9.07392 5.56073 5.55177
37 1 1.40068 10.7294 14.2133 3.67338
38 1 1.35878 12.5457 1.97804 5.26696
39 1 1.45369 10.6167 3.62351 0.270718
40 1 1.41879 12.4852 5.73882 1.78771
41 1 1.58517 6.84042 0.106511 7.6086
42 1 1.35137 9.2184 1.57605 9.01386
43 1 1.63172 7.1251 3.52803 10.2271
44 1 1.2871 8.9184 5.01117 12.4197
45 1 1.46573 10.8405 13.9872 11.1974
46 1 1.42647 12.5151 1.43119 13.0295
47 1 1.23586 10.8112 3.61847 7.22413
48 1 1.52569 12.5827 5.44404 9.19998
49 1 1.33248 7.2407 7.18968 14.0739
50 1 1.48577 8.94441 9.02062 1.90511
51 1 1.57635 7.0387 11.0278 3.60168
52 1 1.53687 8.43057 12.9722 5.44353
53 1 1.40009 10.7656 7.31166 3.73458
54 1 1.3359 12.4379 9.52543 5.46155
55 1 1.5447 11.1352 10.762 0.387239
56 1 1.17946 12.948 12.8757 1.69787
57 1 1.69064 7.04283 7.42387 6.98384
58 1 1.59031 8.72886 9.26915 8.69289
59 1 1.58877 7.23305 10.709 10.938
60 1 1.4191 9.0686 12.2495 13.0583
61 1 1.24151 10.3981 7.20268 10.6266
62 1 1.46342 12.5642 8.93078 12.5554
63 1 1.4931 10.268 11.0066 7.02747
64 1 1.4404 12.2064 12.5548 9.05587
65 2 -0.883541 0.952944 0.903152 0.762264
66 2 -0.711152 1.516 13.3626 13.2229
67 2 -0.874912 13.4089 0.321366 13.8165
68 2 -0.701704 0.116925 13.0714 0.983668
69 2 -0.7528 1.36324 2.79541 2.45554
70 2 -0.65467 2.96875 0.548082 2.47424
71 2 -0.781131 3.22339 2.19136 1.04762
72 2 -0.626594 0.980592 4.05912 4.38061
73 2 -0.565715 13.3914 2.79462 4.16997
74 2 -0.777381 13.6171 4.83734 2.49558
75 2 -0.571007 2.60945 5.1328 6.10074
76 2 -0.691655 2.27742 6.50922 4.07212
77 2 -0.678376 0.469776 6.48324 6.08138
78 2 -0.696354 4.68864 0.403758 4.7604
79 2 -0.717253 2.32389 12.9372 4.5213
80 2 -0.679437 4.26904 13.0222 2.85106
81 2 -0.747427 4.14424 2.59146 5.8161
82 2 -0.611882 6.39149 2.70844 4.59677
83 2 -0.780507 6.02506 1.07769 6.84217
84 2 -0.769552 5.12826 4.195 1.08648
85 2 -0.650327 2.87903 4.17976 13.4944
86 2 -0.600461 4.75083 2.8212 13.1693
87 2 -0.633226 4.51705 6.18453 2.80133
88 2 -0.631796 6.37868 4.7659 3.0749
89 2 -0.802299 6.73695 6.22671 0.914823
90 2 -0.696424 0.980716 0.631578 8.22712
91 2 -0.567087 0.259433 13.3253 5.69088
92 2 -0.689852 13.4798 1.26926 6.36158
93 2 -0.631926 13.2049 13.4142 7.98356
94 2 -0.714107 0.711686 2.72468 9.72265
95 2 -0.702656 2.89837 1.3423 9.64294
96 2 -0.737132 2.42742 3.1047 7.81598
97 2 -0.751439 0.903474 4.06353 11.8822
98 2 -0.652706 13.0852 2.08614 11.8569
99 2 -0.703854 13.0731 4.37178 10.3395
100 2 -0.846718 0.854837 5.94757 13.5189
101 2 -0.715875 2.66433 5.4885 11.3977
102 2 -0.640204 4.3612 0.915819 11.8371
103 2 -0.795149 2.73755 13.6599 11.2327
104 2 -0.780731 4.85996 13.6511 9.70436
105 2 -0.694653 6.54256 0.88351 13.2559
106 2 -0.787862 6.00523 2.72387 10.9448
107 2 -0.717615 4.699 4.26561 7.63629
108 2 -0.671129 4.77576 5.95929 9.74069
109 2 -0.764622 6.37171 4.45207 9.18341
110 2 -0.928271 6.03602 6.44461 7.61699
111 2 -0.825034 1.46152 7.84545 0.380862
112 2 -0.794297 13.3115 6.52843 0.539209
113 2 -0.779302 13.87 8.22327 13.2276
114 2 -0.690002 1.02985 9.41187 2.50411
115 2 -0.75732 3.00573 7.97303 2.46596
116 2 -0.777289 2.64495 10.1053 0.700989
117 2 -0.656957 0.895115 10.9418 4.70507
118 2 -0.679206 13.2538 9.71642 4.14056
119 2 -0.572287 13.3981 11.6548 2.48646
120 2 -0.695274 2.34574 11.363 6.87576
121 2 -0.743448 4.90129 8.02641 4.42101
122 2 -0.843426 4.30895 9.71306 6.57209
123 2 -0.815491 6.15011 10.2225 4.48111
124 2 -0.798489 6.27374 8.65775 6.2718
125 2 -0.662792 4.21966 12.1487 0.12944
126 2 -0.636629 2.37162 11.2399 12.3253
127 2 -0.736752 4.56882 9.76207 13.5759
128 2 -0.656212 5.76598 13.6235 0.935187
129 2 -0.645124 6.27072 11.8465 2.52662
130 2 -0.763848 1.02987 7.98278 7.90655
131 2 -0.728644 13.654 6.24164 8.28001
132 2 -0.648543 12.9256 8.64974 6.632
133 2 -0.821032 0.932429 9.87067 9.7381
134 2 -0.677029 2.29667 7.70754 10.3178
135 2 -0.724658 3.016 9.30435 8.75156
136 2 -0.697925 0.528116 11.945 11.1231
137 2 -0.736078 13.1909 9.72415 11.4672
138 2 -0.766831 13.0071 11.2919 9.64932
139 2 -0.639042 4.43365 7.88053 11.3788
140 2 -0.752272 6.33815 7.88839 12.9882
141 2 -0.682706 6.08485 9.83137 11.4231
142 2 -0.875699 4.2668 11.6716 8.27515
143 2 -0.860367 6.2208 13.1002 8.01516
144 2 -0.80447 6.07041 11.6474 10.2378
145 2 -0.736397 7.66588 1.16403 1.19216
146 2 -0.5798 7.7902 13.2727 13.3721
147 2 -0.710428 8.29784 2.73558 2.80924
148 2 -0.74329 10.0123 0.430688 2.35965
149 2 -0.758746 9.73735 2.62149 0.941144
150 2 -0.657582 8.5377 3.95458 4.90475
151 2 -0.641643 10.0063 4.88957 6.68468
152 2 -0.716766 10.2764 6.11974 4.67796
153 2 -0.788159 7.90225 6.35567 6.09215
154 2 -0.673438 11.4635 1.11494 4.19288
155 2 -0.7816 9.57517 13.66 4.63338
156 2 -0.540181 12.2653 13.6949 3.33236
157 2 -0.636583 11.8625 3.15421 5.99746
158 2 -0.741104 11.3248 4.6749 1.26253
159 2 -0.714588 10.0562 4.06664 13.1901
160 2 -0.630793 11.8502 2.50195 14.1046
161 2 -0.727507 11.9579 6.91841 2.66456
162 2 -0.668471 8.14314 0.33542 8.50738
163 2 -0.732891 7.81699 14.1383 6.35209
164 2 -0.816924 8.09733 2.7114 9.39676
165 2 -0.626599 9.88602 0.694886 10.1459
166 2 -0.653983 10.3228 2.07733 7.99477
167 2 -0.700085 7.63427 4.33814 11.449
168 2 -0.674456 8.06161 6.06694 13.3635
169 2 -0.644691 9.74643 5.82923 11.3148
170 2 -0.673455 11.262 0.867434 12.07
171 2 -0.718682 9.67416 13.3749 12.1822
172 2 -0.84555 11.8034 13.1849 10.4366
173 2 -0.681694 11.81 4.49097 8.36391
174 2 -0.690875 11.6794 6.49817 9.89135
175 2 -0.69148 8.50959 8.46728 0.623161
176 2 -0.738966 7.86307 9.83641 2.59822
177 2 -0.766276 9.48495 7.91854 2.81293
178 2 -0.702864 10.195 10.2882 1.40213
179 2 -0.810033 7.63987 12.1797 4.41761
180 2 -0.715309 9.01462 11.5893 6.08144
181 2 -0.611643 11.2719 8.32365 4.72135
182 2 -0.772883 11.1579 10.0726 6.29089
183 2 -0.724896 11.7616 11.9475 0.943946
184 2 -0.761288 9.8225 11.4744 14.1211
185 2 -0.758198 12.1308 10.1542 13.5041
186 2 -0.854276 8.13723 8.09388 7.72417
187 2 -0.792501 7.69014 9.91342 9.68574
188 2 -0.690468 9.48287 8.35786 9.80604
189 2 -0.846753 9.51139 10.4224 8.20622
190 2 -0.768248 8.22526 11.2737 11.9779
191 2 -0.631958 11.6188 7.87716 11.7573
192 2 -0.704955 11.0409 12.0894 8.0634
ITEM: TIMESTEP
30000
ITEM: NUMBER OF ATOMS
192
ITEM: BOX BOUNDS pp pp pp
8.4021968812209025e-04 1.4299159780311619e+01
8.4021968812209025e-04 1.4299159780311619e+01
8.4021968812209025e-04 1.4299159780311619e+01
ITEM: ATOMS id type q x y z
1 1 1.42831 13.9667 0.326035 -0.00689791
2 1 1.42982 1.59617 1.94887 1.68612
3 1 1.42812 -0.0837845 3.76027 3.56376
4 1 1.2729 2.02898 4.89324 5.58175
5 1 1.73733 3.54947 0.00916877 3.0322
6 1 1.46626 5.71715 1.42386 5.20048
7 1 1.44092 3.19482 3.60739 13.9314
8 1 1.35957 4.84165 5.44627 1.76983
9 1 1.65096 0.307036 0.177304 6.96673
10 1 1.44811 1.79877 1.42142 9.24227
11 1 1.47078 -0.136179 3.40536 10.8467
12 1 1.54112 1.42468 5.71017 12.3915
13 1 1.59291 3.96731 14.1743 10.8442
14 1 1.22774 5.50182 1.64285 12.8351
15 1 1.39322 4.03279 2.97656 7.12409
16 1 1.41206 5.1307 5.48845 8.92298
17 1 1.41256 14.3552 7.36103 0.213437
18 1 1.5007 1.78288 8.99714 1.97756
19 1 1.49722 14.3111 10.8885 3.63203
20 1 1.70923 1.86321 12.815 5.01636
21 1 1.356 3.32098 7.25202 3.87512
22 1 1.52867 5.59754 8.66806 5.48089
23 1 1.36261 3.85241 10.7848 0.278032
24 1 1.7417 5.5381 12.3286 2.0911
25 1 1.39528 0.36448 6.9838 7.19977
26 1 1.44273 1.78034 9.48521 8.66301
27 1 1.37902 0.248725 11.1841 10.6653
28 1 1.25219 1.80263 12.7845 12.7686
29 1 1.48597 3.24404 7.51116 10.4917
30 1 1.20734 5.03264 8.96803 12.4711
31 1 1.61737 3.77728 11.013 6.59535
32 1 1.38956 5.46945 12.2117 9.1038
33 1 1.59426 7.44718 13.8442 0.362461
34 1 1.70289 8.86524 1.79544 1.79874
35 1 1.34698 7.03729 3.64303 3.5001
36 1 1.28219 8.93747 5.25973 5.31281
37 1 1.56526 10.75 0.0522979 3.50455
38 1 1.43168 12.354 1.85047 5.34993
39 1 1.6405 10.4346 3.48459 14.089
40 1 1.38874 12.2244 5.22633 1.7896
41 1 1.4275 7.22866 14.3137 7.39715
42 1 1.3491 8.69805 2.12764 9.0515
43 1 1.39555 6.75312 3.76004 11.0173
44 1 1.64537 8.62938 5.45092 12.5649
45 1 1.47298 10.5519 14.2043 10.3325
46 1 1.70912 12.03 1.76646 12.2284
47 1 1.38974 10.7835 3.68204 7.1817
48 1 1.43093 12.7163 5.20266 8.93556
49 1 1.54483 6.72171 7.13342 14.3992
50 1 1.138 8.77259 8.79086 1.75209
51 1 1.34418 7.26643 10.8252 3.88062
52 1 1.31979 9.25887 12.5909 5.58386
53 1 1.36084 10.7529 7.15914 3.47608
54 1 1.61415 12.8678 8.90495 5.53664
55 1 1.27198 10.6388 10.4121 13.998
56 1 1.49004 12.2992 12.4432 1.92655
57 1 1.46402 7.38287 7.00252 7.25618
58 1 1.3252 8.89118 8.94589 8.81856
59 1 1.4905 7.30127 10.4834 11.0081
60 1 1.70251 9.04494 12.5045 12.446
61 1 1.38514 10.7324 7.22282 10.8409
62 1 1.33312 13.0424 9.12802 12.2986
63 1 1.5398 10.8644 10.4667 7.14713
64 1 1.4822 12.622 12.6283 8.45031
65 2 -0.71491 0.286591 1.37887 0.951441
66 2 -0.669554 0.725297 13.8619 13.312
67 2 -0.704144 12.9103 0.93366 13.2668
68 2 -0.676768 13.0911 13.4565 0.891839
69 2 -0.603686 0.75524 2.44117 3.01226
70 2 -0.846149 2.8151 1.0322 2.19064
71 2 -0.684234 1.89784 2.91766 0.513855
72 2 -0.749379 1.02849 4.13752 4.51046
73 2 -0.720196 13.2759 2.95038 4.45404
74 2 -0.750276 13.5167 4.32229 2.21675
75 2 -0.682655 2.99192 3.70966 6.20354
76 2 -0.659007 2.91797 5.96068 4.78071
77 2 -0.650855 1.68075 6.28124 6.59893
78 2 -0.593907 4.3348 1.12288 4.07116
79 2 -0.914097 2.63949 13.5662 3.92307
80 2 -0.926391 4.76631 13.5809 2.57308
81 2 -0.718984 5.10906 2.05379 6.51169
82 2 -0.760702 6.39435 2.4836 4.37828
83 2 -0.736279 6.37823 0.382038 6.16303
84 2 -0.682519 3.91583 4.4788 0.801521
85 2 -0.659518 2.71213 4.70142 12.9489
86 2 -0.688548 4.04297 2.54736 13.2207
87 2 -0.695964 4.02794 6.74 2.64367
88 2 -0.646731 5.83544 4.66685 2.82996
89 2 -0.721765 5.87562 6.02939 0.759943
90 2 -0.788578 1.28438 0.392392 8.16873
91 2 -0.858297 1.06838 13.8906 5.8962
92 2 -0.66707 13.4447 1.10762 6.31877
93 2 -0.737569 13.4349 13.5357 7.50503
94 2 -0.743403 0.975434 2.53203 9.93418
95 2 -0.72047 2.73502 0.585025 10.2736
96 2 -0.58799 3.10365 1.96467 8.3859
97 2 -0.715214 0.651144 4.41784 11.9279
98 2 -0.808653 13.3592 2.39708 11.7796
99 2 -0.84551 13.65 4.26042 9.71571
100 2 -0.80804 0.60046 6.37955 13.426
101 2 -0.789765 2.29422 6.66195 11.5249
102 2 -0.74656 5.07678 0.522197 11.6754
103 2 -0.652689 2.98994 13.7889 12.075
104 2 -0.813917 4.46205 13.2553 9.7947
105 2 -0.591887 6.14885 0.397095 13.8315
106 2 -0.638391 6.55659 2.791 12.426
107 2 -0.683002 4.45117 4.29633 7.84235
108 2 -0.740443 4.17218 6.59968 9.47888
109 2 -0.688237 5.65391 4.72074 10.1174
110 2 -0.652872 6.59059 6.04583 8.40513
111 2 -0.863839 1.19428 7.90215 1.2275
112 2 -0.536464 13.085 6.28996 0.599108
113 2 -0.707091 13.6361 8.53928 13.642
114 2 -0.810907 0.826463 10.0175 2.51728
115 2 -0.684594 2.62668 8.69642 3.43924
116 2 -0.612255 2.65838 10.1099 1.05925
117 2 -0.839498 0.747865 11.9986 4.37441
118 2 -0.769189 13.5699 10.1089 4.8294
119 2 -0.734951 12.9435 11.6933 3.08663
120 2 -0.832334 3.12438 12.042 5.72482
121 2 -0.643613 4.65992 7.60471 4.66809
122 2 -0.762862 4.40388 9.65277 6.09023
123 2 -0.732383 6.53541 9.66379 4.79112
124 2 -0.807473 6.47356 7.64947 6.09353
125 2 -0.904752 4.7357 11.2637 1.34508
126 2 -0.580147 2.80583 11.9984 14.2096
127 2 -0.647375 3.79722 9.51146 13.472
128 2 -0.902536 6.75993 12.9352 1.31491
129 2 -0.799913 6.0147 11.5638 3.30539
130 2 -0.700593 1.06392 8.35175 7.87036
131 2 -0.715982 13.6567 5.95418 7.7301
132 2 -0.777882 13.7623 7.89291 6.24064
133 2 -0.687976 0.950759 10.5998 9.30969
134 2 -0.765233 2.36123 8.6242 9.91622
135 2 -0.736139 2.79106 10.3513 7.51269
136 2 -0.768118 1.08222 11.7533 11.8643
137 2 -0.741959 13.8268 9.92882 11.1811
138 2 -0.616249 13.771 12.302 9.37558
139 2 -0.667776 4.4203 8.38138 10.9464
140 2 -0.64406 5.57425 7.7047 13.4804
141 2 -0.747224 6.33525 9.76165 12.1637
142 2 -0.66659 4.77805 11.8224 7.61304
143 2 -0.653482 6.28852 13.4579 8.3065
144 2 -0.815716 6.32806 11.2288 9.91755
145 2 -0.861601 8.08362 0.646372 1.23303
146 2 -0.898633 8.24047 13.3988 13.348
147 2 -0.681342 7.71601 2.85206 2.20845
148 2 -0.863723 9.72861 1.18626 2.82587
149 2 -0.833584 9.45028 2.80109 0.733556
150 2 -0.684479 8.23348 4.0482 4.49831
151 2 -0.62546 10.3479 4.29747 5.8063
152 2 -0.67826 9.60365 6.53811 4.49464
153 2 -0.709902 8.08425 5.87156 6.51788
154 2 -0.73922 11.9671 0.557795 4.46537
155 2 -0.768201 9.84384 13.5284 4.43518
156 2 -0.816266 11.1871 13.3899 2.46433
157 2 -0.739259 11.5354 2.53267 6.46073
158 2 -0.764139 11.2216 4.53783 0.85182
159 2 -0.808967 9.45422 4.39881 13.151
160 2 -0.936231 11.095 2.543 13.1321
161 2 -0.81708 11.7152 6.39344 2.61309
162 2 -0.655648 7.56412 1.36049 8.14922
163 2 -0.617582 8.69393 13.4756 6.92327
164 2 -0.69168 7.86681 3.05044 10.0691
165 2 -0.73937 9.58692 0.777343 9.42054
166 2 -0.641561 9.26373 3.00735 7.87523
167 2 -0.752958 7.66285 4.79115 11.5676
168 2 -0.736577 7.50143 5.98685 13.4034
169 2 -0.711776 9.88372 6.43914 11.9546
170 2 -0.869103 11.3607 0.960999 11.134
171 2 -0.83436 9.97286 13.1962 11.5541
172 2 -0.742378 11.5979 13.4937 9.23104
173 2 -0.79322 11.8919 4.45355 7.95614
174 2 -0.636049 11.633 6.10175 10.0537
175 2 -0.776858 7.4448 8.16765 0.816713
176 2 -0.654678 8.34001 10.3084 2.88577
177 2 -0.679299 9.90521 7.82374 2.32324
178 2 -0.578116 9.76848 9.18002 0.401407
179 2 -0.59989 7.84538 11.699 5.29375
180 2 -0.818886 10.2015 11.4682 6.29606
181 2 -0.636866 11.9399 7.88864 4.63733
182 2 -0.795914 11.7455 9.51647 6.32342
183 2 -0.591704 11.5545 11.414 0.947149
184 2 -0.80068 9.70539 11.4764 13.363
185 2 -0.602948 12.0177 10.2291 13.0692
186 2 -0.782139 8.47921 8.05632 7.70757
187 2 -0.7265 7.91974 9.32787 10.1063
188 2 -0.591153 9.76289 7.68022 9.65366
189 2 -0.693949 10.2991 9.61198 8.43843
190 2 -0.845659 8.37594 11.3936 11.3812
191 2 -0.66159 11.9468 8.01408 11.4802
192 2 -0.659032 12.1316 11.0708 7.93634
ITEM: TIMESTEP
31000
ITEM: NUMBER OF ATOMS
192
ITEM: BOX BOUNDS pp pp pp
9.4338876268817984e-03 1.4290566112372860e+01
9.4338876268817984e-03 1.4290566112372860e+01
9.4338876268817984e-03 1.4290566112372860e+01
ITEM: ATOMS id type q x y z
1 1 1.45526 0.492719 14.0884 0.103568
2 1 1.47321 2.18487 1.73506 1.75752
3 1 1.43514 0.209006 3.28505 3.70116
4 1 1.35873 1.80806 5.41609 5.54625
5 1 1.61284 3.37727 13.9832 3.77467
6 1 1.55647 5.19563 1.84223 5.36916
7 1 1.68109 3.96931 3.71937 0.204926
8 1 1.43499 5.68027 5.48764 1.87747
9 1 1.5446 14.0301 0.0515957 7.03763
10 1 1.31296 1.90056 1.72151 8.63264
11 1 1.3502 0.0429528 3.62366 10.675
12 1 1.5431 1.90918 5.06617 12.6475
13 1 1.73931 3.40558 0.132216 10.9033
14 1 1.72925 5.19098 2.02829 12.437
15 1 1.42665 3.97668 4.00023 7.20972
16 1 1.49208 6.16717 5.45179 8.92871
17 1 1.27731 -0.0160299 7.17398 0.274085
18 1 1.43657 1.97796 9.15703 1.35265
19 1 1.6264 0.0535914 10.7678 3.56172
20 1 1.80441 1.43086 12.5965 5.42013
21 1 1.26093 3.35736 7.32815 3.55259
22 1 1.33774 5.01308 9.12363 5.35134
23 1 1.38029 3.93737 11.0307 13.931
24 1 1.5427 5.25749 12.6597 1.74032
25 1 1.60113 14.1684 7.02541 7.3862
26 1 1.67406 1.59165 8.65731 9.34926
27 1 1.85885 14.1911 10.3901 11.1209
28 1 1.735 1.79225 12.3376 12.3833
29 1 1.37812 3.79678 7.12502 10.5462
30 1 1.43291 5.34613 8.82102 12.3525
31 1 1.45965 2.88209 10.7056 7.47648
32 1 1.41934 5.06014 12.497 8.7937
33 1 1.6188 6.92448 0.35167 14.1471
34 1 1.68361 8.80756 1.8281 1.78356
35 1 1.54223 7.16451 3.48941 3.62689
36 1 1.2448 8.99314 5.5615 5.28084
37 1 1.43409 10.4203 14.0023 3.2403
38 1 1.31612 12.303 1.58625 5.1713
39 1 1.40727 10.8201 3.57604 0.122877
40 1 1.46974 12.8493 5.1207 1.90613
41 1 1.73103 6.72895 0.045544 7.01969
42 1 1.47669 9.01101 1.22287 8.9475
43 1 1.51822 7.23091 3.03321 10.5258
44 1 1.54633 8.78807 5.05836 12.2373
45 1 1.48896 11.0102 14.1272 10.7796
46 1 1.38038 12.9268 1.58611 12.4575
47 1 1.2895 10.7246 3.45333 6.99865
48 1 1.47527 12.3592 5.44296 9.17714
49 1 1.43305 7.11242 7.15846 14.0821
50 1 1.57077 8.90379 8.88549 1.77863
51 1 1.12338 6.97245 10.7941 3.60872
52 1 1.5686 8.73553 12.6387 5.32141
53 1 1.4159 11.0121 7.3863 3.40101
54 1 1.31499 12.3103 9.1656 5.6617
55 1 1.61867 10.6143 10.8691 0.0402791
56 1 1.29616 12.6861 12.3825 1.8248
57 1 1.4083 7.16017 7.47309 6.83171
58 1 1.11305 8.85582 9.27359 8.833
59 1 1.27936 6.74959 10.615 10.5974
60 1 1.46466 8.78343 12.5352 12.4952
61 1 1.4087 10.7454 7.37771 11.0243
62 1 1.51097 12.4922 8.92474 13.0038
63 1 1.50865 10.6789 11.2155 7.17559
64 1 1.70553 12.8117 12.1497 9.20382
65 2 -0.715731 1.53892 0.787689 0.761479
66 2 -0.819255 1.24354 12.9061 13.7004
67 2 -0.703287 14.0356 0.949238 13.2373
68 2 -0.689804 13.5355 13.5614 0.996567
69 2 -0.70426 0.887089 2.51977 2.26133
70 2 -0.778913 2.53245 0.459025 2.72277
71 2 -0.793164 3.36416 2.45717 0.971088
72 2 -0.727942 1.27489 4.1002 4.44104
73 2 -0.698423 13.5377 2.31741 4.56844
74 2 -0.764589 13.5441 4.26593 3.08344
75 2 -0.669891 3.04197 5.16781 6.54159
76 2 -0.639028 2.32212 6.44516 4.44776
77 2 -0.735384 1.05403 6.41917 6.45324
78 2 -0.732935 4.25568 0.675183 4.80586
79 2 -0.919069 2.67768 13.1887 4.88289
80 2 -0.796131 4.49263 13.4771 2.85222
81 2 -0.813154 4.49668 3.19333 6.10177
82 2 -0.760026 6.15625 2.42367 4.16979
83 2 -0.940534 6.15554 1.15624 6.23189
84 2 -0.886932 4.7458 4.54491 1.16639
85 2 -0.882417 2.83738 4.24683 13.4978
86 2 -0.854703 4.97974 3.13299 13.4561
87 2 -0.575187 4.81505 6.53983 3.21084
88 2 -0.669665 6.60926 4.27933 2.31738
89 2 -0.72929 6.57644 6.4803 1.15683
90 2 -0.744669 0.992098 0.849015 7.72879
91 2 -0.906355 0.370389 13.4409 6.00057
92 2 -0.812896 13.1594 1.10997 6.3062
93 2 -0.680866 13.7607 13.0828 8.09108
94 2 -0.636809 0.93483 2.81807 9.42013
95 2 -0.738597 2.29121 0.766333 9.93817
96 2 -0.657193 2.99799 2.92491 8.08878
97 2 -0.753164 0.677609 4.52223 11.8536
98 2 -0.745737 13.2716 2.68015 11.4342
99 2 -0.750846 13.5054 4.82468 9.91233
100 2 -0.616767 1.03797 5.96983 13.6419
101 2 -0.666514 2.86093 6.01809 11.8815
102 2 -0.918703 4.2552 0.907451 11.7924
103 2 -0.895902 2.58505 13.466 11.711
104 2 -0.714852 4.25946 13.5795 9.82994
105 2 -0.873529 6.17745 1.13005 13.1385
106 2 -0.841878 5.85025 2.67196 11.1526
107 2 -0.718862 5.00466 4.59208 8.39813
108 2 -0.676434 5.26086 6.57674 9.80206
109 2 -0.761636 7.04732 4.40266 9.60165
110 2 -0.749009 6.5553 6.24336 7.66088
111 2 -0.743783 1.01409 8.53806 0.441061
112 2 -0.730756 13.8513 6.14971 1.42061
113 2 -0.727823 12.9834 7.98431 14.088
114 2 -0.696044 0.973821 9.99306 2.70154
115 2 -0.743079 2.80011 8.15249 2.0998
116 2 -0.686156 2.92118 10.3867 0.72497
117 2 -0.898363 0.760839 11.9288 4.20253
118 2 -0.652952 13.5654 9.90321 4.7761
119 2 -0.755519 13.354 11.0803 2.42882
120 2 -0.744907 1.86881 11.3535 6.37824
121 2 -0.672619 3.89399 8.30235 4.70205
122 2 -0.563339 3.78298 9.55962 6.65683
123 2 -0.650811 5.70801 10.4447 4.90294
124 2 -0.721014 6.00624 8.05094 6.00586
125 2 -0.780383 4.39868 12.1561 0.556946
126 2 -0.755241 2.90672 11.2692 12.7862
127 2 -0.613235 5.40051 10.3317 13.2473
128 2 -0.705349 5.91736 13.8963 0.912553
129 2 -0.735864 6.35334 11.7863 2.4332
130 2 -0.87388 0.673129 7.79379 8.43616
131 2 -0.759406 12.967 6.35685 7.82743
132 2 -0.640041 13.1607 7.87176 6.3734
133 2 -0.868974 0.96173 9.38853 10.6071
134 2 -0.826214 2.73607 7.65993 9.6723
135 2 -0.767551 2.12885 9.97562 8.73235
136 2 -0.908463 0.743168 11.4974 11.6124
137 2 -0.901502 13.2477 10.0738 12.2937
138 2 -0.955622 13.4068 10.9993 9.98987
139 2 -0.811761 4.2864 8.28793 11.4207
140 2 -0.817459 5.88292 7.85459 13.4568
141 2 -0.777635 6.50681 9.38099 11.4867
142 2 -0.735695 3.7944 11.7842 7.89875
143 2 -0.840386 5.83028 13.3787 7.6761
144 2 -0.744885 5.67387 11.5726 9.8963
145 2 -0.831341 7.85799 1.28333 0.694538
146 2 -0.71805 7.82438 13.5025 13.2538
147 2 -0.835294 8.1766 2.62943 2.85272
148 2 -0.839955 9.74419 0.634539 2.20105
149 2 -0.735017 9.85839 2.95279 1.12418
150 2 -0.651824 8.07835 4.54069 4.31601
151 2 -0.621436 9.62631 4.22749 6.20659
152 2 -0.582169 9.79122 6.57765 4.05205
153 2 -0.597611 7.79028 6.42625 5.589
154 2 -0.663686 11.6447 0.37487 4.08074
155 2 -0.846295 9.48137 13.6132 4.46419
156 2 -0.627404 11.4132 12.6802 2.84389
157 2 -0.653022 11.3627 3.01295 5.65695
158 2 -0.756008 12.0486 4.53737 0.680596
159 2 -0.626013 9.9242 4.20959 13.1296
160 2 -0.548323 11.4646 2.29219 13.7208
161 2 -0.679371 11.9852 6.22003 2.90875
162 2 -0.823385 7.82659 0.795976 7.94081
163 2 -0.779353 7.44269 13.1631 6.23024
164 2 -0.777178 8.36556 2.23807 9.89019
165 2 -0.805868 10.2209 0.729471 9.70657
166 2 -0.589821 9.86893 2.3707 7.93093
167 2 -0.703733 8.17606 3.78714 11.6225
168 2 -0.760778 7.87698 5.8442 13.1027
169 2 -0.687381 9.61675 5.97591 11.2902
170 2 -0.706162 12.1356 0.401376 11.7326
171 2 -0.697409 9.72188 13.5656 11.6727
172 2 -0.833712 12.0277 13.1555 10.0311
173 2 -0.651512 11.5564 4.39845 8.25117
174 2 -0.738182 11.6335 6.54823 10.0449
175 2 -0.731744 8.20054 7.89433 0.622282
176 2 -0.649617 7.86465 9.46686 2.75687
177 2 -0.747147 10.1275 8.249 2.54159
178 2 -0.759276 9.54119 10.0577 1.04711
179 2 -0.626158 8.33316 11.4842 4.39032
180 2 -0.796759 9.4979 11.6829 6.19288
181 2 -0.616076 11.2417 8.55411 4.62393
182 2 -0.706566 11.5281 10.4664 6.25241
183 2 -0.666812 11.7097 11.8331 0.508109
184 2 -0.821118 9.89625 11.7664 13.2933
185 2 -0.756164 11.2938 9.64318 13.8936
186 2 -0.696833 8.34841 8.1772 7.52595
187 2 -0.667603 8.10776 10.4509 9.45344
188 2 -0.610442 9.94365 8.40957 10.0811
189 2 -0.616066 10.2644 10.0026 8.03439
190 2 -0.613839 7.67599 11.7794 11.5277
191 2 -0.783869 11.5954 7.81897 12.1653
192 2 -0.83404 11.904 11.7823 8.12554
ITEM: TIMESTEP
32000
ITEM: NUMBER OF ATOMS
192
ITEM: BOX BOUNDS pp pp pp
2.0255417031703971e-02 1.4279744582968036e+01
2.0255417031703971e-02 1.4279744582968036e+01
2.0255417031703971e-02 1.4279744582968036e+01
ITEM: ATOMS id type q x y z
1 1 1.64141 13.932 0.081918 14.1805
2 1 1.49854 1.4721 1.60824 1.88434
3 1 1.4206 13.9435 3.76113 3.13186
4 1 1.30703 1.66946 5.22217 5.13501
5 1 1.45462 3.60501 0.0548291 3.52901
6 1 1.33394 5.39301 1.86539 5.71984
7 1 1.55695 3.28627 3.48462 0.0754106
8 1 1.36318 5.21694 5.13428 1.63506
9 1 1.43569 0.296677 0.279336 6.8782
10 1 1.60071 1.82461 1.57369 9.18723
11 1 1.46782 14.1733 3.49415 10.6828
12 1 1.57331 1.57883 5.17054 12.6177
13 1 1.62254 3.79799 14.0074 10.5223
14 1 1.23505 5.28534 1.46731 12.7095
15 1 1.3787 3.13464 3.54288 7.39886
16 1 1.57398 5.1632 5.31877 8.87552
17 1 1.5606 14.2174 7.13042 14.2519
18 1 1.2864 1.53796 9.14983 1.94974
19 1 1.20441 14.1581 10.7939 4.17081
20 1 1.28456 2.168 12.4929 5.75926
21 1 1.37348 3.62919 7.12295 3.29657
22 1 1.35698 5.69332 8.72277 4.96867
23 1 1.43947 3.39596 11.0116 14.271
24 1 1.58814 5.50781 12.5819 1.67562
25 1 1.38715 0.213893 7.17979 7.11891
26 1 1.40279 2.24226 9.18479 8.94551
27 1 1.38142 0.133962 11.0674 10.0403
28 1 1.2982 1.70498 12.679 12.2129
29 1 1.26104 3.52353 7.00245 11.1825
30 1 1.515 5.06714 8.95084 12.7393
31 1 1.6701 4.30494 10.6045 7.163
32 1 1.39751 6.02771 12.1785 8.97588
33 1 1.59958 7.32109 0.15752 0.149897
34 1 1.61678 8.89389 1.91619 1.79437
35 1 1.50725 7.16961 3.63067 3.69548
36 1 1.46689 9.11816 5.25379 5.46845
37 1 1.51151 10.5874 0.0983897 3.219
38 1 1.35074 12.5807 1.7086 4.99789
39 1 1.56587 10.0904 3.56361 14.0531
40 1 1.41156 12.1693 5.37553 1.25347
41 1 1.45343 7.35491 0.243516 7.24163
42 1 1.49055 8.94357 2.1074 9.10566
43 1 1.49053 6.84656 3.48124 10.712
44 1 1.5847 8.5376 5.70653 12.2975
45 1 1.55395 10.4936 0.12606 10.7599
46 1 1.55932 12.2302 1.97296 12.5677
47 1 1.39382 10.9534 3.45824 7.3405
48 1 1.4779 12.767 5.40778 8.82501
49 1 1.43135 7.00481 7.22601 0.121536
50 1 1.42628 9.16516 8.87889 1.61885
51 1 1.22181 7.37581 10.7224 3.34475
52 1 1.20115 9.1514 12.7521 5.36467
53 1 1.48439 10.8195 6.94358 3.53103
54 1 1.47958 12.3098 8.82598 5.43965
55 1 1.52187 11.23 10.6265 0.0775056
56 1 1.65249 12.6548 12.5368 1.93861
57 1 1.23592 7.24031 6.93069 7.22773
58 1 1.5605 8.95412 8.56705 9.3988
59 1 1.70212 7.15988 10.4831 11.1775
60 1 1.40527 9.02681 12.3058 12.8083
61 1 1.67077 11.1239 6.99242 10.7582
62 1 1.31284 13.0643 9.03556 12.1964
63 1 1.28085 10.3157 10.4885 7.43275
64 1 1.41141 12.3573 12.8421 8.46689
65 2 -0.818602 0.719324 0.812734 0.780059
66 2 -0.703079 0.714186 13.8003 13.2183
67 2 -0.797239 12.8321 1.06764 13.6805
68 2 -0.837712 13.0429 13.2638 0.692418
69 2 -0.718763 0.331384 2.41553 2.78147
70 2 -0.782738 2.3159 0.758447 2.78469
71 2 -0.751389 2.4239 2.92538 1.2259
72 2 -0.691653 0.841456 4.5404 3.76466
73 2 -0.628573 12.8081 3.15275 4.2634
74 2 -0.743351 13.232 4.32888 1.78128
75 2 -0.667485 2.24267 3.93952 6.0913
76 2 -0.651187 2.73893 6.28544 4.45361
77 2 -0.711114 0.764616 5.95926 6.18457
78 2 -0.644109 4.34841 0.786934 4.7215
79 2 -0.629854 2.84073 13.2774 4.33969
80 2 -0.725814 4.62947 13.3277 2.76827
81 2 -0.633547 4.38296 2.52126 6.9358
82 2 -0.728431 6.15377 2.93674 4.71494
83 2 -0.784136 6.30333 0.804078 6.35817
84 2 -0.765406 4.19902 4.67509 0.495
85 2 -0.836474 2.58533 4.09441 13.2136
86 2 -0.621162 3.91683 2.05046 13.7177
87 2 -0.730352 4.58377 5.92384 2.81722
88 2 -0.657601 6.50171 4.05183 2.28641
89 2 -0.711752 6.02689 6.33425 1.02972
90 2 -0.835972 0.981108 1.06789 7.99266
91 2 -0.734849 1.5181 13.5751 6.61677
92 2 -0.770841 13.7893 1.15031 5.62845
93 2 -0.758163 13.3123 13.8508 7.86472
94 2 -0.746837 0.979128 2.47745 10.1653
95 2 -0.884332 2.82449 0.829171 10.0547
96 2 -0.705041 2.64453 2.87925 8.7328
97 2 -0.768457 0.524477 4.48138 11.6418
98 2 -0.774572 12.9646 2.43166 11.2608
99 2 -0.702348 13.8911 4.67782 9.62948
100 2 -0.787191 0.773305 5.88123 13.8629
101 2 -0.731996 2.218 6.20703 11.7026
102 2 -0.754565 4.64168 0.401067 11.6485
103 2 -0.747114 2.91286 13.0371 11.1569
104 2 -0.699963 4.65874 12.819 9.84506
105 2 -0.701592 6.64143 1.222 13.5036
106 2 -0.640582 6.00672 2.89911 11.8924
107 2 -0.711493 3.97558 4.74295 7.97391
108 2 -0.643272 4.4201 6.3935 9.84813
109 2 -0.81455 5.98941 4.3155 9.64106
110 2 -0.670424 5.83139 6.26252 7.86669
111 2 -0.654966 0.559537 8.43951 0.892918
112 2 -0.768664 12.9145 6.63269 0.545211
113 2 -0.712664 14.0422 7.93416 12.9894
114 2 -0.651394 0.573071 9.69318 3.10147
115 2 -0.673174 2.3536 7.79918 2.41824
116 2 -0.641311 2.43458 10.4631 1.20542
117 2 -0.619771 0.741812 11.7759 5.41219
118 2 -0.728196 12.8841 10.0434 4.86516
119 2 -0.69857 13.6393 12.0407 3.02128
120 2 -0.739138 3.5943 11.6648 6.49612
121 2 -0.75181 4.63117 8.14795 3.83793
122 2 -0.726106 5.0461 9.67564 6.12658
123 2 -0.688863 6.86128 9.66571 4.37501
124 2 -0.641839 6.49069 7.60091 5.99286
125 2 -0.758379 4.50822 11.5912 1.02802
126 2 -0.665122 2.619 12.1372 13.5414
127 2 -0.776495 3.91017 10.0804 13.1082
128 2 -0.895419 6.2792 13.3539 0.651673
129 2 -0.682523 6.2205 11.6866 2.82565
130 2 -0.619231 1.46861 7.94614 8.24007
131 2 -0.739621 13.548 6.51391 8.2583
132 2 -0.727333 13.6141 8.15001 6.36008
133 2 -0.711819 1.29605 10.4971 9.15289
134 2 -0.611872 2.99072 8.40944 10.1461
135 2 -0.842234 3.28987 9.99008 8.07184
136 2 -0.709238 0.864918 11.6424 11.2905
137 2 -0.620944 13.423 10.0578 11.0011
138 2 -0.685094 13.1662 11.6703 9.1285
139 2 -0.713072 4.31335 7.60551 12.4705
140 2 -0.694671 5.96525 8.46671 13.878
141 2 -0.840393 6.24357 9.41815 11.914
142 2 -0.726363 5.61352 11.3552 7.62281
143 2 -0.698786 6.71339 13.442 8.41798
144 2 -0.846236 6.92599 11.4311 10.0432
145 2 -0.797638 7.63615 1.17268 1.29128
146 2 -0.773406 8.19264 13.5604 13.4889
147 2 -0.774935 8.26423 2.77716 2.99613
148 2 -0.824582 9.96864 0.905691 1.8913
149 2 -0.852715 9.09259 2.96039 0.678447
150 2 -0.76881 7.98205 4.49495 4.707
151 2 -0.643165 9.76518 4.13002 6.37243
152 2 -0.766214 9.81978 6.46338 4.75184
153 2 -0.59815 8.36982 5.59936 6.7553
154 2 -0.732079 11.6433 1.13627 3.79225
155 2 -0.75779 9.74477 13.8841 4.41463
156 2 -0.81197 11.4421 13.2656 2.55957
157 2 -0.659675 11.5935 2.35187 6.4419
158 2 -0.743011 10.8294 4.83904 0.383999
159 2 -0.680707 9.00739 4.3894 12.9101
160 2 -0.846545 11.2464 2.77965 13.4496
161 2 -0.793563 11.6894 6.17637 2.56532
162 2 -0.673348 7.8197 1.6949 7.98296
163 2 -0.697668 8.55241 13.7774 6.58008
164 2 -0.77858 8.02152 2.69593 10.2355
165 2 -0.820516 9.43785 0.840331 9.80385
166 2 -0.778563 10.1001 3.13873 8.57278
167 2 -0.613761 7.82982 4.96895 11.1645
168 2 -0.773856 7.42094 6.32293 13.0528
169 2 -0.750295 9.86455 6.39967 11.6698
170 2 -0.754384 11.2425 0.947933 11.7358
171 2 -0.638382 9.96263 13.1611 11.7441
172 2 -0.644373 11.5849 13.6402 9.97187
173 2 -0.710683 11.9975 4.67677 7.48781
174 2 -0.843264 11.8749 5.93345 10.0779
175 2 -0.750618 8.32306 7.85545 0.532888
176 2 -0.69111 8.57265 10.1482 2.04127
177 2 -0.675309 9.5369 7.92434 2.888
178 2 -0.730893 10.3517 9.48972 0.756736
179 2 -0.517292 8.40725 12.0207 4.00599
180 2 -0.55841 9.54571 11.1515 6.02321
181 2 -0.786105 11.7724 7.77364 4.33186
182 2 -0.650041 11.5731 9.62717 6.57977
183 2 -0.747547 11.9961 11.2303 1.25546
184 2 -0.731748 10.2511 11.5568 13.564
185 2 -0.628612 12.4659 10.1918 13.2687
186 2 -0.682078 8.05737 7.50095 8.56564
187 2 -0.749032 7.94968 9.39449 10.3379
188 2 -0.889497 10.1684 7.94669 9.94219
189 2 -0.759854 9.39513 9.72615 8.27478
190 2 -0.822691 8.00044 11.1276 12.1791
191 2 -0.73988 12.1309 7.75924 11.5974
192 2 -0.67399 11.197 11.9736 8.04473
ITEM: TIMESTEP
33000
ITEM: NUMBER OF ATOMS
192
ITEM: BOX BOUNDS pp pp pp
3.2627552696621542e-02 1.4267372447303121e+01
3.2627552696621542e-02 1.4267372447303121e+01
3.2627552696621542e-02 1.4267372447303121e+01
ITEM: ATOMS id type q x y z
1 1 1.37569 13.9125 14.2196 14.2007
2 1 1.34519 2.01253 2.12651 1.50651
3 1 1.5813 0.350242 3.41239 3.70574
4 1 1.76601 1.67311 5.37101 5.59574
5 1 1.5063 3.45699 14.2624 3.5608
6 1 1.31921 5.22031 1.99678 5.27734
7 1 1.4758 3.96001 3.95256 14.1884
8 1 1.34291 5.54152 5.43008 2.25113
9 1 1.58315 14.2643 13.9716 7.29208
10 1 1.60406 1.54387 1.72523 8.91321
11 1 1.49308 0.193552 3.51279 10.7738
12 1 1.71902 2.20565 5.58241 12.2324
13 1 1.34145 3.42499 0.046334 10.8722
14 1 1.28484 5.40517 1.87615 12.5047
15 1 1.40815 3.43337 3.37867 7.18685
16 1 1.44554 5.65916 5.17666 8.86034
17 1 1.31984 0.28775 6.91879 0.10624
18 1 1.6186 2.08912 8.8356 1.61145
19 1 1.68449 0.217179 10.5375 3.06935
20 1 1.5655 1.49747 12.4216 5.16939
21 1 1.37452 3.34801 7.01363 3.76023
22 1 1.3349 5.05708 8.81385 5.6566
23 1 1.50492 3.62432 10.7568 13.9946
24 1 1.44785 5.18917 12.645 1.73851
25 1 1.48387 13.9904 7.19435 6.96258
26 1 1.51371 1.24538 8.83624 9.01865
27 1 1.69273 13.977 10.5777 11.2649
28 1 1.59916 1.69274 12.4067 12.5746
29 1 1.46061 3.79558 7.35082 10.1943
30 1 1.41075 5.71873 8.90575 12.1246
31 1 1.38694 3.13632 10.8943 7.23235
32 1 1.30079 4.90945 12.5616 8.98114
33 1 1.46184 7.13949 14.1638 14.2185
34 1 1.28316 9.02256 1.97623 1.6579
35 1 1.34852 7.42947 3.62829 3.82472
36 1 1.47303 9.5951 5.47022 5.32331
37 1 1.45298 10.659 0.0385495 3.49816
38 1 1.25444 12.2767 1.65249 5.33211
39 1 1.62123 10.8897 3.77015 0.331531
40 1 1.63222 12.5471 5.25597 2.30299
41 1 1.32375 6.69441 0.0428856 7.07085
42 1 1.3973 9.26484 1.40661 8.77397
43 1 1.38051 7.4832 3.19662 10.5881
44 1 1.28148 9.19035 5.23102 12.528
45 1 1.42837 10.7704 14.0397 10.9372
46 1 1.45984 12.2479 2.04955 12.4711
47 1 1.33793 10.9198 3.38227 7.20041
48 1 1.35017 12.4631 5.46374 8.85393
49 1 1.43525 7.26583 7.13439 14.1629
50 1 1.26451 8.5577 9.00019 1.91001
51 1 1.25913 6.77704 10.8009 3.56097
52 1 1.36684 8.96196 12.5599 5.45085
53 1 1.70006 10.7165 7.39899 3.30859
54 1 1.47053 12.525 9.27344 4.96318
55 1 1.62841 10.4071 10.901 0.143781
56 1 1.40523 12.3401 12.4031 1.79944
57 1 1.47847 7.21401 6.89492 6.89286
58 1 1.48021 9.05767 8.7552 8.69667
59 1 1.38779 7.26238 10.9033 10.09
60 1 1.55171 8.74233 12.4262 12.3695
61 1 1.32094 10.8691 7.3663 10.7292
62 1 1.66242 12.5183 8.91387 13.2089
63 1 1.48794 10.8601 10.8322 7.18892
64 1 1.47154 12.6217 12.3364 9.34808
65 2 -0.528237 0.543665 1.32674 0.745205
66 2 -0.699948 0.656199 13.0426 13.6723
67 2 -0.693611 12.9865 0.722057 13.2351
68 2 -0.68237 13.0775 13.623 1.20944
69 2 -0.643489 0.865636 2.92567 2.29011
70 2 -0.674855 2.72999 1.47136 2.68104
71 2 -0.695672 2.63808 3.34498 0.922782
72 2 -0.85464 1.18205 4.17715 4.67131
73 2 -0.577525 13.6228 2.23101 4.25688
74 2 -0.760699 13.4193 4.39491 3.26455
75 2 -0.759538 2.59724 4.70412 6.65601
76 2 -0.895365 2.23993 6.24494 4.56066
77 2 -0.865505 0.608986 6.03577 6.45294
78 2 -0.718211 4.49039 0.912035 4.42544
79 2 -0.760007 2.38531 13.534 4.39691
80 2 -0.861563 4.14913 13.4508 2.49914
81 2 -0.687488 3.71932 2.49781 5.92325
82 2 -0.657278 6.65957 2.77325 4.94305
83 2 -0.721399 6.09578 1.18142 6.3645
84 2 -0.728705 4.75977 4.48609 1.19791
85 2 -0.840386 3.15574 4.70735 13.0403
86 2 -0.731078 5.00167 3.14443 13.5097
87 2 -0.626651 4.45659 5.91354 3.39661
88 2 -0.726779 6.39277 4.77286 3.33818
89 2 -0.70678 6.44799 6.49116 1.11657
90 2 -0.85178 0.899381 0.900317 7.83687
91 2 -0.845717 0.395976 13.2184 5.98188
92 2 -0.592276 13.0931 0.56043 6.61802
93 2 -0.794185 13.6187 13.3331 8.51132
94 2 -0.83345 0.615561 2.35011 10.0251
95 2 -0.692266 2.6574 0.79374 9.77158
96 2 -0.768113 2.59586 2.73506 8.36753
97 2 -0.750791 1.36298 4.75299 11.2686
98 2 -0.703568 13.1328 2.89574 11.5584
99 2 -0.60391 13.6223 4.41043 9.73319
100 2 -0.765663 1.03406 6.14286 13.1014
101 2 -0.800029 3.06791 6.49307 11.4229
102 2 -0.665724 3.90893 1.32101 11.8013
103 2 -0.667291 2.03999 13.716 11.8185
104 2 -0.72134 3.83977 12.9639 10.3484
105 2 -0.727181 5.88285 0.816155 13.4961
106 2 -0.765013 6.70189 2.45897 11.561
107 2 -0.658468 4.68699 4.00403 8.04384
108 2 -0.690223 4.67298 6.36889 9.12572
109 2 -0.740689 6.68676 4.26118 9.68033
110 2 -0.747752 6.34068 6.19413 7.91875
111 2 -0.774177 1.44154 7.63064 0.86212
112 2 -0.595926 13.8396 5.80886 1.31897
113 2 -0.751466 13.3082 8.1399 14.2647
114 2 -0.876821 1.4015 9.95678 2.3114
115 2 -0.753803 3.06251 8.2076 2.63101
116 2 -0.722013 2.90273 9.4441 0.308609
117 2 -0.804636 0.933369 11.6266 4.02663
118 2 -0.874664 13.8004 9.64185 4.09424
119 2 -0.737298 13.5809 11.0053 1.96333
120 2 -0.764323 2.60084 11.4855 5.79349
121 2 -0.638405 4.60205 7.8073 4.57507
122 2 -0.678642 3.89302 9.63835 6.70984
123 2 -0.576641 5.87559 9.88946 4.60271
124 2 -0.692439 6.27484 7.98003 6.09464
125 2 -0.728153 4.29569 11.3424 0.979383
126 2 -0.888552 2.65674 11.8482 13.5057
127 2 -0.627704 4.80384 10.2488 12.8782
128 2 -0.795924 6.36595 13.1012 0.879545
129 2 -0.678009 6.37092 12.0757 2.83196
130 2 -0.869865 0.548587 7.80905 8.13683
131 2 -0.660502 12.659 6.23463 7.5338
132 2 -0.693797 13.1179 8.24934 6.12835
133 2 -0.771958 0.330016 9.6653 10.1771
134 2 -0.730959 2.66952 8.17286 9.61787
135 2 -0.681357 1.97701 9.96933 8.3833
136 2 -0.823992 0.991794 11.4029 11.5468
137 2 -0.902199 13.4765 9.86151 12.5394
138 2 -0.875814 12.9318 11.3926 10.4108
139 2 -0.744957 4.75564 8.23113 11.1563
140 2 -0.658832 6.39649 7.65896 12.8821
141 2 -0.638374 6.70577 9.93769 11.5867
142 2 -0.796798 3.92222 11.8404 8.07405
143 2 -0.664274 5.67582 13.8692 8.37977
144 2 -0.709146 6.19319 11.4716 9.12124
145 2 -0.629608 8.08688 1.00329 0.481728
146 2 -0.773364 8.15838 13.6394 13.1688
147 2 -0.725554 7.91201 2.67609 2.69203
148 2 -0.701206 10.151 1.09787 2.41061
149 2 -0.822679 9.68155 2.9305 0.489732
150 2 -0.713986 8.85669 4.38576 4.52873
151 2 -0.624829 10.2634 4.86045 6.61819
152 2 -0.791571 9.87914 6.66052 4.39857
153 2 -0.626082 8.39997 5.84412 6.37362
154 2 -0.824727 11.4635 1.01321 4.26533
155 2 -0.649375 9.20868 13.548 4.0821
156 2 -0.760983 11.6401 13.0993 3.02542
157 2 -0.697756 12.1779 2.94591 6.33625
158 2 -0.87436 11.84 4.30635 1.39736
159 2 -0.648877 10.3557 5.15356 13.7695
160 2 -0.754217 11.8368 3.34547 13.5614
161 2 -0.938163 11.64 6.2988 2.9499
162 2 -0.614549 7.8262 0.750037 8.09386
163 2 -0.661542 7.61968 13.1332 6.17593
164 2 -0.646517 8.79852 2.32115 9.97873
165 2 -0.730928 9.99391 0.26767 9.59722
166 2 -0.795346 9.98236 2.32569 7.67826
167 2 -0.549585 8.76227 4.29674 11.3174
168 2 -0.675475 8.01289 6.11045 13.1214
169 2 -0.547845 9.93297 6.27009 11.4568
170 2 -0.705246 11.4307 1.08692 11.6099
171 2 -0.746067 10.1057 13.0489 12.0344
172 2 -0.638592 12.1643 13.5149 10.2597
173 2 -0.569993 11.3624 4.35473 8.56151
174 2 -0.679857 11.9834 6.46888 9.99532
175 2 -0.711639 7.84648 8.42781 0.32234
176 2 -0.640192 7.69772 9.51122 3.12964
177 2 -0.824515 9.56308 7.90592 2.49341
178 2 -0.686554 9.6106 10.2764 1.39664
179 2 -0.515069 8.12804 11.3868 4.67095
180 2 -0.790428 10.0207 11.9289 6.21522
181 2 -0.810123 11.7434 8.20122 4.2814
182 2 -0.752249 11.9326 10.3956 6.04512
183 2 -0.80768 11.4607 11.8787 0.632991
184 2 -0.821286 9.35183 11.3699 13.4592
185 2 -0.814413 11.3785 9.68329 13.8799
186 2 -0.695745 8.22615 7.77159 7.7451
187 2 -0.749458 8.11917 9.84535 9.33306
188 2 -0.714497 9.64354 7.84028 9.90577
189 2 -0.796536 10.1076 9.74387 7.86051
190 2 -0.796485 8.02338 11.9232 11.087
191 2 -0.710307 11.9044 7.9964 12.0744
192 2 -0.726936 11.3013 11.7094 8.42914
ITEM: TIMESTEP
34000
ITEM: NUMBER OF ATOMS
192
ITEM: BOX BOUNDS pp pp pp
4.4116891305965744e-02 1.4255883108693819e+01
4.4116891305965744e-02 1.4255883108693819e+01
4.4116891305965744e-02 1.4255883108693819e+01
ITEM: ATOMS id type q x y z
1 1 1.35234 14.0223 14.3023 14.0512
2 1 1.38777 1.85547 1.61843 1.79863
3 1 1.62983 14.2251 3.8167 3.35852
4 1 1.44195 1.83751 5.36631 5.14029
5 1 1.25058 3.77335 13.9152 3.40044
6 1 1.63758 5.4848 1.85626 5.25562
7 1 1.59147 3.13049 3.42419 14.1601
8 1 1.41135 4.85644 5.30275 1.40648
9 1 1.48835 0.579735 0.373359 6.91179
10 1 1.50428 2.07608 2.04985 8.91601
11 1 1.4708 14.0673 3.72233 10.5031
12 1 1.45784 1.60475 5.32598 12.5146
13 1 1.49483 3.55968 0.132963 10.8192
14 1 1.75584 5.17697 1.84108 12.7036
15 1 1.45037 3.87044 3.71208 6.92962
16 1 1.58348 5.2611 5.3702 9.00748
17 1 1.52271 -0.060908 7.34187 0.0729119
18 1 1.78318 1.65892 9.04688 1.95785
19 1 1.61927 14.1301 10.6419 3.77976
20 1 1.53064 1.98375 12.2317 5.36882
21 1 1.28387 3.52219 7.04419 3.45603
22 1 1.49901 5.34642 9.25366 5.1011
23 1 1.51767 3.4979 10.7025 0.154492
24 1 1.75093 5.66586 12.3996 1.54946
25 1 1.57174 0.23422 7.17044 7.17718
26 1 1.71314 1.92136 8.90354 9.04118
27 1 1.57382 14.2215 10.8329 10.5144
28 1 1.51099 1.71509 12.4273 12.5934
29 1 1.46419 3.64517 7.0576 11.0396
30 1 1.59922 5.40082 8.97671 12.861
31 1 1.61196 3.78407 10.6006 7.21954
32 1 1.49891 5.40077 12.6643 9.22919
33 1 1.83213 7.40519 0.31928 0.0258946
34 1 1.65243 8.94243 1.89107 2.09965
35 1 1.34632 6.75719 3.79665 3.42549
36 1 1.22953 8.90413 5.43136 5.37452
37 1 1.47209 10.7164 -0.0119916 3.66334
38 1 1.32658 12.684 1.90891 5.30886
39 1 1.4694 10.7768 3.57514 14.2752
40 1 1.78872 12.4717 5.33196 1.60243
41 1 1.53988 7.26028 0.00952478 7.12528
42 1 1.43865 8.62041 1.84618 9.1765
43 1 1.55623 6.95803 3.43591 10.9396
44 1 1.45494 8.9482 5.41488 12.4174
45 1 1.5398 10.6338 14.1011 10.1269
46 1 1.2496 12.2788 1.62572 12.1524
47 1 1.22677 10.442 3.42357 7.17887
48 1 1.4393 12.2601 5.44425 8.72541
49 1 1.43429 7.08397 7.10541 0.308844
50 1 1.38067 9.07405 8.93017 1.76921
51 1 1.60401 7.46866 10.8462 3.53979
52 1 1.50246 9.1788 12.2985 5.66655
53 1 1.35357 10.7014 6.83936 3.25117
54 1 1.38413 12.4132 8.76732 5.46682
55 1 1.54989 10.5468 10.676 14.1082
56 1 1.35811 12.1632 12.111 1.95852
57 1 1.40832 7.03038 7.36343 7.32732
58 1 1.40242 8.94802 9.08373 9.28883
59 1 1.53418 7.14641 10.9454 11.2168
60 1 1.58317 9.21454 12.8736 12.4544
61 1 1.70698 10.9295 7.14984 11.0224
62 1 1.63602 12.5493 9.16222 12.5536
63 1 1.72862 10.7799 10.3235 7.35233
64 1 1.37893 12.5571 12.5342 8.29693
65 2 -0.712611 0.784633 0.95394 0.978379
66 2 -0.681589 0.410722 13.0222 13.259
67 2 -0.732857 12.9854 0.66381 13.1599
68 2 -0.473314 13.2485 13.062 0.857608
69 2 -0.608953 0.869273 2.5663 2.79515
70 2 -0.681275 2.52309 0.412635 2.7761
71 2 -0.788881 2.33254 3.01969 1.14195
72 2 -0.802032 1.2181 4.39552 4.01622
73 2 -0.768912 13.2198 3.18466 4.27715
74 2 -0.928935 13.4421 4.99345 2.64323
75 2 -0.708033 2.6662 4.30021 6.01585
76 2 -0.649386 2.50352 6.76447 4.61165
77 2 -0.722758 1.20458 6.10579 6.34049
78 2 -0.699396 4.43981 1.09989 4.41538
79 2 -0.680017 3.04713 12.4401 4.34855
80 2 -0.804032 4.76164 13.0163 2.55823
81 2 -0.821113 5.108 3.03245 6.0391
82 2 -0.735336 6.4633 2.56547 4.16897
83 2 -0.771623 6.16298 0.767088 6.10342
84 2 -0.757598 4.3293 4.44776 0.185296
85 2 -0.806252 1.97618 4.14589 13.3558
86 2 -0.90433 3.97107 2.32157 13.4944
87 2 -0.764732 4.30377 5.83762 2.81462
88 2 -0.591968 5.57113 4.05726 2.27912
89 2 -0.802668 6.01983 5.99977 0.755641
90 2 -0.849198 1.48118 0.984126 8.02366
91 2 -0.730728 1.37691 13.5543 5.85604
92 2 -0.744393 13.9029 1.14212 5.95657
93 2 -0.647821 13.4352 13.8117 7.42594
94 2 -0.712566 0.931231 2.5006 9.91115
95 2 -0.723379 3.04226 1.29133 9.94569
96 2 -0.730788 3.28341 2.83504 8.19948
97 2 -0.726522 0.434732 4.84112 11.3777
98 2 -0.641685 13.5039 2.72523 11.5763
99 2 -0.793269 13.2484 4.43895 9.45404
100 2 -0.721633 0.952088 6.43363 13.4277
101 2 -0.795899 3.01042 6.14837 12.0287
102 2 -0.86791 4.55126 0.753117 11.9183
103 2 -0.702358 2.20372 13.6282 11.7036
104 2 -0.830087 4.1364 13.3539 9.7925
105 2 -0.805975 6.43538 1.34006 13.8164
106 2 -0.933159 6.05876 2.62321 11.7998
107 2 -0.738916 4.30405 4.83072 7.82333
108 2 -0.69435 4.28224 6.22027 9.68151
109 2 -0.747841 6.26397 4.61779 9.93424
110 2 -0.663922 5.92804 6.56388 8.2458
111 2 -0.775567 1.0423 7.90872 1.06218
112 2 -0.859407 13.1815 6.47002 0.813246
113 2 -0.760577 13.7855 8.77303 13.4571
114 2 -0.926639 0.857702 9.98641 2.86782
115 2 -0.796135 2.42786 8.03117 2.79049
116 2 -0.892912 2.40735 9.98595 1.13705
117 2 -0.771317 0.785958 11.5348 4.69111
118 2 -0.700148 13.3106 9.9525 5.22736
119 2 -0.789212 13.2057 11.4423 2.8428
120 2 -0.840484 2.6834 11.3593 6.72873
121 2 -0.600666 4.82754 7.87142 4.49323
122 2 -0.923982 4.57848 9.93031 6.16185
123 2 -0.841383 6.54108 10.0014 4.3294
124 2 -0.588382 6.2836 8.23431 6.15015
125 2 -0.864598 4.92424 11.4039 0.70123
126 2 -0.802269 2.75292 11.4261 13.2026
127 2 -0.840174 4.23755 9.63052 13.49
128 2 -0.823616 6.2003 13.6593 0.854256
129 2 -0.879197 6.59126 11.7605 2.59367
130 2 -0.829059 1.114 8.18409 7.99041
131 2 -0.709786 13.3059 6.44973 8.16143
132 2 -0.759904 13.4874 7.73765 6.23838
133 2 -0.847137 0.942776 9.70231 9.75438
134 2 -0.708461 2.68332 7.79139 9.99252
135 2 -0.75066 3.15581 9.5416 8.27529
136 2 -0.73901 0.908252 11.5215 11.6298
137 2 -0.735212 13.2142 9.87484 11.1912
138 2 -0.682256 13.4488 11.7942 9.55338
139 2 -0.707903 4.79679 8.08465 11.5856
140 2 -0.777413 6.61708 8.23091 13.5568
141 2 -0.763331 6.2753 10.0353 12.2096
142 2 -0.680008 4.90032 11.4549 8.47463
143 2 -0.75002 6.39182 13.5633 8.2558
144 2 -0.728747 6.57451 11.9602 10.1527
145 2 -0.883478 8.31569 0.92717 0.984146
146 2 -0.92137 8.14898 13.7862 13.2359
147 2 -0.726073 7.85583 2.80877 2.45945
148 2 -0.824186 9.66195 1.00753 3.20635
149 2 -0.763959 9.99974 2.63916 1.1893
150 2 -0.588361 7.41959 4.89054 4.5085
151 2 -0.652664 9.30481 4.18393 6.17957
152 2 -0.732703 9.99519 6.32023 4.52686
153 2 -0.606803 8.0805 6.43601 6.65211
154 2 -0.566655 12.2056 0.859937 4.1047
155 2 -0.724827 10.0681 13.1451 4.48574
156 2 -0.700534 11.5599 13.4624 2.51762
157 2 -0.64688 11.3806 2.08912 6.20423
158 2 -0.834004 12.1294 4.24142 0.510132
159 2 -0.708353 9.772 4.53004 13.6
160 2 -0.648925 11.0539 2.60504 13.0261
161 2 -0.919961 11.2295 5.96737 2.07219
162 2 -0.696884 7.97297 1.24734 7.81611
163 2 -0.86865 8.26088 13.3334 6.37334
164 2 -0.706107 7.20665 2.31161 9.7836
165 2 -0.908589 9.48131 0.794983 9.81563
166 2 -0.687683 9.51479 3.03247 8.44506
167 2 -0.799312 7.88266 4.46397 11.5919
168 2 -0.664159 8.3417 6.43434 13.537
169 2 -0.867805 10.0603 6.13552 11.6095
170 2 -0.648244 11.9801 0.604951 10.9108
171 2 -0.831712 9.95133 13.1899 11.2271
172 2 -0.753994 11.4208 13.1334 9.17982
173 2 -0.738391 11.5214 4.45974 7.60479
174 2 -0.777953 11.6427 6.35351 10.0351
175 2 -0.69619 7.61909 7.90187 1.48099
176 2 -0.652093 8.47732 9.75666 2.98979
177 2 -0.663883 10.007 8.28707 2.81255
178 2 -0.80601 9.40029 9.87834 0.593015
179 2 -0.712696 8.65029 11.451 4.36344
180 2 -0.846219 10.168 11.3494 6.41598
181 2 -0.57032 11.941 7.85687 4.04974
182 2 -0.808438 11.2991 9.12869 6.57586
183 2 -0.682969 11.2501 10.8109 1.34753
184 2 -0.737667 10.282 12.167 13.582
185 2 -0.908685 11.4846 10.0669 13.1416
186 2 -0.644364 7.83856 8.07047 8.51503
187 2 -0.680033 7.86175 9.84204 10.2624
188 2 -0.740553 9.98922 8.03569 10.0201
189 2 -0.84629 9.73262 10.1513 8.42664
190 2 -0.779544 8.08176 11.8287 12.0753
191 2 -0.877034 11.8339 7.93069 12.1404
192 2 -0.769253 12.0045 11.1523 7.82545
ITEM: TIMESTEP
35000
ITEM: NUMBER OF ATOMS
192
ITEM: BOX BOUNDS pp pp pp
5.4746998810725422e-02 1.4245253001189088e+01
5.4746998810725422e-02 1.4245253001189088e+01
5.4746998810725422e-02 1.4245253001189088e+01
ITEM: ATOMS id type q x y z
1 1 1.58949 0.551843 0.081744 0.36966
2 1 1.43615 2.21723 2.22207 1.73361
3 1 1.35954 14.1759 3.50775 3.62197
4 1 1.48857 1.60963 5.55735 5.63617
5 1 1.28328 3.94432 0.570029 3.46187
6 1 1.4499 5.75991 2.03275 5.56553
7 1 1.63595 3.91045 3.69006 13.8698
8 1 1.34351 5.55448 5.31836 1.73473
9 1 1.56279 14.1635 14.052 7.20889
10 1 1.70596 1.84093 1.55862 8.91117
11 1 1.40766 0.131473 3.27698 10.8245
12 1 1.39219 1.88274 5.33194 12.1614
13 1 1.65903 3.70266 14.1986 10.6997
14 1 1.33804 5.68331 1.63925 12.3429
15 1 1.51498 3.42512 3.4484 7.04743
16 1 1.32273 5.32305 5.17659 8.65601
17 1 1.24367 14.1463 7.06419 13.7425
18 1 1.46624 1.67684 8.82818 1.82598
19 1 1.29708 14.1273 10.7317 3.61348
20 1 1.48443 2.0486 12.8279 5.07498
21 1 1.44541 3.63383 7.016 3.66973
22 1 1.48412 4.90921 9.05384 5.44633
23 1 1.38131 3.52994 10.4509 14.2548
24 1 1.40419 5.29519 12.4836 1.51699
25 1 1.77165 13.9722 7.21237 7.25882
26 1 1.67351 1.67406 9.26397 8.53024
27 1 1.44541 0.39146 10.5488 10.9579
28 1 1.44222 2.04061 12.4643 12.657
29 1 1.14669 3.59063 7.36466 10.3268
30 1 1.70209 5.35801 8.65808 12.3016
31 1 1.75346 3.60884 11.1646 7.28241
32 1 1.61325 5.49423 12.4895 9.1409
33 1 1.45627 7.3185 13.9622 13.973
34 1 1.38414 8.69099 1.75951 1.476
35 1 1.3155 7.25937 3.43431 3.59028
36 1 1.37966 8.98736 5.1402 5.29317
37 1 1.7222 10.7365 14.1422 3.35102
38 1 1.67496 12.3288 1.68335 5.34227
39 1 1.65383 10.6734 3.76404 0.470981
40 1 1.36105 12.5407 5.52909 1.99162
41 1 1.47 7.34721 0.38383 7.39522
42 1 1.62443 9.31033 1.98787 9.04078
43 1 1.47744 7.23161 3.57885 10.6264
44 1 1.59512 8.75251 5.41762 12.6903
45 1 1.52011 10.7875 14.025 10.9362
46 1 1.19565 12.7555 1.64398 12.9034
47 1 1.37763 10.9738 3.66675 7.17123
48 1 1.55405 12.5165 5.40719 9.23846
49 1 1.41618 7.17484 7.43117 14.2404
50 1 1.48714 8.5806 9.17981 1.95928
51 1 1.63497 6.63509 10.7851 3.71461
52 1 1.27593 8.69071 12.535 5.31574
53 1 1.17623 10.5464 7.39821 3.82911
54 1 1.51567 12.4855 9.24403 5.80324
55 1 1.67887 10.6164 10.465 0.0535102
56 1 1.60762 12.3898 12.4532 1.42246
57 1 1.58519 7.00663 7.11711 6.61171
58 1 1.50268 8.66314 8.79814 8.57215
59 1 1.56944 7.22648 10.3076 10.7471
60 1 1.72223 8.89492 12.1412 12.3409
61 1 1.47572 10.2746 7.2721 10.8988
62 1 1.50878 12.3605 8.99845 12.1449
63 1 1.31795 10.5532 10.9909 7.41316
64 1 1.43625 12.5674 12.2736 9.12361
65 2 -0.791808 1.63661 1.10677 0.882013
66 2 -0.765982 0.93369 13.5302 13.3074
67 2 -0.647308 13.8452 1.28999 14.0082
68 2 -0.823622 13.6089 13.4597 0.986469
69 2 -0.697473 1.25736 2.61574 2.91104
70 2 -0.687514 3.46877 1.85536 2.79934
71 2 -0.761063 2.73658 3.04101 0.376435
72 2 -0.573044 0.810629 4.52245 4.59449
73 2 -0.801592 13.11 2.78285 4.64336
74 2 -0.70295 13.6737 4.80081 2.83535
75 2 -0.781075 2.3888 4.5709 6.48219
76 2 -0.70581 2.51023 6.25954 4.37741
77 2 -0.88566 0.411352 6.23787 6.32807
78 2 -0.699156 4.61689 1.21642 4.64004
79 2 -0.696059 2.66538 14.0505 4.45433
80 2 -0.63275 4.25076 13.4663 2.16874
81 2 -0.699666 4.59052 2.99496 6.06448
82 2 -0.811052 6.53863 3.1205 4.97185
83 2 -0.782101 6.21948 1.28563 6.93064
84 2 -0.802992 4.70968 4.41285 0.721884
85 2 -0.661984 3.37227 4.83216 13.0575
86 2 -0.74013 4.96091 3.02794 12.8591
87 2 -0.619652 4.25542 5.77172 2.76509
88 2 -0.633525 6.55272 4.88768 2.83722
89 2 -0.656874 6.62023 6.5261 1.26269
90 2 -0.86396 0.975933 0.47018 8.25494
91 2 -0.765442 0.798144 13.1881 6.27648
92 2 -0.775584 13.3014 0.951942 6.52857
93 2 -0.80102 12.9533 13.1905 8.01821
94 2 -0.778129 0.959687 2.34062 9.95044
95 2 -0.831437 2.99329 1.14072 9.88191
96 2 -0.813986 2.46527 2.44916 7.84151
97 2 -0.661873 1.14476 3.94704 11.9695
98 2 -0.631171 13.6598 2.05226 11.6429
99 2 -0.772767 13.3975 4.50559 10.213
100 2 -0.671955 0.787238 5.83761 13.1896
101 2 -0.679708 2.27453 6.3649 11.1757
102 2 -0.691017 4.59488 0.414511 11.8683
103 2 -0.80435 2.93039 13.161 11.5438
104 2 -0.846702 4.88453 13.6654 9.8725
105 2 -0.775917 7.09124 0.876857 12.9304
106 2 -0.674403 6.18013 2.32618 11.1509
107 2 -0.702466 4.1247 4.23969 8.20836
108 2 -0.529425 4.23749 5.7902 9.69038
109 2 -0.674665 6.48116 4.59606 9.61511
110 2 -0.706035 6.22277 6.29102 7.64228
111 2 -0.633642 0.976021 7.78338 0.677708
112 2 -0.636576 13.0267 6.38378 0.615552
113 2 -0.730713 13.2086 7.71765 12.4302
114 2 -0.755641 0.73775 9.86165 2.66848
115 2 -0.677194 2.85796 7.99881 2.59457
116 2 -0.765877 2.42509 9.54115 0.800932
117 2 -0.661781 1.58442 11.9081 4.05163
118 2 -0.793784 13.1983 9.86929 4.51406
119 2 -0.664403 13.2017 11.7651 2.66338
120 2 -0.813611 2.89204 11.9676 6.1589
121 2 -0.862058 4.10788 8.00759 4.82352
122 2 -0.810584 4.6612 10.2728 6.50906
123 2 -0.757204 5.62255 9.79218 4.13293
124 2 -0.780726 6.29719 8.39009 6.07538
125 2 -0.635615 4.61744 11.1206 1.1117
126 2 -0.702483 2.9259 11.8696 13.9077
127 2 -0.759785 4.53843 9.66443 13.0192
128 2 -0.691576 5.86788 13.4553 0.268635
129 2 -0.760426 5.92177 11.8572 2.86838
130 2 -0.932319 0.743329 8.41824 7.82592
131 2 -0.881799 13.1828 6.42199 8.36911
132 2 -0.873263 13.0961 8.033 6.37754
133 2 -0.834042 1.05238 9.53818 10.0006
134 2 -0.622734 2.81437 8.12038 8.86434
135 2 -0.955881 2.46277 10.3732 7.96919
136 2 -0.744338 1.39954 11.1319 12.0859
137 2 -0.749716 13.262 10.1562 11.7027
138 2 -0.637768 13.6931 11.7639 10.278
139 2 -0.807862 4.61837 8.30962 10.9504
140 2 -0.749346 5.80789 7.71013 13.339
141 2 -0.762566 6.67984 9.27535 11.9719
142 2 -0.927594 4.39133 11.7708 8.35642
143 2 -0.652308 6.58213 13.2524 8.02897
144 2 -0.783532 6.19242 11.4107 9.9956
145 2 -0.770425 8.06534 0.368585 1.06707
146 2 -0.818797 7.84762 12.6436 13.5094
147 2 -0.757396 7.67918 2.39224 2.48371
148 2 -0.688992 9.83852 0.895798 2.61574
149 2 -0.857606 9.59015 3.00227 1.00501
150 2 -0.657397 8.64907 4.04219 4.15748
151 2 -0.58095 10.3324 4.98313 6.35824
152 2 -0.578801 9.82964 6.35724 4.7656
153 2 -0.763504 7.80879 6.05622 5.78786
154 2 -0.890882 11.5119 0.859454 4.43284
155 2 -0.704295 9.83324 13.2777 4.23815
156 2 -0.860601 11.4583 13.3341 2.34802
157 2 -0.761602 11.404 2.39035 6.30969
158 2 -0.800684 11.4515 4.68203 1.44958
159 2 -0.799669 9.78819 4.72138 13.6994
160 2 -0.688213 11.6349 2.67356 14.0172
161 2 -0.526004 11.3166 6.09238 3.10185
162 2 -0.806522 8.52367 0.941907 8.23572
163 2 -0.676791 7.60901 13.5779 6.13412
164 2 -0.827288 8.17152 2.63831 9.86872
165 2 -0.754036 10.3405 1.05341 9.7866
166 2 -0.745675 9.7998 2.85214 7.84411
167 2 -0.766664 8.03363 4.51402 11.6744
168 2 -0.774486 7.57857 6.29547 13.2152
169 2 -0.829444 9.66435 6.15105 11.6872
170 2 -0.661898 11.7635 0.49662 11.9481
171 2 -0.890848 9.80558 13.0884 11.6165
172 2 -0.692075 11.6456 12.9341 10.1394
173 2 -0.748619 11.6925 4.35933 8.51462
174 2 -0.601568 11.1717 6.33378 10.0453
175 2 -0.719819 7.87049 8.74494 0.554314
176 2 -0.76195 7.32755 9.92262 2.63806
177 2 -0.66013 9.17387 7.9427 2.62069
178 2 -0.808439 9.79787 9.81841 1.25798
179 2 -0.777387 7.8503 11.3949 4.57693
180 2 -0.641979 9.9984 12.1121 6.26346
181 2 -0.588275 11.363 8.25163 4.95539
182 2 -0.772793 11.705 10.2167 6.80883
183 2 -0.88684 11.4291 11.4633 0.874119
184 2 -0.829854 9.93837 11.2088 13.1095
185 2 -0.798801 11.6287 9.51135 13.4234
186 2 -0.734379 7.98156 7.69804 7.66579
187 2 -0.787288 7.83567 9.19163 9.86252
188 2 -0.581374 9.4833 7.75247 9.51268
189 2 -0.773885 9.54432 9.91506 7.89161
190 2 -0.90061 8.1037 11.2774 11.4205
191 2 -0.729087 11.1144 8.5984 11.1699
192 2 -0.56121 11.5576 11.0714 8.9645
ITEM: TIMESTEP
36000
ITEM: NUMBER OF ATOMS
192
ITEM: BOX BOUNDS pp pp pp
6.2830191450747641e-02 1.4237169808549091e+01
6.2830191450747641e-02 1.4237169808549091e+01
6.2830191450747641e-02 1.4237169808549091e+01
ITEM: ATOMS id type q x y z
1 1 1.30527 0.192155 0.394633 14.1129
2 1 1.3178 1.46719 2.01614 2.24474
3 1 1.45278 14.0568 3.53289 4.27135
4 1 1.49063 1.98325 5.31878 5.57979
5 1 1.37944 3.62271 0.0900553 3.80651
6 1 1.63716 5.451 2.10859 5.0566
7 1 1.55715 3.35233 3.42131 13.965
8 1 1.46095 5.19638 5.37219 1.25486
9 1 1.55104 14.1245 13.9392 7.30197
10 1 1.76707 1.76948 1.87749 8.74428
11 1 1.53643 14.0283 3.52991 10.5578
12 1 1.73038 1.47368 5.20484 12.5534
13 1 1.70577 3.4645 14.1909 10.474
14 1 1.75989 5.31637 1.49138 12.4772
15 1 1.75238 3.82645 3.50214 7.13019
16 1 1.39471 5.40046 5.45685 9.13819
17 1 1.69431 0.157695 7.2802 0.174447
18 1 1.2312 2.01351 8.90253 1.94103
19 1 1.30765 14.0865 10.9531 3.222
20 1 1.38092 1.74378 12.3423 5.2441
21 1 1.36266 4.10425 6.97401 3.79858
22 1 1.40301 5.67403 8.92938 5.8186
23 1 1.28953 3.55615 10.7776 14.0464
24 1 1.40714 5.53378 12.4961 1.77752
25 1 1.40397 14.2645 7.13309 7.19472
26 1 1.42085 1.82356 8.91317 9.10774
27 1 1.53193 -0.0182718 10.3856 11.0966
28 1 1.49906 1.71415 12.5393 12.4451
29 1 1.30526 3.34664 7.20838 11.2996
30 1 1.66709 5.45456 9.11193 12.3071
31 1 1.34259 3.53404 10.6554 7.35732
32 1 1.6712 5.48228 12.5968 8.7718
33 1 1.43484 7.31487 14.3579 0.24718
34 1 1.72353 8.88704 2.05349 1.93969
35 1 1.53002 7.03332 3.85151 3.22369
36 1 1.41303 9.09323 5.50318 5.27922
37 1 1.61216 10.6219 0.249486 3.53715
38 1 1.56107 12.1677 1.63387 5.92399
39 1 1.69533 10.9213 3.27399 14.1468
40 1 1.51222 12.6204 5.01929 1.75013
41 1 1.50394 7.15066 0.256083 6.81513
42 1 1.44483 8.89732 2.10172 8.90015
43 1 1.60225 6.90659 3.43199 10.8407
44 1 1.33537 8.62495 5.23868 12.6721
45 1 1.51279 10.6088 0.0778981 10.4892
46 1 1.37707 12.4355 1.64051 12.1802
47 1 1.50205 10.4774 3.77384 7.07172
48 1 1.6021 12.3373 5.33495 8.89818
49 1 1.44002 7.32234 7.45545 0.0621709
50 1 1.5045 9.15535 9.26085 1.73529
51 1 1.70525 7.13206 10.5618 3.62334
52 1 1.64021 8.86582 12.5283 5.17592
53 1 1.23898 10.8325 7.07643 3.36234
54 1 1.4126 12.5755 8.786 5.296
55 1 1.64593 10.7055 10.7827 13.8327
56 1 1.46616 12.3335 12.9613 1.3736
57 1 1.34857 7.46063 7.32018 7.51524
58 1 1.32164 9.32682 9.31384 9.14039
59 1 1.72839 7.02749 10.826 10.5296
60 1 1.49686 8.83136 12.5952 12.3197
61 1 1.63976 10.5019 6.94668 10.886
62 1 1.72687 12.3774 8.57248 12.5209
63 1 1.459 10.9143 10.6056 6.90577
64 1 1.55799 12.6084 12.1825 9.18301
65 2 -0.69617 0.381687 1.29249 1.40495
66 2 -0.734307 1.07934 13.7033 13.3386
67 2 -0.559854 14.0242 1.16149 12.4865
68 2 -0.745777 12.9964 13.7583 0.297166
69 2 -0.705179 1.14498 2.83738 3.5766
70 2 -0.631151 2.37236 0.724541 2.91575
71 2 -0.625334 2.56285 2.61519 1.13225
72 2 -0.803682 0.811129 4.5301 5.02993
73 2 -0.839884 13.2529 2.43261 5.15724
74 2 -0.767311 13.4569 4.34354 2.98388
75 2 -0.818425 2.71346 4.45736 6.68819
76 2 -0.696984 3.39959 6.04208 4.757
77 2 -0.693498 1.34526 6.56386 6.29543
78 2 -0.82585 4.38304 1.03201 4.78856
79 2 -0.625725 3.14835 13.0494 4.63262
80 2 -0.626172 4.39551 13.1545 2.74791
81 2 -0.864262 4.75274 3.22631 6.06061
82 2 -0.850771 6.10473 3.15374 4.15307
83 2 -0.853465 6.41713 1.19383 5.86798
84 2 -0.813074 4.14404 4.54358 0.34637
85 2 -0.833421 2.08731 4.12965 13.579
86 2 -0.83955 4.36524 2.30889 13.3185
87 2 -0.669181 4.86971 6.4888 2.38423
88 2 -0.767086 5.84056 4.56912 2.29561
89 2 -0.675725 6.26632 6.20735 0.245679
90 2 -0.762635 0.976239 1.03481 7.83029
91 2 -0.792402 0.962836 13.1216 6.32529
92 2 -0.830576 12.9443 0.476352 6.67258
93 2 -0.818878 13.6353 12.9591 8.44157
94 2 -0.871234 0.729553 2.49846 9.76917
95 2 -0.839362 2.55116 0.745311 9.43294
96 2 -0.864271 2.84255 2.38 7.8532
97 2 -0.839155 0.576873 4.45816 11.6583
98 2 -0.676258 12.5449 2.81769 11.2249
99 2 -0.86582 13.3405 4.61657 9.75368
100 2 -0.853057 0.542233 6.21285 13.2548
101 2 -0.823712 2.66732 5.83898 11.9227
102 2 -0.856445 4.24395 0.859159 11.5194
103 2 -0.792817 2.44223 13.2915 11.3784
104 2 -0.826722 4.63111 13.4841 9.87975
105 2 -0.832624 6.19917 0.544279 13.2007
106 2 -0.838938 6.35411 2.49002 11.8831
107 2 -0.754109 4.5607 4.20959 8.17839
108 2 -0.478529 4.36188 6.14388 10.2111
109 2 -0.779724 5.85231 4.32964 10.118
110 2 -0.731964 6.26899 6.48536 8.36328
111 2 -0.833539 1.19788 7.81255 1.12655
112 2 -0.706915 13.4362 6.21225 1.02937
113 2 -0.92789 13.4059 8.17898 13.6576
114 2 -0.516965 1.02997 9.5394 2.9639
115 2 -0.58594 3.00058 7.84118 2.81172
116 2 -0.631934 2.57497 10.4277 1.08643
117 2 -0.700283 0.976825 11.5715 3.99007
118 2 -0.609838 13.3626 9.79187 3.97254
119 2 -0.694859 13.4851 12.198 2.24379
120 2 -0.556013 2.58813 11.1113 5.71653
121 2 -0.682061 5.11082 7.92239 4.67782
122 2 -0.709631 4.58229 9.49951 6.77634
123 2 -0.726693 6.1588 10.0649 4.70704
124 2 -0.72928 7.08995 8.33912 6.42169
125 2 -0.597199 4.94457 11.4433 0.586481
126 2 -0.686034 2.77226 12.0451 13.4582
127 2 -0.822516 4.31887 10.0139 12.8061
128 2 -0.774029 6.58274 13.5532 1.317
129 2 -0.739651 6.30397 11.2751 2.57904
130 2 -0.714103 0.838229 8.04954 8.23925
131 2 -0.749012 13.1664 6.53425 8.14706
132 2 -0.689788 13.7925 8.27229 6.04269
133 2 -0.760608 1.00971 9.98321 10.0714
134 2 -0.688845 2.81177 7.71478 10.0247
135 2 -0.737039 2.71792 9.93718 8.41416
136 2 -0.721089 0.761117 11.0709 12.3609
137 2 -0.779406 13.4598 9.04892 11.3266
138 2 -0.79194 13.2922 11.5236 10.5286
139 2 -0.745073 4.75897 7.87456 11.7998
140 2 -0.801658 6.45975 8.47041 13.3371
141 2 -0.842778 6.05375 9.65446 11.0453
142 2 -0.738638 4.19694 11.6824 8.33977
143 2 -0.801513 6.08688 13.3524 7.67318
144 2 -0.950241 6.47235 11.8596 9.61328
145 2 -0.77536 8.30779 1.29621 0.743166
146 2 -0.62745 8.32413 13.073 13.7803
147 2 -0.936983 7.68677 2.71291 2.45147
148 2 -0.869856 9.65705 0.916069 2.54662
149 2 -0.830612 10.0535 2.90807 1.09658
150 2 -0.671923 8.21126 4.86805 4.04503
151 2 -0.782706 9.92661 4.27422 5.67815
152 2 -0.744517 9.77566 6.48902 4.43757
153 2 -0.613367 8.39962 6.09309 6.85029
154 2 -0.780747 11.0966 1.05863 4.8671
155 2 -0.834442 9.6444 13.4313 4.16559
156 2 -0.779058 11.7469 13.767 2.64538
157 2 -0.798483 11.1974 2.37782 6.90343
158 2 -0.822837 11.9122 4.19687 0.700672
159 2 -0.634771 9.96364 4.39585 13.497
160 2 -0.853185 11.57 2.08528 13.4228
161 2 -0.645285 11.3685 5.91567 2.22248
162 2 -0.666565 8.22746 0.949702 7.87997
163 2 -0.786599 8.08548 13.3405 6.19253
164 2 -0.856148 7.83055 2.67015 9.87645
165 2 -0.76691 9.97732 1.12417 9.46169
166 2 -0.728276 9.28395 3.43015 7.93558
167 2 -0.705911 7.57553 4.16701 12.1449
168 2 -0.715178 8.37685 6.4937 13.6538
169 2 -0.775078 9.557 6.00656 11.4729
170 2 -0.693753 11.96 0.662587 11.0125
171 2 -0.841231 9.85174 13.5661 11.6377
172 2 -0.706699 11.431 13.1457 9.58589
173 2 -0.821132 11.345 4.92155 7.81762
174 2 -0.720611 11.2416 5.99427 9.90168
175 2 -0.769078 8.11508 8.25741 1.2743
176 2 -0.803671 8.35578 9.89391 2.90087
177 2 -0.617051 10.4673 8.53215 2.77757
178 2 -0.867579 9.76072 10.136 0.578886
179 2 -0.789778 7.72658 11.6967 4.39693
180 2 -0.685593 9.66512 11.4918 6.00802
181 2 -0.641895 12.1768 7.58179 4.53764
182 2 -0.804325 11.3351 9.59702 5.88611
183 2 -0.752288 11.2552 11.9929 0.533753
184 2 -0.725265 9.82095 11.4669 12.8088
185 2 -0.897807 11.5232 9.71883 12.8543
186 2 -0.629211 8.33449 8.16266 8.59321
187 2 -0.758069 8.22557 9.95707 10.1403
188 2 -0.716271 10.3128 8.29464 10.0868
189 2 -0.696486 9.80629 9.91198 7.65795
190 2 -0.813724 7.73439 11.6595 11.5761
191 2 -0.837303 11.6612 7.45865 11.9333
192 2 -0.78743 11.8855 11.2784 8.00195
ITEM: TIMESTEP
37000
ITEM: NUMBER OF ATOMS
192
ITEM: BOX BOUNDS pp pp pp
6.8599082219360952e-02 1.4231400917780526e+01
6.8599082219360952e-02 1.4231400917780526e+01
6.8599082219360952e-02 1.4231400917780526e+01
ITEM: ATOMS id type q x y z
1 1 1.40335 0.0743262 13.6587 -0.0306938
2 1 1.22693 1.66951 2.09135 1.43663
3 1 1.51603 13.9966 3.52884 3.45763
4 1 1.55321 2.13416 5.22483 5.10829
5 1 1.51888 3.39797 0.346974 3.44642
6 1 1.54456 5.22862 1.66773 5.22646
7 1 1.38297 4.01002 3.97491 14.1662
8 1 1.76468 5.65986 5.4302 1.90584
9 1 1.62579 14.0872 0.114162 7.45202
10 1 1.39736 2.21395 1.74838 9.02869
11 1 1.4414 0.254517 3.6173 10.8516
12 1 1.44281 1.8875 5.54566 12.4471
13 1 1.57077 4.11453 0.370925 10.8815
14 1 1.48293 5.79329 2.05868 12.5645
15 1 1.27602 3.75639 3.53021 7.27486
16 1 1.44248 5.34132 5.59981 8.83594
17 1 1.40878 13.695 7.26777 13.9369
18 1 1.61794 1.71431 8.66542 1.87305
19 1 1.31396 14.3831 10.4084 3.81959
20 1 1.38327 1.62136 12.8893 5.4433
21 1 1.90076 3.71262 7.12418 3.515
22 1 1.90783 4.86094 9.20217 5.43636
23 1 1.39542 3.54994 10.5337 0.177251
24 1 1.60093 5.16079 12.2378 1.94879
25 1 1.71646 0.051775 7.14779 6.7033
26 1 1.72215 1.67997 8.93243 8.50381
27 1 1.53002 0.648104 10.6889 10.6373
28 1 1.58311 2.45868 12.4717 12.2285
29 1 1.48004 3.47465 7.46382 10.3434
30 1 1.42921 5.13348 8.81497 12.4701
31 1 1.775 3.34621 11.1085 7.24366
32 1 1.51171 5.34577 12.4204 9.18503
33 1 1.37111 6.74242 13.8974 0.115118
34 1 1.42166 8.83108 1.28823 1.92421
35 1 1.58722 7.1804 3.46745 3.71769
36 1 1.40387 8.79836 5.35712 5.63797
37 1 1.61324 10.9859 14.1855 3.71548
38 1 1.6394 12.5589 1.89618 5.5686
39 1 1.2197 10.3899 3.05619 14.2333
40 1 1.47396 12.2294 5.29749 1.72728
41 1 1.50858 6.91765 14.0861 7.00928
42 1 1.60787 8.85536 1.50581 8.78416
43 1 1.50922 7.52842 3.78633 10.2995
44 1 1.27934 9.11212 5.44591 12.488
45 1 1.33599 10.6257 14.2592 10.9145
46 1 1.25081 12.6481 1.6843 12.5887
47 1 1.51511 10.704 3.47669 7.36687
48 1 1.3905 12.9225 5.17163 8.81454
49 1 1.71655 7.16611 7.15705 14.1057
50 1 1.21842 9.10349 8.89036 1.55757
51 1 1.59072 6.94553 10.6375 3.6052
52 1 1.61958 8.87907 12.4674 5.15447
53 1 1.09188 10.3736 7.28436 3.74949
54 1 1.44339 12.1934 8.95895 5.54566
55 1 1.58078 10.7961 10.7694 14.11
56 1 1.42461 12.3588 12.2437 1.94034
57 1 1.56239 6.85934 7.54304 7.17909
58 1 1.52686 8.81019 9.06475 8.77787
59 1 1.52471 7.00786 10.5398 10.8366
60 1 1.51749 8.7558 12.2992 12.6247
61 1 1.20306 11.0584 7.19731 10.3074
62 1 1.4567 12.4456 9.43866 12.0246
63 1 1.31975 10.8245 11.0645 7.30485
64 1 1.33144 12.6171 12.4087 9.27874
65 2 -0.591823 0.91667 0.834965 0.534102
66 2 -0.723901 1.09979 13.107 13.0589
67 2 -0.650099 13.0058 0.444809 13.7825
68 2 -0.719157 13.4794 13.1783 1.18316
69 2 -0.697432 0.620437 2.45083 2.66463
70 2 -0.710077 2.72095 1.27924 2.38297
71 2 -0.562498 2.38218 3.48972 0.78794
72 2 -0.698141 1.12557 4.29189 4.38138
73 2 -0.842839 13.1394 2.77526 4.42442
74 2 -0.778472 13.2024 4.76207 2.7499
75 2 -0.681729 3.05628 4.76364 6.24867
76 2 -0.898374 3.14671 5.90045 4.19654
77 2 -0.754519 0.918271 6.23463 5.79977
78 2 -0.898782 4.03392 0.946536 4.61085
79 2 -0.637949 2.17425 13.5112 4.0095
80 2 -0.680824 4.35692 13.2413 2.85223
81 2 -0.663442 4.61246 2.93087 6.03349
82 2 -0.844533 6.23933 2.55802 4.38196
83 2 -0.777361 5.82861 0.848747 6.48568
84 2 -0.849976 4.49976 4.86351 1.10046
85 2 -0.669384 3.11957 4.69593 13.149
86 2 -0.770605 5.30891 3.18401 13.4599
87 2 -0.881323 4.78638 6.62223 2.69411
88 2 -0.929667 6.39673 4.59965 2.85582
89 2 -0.89705 6.53866 6.19103 0.830231
90 2 -0.705126 1.21989 0.79904 8.17472
91 2 -0.782693 0.346005 13.3975 6.32499
92 2 -0.794764 13.4588 1.36411 6.75013
93 2 -0.760866 13.0357 13.8101 8.40579
94 2 -0.699609 1.34542 2.79796 10.1252
95 2 -0.798502 3.43108 0.982011 9.70454
96 2 -0.686087 2.40882 2.77309 7.8572
97 2 -0.740222 1.18022 4.27204 12.0485
98 2 -0.645483 13.4002 2.54036 11.361
99 2 -0.759803 13.6891 4.84644 10.1975
100 2 -0.714348 0.808096 6.50224 13.2126
101 2 -0.688335 2.77861 6.56315 11.564
102 2 -0.788886 4.52961 1.16329 12.2396
103 2 -0.887776 3.17301 13.5057 11.4305
104 2 -0.718658 5.16423 13.7751 9.84357
105 2 -0.678959 6.7487 0.923246 13.0191
106 2 -0.667086 6.574 2.74473 11.3466
107 2 -0.761352 4.67478 4.3268 8.40289
108 2 -0.74002 4.27192 6.31858 9.88308
109 2 -0.636503 6.99203 4.96993 9.6054
110 2 -0.815852 6.26527 6.33492 7.91425
111 2 -0.683545 0.537419 8.18504 1.00046
112 2 -0.754794 12.7488 6.3817 0.53246
113 2 -0.702199 12.9721 8.23166 12.904
114 2 -0.73166 1.25927 9.51929 3.15252
115 2 -0.899147 2.55592 7.65743 2.6897
116 2 -0.745547 2.25892 9.63161 0.812005
117 2 -0.601576 0.743727 11.7509 5.0051
118 2 -0.680755 13.5556 9.32315 4.60265
119 2 -0.620045 13.3851 11.1594 2.57043
120 2 -0.740923 2.91835 12.3003 6.39022
121 2 -0.966742 4.2363 8.27232 4.48272
122 2 -0.966511 4.11405 10.2106 6.26948
123 2 -0.8594 5.7063 10.0356 4.48325
124 2 -0.907247 5.78612 8.32526 6.35096
125 2 -0.726161 4.01796 11.4149 1.53234
126 2 -0.781729 3.07406 11.7561 13.5447
127 2 -0.723894 4.848 9.86885 13.9935
128 2 -0.735576 5.45984 13.5064 0.947269
129 2 -0.867523 6.39136 11.6407 2.57623
130 2 -0.921667 0.952859 8.10608 7.40872
131 2 -0.779915 13.6126 6.14898 7.69307
132 2 -0.795805 12.8315 7.80317 6.2318
133 2 -0.939223 0.997655 9.56983 9.66553
134 2 -0.81296 2.98919 8.14907 8.89515
135 2 -0.861543 2.22872 10.1805 7.7974
136 2 -0.813281 1.93474 11.4216 11.2581
137 2 -0.710601 13.9853 10.2561 11.9096
138 2 -0.748814 13.9628 11.8077 9.81257
139 2 -0.816206 4.38351 8.181 11.3149
140 2 -0.711179 6.04774 7.8648 13.1308
141 2 -0.666087 6.38801 9.3319 11.7026
142 2 -0.81583 4.00666 11.8472 8.35351
143 2 -0.725989 6.15525 13.0822 7.96158
144 2 -0.882381 5.87508 11.4258 10.283
145 2 -0.716926 7.70948 0.386957 1.39595
146 2 -0.784756 7.54911 13.0423 13.368
147 2 -0.691734 7.97354 2.35788 2.92789
148 2 -0.78693 10.0453 0.928372 2.96977
149 2 -0.744317 9.77187 1.88432 0.762389
150 2 -0.718103 8.28753 4.06528 4.78081
151 2 -0.653637 9.55862 4.60694 6.75678
152 2 -0.529996 10.173 5.81867 4.96498
153 2 -0.662534 8.15324 6.64989 6.13805
154 2 -0.763048 11.5854 0.911715 4.87804
155 2 -0.804813 10.1418 13.1134 4.53558
156 2 -0.769326 12.0233 13.1754 3.18868
157 2 -0.753009 11.3837 2.65355 6.33301
158 2 -0.637646 11.3069 4.11468 1.46322
159 2 -0.585205 9.24367 4.18348 13.707
160 2 -0.672015 11.6897 2.70793 13.2153
161 2 -0.577001 11.5139 6.43051 2.50547
162 2 -0.775378 7.62248 0.710837 8.19216
163 2 -0.793166 8.01078 13.5785 5.84706
164 2 -0.766235 8.46707 2.7387 9.75946
165 2 -0.751739 9.56756 0.466644 9.73129
166 2 -0.805587 9.79325 2.36018 8.04073
167 2 -0.632225 8.34035 4.42752 11.4858
168 2 -0.697365 7.88115 6.3499 12.9291
169 2 -0.559886 10.3774 6.26083 11.7922
170 2 -0.593546 11.7472 1.27058 11.3264
171 2 -0.722063 9.85553 13.3754 12.0781
172 2 -0.648319 11.6575 13.1383 10.5516
173 2 -0.702563 12.0046 3.99159 8.29034
174 2 -0.656488 11.6997 6.16907 9.44994
175 2 -0.765848 7.97885 8.0934 0.767567
176 2 -0.60464 7.72399 9.7885 2.55399
177 2 -0.645889 9.35433 7.67898 2.69356
178 2 -0.696999 10.2579 9.44911 0.39475
179 2 -0.848045 7.95867 11.3996 4.48125
180 2 -0.704384 9.43992 11.6888 6.34226
181 2 -0.662839 10.8691 8.4658 4.90448
182 2 -0.672385 11.8917 10.3697 6.36707
183 2 -0.852255 11.212 11.4097 1.29342
184 2 -0.756002 9.40369 11.4487 13.7231
185 2 -0.869825 11.6205 10.3806 12.8462
186 2 -0.822388 7.84799 8.18946 8.09921
187 2 -0.804193 7.84582 9.85941 9.78569
188 2 -0.582867 9.45088 7.87484 9.50137
189 2 -0.65912 9.90656 9.68826 7.69168
190 2 -0.75501 8.2465 11.1234 11.7974
191 2 -0.70345 12.0846 8.36932 10.9439
192 2 -0.783603 11.7037 11.3783 8.49197
ITEM: TIMESTEP
38000
ITEM: NUMBER OF ATOMS
192
ITEM: BOX BOUNDS pp pp pp
7.1729410451794706e-02 1.4228270589548121e+01
7.1729410451794706e-02 1.4228270589548121e+01
7.1729410451794706e-02 1.4228270589548121e+01
ITEM: ATOMS id type q x y z
1 1 1.59242 -0.0445491 14.2434 -0.0179353
2 1 1.4981 1.81304 1.56515 1.99149
3 1 1.41797 14.088 3.76845 3.32617
4 1 1.6106 1.72523 5.2366 5.25125
5 1 1.38656 3.82418 0.147949 3.75843
6 1 1.68418 5.85673 1.78356 5.45763
7 1 1.59721 3.60229 3.12301 14.3286
8 1 1.61253 5.01619 5.33413 1.90574
9 1 1.33295 0.260534 0.0617872 7.04057
10 1 1.38436 1.68987 2.03091 9.24059
11 1 1.72548 14.0691 3.88595 10.9102
12 1 1.41549 1.86534 5.23827 12.7185
13 1 1.38848 3.25991 13.8145 10.7649
14 1 1.62694 5.06723 1.55891 12.2387
15 1 1.18432 3.77622 3.43538 7.24748
16 1 1.24707 5.44445 5.68609 8.82035
17 1 1.57438 0.418077 7.47185 13.9332
18 1 1.40225 1.94843 9.15014 1.73172
19 1 1.54115 14.2891 10.8546 3.4058
20 1 1.48464 1.99438 12.4887 5.16376
21 1 1.55319 3.27032 7.15447 3.52736
22 1 1.43154 5.27258 8.69664 5.35493
23 1 1.39637 3.62995 10.7924 14.1056
24 1 1.51595 5.46967 12.5754 1.63148
25 1 1.66071 0.378676 6.89862 7.47328
26 1 1.42658 1.82446 8.83137 9.20776
27 1 1.24905 13.5006 10.5334 10.4909
28 1 1.39916 1.23543 12.2378 12.1749
29 1 1.21188 3.97148 7.21978 11.2786
30 1 1.52092 5.85156 9.09653 12.6106
31 1 1.29278 3.84796 10.5494 7.22074
32 1 1.48643 5.50982 12.2676 9.17283
33 1 1.42475 7.17291 14.3841 14.1346
34 1 1.3092 8.76922 1.98157 1.76649
35 1 1.45779 7.2427 4.02038 3.47017
36 1 1.754 9.3414 5.5397 5.4362
37 1 1.63971 10.4983 0.361483 3.62905
38 1 1.47183 12.5964 1.69355 5.38598
39 1 1.45528 10.3433 3.44747 14.1449
40 1 1.72736 12.3927 5.63413 1.47385
41 1 1.58726 7.48586 14.2183 7.41978
42 1 1.67378 8.91599 2.1554 9.02952
43 1 1.64279 6.81947 3.56836 10.6817
44 1 1.61692 8.44022 5.34173 12.4612
45 1 1.60717 10.9007 0.370392 10.682
46 1 1.63759 12.4162 2.02417 12.5924
47 1 1.82638 10.6983 3.49107 7.05539
48 1 1.68472 12.2648 5.41457 8.73384
49 1 1.39787 7.19265 7.1183 0.624706
50 1 1.62839 9.09207 9.04388 2.21446
51 1 1.36109 6.87828 10.4624 3.55326
52 1 1.45614 8.74776 12.4061 5.40054
53 1 1.69303 11 7.22988 3.63157
54 1 1.62031 12.8924 8.9337 5.39882
55 1 1.3716 10.4262 10.5928 14.2244
56 1 1.21313 12.2141 12.5819 1.99898
57 1 1.65322 7.43646 7.1169 7.035
58 1 1.71292 9.18789 9.00008 8.75346
59 1 1.80807 7.50619 10.623 10.6499
60 1 1.43057 9.17681 12.4533 12.286
61 1 1.51742 10.4688 6.94484 10.618
62 1 1.4392 12.174 8.63162 12.3606
63 1 1.24979 10.7167 10.7283 6.75507
64 1 1.33104 12.0656 12.4615 8.84545
65 2 -0.823889 0.878894 0.560945 1.13572
66 2 -0.777656 0.74946 13.4517 12.9295
67 2 -0.867689 13.4414 1.19238 13.401
68 2 -0.658421 13.4239 13.0678 0.82097
69 2 -0.757457 0.750119 2.71834 2.43979
70 2 -0.762582 2.74772 0.998055 3.0978
71 2 -0.81788 3.04873 2.22121 1.27887
72 2 -0.805227 0.82611 4.2542 4.4286
73 2 -0.596482 13.1581 3.08213 4.86216
74 2 -0.825253 13.112 4.69114 2.44488
75 2 -0.645583 2.80835 4.39637 6.11051
76 2 -0.859735 2.40509 6.13588 4.22522
77 2 -0.877965 1.17438 6.01364 6.52071
78 2 -0.768482 4.94845 1.33985 4.39813
79 2 -0.823254 2.87885 13.5796 4.81332
80 2 -0.795127 4.883 13.3312 2.8
81 2 -0.693791 5.09695 2.74162 6.26679
82 2 -0.665432 6.73871 2.9585 4.53725
83 2 -0.860388 6.87536 1.06995 6.20434
84 2 -0.797176 4.37374 4.27423 0.899976
85 2 -0.741587 2.75144 3.92341 13.2383
86 2 -0.848097 4.57051 2.19893 13.4876
87 2 -0.781514 3.9419 6.37552 2.43167
88 2 -0.806984 6.01313 4.92916 2.93968
89 2 -0.6898 5.78222 6.48542 1.12641
90 2 -0.618685 0.661709 1.44232 8.06033
91 2 -0.653853 1.45673 13.442 6.30996
92 2 -0.780073 13.6192 0.654475 5.76366
93 2 -0.612326 13.55 13.1646 7.834
94 2 -0.854145 0.8748 2.87688 10.2114
95 2 -0.653164 2.35229 0.586912 9.74612
96 2 -0.67419 3.02975 2.71794 8.46873
97 2 -0.826501 0.61035 4.87567 11.7833
98 2 -0.884687 13.1954 3.29539 11.9528
99 2 -0.787374 13.2804 4.55219 9.68144
100 2 -0.786868 1.54122 6.71357 13.298
101 2 -0.60451 3.07896 5.73477 11.8931
102 2 -0.829317 3.86627 0.81711 11.5384
103 2 -0.707215 2.33405 12.5623 10.9791
104 2 -0.717454 4.6067 12.8599 10.2992
105 2 -0.778532 6.2521 0.643374 12.9693
106 2 -0.781699 5.82705 2.38183 11.1882
107 2 -0.536011 5.08543 4.14583 7.96619
108 2 -0.577278 4.74172 6.85409 9.8593
109 2 -0.716672 6.12797 4.74734 10.0867
110 2 -0.832553 6.5591 6.2496 7.97124
111 2 -0.794027 1.22063 8.23921 0.699163
112 2 -0.731829 13.4118 6.06746 0.444331
113 2 -0.773865 13.4206 8.26022 13.3108
114 2 -0.75662 0.706813 10.2044 2.12422
115 2 -0.779014 2.20354 8.18537 2.99076
116 2 -0.756183 3.27273 9.67731 0.839895
117 2 -0.878538 1.03646 11.5509 4.44737
118 2 -0.76077 13.7619 9.81049 4.44454
119 2 -0.687694 12.8739 11.5967 3.08374
120 2 -0.626551 2.89933 11.4719 6.42842
121 2 -0.688596 4.68119 7.46104 4.45107
122 2 -0.69715 4.10978 9.12689 6.22306
123 2 -0.744659 5.75739 10.0798 4.53369
124 2 -0.704741 6.5004 8.18945 6.01816
125 2 -0.819871 4.41099 11.9606 0.61786
126 2 -0.578156 2.0725 11.1385 13.2411
127 2 -0.699772 4.61796 10.0847 12.9545
128 2 -0.769166 6.70526 13.3803 1.00252
129 2 -0.654173 6.20886 11.2679 2.12961
130 2 -0.853692 1.16508 7.90545 8.21218
131 2 -0.886378 13.3849 6.32339 8.23051
132 2 -0.721674 13.4227 8.05002 6.53506
133 2 -0.681942 0.532323 9.52291 9.60511
134 2 -0.591485 2.94661 8.41201 10.5635
135 2 -0.595042 2.62481 9.72344 8.13318
136 2 -0.638763 0.105161 11.345 11.6785
137 2 -0.714756 12.4215 9.85046 11.4737
138 2 -0.671883 12.8389 11.9816 9.98892
139 2 -0.693409 5.27032 7.92289 11.8504
140 2 -0.610444 6.3514 8.32884 14.0311
141 2 -0.85282 6.92492 9.5397 11.6766
142 2 -0.736016 4.94315 11.1217 8.21558
143 2 -0.706286 6.54347 13.1012 8.05502
144 2 -0.884603 6.61178 11.5633 9.97807
145 2 -0.780827 8.21723 1.2191 0.445626
146 2 -0.563679 8.14252 12.795 13.5368
147 2 -0.713234 7.76689 3.33547 2.22493
148 2 -0.740296 9.47022 1.29742 3.06369
149 2 -0.689669 10.1675 2.72602 1.24319
150 2 -0.67596 8.40888 5.03188 4.26231
151 2 -0.938889 10.0443 4.18924 5.92819
152 2 -0.895684 10.2928 6.36245 4.64665
153 2 -0.910766 8.35487 6.47983 5.99393
154 2 -0.837265 11.5515 1.14297 4.34127
155 2 -0.716219 9.71052 13.7978 4.68826
156 2 -0.711562 10.9966 13.6633 2.31506
157 2 -0.718209 11.5064 2.20756 6.60235
158 2 -0.696285 11.3029 4.84333 0.785352
159 2 -0.734939 9.25354 4.53918 13.6066
160 2 -0.814271 11.0935 2.38969 13.4081
161 2 -0.910754 11.8281 6.68471 2.39628
162 2 -0.875407 8.29183 0.974974 8.25942
163 2 -0.754235 8.35386 13.121 6.68924
164 2 -0.871545 7.64753 2.64544 9.88451
165 2 -0.732632 10.0837 1.74441 10.1119
166 2 -0.951804 9.70574 2.99303 8.07364
167 2 -0.817126 7.37603 4.41244 11.9667
168 2 -0.744769 7.88184 6.41406 13.4261
169 2 -0.780147 9.41209 5.6578 11.3434
170 2 -0.868661 11.7667 0.900443 11.7468
171 2 -0.718568 9.74444 13.4466 11.1626
172 2 -0.765387 11.4806 13.6984 9.61189
173 2 -0.924738 11.7392 4.3586 7.73826
174 2 -0.860863 11.2393 6.29944 9.48391
175 2 -0.793828 8.19262 8.00923 1.48847
176 2 -0.768763 8.11756 9.66452 3.17619
177 2 -0.829429 10.0742 8.32265 3.12958
178 2 -0.717906 9.4001 10.3631 1.24599
179 2 -0.663788 7.72996 11.8215 4.54563
180 2 -0.654688 9.629 11.0832 5.6326
181 2 -0.762145 11.7797 8.23377 4.73003
182 2 -0.652315 12.0148 10.1464 5.79931
183 2 -0.570164 11.5143 11.4456 0.914615
184 2 -0.700292 10.1322 11.424 12.9479
185 2 -0.616852 11.1188 9.15702 13.5988
186 2 -0.808863 8.18347 8.17675 7.73261
187 2 -0.868323 8.21581 9.85766 9.61578
188 2 -0.867755 9.75679 8.06517 9.76465
189 2 -0.757059 10.2294 9.61147 7.77892
190 2 -0.770354 8.70475 11.336 11.377
191 2 -0.802654 11.5242 7.33981 11.6781
192 2 -0.631288 10.764 11.8271 8.14443
ITEM: TIMESTEP
39000
ITEM: NUMBER OF ATOMS
192
ITEM: BOX BOUNDS pp pp pp
7.1549823674581070e-02 1.4228450176325321e+01
7.1549823674581070e-02 1.4228450176325321e+01
7.1549823674581070e-02 1.4228450176325321e+01
ITEM: ATOMS id type q x y z
1 1 1.75811 0.178902 0.365435 14.0629
2 1 1.67489 1.91724 1.88398 1.849
3 1 1.57914 14.1436 3.38679 3.72209
4 1 1.50712 1.55963 5.51904 5.4739
5 1 1.70765 3.41064 13.9699 3.36818
6 1 1.38674 5.25551 1.8894 5.09961
7 1 1.30634 3.62523 3.65603 14.1633
8 1 1.73433 5.4484 5.3186 1.89454
9 1 1.78793 0.21451 14.0739 7.40165
10 1 1.6759 1.65098 1.99022 9.01368
11 1 1.60462 14.0025 3.6948 10.7036
12 1 1.56636 1.54509 5.49321 12.4744
13 1 1.61754 3.66698 0.283836 10.5955
14 1 1.54401 5.37085 1.83042 12.707
15 1 1.4035 3.60136 3.46852 7.04247
16 1 1.36409 5.46575 5.04083 8.99137
17 1 1.57455 14.1221 7.11993 0.27373
18 1 1.89712 1.86612 8.91746 2.1584
19 1 1.71979 14.0575 10.4766 3.70471
20 1 1.75105 1.52174 12.3706 5.37909
21 1 1.50763 3.44964 6.78893 3.5438
22 1 1.4061 5.31188 8.7327 4.91946
23 1 1.60187 3.54675 10.4082 0.155898
24 1 1.66141 5.47776 12.3744 1.84483
25 1 1.48767 14.1718 7.60645 7.24503
26 1 1.61493 2.34145 8.85304 8.66463
27 1 1.53116 0.562292 10.7121 10.6299
28 1 1.4462 2.1952 12.6123 12.5508
29 1 1.63629 3.37545 6.80299 10.5919
30 1 1.2947 5.06122 8.72785 12.1043
31 1 1.29342 3.92589 10.7101 6.63925
32 1 1.28126 5.52633 12.3885 8.80827
33 1 1.66615 7.14841 0.259777 0.277515
34 1 1.53172 9.24409 1.89082 1.76048
35 1 1.62225 7.38767 3.54304 3.48053
36 1 1.32613 8.55788 5.19015 5.79393
37 1 1.60672 10.8236 0.0662643 3.50699
38 1 1.59809 12.6214 1.64694 5.63667
39 1 1.54946 10.8138 3.90232 0.120296
40 1 1.69624 12.4527 5.47056 2.06639
41 1 1.66187 6.93063 0.0959025 6.77223
42 1 1.33611 8.62409 1.78415 8.71026
43 1 1.5118 7.31357 3.27912 10.8027
44 1 1.3325 8.88257 5.46356 12.2482
45 1 1.49617 10.5064 14.1929 10.3519
46 1 1.62197 12.25 1.93276 12.4423
47 1 1.62111 10.6989 3.51659 7.16458
48 1 1.54349 12.4942 5.46327 8.68964
49 1 1.33459 6.9056 7.02732 14.1461
50 1 1.31577 9.12872 8.73487 1.6619
51 1 1.3484 7.26305 10.4208 3.54794
52 1 1.40104 8.7662 12.6076 5.13108
53 1 1.16523 10.5043 6.91997 3.86989
54 1 1.42402 12.0321 9.05257 5.64249
55 1 1.60991 10.6959 10.888 14.1102
56 1 1.51451 12.8124 12.4484 1.59494
57 1 1.39176 7.09178 7.42447 7.51223
58 1 1.33783 9.12821 9.12897 9.23588
59 1 1.25474 6.99897 11.0853 11.0631
60 1 1.50083 9.08183 12.9168 12.6704
61 1 1.41515 11.1219 7.31372 10.616
62 1 1.49947 12.7666 9.13712 12.5718
63 1 1.56837 10.4925 11.1131 7.22826
64 1 1.65949 12.5993 12.3419 9.1748
65 2 -0.793578 0.777422 1.3621 0.862087
66 2 -0.805672 1.3905 13.8456 13.4114
67 2 -0.894044 13.2921 1.09806 13.1868
68 2 -0.827967 13.696 13.532 0.880113
69 2 -0.783564 0.861532 2.7176 2.6896
70 2 -0.893911 2.42981 0.643087 2.46114
71 2 -0.714139 2.65947 3.12489 1.26317
72 2 -0.641414 0.588787 4.10979 5.12982
73 2 -0.759043 13.7967 2.25618 4.69621
74 2 -0.793962 13.1777 4.28111 2.96585
75 2 -0.643328 2.71801 4.83688 6.36636
76 2 -0.826973 2.23075 6.13375 4.28794
77 2 -0.745459 0.702113 6.52565 6.21621
78 2 -0.74139 4.21762 0.958753 3.87184
79 2 -0.782521 2.61481 13.0585 4.33788
80 2 -0.861341 4.40029 12.9419 2.68656
81 2 -0.837491 4.63298 2.83431 6.12825
82 2 -0.782379 6.36832 2.5801 4.25316
83 2 -0.744297 5.77466 0.423909 5.85874
84 2 -0.76875 4.51304 4.60896 0.895162
85 2 -0.649964 2.9795 4.92252 13.0655
86 2 -0.786355 4.29077 2.24832 13.7604
87 2 -0.807849 4.54918 5.68792 3.02372
88 2 -0.871525 6.43606 4.39146 2.57444
89 2 -0.805598 5.93798 6.5316 1.09812
90 2 -0.911327 1.04254 0.800924 8.23321
91 2 -0.920693 1.07328 13.5309 6.23676
92 2 -0.862693 13.1872 0.707451 6.72584
93 2 -0.875744 13.7692 12.9331 8.25953
94 2 -0.863035 0.984609 2.89922 10.0262
95 2 -0.856359 2.71939 1.15417 9.82936
96 2 -0.716974 2.44567 2.5553 7.70355
97 2 -0.810841 0.555611 4.4589 12.0101
98 2 -0.761915 12.9402 2.55542 11.2112
99 2 -0.805739 13.3201 4.258 9.53212
100 2 -0.788784 1.05416 6.37522 13.5875
101 2 -0.785606 1.99536 6.19507 11.1241
102 2 -0.759676 4.43871 1.28082 11.5229
103 2 -0.761174 3.20908 13.2131 11.4913
104 2 -0.687201 4.82603 13.604 10.0126
105 2 -0.823429 6.24439 0.703325 13.3235
106 2 -0.81823 6.46789 2.72605 11.9851
107 2 -0.678069 4.29242 4.172 8.36732
108 2 -0.676959 4.49358 5.75288 10.084
109 2 -0.765676 6.40002 3.97098 9.72307
110 2 -0.684786 6.10463 6.49338 8.336
111 2 -0.766953 1.1463 7.96679 1.25598
112 2 -0.855786 13.4948 5.89779 1.01817
113 2 -0.819856 13.3234 8.10217 13.6164
114 2 -1.01399 0.897243 9.77491 2.90031
115 2 -0.880688 2.94731 7.9956 2.59192
116 2 -0.824377 2.43502 9.85013 1.10606
117 2 -0.896946 0.690645 11.2994 4.71772
118 2 -0.805202 12.7623 9.66675 4.44717
119 2 -0.764178 13.6239 11.6843 2.86573
120 2 -0.741328 2.45497 11.4904 6.1088
121 2 -0.639358 4.16083 7.52602 4.7676
122 2 -0.678536 4.26819 9.74131 5.36527
123 2 -0.820288 6.14214 9.45896 3.84246
124 2 -0.602474 6.05616 7.93152 6.19271
125 2 -0.773191 4.59834 11.3748 0.906804
126 2 -0.745676 2.62037 11.4137 13.3602
127 2 -0.6824 4.00708 9.35343 13.405
128 2 -0.859028 6.22269 13.2879 0.909396
129 2 -0.694208 6.54622 11.7891 2.90025
130 2 -0.837337 1.224 8.31123 7.77946
131 2 -0.702491 13.6993 6.34768 8.16903
132 2 -0.859394 12.7752 8.35745 6.67425
133 2 -0.776077 1.46076 9.99066 9.48175
134 2 -0.864538 2.9006 7.72596 9.48618
135 2 -0.668295 3.45038 9.47362 7.67208
136 2 -0.742319 1.2046 11.8308 11.3488
137 2 -0.721039 13.9827 9.87026 11.7694
138 2 -0.803454 13.3376 11.3437 10.0008
139 2 -0.844006 4.37035 7.67453 11.3554
140 2 -0.599653 5.78377 7.87083 13.4762
141 2 -0.618302 5.57605 10.312 11.6829
142 2 -0.676598 4.9466 11.4244 7.67072
143 2 -0.67549 6.41438 13.0358 7.67164
144 2 -0.674705 6.64911 11.5676 9.69011
145 2 -0.790507 7.9686 1.49449 0.792148
146 2 -0.842754 8.25224 13.601 13.8621
147 2 -0.778734 8.49006 3.06883 2.48071
148 2 -0.899457 9.92551 1.04069 2.8597
149 2 -0.770754 10.0376 2.68026 0.630115
150 2 -0.756792 7.94218 4.30806 4.71373
151 2 -0.745284 9.42439 3.93689 6.44587
152 2 -0.608539 9.70979 5.8116 4.62248
153 2 -0.711806 7.80824 6.57556 6.47729
154 2 -0.775549 11.6749 0.944547 4.66663
155 2 -0.813181 9.9537 13.1905 4.12005
156 2 -0.704685 11.8514 13.4473 2.3951
157 2 -0.831579 11.6348 2.79287 6.30012
158 2 -0.858888 11.3384 4.77874 1.42038
159 2 -0.724525 10.032 4.70377 13.1714
160 2 -0.807813 11.8268 3.04319 13.3566
161 2 -0.750608 12.1855 6.4975 3.0783
162 2 -0.841656 7.56175 1.0769 7.81428
163 2 -0.824245 7.84585 13.7028 5.78817
164 2 -0.760084 8.01843 2.09872 10.1126
165 2 -0.617391 10.4963 0.941376 9.26391
166 2 -0.678562 9.76958 2.73788 8.44716
167 2 -0.747655 8.39656 4.51376 11.1548
168 2 -0.70666 8.15999 6.57424 13.1864
169 2 -0.610805 9.91486 6.58613 11.3277
170 2 -0.682405 11.0706 1.03385 11.5934
171 2 -0.707911 9.31527 13.4188 11.077
172 2 -0.788376 11.5731 13.08 10.0848
173 2 -0.814237 11.4283 4.72807 7.69301
174 2 -0.839943 11.7431 6.4835 9.47985
175 2 -0.616018 8.0479 7.88875 1.0314
176 2 -0.668716 8.50056 10.084 2.49872
177 2 -0.66534 9.73887 7.57436 2.53766
178 2 -0.712324 9.81097 9.67355 0.342323
179 2 -0.666939 7.8739 11.3941 4.84177
180 2 -0.681112 9.43737 11.9903 6.77933
181 2 -0.568497 10.6253 8.22752 4.92515
182 2 -0.702367 10.9683 10.3184 5.91524
183 2 -0.832892 11.7175 11.5956 0.855463
184 2 -0.759012 10.256 12.0221 13.0453
185 2 -0.770451 11.7588 10.1578 13.3354
186 2 -0.728856 8.16426 8.04768 8.52252
187 2 -0.545363 7.88111 9.87478 10.5736
188 2 -0.716914 10.278 8.52508 10.1977
189 2 -0.762182 9.85414 10.0686 8.19652
190 2 -0.62855 8.20502 11.7823 12.3184
191 2 -0.65748 12.5136 7.91643 11.642
192 2 -0.806322 11.5282 11.9334 8.1115
ITEM: TIMESTEP
40000
ITEM: NUMBER OF ATOMS
192
ITEM: BOX BOUNDS pp pp pp
7.0468908778937411e-02 1.4229531091220956e+01
7.0468908778937411e-02 1.4229531091220956e+01
7.0468908778937411e-02 1.4229531091220956e+01
ITEM: ATOMS id type q x y z
1 1 1.64352 0.177154 0.240597 0.497163
2 1 1.44113 2.30706 1.94431 1.9801
3 1 1.5332 0.491405 3.91388 3.44731
4 1 1.62474 2.26749 5.38059 5.42102
5 1 1.2811 3.8964 14.1445 3.7482
6 1 1.15721 5.6537 1.68556 5.48601
7 1 1.29069 4.00194 3.39658 14.0518
8 1 1.60766 5.18951 5.61043 1.5046
9 1 1.44625 14.0883 14.1386 7.01924
10 1 1.46439 1.74565 1.87728 9.08828
11 1 1.73262 14.0764 3.56521 10.8422
12 1 1.45212 2.02325 5.29817 12.2031
13 1 1.52582 3.61025 0.124174 10.9721
14 1 1.60249 5.75671 1.8169 12.2736
15 1 1.49114 3.65875 3.45116 7.3905
16 1 1.60982 5.42853 5.82245 8.96115
17 1 1.37365 14.2321 7.06241 13.7361
18 1 1.50206 1.65446 8.86232 1.37847
19 1 1.40173 14.2009 11.056 3.24241
20 1 1.50256 1.85762 12.4575 5.19732
21 1 1.4763 3.45823 7.33818 3.4374
22 1 1.59447 5.33669 9.08452 5.3422
23 1 1.44165 3.46241 10.8068 14.1506
24 1 1.42246 5.28812 12.2119 2.00989
25 1 1.36437 0.419688 7.15064 6.99318
26 1 1.26161 1.50156 8.94482 9.10811
27 1 1.53228 13.868 10.9261 10.8492
28 1 1.6278 1.59177 12.6275 12.5386
29 1 1.69954 3.55127 7.47722 10.7245
30 1 1.71477 5.33045 9.15378 12.4702
31 1 1.43617 3.41173 10.6794 7.29658
32 1 1.21499 5.51326 12.4363 8.86254
33 1 1.53798 7.10048 14.2133 0.0945892
34 1 1.50979 8.6574 1.76363 1.91984
35 1 1.54217 6.85024 3.79345 3.50954
36 1 1.34868 8.69886 5.22951 5.58297
37 1 1.52303 10.6229 0.272841 3.83115
38 1 1.54824 12.8107 2.18482 5.064
39 1 1.54299 10.4358 3.40656 14.109
40 1 1.19625 12.4074 5.29454 1.52713
41 1 1.32941 7.65943 14.3689 7.22482
42 1 1.49744 9.10505 1.93087 9.13009
43 1 1.58482 7.02727 3.71399 10.3161
44 1 1.36708 8.84342 5.15318 12.2493
45 1 1.46475 10.612 0.05811 10.8025
46 1 1.59442 12.5063 1.71136 12.7329
47 1 1.54512 10.8433 3.17681 7.12415
48 1 1.38157 12.5319 5.21844 8.81524
49 1 1.28778 7.3152 7.28511 14.1233
50 1 1.49049 8.72044 8.61487 2.35834
51 1 1.58737 7.28088 10.8108 3.81171
52 1 1.49935 9.13516 12.3441 5.51641
53 1 1.42585 10.8472 6.84553 3.60243
54 1 1.28916 12.6576 8.92768 5.05758
55 1 1.41178 10.2392 10.2537 0.20899
56 1 1.29341 11.9956 12.659 1.65816
57 1 1.52413 7.19716 7.40671 7.15334
58 1 1.54871 9.00817 8.75879 9.15545
59 1 1.43274 7.13246 10.6337 10.415
60 1 1.3123 8.69744 12.477 12.4081
61 1 1.68481 10.9099 6.97101 10.8088
62 1 1.68314 12.3178 8.98874 12.4887
63 1 1.29702 10.6673 10.33 7.00675
64 1 1.50259 12.1848 12.3554 8.659
65 2 -0.799798 1.07476 1.13856 1.39816
66 2 -0.831942 1.07581 13.6458 13.4954
67 2 -0.829229 13.3181 1.09007 13.9254
68 2 -0.750993 13.3644 13.3652 1.13393
69 2 -0.730407 1.58325 2.81656 3.13016
70 2 -0.658866 3.25623 0.864164 2.55173
71 2 -0.681987 3.62413 2.62301 1.24141
72 2 -0.790005 1.21215 5.06806 4.44163
73 2 -0.829045 13.8284 3.02038 4.42333
74 2 -0.694009 13.7693 4.48035 2.35192
75 2 -0.741385 3.03381 4.12994 5.94167
76 2 -0.787054 2.9575 6.65008 4.79719
77 2 -0.771731 1.39957 6.06621 6.51462
78 2 -0.560889 4.3522 0.789361 5.48119
79 2 -0.655844 2.60339 13.2193 4.06236
80 2 -0.739346 4.53417 12.917 3.22046
81 2 -0.599065 4.94529 2.88243 6.82948
82 2 -0.673772 5.74803 2.73841 4.13481
83 2 -0.773494 6.93387 0.933654 6.15723
84 2 -0.738865 4.42418 4.73262 0.619073
85 2 -0.565333 2.56748 4.29652 13.4914
86 2 -0.735345 5.31428 2.98061 13.1631
87 2 -0.820797 4.23906 6.55108 2.29357
88 2 -0.783017 6.28772 4.87547 2.61428
89 2 -0.704745 6.08283 6.25884 0.454061
90 2 -0.634147 1.05266 0.795169 7.89248
91 2 -0.723488 0.904751 13.5593 5.96818
92 2 -0.699256 13.4611 1.28451 6.09067
93 2 -0.853941 13.027 13.4442 7.91147
94 2 -0.845419 0.58876 2.70503 9.83974
95 2 -0.716953 2.69464 1.44957 10.2758
96 2 -0.823443 2.73376 2.53875 8.12682
97 2 -0.851868 0.992608 4.35076 11.568
98 2 -0.839495 13.554 2.43251 11.8228
99 2 -0.823073 13.3199 4.67942 10.0689
100 2 -0.726686 1.32179 6.40151 13.0545
101 2 -0.719345 3.25234 6.18186 11.5442
102 2 -0.78522 4.52461 0.805067 12.0623
103 2 -0.846764 2.73275 13.2724 11.55
104 2 -0.684911 4.58625 13.59 9.98171
105 2 -0.809344 6.75782 0.914092 12.9558
106 2 -0.817281 6.16385 2.62095 10.9839
107 2 -0.685269 4.36673 4.64488 8.30766
108 2 -0.831287 4.45255 6.81791 9.62525
109 2 -0.827384 6.26769 5.04366 9.87641
110 2 -0.764242 6.40592 6.29822 7.79527
111 2 -0.702673 0.522974 8.34318 0.467566
112 2 -0.678907 13.4893 6.12378 0.710169
113 2 -0.738201 13.5821 8.15118 12.6829
114 2 -0.697557 0.84121 10.0214 2.21175
115 2 -0.768224 2.29742 8.04671 2.65302
116 2 -0.77805 2.59724 9.41675 0.370166
117 2 -0.78328 1.09076 11.4871 4.31423
118 2 -0.713357 13.4032 9.98754 4.32568
119 2 -0.637193 12.8988 11.8291 2.94854
120 2 -0.756661 2.45719 11.7302 6.50338
121 2 -0.754021 4.50155 8.39619 4.20918
122 2 -0.746848 4.33379 9.75595 6.40832
123 2 -0.843838 6.25534 10.1399 4.96265
124 2 -0.750148 6.05642 7.83751 6.08263
125 2 -0.652297 4.11458 11.9897 0.908578
126 2 -0.775592 2.57142 11.7167 13.3405
127 2 -0.795641 4.77008 10.1892 13.4236
128 2 -0.640479 5.78107 13.4108 1.17159
129 2 -0.760987 6.3804 11.1593 2.5005
130 2 -0.612379 0.90348 7.5 8.53567
131 2 -0.520256 13.4325 6.07712 7.585
132 2 -0.673423 13.6347 8.18107 6.37476
133 2 -0.718518 0.509443 10.1022 9.78796
134 2 -0.720148 2.16914 8.04656 10.3707
135 2 -0.740508 2.74212 9.68639 8.44168
136 2 -0.836069 0.410496 11.6908 12.0696
137 2 -0.762658 12.8521 9.9025 11.327
138 2 -0.767373 12.9081 11.7502 9.82
139 2 -0.904151 4.49948 8.16086 11.6339
140 2 -0.750673 6.37146 8.50873 13.2576
141 2 -0.74276 6.02119 10.0871 11.262
142 2 -0.638142 4.46727 11.6496 7.91191
143 2 -0.548785 6.55381 13.0183 7.81871
144 2 -0.59791 6.31753 11.0331 8.98659
145 2 -0.866669 7.72379 1.1011 0.949503
146 2 -0.748688 7.87533 13.0776 13.7425
147 2 -0.797493 7.96992 2.91508 2.85721
148 2 -0.802332 9.52542 0.870489 3.01547
149 2 -0.748343 9.76037 2.28031 0.790678
150 2 -0.734484 7.44407 4.46842 4.76355
151 2 -0.620521 9.75817 4.25918 6.42543
152 2 -0.579795 9.64069 5.72146 4.3812
153 2 -0.707702 8.27778 6.39595 6.62134
154 2 -0.784658 11.8031 0.992181 4.49572
155 2 -0.771014 10.2574 13.15 4.85961
156 2 -0.680128 11.2179 13.7513 2.47531
157 2 -0.758705 11.6695 3.1569 5.89789
158 2 -0.60715 11.9638 4.00723 0.446858
159 2 -0.826514 9.68487 4.29275 13.2527
160 2 -0.764157 11.3123 2.5509 13.1542
161 2 -0.769102 11.1871 6.10107 2.31228
162 2 -0.77234 8.19959 0.772433 8.68695
163 2 -0.712656 8.798 13.3353 6.63709
164 2 -0.804623 8.34496 3.28585 9.52245
165 2 -0.692725 9.72348 1.51712 10.5769
166 2 -0.896737 10.1171 2.16628 8.03983
167 2 -0.707124 7.47359 4.32502 11.5894
168 2 -0.600148 8.52115 6.57515 12.912
169 2 -0.738062 10.2256 5.80652 11.5612
170 2 -0.725949 11.6559 0.59058 11.8216
171 2 -0.704355 10.0254 13.0538 11.5755
172 2 -0.672312 11.1347 13.4445 9.63072
173 2 -0.748102 11.6434 4.27613 7.92336
174 2 -0.684941 11.8349 6.54323 9.64771
175 2 -0.751393 7.98068 7.67811 1.28108
176 2 -0.847695 8.21273 9.86425 3.09429
177 2 -0.710186 9.6261 7.79738 3.48185
178 2 -0.732362 9.63959 9.17718 1.19562
179 2 -0.792356 7.98851 12.0117 4.35208
180 2 -0.66315 9.21345 10.985 6.13739
181 2 -0.689815 11.8162 7.43817 4.57687
182 2 -0.675741 11.3905 9.34888 5.98132
183 2 -0.648246 11.2804 11.2135 1.10866
184 2 -0.619786 9.36347 11.3605 13.3031
185 2 -0.800812 11.1989 9.47468 13.4974
186 2 -0.780073 7.72162 8.19386 8.44282
187 2 -0.74314 8.37417 9.72177 10.2751
188 2 -0.797997 9.92866 7.69667 9.85376
189 2 -0.65499 9.64622 9.74332 8.09727
190 2 -0.654459 7.42525 11.8309 11.4276
191 2 -0.857586 11.4903 8.05761 11.7176
192 2 -0.743875 11.16 11.314 8.14068
ITEM: TIMESTEP
41000
ITEM: NUMBER OF ATOMS
192
ITEM: BOX BOUNDS pp pp pp
6.8332860520311733e-02 1.4231667139479589e+01
6.8332860520311733e-02 1.4231667139479589e+01
6.8332860520311733e-02 1.4231667139479589e+01
ITEM: ATOMS id type q x y z
1 1 1.43875 14.3275 14.1225 0.0872312
2 1 1.53776 1.66592 1.89141 1.74571
3 1 1.44678 13.9785 3.57917 3.6777
4 1 1.22247 1.20682 5.5935 5.56671
5 1 1.29661 4.00917 0.299765 3.42917
6 1 1.27217 5.43404 2.10435 5.44299
7 1 1.67615 3.45524 3.70734 14.2376
8 1 1.48074 5.18206 5.14375 2.12797
9 1 1.57089 14.265 0.0829057 6.86813
10 1 1.40915 1.70706 1.79347 8.79555
11 1 1.57776 0.258598 3.8513 10.4397
12 1 1.40184 2.06207 5.51123 12.2408
13 1 1.56309 3.67786 14.0186 10.8791
14 1 1.62665 5.14643 1.68325 12.6732
15 1 1.48292 3.47156 3.85598 7.02493
16 1 1.47473 5.48599 5.11505 9.02946
17 1 1.59629 14.2482 6.93912 14.2362
18 1 1.62761 1.69701 8.81318 1.60784
19 1 1.47721 0.544619 10.7141 3.51577
20 1 1.60981 2.17306 12.7569 5.23736
21 1 1.41486 3.2405 6.99256 3.66889
22 1 1.35461 5.27177 8.66564 5.55592
23 1 1.57994 3.67838 10.4973 0.139211
24 1 1.5493 5.47512 12.3602 1.84997
25 1 1.33709 13.6334 7.35069 7.59454
26 1 1.42226 1.68649 8.4895 8.94751
27 1 1.74825 0.0564552 10.6197 10.7863
28 1 1.62217 1.75475 12.2631 12.5273
29 1 1.57097 3.92684 7.16082 10.7627
30 1 1.31028 6.06524 8.81326 12.5343
31 1 1.52494 3.58977 10.6884 7.1771
32 1 1.23761 5.38931 12.2463 9.0815
33 1 1.56289 7.12643 13.9527 13.9933
34 1 1.61033 8.84387 1.80264 1.4119
35 1 1.52947 7.36427 3.31518 3.48184
36 1 1.57651 8.92692 5.45961 4.77644
37 1 1.75296 10.3336 14.0805 3.39143
38 1 1.47471 12.0651 1.65856 5.02272
39 1 1.51929 10.7646 3.89627 14.254
40 1 1.6723 12.335 5.6592 2.00162
41 1 1.3427 6.68873 0.296241 7.44611
42 1 1.38729 8.90595 1.67205 9.1023
43 1 1.54757 7.02133 3.16005 11.0108
44 1 1.58387 8.76359 5.25332 12.3231
45 1 1.37515 11.286 0.264171 10.7967
46 1 1.52134 12.7756 2.18543 12.6958
47 1 1.26835 10.2788 3.79026 7.01086
48 1 1.58503 12.1702 5.12196 8.94817
49 1 1.41829 7.39796 6.85731 0.515524
50 1 1.6875 8.96236 9.176 1.92076
51 1 1.35336 7.01445 10.6043 3.93591
52 1 1.74186 8.55925 12.7138 5.38351
53 1 1.52731 10.9605 7.67279 3.69836
54 1 1.42823 12.4949 9.61669 5.49551
55 1 1.73013 10.7601 10.6465 0.0427301
56 1 1.45951 12.3405 12.3947 1.99345
57 1 1.45591 7.39133 6.88932 7.01319
58 1 1.46603 8.95343 8.90055 8.72525
59 1 1.6599 7.55405 10.6537 10.7281
60 1 1.42938 9.27142 12.5382 12.2655
61 1 1.4918 10.5866 7.12079 10.7245
62 1 1.60862 12.2977 8.86475 12.4185
63 1 1.45419 10.7373 11.4831 7.17267
64 1 1.78191 12.8886 12.4707 8.93044
65 2 -0.858666 0.594731 1.12372 1.02466
66 2 -0.825249 0.885607 13.3982 13.1729
67 2 -0.594527 13.8726 1.04308 13.0424
68 2 -0.668307 12.9778 13.4967 0.87744
69 2 -0.749155 0.934618 2.76855 2.9302
70 2 -0.679301 2.92543 1.14406 2.42355
71 2 -0.784644 2.5453 3.04573 1.13257
72 2 -0.668344 0.014116 4.77821 4.71182
73 2 -0.768922 12.846 2.78856 4.40724
74 2 -0.695467 12.8084 4.44019 2.81149
75 2 -0.607238 2.93419 4.79908 5.97282
76 2 -0.637941 2.12999 6.15898 4.44341
77 2 -0.658322 0.646711 6.78702 6.2191
78 2 -0.67452 5.3082 0.97301 4.31132
79 2 -0.753626 3.07148 13.8384 4.66116
80 2 -0.767097 4.40203 13.347 2.36728
81 2 -0.637091 4.1543 3.10487 5.87707
82 2 -0.714937 6.87812 2.78873 4.89111
83 2 -0.678049 5.89671 1.50534 6.94105
84 2 -0.78262 4.27402 4.78688 0.804007
85 2 -0.745236 2.53508 4.16922 13.1283
86 2 -0.880723 4.40455 2.6015 13.6553
87 2 -0.706597 4.3078 5.65517 3.18614
88 2 -0.681241 6.00552 3.81468 2.63032
89 2 -0.698567 6.45888 5.99498 1.54758
90 2 -0.769715 0.887487 0.786538 7.97935
91 2 -0.859378 1.11025 13.6235 5.71216
92 2 -0.721345 13.1044 0.996251 6.29965
93 2 -0.846945 13.6364 13.1456 7.77941
94 2 -0.759303 0.665458 2.91394 9.2548
95 2 -0.557074 2.38194 0.836651 9.95331
96 2 -0.719387 2.76338 2.62325 7.73204
97 2 -0.773451 1.39058 4.81147 10.8715
98 2 -0.70462 13.6826 2.82587 11.5057
99 2 -0.857081 13.2983 4.60657 9.78413
100 2 -0.764519 1.10818 5.97946 13.434
101 2 -0.841214 3.40417 6.16628 11.7482
102 2 -0.837485 4.23414 1.07008 11.5613
103 2 -0.790557 2.66657 13.3198 11.7142
104 2 -0.753476 4.57223 13.4333 9.7568
105 2 -0.743516 5.88244 0.317461 13.1936
106 2 -0.888267 6.43505 2.2171 12.0264
107 2 -0.748747 4.6439 4.44499 7.85663
108 2 -0.772082 4.74956 6.44137 9.68656
109 2 -0.734505 5.88096 3.96306 9.9232
110 2 -0.614709 6.6711 5.81714 8.13623
111 2 -0.871154 0.682439 8.16156 0.608922
112 2 -0.828871 13.5703 6.09373 1.24104
113 2 -0.733822 13.2812 7.77669 13.1875
114 2 -0.908887 1.10129 9.60613 2.74596
115 2 -0.687236 2.60756 7.56718 2.36843
116 2 -0.843785 2.95281 9.39806 1.00613
117 2 -0.76149 1.45968 11.3924 4.71333
118 2 -0.675401 13.3753 10.0031 4.15355
119 2 -0.7182 13.8682 11.8521 2.74904
120 2 -0.742688 3.02389 11.8054 6.17368
121 2 -0.668293 3.97366 8.05952 4.58287
122 2 -0.75243 4.45083 9.92857 6.19043
123 2 -0.723457 6.41888 9.15906 4.71664
124 2 -0.641474 5.90003 7.43217 6.55229
125 2 -0.805882 4.62532 11.318 1.0871
126 2 -0.837431 2.6603 11.4682 13.5564
127 2 -0.59865 4.82767 9.90817 13.479
128 2 -0.808399 6.52472 13.0384 1.00006
129 2 -0.676437 6.44337 11.9032 3.17007
130 2 -0.817928 0.415615 7.61791 8.70911
131 2 -0.772269 12.4824 6.43311 8.13291
132 2 -0.658678 12.9156 8.37454 6.52286
133 2 -0.701012 1.01867 9.63591 10.0119
134 2 -0.745133 2.721 7.71066 9.91249
135 2 -0.668873 2.56413 9.36741 7.9659
136 2 -0.838876 1.29872 11.1892 11.5642
137 2 -0.844698 13.1524 9.94743 11.5146
138 2 -0.971321 13.6876 11.7747 9.95676
139 2 -0.704868 4.92729 8.25042 11.5064
140 2 -0.726826 6.56295 7.92389 13.7659
141 2 -0.79542 6.65462 10.0967 11.8038
142 2 -0.735901 4.13055 11.2269 8.40757
143 2 -0.609616 5.83064 13.2184 7.77286
144 2 -0.739307 6.92771 11.7336 9.88423
145 2 -0.843095 7.76076 1.00247 0.551439
146 2 -0.777098 7.97292 13.2612 12.8065
147 2 -0.832295 8.27749 2.83691 2.40199
148 2 -0.809415 9.75875 0.795437 2.29479
149 2 -0.707267 10.0246 2.4986 0.785531
150 2 -0.772628 8.18894 4.5793 3.69961
151 2 -0.767217 9.7666 4.9234 5.84781
152 2 -0.737292 10.0717 6.39303 4.0168
153 2 -0.795405 7.88496 6.0938 5.78493
154 2 -0.905351 11.1957 0.92175 3.98621
155 2 -0.898688 9.33256 13.15 4.14806
156 2 -0.822236 11.3393 12.8874 2.95031
157 2 -0.573567 10.9855 2.33271 5.9903
158 2 -0.793514 11.2214 4.97343 1.10446
159 2 -0.744923 9.76502 4.23203 13.1108
160 2 -0.766901 12.0936 3.22622 13.609
161 2 -0.758558 11.8365 6.98899 2.57685
162 2 -0.716573 7.92189 0.622115 8.5869
163 2 -0.738369 7.65067 13.4034 6.27392
164 2 -0.747829 8.1214 2.69139 10.0493
165 2 -0.66757 10.3731 1.02088 9.79916
166 2 -0.591421 9.30632 2.67977 7.86495
167 2 -0.847333 7.80246 4.44551 11.4608
168 2 -0.729681 8.37975 5.93835 13.8172
169 2 -0.844368 9.6014 6.2922 11.7407
170 2 -0.701081 11.6911 1.37004 12.0478
171 2 -0.696131 10.6491 13.2719 11.711
172 2 -0.682803 12.2836 13.8152 9.62694
173 2 -0.766022 11.1767 4.11893 8.19479
174 2 -0.695865 11.3333 5.80732 10.1115
175 2 -0.739395 8.03187 8.04113 1.40354
176 2 -0.788262 8.12286 10.1422 2.7838
177 2 -0.761442 10.1146 8.43495 2.54755
178 2 -0.840129 9.77013 9.55564 0.70718
179 2 -0.716093 7.54109 11.4774 5.09698
180 2 -0.823369 9.71035 12.2927 6.2113
181 2 -0.750526 11.6327 8.62451 4.7571
182 2 -0.75513 11.4667 10.6548 6.08985
183 2 -0.818955 11.6681 11.4119 0.978326
184 2 -0.747947 9.97539 11.8545 13.516
185 2 -0.904336 11.6748 9.93306 13.332
186 2 -0.819956 8.19489 7.77918 7.9784
187 2 -0.836857 8.00022 9.51915 9.78966
188 2 -0.709509 10.1206 8.26316 9.70156
189 2 -0.594946 9.53974 9.97476 7.62756
190 2 -0.788078 8.79809 11.2182 11.4451
191 2 -0.81159 11.6664 8.05032 11.3043
192 2 -0.93983 11.6984 11.8158 8.27497
ITEM: TIMESTEP
42000
ITEM: NUMBER OF ATOMS
192
ITEM: BOX BOUNDS pp pp pp
6.4285599113411251e-02 1.4235714400886536e+01
6.4285599113411251e-02 1.4235714400886536e+01
6.4285599113411251e-02 1.4235714400886536e+01
ITEM: ATOMS id type q x y z
1 1 1.50209 13.8636 0.293001 13.9498
2 1 1.38002 1.98071 1.39064 1.46419
3 1 1.45717 0.510034 3.33883 3.6252
4 1 1.55724 2.15392 5.22749 5.72334
5 1 1.70331 3.49857 13.9683 3.59371
6 1 1.59561 5.22726 1.47334 5.33264
7 1 1.4405 3.70614 3.60176 13.9443
8 1 1.67031 5.2657 5.35367 1.75449
9 1 1.36998 0.451631 14.0006 7.41395
10 1 1.7218 2.00543 1.80716 9.31186
11 1 1.49116 14.2641 3.63209 10.6345
12 1 1.25708 1.69886 5.51195 12.5285
13 1 1.31324 4.10319 -0.0509292 10.6678
14 1 1.44107 5.85848 1.98807 12.3829
15 1 1.46494 3.83517 3.23463 7.43711
16 1 1.60813 5.36213 5.43393 9.04107
17 1 1.70229 0.119035 7.26277 0.383828
18 1 1.64886 2.01485 9.04084 2.01857
19 1 1.46863 13.9846 10.4757 3.54082
20 1 1.7559 1.68636 12.1272 5.34045
21 1 1.40722 3.69104 7.06279 3.81577
22 1 1.63738 5.65825 8.82793 5.73019
23 1 1.37418 3.59223 11.1151 0.22353
24 1 1.44345 5.63312 12.7105 1.91625
25 1 1.39203 0.0617761 7.35341 7.1313
26 1 1.56942 1.95247 9.35159 8.6476
27 1 1.43648 14.2244 10.7073 10.5002
28 1 1.22803 1.61709 12.4608 12.308
29 1 1.35571 3.3122 7.38707 10.5227
30 1 1.39232 4.98287 9.22082 12.4183
31 1 1.62613 3.76125 10.7751 6.7967
32 1 1.48858 5.42704 12.6296 8.34085
33 1 1.31849 7.40079 0.390378 0.308759
34 1 1.6224 8.96066 2.05003 2.45447
35 1 1.60535 6.89812 3.73328 3.74549
36 1 1.57272 8.80527 5.17535 5.7278
37 1 1.4444 11.0816 14.2758 3.78541
38 1 1.32409 12.7258 1.66486 5.78845
39 1 1.3747 10.4517 3.57148 0.331218
40 1 1.49615 12.7642 5.11445 1.79945
41 1 1.48477 7.51776 0.280062 6.73585
42 1 1.47927 9.00981 2.10884 8.85416
43 1 1.7652 7.47659 3.97198 10.6122
44 1 1.4035 8.99259 5.71549 12.6608
45 1 1.29364 10.4416 14.0175 10.6638
46 1 1.41482 11.907 2.1446 12.1276
47 1 1.67708 11.0313 3.59785 7.2132
48 1 1.52066 12.5504 5.68666 9.01401
49 1 1.49398 6.76894 7.1681 -0.105211
50 1 1.44266 8.91504 8.6376 1.61879
51 1 1.51145 7.14491 10.4532 3.39012
52 1 1.3193 8.99387 12.2455 5.02882
53 1 1.15649 10.2688 6.4739 3.35796
54 1 1.28181 12.3023 8.17046 5.02698
55 1 1.33498 10.5024 10.6397 13.9786
56 1 1.40436 12.4354 12.3681 1.6519
57 1 1.4911 7.26051 7.09506 7.52613
58 1 1.40298 8.76215 9.06666 9.22462
59 1 1.48393 6.59052 10.8939 10.5291
60 1 1.43776 8.54912 12.4788 12.3672
61 1 1.53721 10.7782 7.45944 10.7386
62 1 1.67646 12.7542 8.97141 12.601
63 1 1.3452 10.4408 10.2049 6.72787
64 1 1.27337 12.2883 12.2387 8.654
65 2 -0.785946 0.566577 0.976996 0.804812
66 2 -0.632217 0.527317 13.8169 12.6616
67 2 -0.571458 12.7671 1.30627 13.6283
68 2 -0.712722 12.9767 13.4577 0.397263
69 2 -0.654495 1.43074 2.41105 2.84482
70 2 -0.811676 2.64008 0.321745 2.46193
71 2 -0.685836 2.54092 2.35902 0.36482
72 2 -0.619061 1.49023 4.36527 4.49167
73 2 -0.644807 14.0346 2.54643 4.73884
74 2 -0.779535 13.8717 4.35354 2.5969
75 2 -0.808373 3.04761 4.29412 6.52882
76 2 -0.829078 2.86792 6.17724 4.77329
77 2 -0.616491 0.840612 5.71123 6.36081
78 2 -0.912838 4.36819 0.770295 4.32186
79 2 -0.822093 2.32068 13.1893 4.42089
80 2 -0.74139 4.56178 12.9635 3.10009
81 2 -0.783507 4.76258 2.16852 6.70231
82 2 -0.67322 5.70251 2.87932 4.39602
83 2 -0.782636 6.60047 0.999485 5.75151
84 2 -0.729296 4.35157 4.30672 1.2056
85 2 -0.705805 3.0035 4.69152 13.1931
86 2 -0.73529 4.7208 2.93052 13.0424
87 2 -0.828038 4.49174 6.32667 2.66052
88 2 -0.783278 6.3695 4.49441 2.49356
89 2 -0.754147 6.04879 5.82619 0.508019
90 2 -0.639702 1.29731 0.644477 8.66423
91 2 -0.765639 1.53843 12.9472 6.57781
92 2 -0.65883 13.8667 1.09819 6.99554
93 2 -0.679335 13.7502 12.868 8.02999
94 2 -0.845244 0.778611 2.61137 9.7928
95 2 -0.787073 2.91615 1.10007 10.2436
96 2 -0.812265 2.71355 2.38729 8.07551
97 2 -0.797338 0.611465 4.57509 11.6547
98 2 -0.734474 12.8631 2.98666 11.2133
99 2 -0.608295 13.5454 4.53472 9.20044
100 2 -0.683285 1.15055 6.2876 13.9459
101 2 -0.646007 2.18298 6.60533 11.2065
102 2 -0.722625 5.1855 0.651348 11.8463
103 2 -0.509221 2.85504 13.1229 11.2385
104 2 -0.73873 4.88683 13.5738 9.45062
105 2 -0.67782 6.79844 1.69898 13.5653
106 2 -0.779444 6.68067 3.20042 11.6573
107 2 -0.813247 4.54859 4.26919 8.67095
108 2 -0.678084 4.31513 6.03524 9.92488
109 2 -0.866337 6.56259 5.01193 10.0341
110 2 -0.813375 6.02282 6.60214 8.20514
111 2 -0.811658 1.21603 7.93832 1.2474
112 2 -0.816905 13.3167 6.34491 1.12743
113 2 -0.9067 13.6546 8.07514 13.3982
114 2 -0.838247 0.931571 9.99751 2.75136
115 2 -0.787194 2.94292 8.33713 3.0479
116 2 -0.78553 2.62714 9.88999 0.96045
117 2 -0.860434 0.506707 11.5157 4.6323
118 2 -0.622923 13.0997 8.92039 3.85363
119 2 -0.79237 13.1383 11.4186 2.64044
120 2 -0.926526 2.70411 11.0966 5.72573
121 2 -0.754116 4.98013 7.69594 5.15568
122 2 -0.844178 5.02617 10.0345 6.53913
123 2 -0.716782 6.42839 9.62973 4.47388
124 2 -0.768969 6.68005 8.2528 6.71109
125 2 -0.760161 4.63737 12.1056 0.874043
126 2 -0.660813 2.50405 12.0942 13.6866
127 2 -0.735565 4.41389 10.4637 13.1384
128 2 -0.731193 6.4141 14.026 1.50729
129 2 -0.76812 6.17131 11.3667 2.68837
130 2 -0.827316 0.913842 8.20849 8.22906
131 2 -0.756423 13.3047 6.48228 7.95384
132 2 -0.839261 13.2243 7.66339 6.09455
133 2 -0.816879 0.984355 10.2693 9.34114
134 2 -0.659363 3.06277 8.77335 9.8582
135 2 -0.860436 2.99434 9.80038 7.72149
136 2 -0.685788 1.05559 11.5796 11.1466
137 2 -0.823241 13.691 9.90133 11.7701
138 2 -0.597867 12.9658 11.9761 10.061
139 2 -0.59065 3.98235 7.83863 11.84
140 2 -0.767885 5.91133 8.31634 13.2625
141 2 -0.652088 5.32961 9.75842 10.9942
142 2 -0.679206 4.03454 12.0797 7.84431
143 2 -0.71363 6.38628 13.4743 7.24662
144 2 -0.755291 6.05944 11.567 9.3218
145 2 -0.627066 8.6059 0.861635 1.24137
146 2 -0.708979 8.14828 13.5295 13.4605
147 2 -0.82285 7.69456 2.56374 3.03818
148 2 -0.751264 9.8924 1.39899 3.37107
149 2 -0.828034 9.67233 3.09168 1.58574
150 2 -0.898794 7.78773 4.51575 4.68993
151 2 -0.854534 9.74464 4.28499 6.48591
152 2 -0.618606 9.99217 6.22294 5.11762
153 2 -0.87085 7.96779 6.11666 6.52804
154 2 -0.81515 11.7362 0.730736 5.08535
155 2 -0.697317 10.0248 13.4004 4.2723
156 2 -0.742642 11.6949 13.3088 2.65206
157 2 -0.770678 12.1673 2.96633 6.32582
158 2 -0.695504 11.7622 4.37669 0.744235
159 2 -0.590932 9.5727 5.02417 14.005
160 2 -0.723701 11.0905 2.57176 13.3107
161 2 -0.614554 11.5174 6.00562 2.4714
162 2 -0.795063 8.00211 1.24141 7.8414
163 2 -0.577611 8.03139 13.5107 5.45349
164 2 -0.927136 8.41625 3.08774 9.82346
165 2 -0.649093 9.38366 0.952266 10.0679
166 2 -0.843773 10.2579 2.51636 7.94262
167 2 -0.798622 8.3768 4.78984 11.5242
168 2 -0.81929 8.0151 6.68351 13.4634
169 2 -0.671769 10.3269 6.46771 11.8927
170 2 -0.69043 11.5629 0.843393 11.3825
171 2 -0.744493 9.80146 13.0327 11.6664
172 2 -0.569008 10.9294 12.8766 9.28923
173 2 -0.749721 11.5949 4.63945 8.08515
174 2 -0.822364 11.5455 6.25115 10.0231
175 2 -0.630995 7.18108 8.07953 1.15803
176 2 -0.786114 8.22197 9.74109 2.58172
177 2 -0.69303 9.33417 7.49755 2.43507
178 2 -0.682573 9.976 9.42448 0.859184
179 2 -0.57166 7.63265 11.3883 4.76374
180 2 -0.723774 9.62048 11.4694 6.13752
181 2 -0.473337 11.1419 7.73935 3.76742
182 2 -0.69257 11.0636 9.31626 5.70231
183 2 -0.625118 11.217 11.8267 0.602377
184 2 -0.729302 9.2119 11.394 13.2092
185 2 -0.720903 11.6246 9.56132 13.5787
186 2 -0.626596 7.55353 8.01048 9.04979
187 2 -0.669135 8.00929 10.4437 9.90554
188 2 -0.888091 9.91206 8.4556 9.9717
189 2 -0.679064 9.35444 9.56409 7.8284
190 2 -0.752744 7.04619 11.896 11.505
191 2 -0.821947 11.7567 8.38701 11.6012
192 2 -0.660437 11.5756 11.2382 7.70487
ITEM: TIMESTEP
43000
ITEM: NUMBER OF ATOMS
192
ITEM: BOX BOUNDS pp pp pp
5.7068622057305340e-02 1.4242931377942600e+01
5.7068622057305340e-02 1.4242931377942600e+01
5.7068622057305340e-02 1.4242931377942600e+01
ITEM: ATOMS id type q x y z
1 1 1.48368 14.2197 0.159255 0.139905
2 1 1.701 1.8637 1.79982 1.8783
3 1 1.75982 0.0972778 3.56607 3.32971
4 1 1.70084 1.8719 5.18634 4.93069
5 1 1.45207 3.54917 14.3235 3.53146
6 1 1.53804 5.33178 2.05671 5.20544
7 1 1.45856 3.34569 3.45444 14.2194
8 1 1.19062 5.494 5.05939 1.49641
9 1 1.41327 -0.0858579 0.458487 6.94665
10 1 1.52809 2.30369 1.76088 8.80813
11 1 1.4533 14.463 3.45354 10.472
12 1 1.46009 1.70459 5.28286 12.5531
13 1 1.56452 3.21086 14.0966 10.8452
14 1 1.47571 5.12051 1.75869 12.2591
15 1 1.71496 3.61964 3.86949 6.98626
16 1 1.50482 5.61322 5.26495 8.8649
17 1 1.3884 13.9611 7.28588 14.1145
18 1 1.37262 1.829 8.86526 1.69434
19 1 1.34621 0.325796 10.7672 3.65346
20 1 1.38311 1.97625 12.724 5.54451
21 1 1.64454 3.88937 7.06937 3.61842
22 1 1.69195 5.41153 9.00441 5.54637
23 1 1.76905 3.83622 10.5039 14.2019
24 1 1.60739 5.49463 12.2132 1.91758
25 1 1.44557 14.153 6.94481 6.91942
26 1 1.32956 1.76538 8.63384 8.90549
27 1 1.48881 -0.101825 10.7389 10.7096
28 1 1.47206 1.67229 12.3379 12.7374
29 1 1.40359 3.50696 6.82572 10.5103
30 1 1.75724 5.25687 8.57282 12.4332
31 1 1.66465 3.78719 10.5957 7.37952
32 1 1.61737 5.36865 12.428 9.13774
33 1 1.58458 6.89484 13.948 14.0722
34 1 1.71132 8.82953 1.46803 1.47118
35 1 1.35972 7.33877 3.43016 3.5294
36 1 1.69632 8.60438 5.7367 5.17844
37 1 1.5912 10.2381 0.299982 3.74202
38 1 1.58601 12.1854 2.08337 5.1504
39 1 1.57322 10.5832 3.68637 14.5142
40 1 1.5231 12.5625 5.38583 1.73237
41 1 1.25646 7.05196 14.264 7.38689
42 1 1.26077 9.05958 1.7916 9.12603
43 1 1.45737 7.23789 3.48732 10.7316
44 1 1.46638 9.05219 5.44438 12.5099
45 1 1.29028 10.7089 14.2533 10.9438
46 1 1.20479 12.6544 2.09087 12.3848
47 1 1.4513 10.3047 3.60127 6.99878
48 1 1.41861 12.4038 5.09998 8.85195
49 1 1.63617 7.2875 7.22081 14.3181
50 1 1.72743 8.87869 9.19809 1.82092
51 1 1.8562 7.18793 10.6279 3.93444
52 1 1.78262 8.91121 12.49 5.6181
53 1 1.46999 10.7408 7.16474 3.62127
54 1 1.31597 12.3722 9.09512 5.38529
55 1 1.72484 10.9079 10.8361 0.100743
56 1 1.58567 12.4741 12.4741 1.95323
57 1 1.57961 7.08254 7.30357 7.22861
58 1 1.69959 8.95078 8.99024 8.88935
59 1 1.64618 7.15319 10.6119 10.8894
60 1 1.77881 8.9889 12.3297 12.4746
61 1 1.5729 10.6811 7.00805 10.4795
62 1 1.58706 12.1031 8.94032 12.3038
63 1 1.58631 10.7584 10.9254 7.42342
64 1 1.37362 12.6533 12.9807 9.17885
65 2 -0.719748 1.314 1.03739 0.579728
66 2 -0.756438 0.85528 13.1352 13.8151
67 2 -0.638713 13.8165 1.23035 13.1498
68 2 -0.780719 13.1569 13.5444 1.06531
69 2 -0.948484 0.684584 2.44122 2.46333
70 2 -0.817936 2.26002 0.583963 2.69411
71 2 -0.832993 3.00901 2.68813 1.39875
72 2 -0.935597 1.18034 4.00412 4.24213
73 2 -0.750532 13.1871 2.84217 4.20326
74 2 -0.827462 13.2633 4.6061 2.87549
75 2 -0.824354 2.47935 4.45367 6.11292
76 2 -0.879272 3.01296 6.11188 4.37284
77 2 -0.711371 0.843601 6.1391 5.68734
78 2 -0.742659 4.53789 1.45526 3.96176
79 2 -0.753896 3.19032 13.569 4.76743
80 2 -0.712547 4.47142 13.258 2.7235
81 2 -0.690903 4.50171 3.27721 5.80201
82 2 -0.78836 6.48802 2.85004 4.74346
83 2 -0.674858 5.80478 1.22154 6.43379
84 2 -0.599634 3.99869 4.91036 0.820609
85 2 -0.817787 2.25758 4.16502 13.4056
86 2 -0.783054 4.43503 2.68965 13.4766
87 2 -0.605352 4.79873 6.21563 2.78884
88 2 -0.566334 6.10157 4.23905 2.81457
89 2 -0.716334 6.61594 6.15846 1.11704
90 2 -0.663714 1.13074 1.3402 7.95538
91 2 -0.714787 1.00706 13.5325 6.46627
92 2 -0.77523 13.0195 0.941265 6.09405
93 2 -0.680779 13.238 14.0669 8.31149
94 2 -0.751113 1.55254 2.85382 9.90187
95 2 -0.913994 2.67152 0.645135 9.71347
96 2 -0.85564 3.17219 2.63224 7.60736
97 2 -0.700255 0.496995 4.45247 11.7767
98 2 -0.676683 13.1 2.72517 10.8463
99 2 -0.691852 13.7698 4.22366 9.33509
100 2 -0.656695 1.13873 6.64641 13.42
101 2 -0.75079 2.72297 5.63393 11.4483
102 2 -0.796238 3.92816 1.00953 11.796
103 2 -0.782536 2.16242 13.3877 11.6265
104 2 -0.734031 4.70674 12.9929 10.3251
105 2 -0.750792 6.03606 0.676437 12.9619
106 2 -0.762711 6.16956 2.4918 11.1456
107 2 -0.795518 4.6544 4.79377 7.4926
108 2 -0.734583 4.52776 6.34874 9.3932
109 2 -0.860861 6.45918 4.31771 9.80579
110 2 -0.760619 6.66402 6.13749 8.36644
111 2 -0.674279 0.412268 8.44325 1.10704
112 2 -0.825292 13.566 6.08029 0.742329
113 2 -0.759106 13.0723 7.77024 12.8944
114 2 -0.729298 1.30934 9.78949 2.90839
115 2 -0.67685 3.02129 7.90013 2.51503
116 2 -0.820767 2.67143 9.72942 0.628374
117 2 -0.704618 1.22603 11.8308 4.48337
118 2 -0.58988 13.3682 10.31 4.80425
119 2 -0.75376 13.264 11.6619 2.95715
120 2 -0.614934 2.7681 11.7505 6.79532
121 2 -0.774412 4.47045 8.27334 4.40757
122 2 -0.908016 4.47517 10.0412 6.19601
123 2 -0.912104 6.58733 9.49828 4.78921
124 2 -0.815669 5.76676 7.89462 6.597
125 2 -0.910378 4.81823 11.2871 0.889529
126 2 -0.742639 3.11152 11.5405 13.318
127 2 -0.921442 4.4273 9.53166 13.1787
128 2 -0.866281 6.30268 13.1471 1.08106
129 2 -0.922734 6.19871 11.3669 3.20507
130 2 -0.729728 1.16965 7.67027 7.77905
131 2 -0.706899 13.4252 6.29373 8.02319
132 2 -0.701793 13.1456 7.79391 5.96895
133 2 -0.648274 0.54443 9.51548 9.93138
134 2 -0.677432 2.70415 8.20326 10.0455
135 2 -0.735666 2.93845 9.6205 8.33948
136 2 -0.740809 0.71393 11.4605 11.824
137 2 -0.757543 13.0891 10.0273 11.7137
138 2 -0.668613 13.8721 11.8622 9.59456
139 2 -0.767399 4.40935 7.50266 11.507
140 2 -0.868672 6.24348 7.76233 13.2594
141 2 -0.822639 6.20203 9.62405 11.7671
142 2 -0.889462 4.66172 11.5826 8.01381
143 2 -0.721608 6.30565 13.6611 8.63264
144 2 -0.775352 6.43674 11.5313 9.78664
145 2 -0.862708 8.08962 0.544654 0.545547
146 2 -0.829612 7.74665 12.9322 13.2445
147 2 -0.813347 8.09883 2.66142 2.1476
148 2 -0.910129 9.41261 0.620834 2.52351
149 2 -0.766083 10.0745 2.22998 0.836414
150 2 -0.726508 8.00728 4.70092 4.08915
151 2 -0.741579 9.37674 4.66061 6.14884
152 2 -0.856011 9.70911 6.22888 4.28288
153 2 -0.881148 7.75396 6.61309 6.00484
154 2 -0.876647 11.2935 1.34393 4.24735
155 2 -0.903944 9.58161 13.6245 4.84964
156 2 -0.551376 11.3792 13.4679 2.8087
157 2 -0.731432 11.6449 3.12608 6.2198
158 2 -0.854585 11.5013 4.40428 1.25943
159 2 -0.835086 10.0825 4.72028 13.5048
160 2 -0.595388 11.7104 2.95312 13.7105
161 2 -0.660718 12.0597 6.65338 2.85481
162 2 -0.608052 8.39922 0.829076 7.96073
163 2 -0.75608 7.90753 13.2273 6.48803
164 2 -0.794246 8.52841 2.70829 10.4278
165 2 -0.629765 10.1614 0.563018 9.48186
166 2 -0.783786 9.72591 2.80568 8.10012
167 2 -0.63915 7.66461 4.57634 12.2458
168 2 -0.742255 8.3681 6.43625 13.4451
169 2 -0.812026 9.61461 6.49672 11.4992
170 2 -0.618177 11.7714 0.870668 12.1171
171 2 -0.825132 9.84753 13.1651 11.6241
172 2 -0.629691 11.8415 13.1442 10.5423
173 2 -0.65937 11.4685 4.55036 7.76917
174 2 -0.842327 11.5324 5.88926 9.8917
175 2 -0.905857 8.02218 8.29204 0.930539
176 2 -0.924669 8.16717 10.0348 2.97312
177 2 -0.663838 9.9564 8.20388 2.48724
178 2 -0.789201 9.9309 9.93114 1.16246
179 2 -0.868955 7.98608 11.3647 5.12122
180 2 -0.832257 9.97298 11.9084 6.51535
181 2 -0.711296 11.2503 8.33493 4.51251
182 2 -0.663272 11.8602 10.241 6.53165
183 2 -0.880497 11.4082 11.7641 1.11648
184 2 -0.898068 9.90008 11.6361 13.4645
185 2 -0.894573 11.5726 9.62932 13.52
186 2 -0.824505 8.20592 8.23436 7.87719
187 2 -0.805146 7.89753 9.73329 9.87519
188 2 -0.767159 9.97058 7.89367 9.37497
189 2 -0.830021 9.7753 9.82229 7.90611
190 2 -0.855731 8.36735 11.2932 11.4599
191 2 -0.789878 11.2797 8.38777 11.1005
192 2 -0.675495 11.6163 11.9123 8.35426
ITEM: TIMESTEP
44000
ITEM: NUMBER OF ATOMS
192
ITEM: BOX BOUNDS pp pp pp
4.8580709609026052e-02 1.4251419290390873e+01
4.8580709609026052e-02 1.4251419290390873e+01
4.8580709609026052e-02 1.4251419290390873e+01
ITEM: ATOMS id type q x y z
1 1 1.52517 0.236386 -0.0508689 0.114806
2 1 1.42502 1.81794 1.8232 2.11376
3 1 1.44507 14.0727 3.81557 3.79308
4 1 1.16898 1.74995 5.6617 5.62118
5 1 1.32504 3.95819 -0.180564 3.22088
6 1 1.55703 5.57388 1.53028 5.30586
7 1 1.37544 3.79408 3.33407 0.299208
8 1 1.46941 5.47881 5.54126 2.05359
9 1 1.55254 0.115122 13.8358 7.09588
10 1 1.63968 1.60562 1.78219 8.81873
11 1 1.37393 0.225104 3.81964 10.7218
12 1 1.28197 1.8616 5.43332 12.5038
13 1 1.44459 3.49438 0.0658295 10.3985
14 1 1.35041 5.1221 2.00804 12.1247
15 1 1.34413 3.57185 3.62446 7.03893
16 1 1.52624 5.44089 5.44481 8.69092
17 1 1.24131 14.1058 7.19616 14.3014
18 1 1.44219 1.86879 8.95178 1.78747
19 1 1.52524 -0.00613471 10.7883 3.42134
20 1 1.49997 2.07419 12.357 5.08081
21 1 1.38748 3.58147 7.5117 3.85707
22 1 1.59815 5.55181 8.98115 5.56257
23 1 1.44163 3.62004 10.5234 13.8787
24 1 1.44524 5.65946 12.3719 1.46851
25 1 1.62837 0.100077 7.13291 7.54315
26 1 1.7741 1.77966 9.144 9.09852
27 1 1.28701 14.182 10.839 10.9829
28 1 1.54432 1.95126 12.6896 12.272
29 1 1.73053 3.56189 7.22436 10.5111
30 1 1.45986 5.63444 9.02441 12.0928
31 1 1.68041 3.55961 10.6848 7.24592
32 1 1.78601 5.27918 12.6388 8.62325
33 1 1.3758 7.07829 0.379467 14.1458
34 1 1.76664 8.61546 1.82197 2.22272
35 1 1.66007 7.26628 3.79106 4.00942
36 1 1.66651 9.13846 5.48744 5.67061
37 1 1.68022 10.579 14.2932 3.79178
38 1 1.51447 12.5689 1.72377 5.66805
39 1 1.46726 10.466 3.2862 14.3878
40 1 1.4146 12.2487 5.14206 1.75477
41 1 1.45013 7.48074 0.0374238 7.3897
42 1 1.37754 8.85401 1.9001 9.23789
43 1 1.45248 7.08058 3.70585 10.7839
44 1 1.58277 8.88517 5.09451 12.7431
45 1 1.33278 10.8843 14.355 10.5251
46 1 1.29015 12.5143 1.71207 12.5465
47 1 1.67643 10.6229 3.51065 7.38423
48 1 1.39191 12.1906 5.58355 9.31477
49 1 1.49946 7.08724 7.04955 -0.228212
50 1 1.44677 8.95068 8.8183 1.92322
51 1 1.57777 7.11385 10.637 3.61811
52 1 1.3752 9.12193 12.0889 5.35588
53 1 1.4152 10.7198 6.91996 3.52623
54 1 1.62028 12.8892 8.57554 5.32605
55 1 1.58905 10.4141 10.7962 0.304445
56 1 1.42517 12.324 12.6073 1.70907
57 1 1.55997 7.29306 7.22714 7.22103
58 1 1.62284 9.00787 8.97219 8.95617
59 1 1.68356 7.28015 10.8489 10.2417
60 1 1.33808 9.15483 12.4977 12.4425
61 1 1.58743 10.0903 7.13351 10.8823
62 1 1.38834 12.1742 8.82568 12.635
63 1 1.65 10.6239 10.0137 6.88439
64 1 1.43648 12.1248 12.2136 8.50663
65 2 -0.730957 1.15214 1.09084 0.807956
66 2 -0.841605 1.27948 13.2361 13.4314
67 2 -0.712945 13.365 0.561924 13.4304
68 2 -0.769841 13.5159 13.6023 1.2044
69 2 -0.699269 0.933421 2.87271 2.83947
70 2 -0.705645 3.13032 1.20538 2.66321
71 2 -0.635451 2.68203 2.99119 1.34754
72 2 -0.634324 0.332981 4.94219 4.56904
73 2 -0.754544 13.2218 2.64615 4.60019
74 2 -0.703163 13.1592 4.80152 2.84663
75 2 -0.667422 2.57591 4.34194 5.9141
76 2 -0.638305 2.56227 6.43079 4.42147
77 2 -0.68661 1.44823 6.31163 7.20009
78 2 -0.712472 4.67765 0.460952 4.64351
79 2 -0.744086 2.8119 13.1072 3.84058
80 2 -0.741669 5.24135 13.5513 2.42217
81 2 -0.643682 4.75493 2.46794 6.18609
82 2 -0.843409 6.3966 2.53734 4.6383
83 2 -0.590354 6.83999 1.17212 6.44504
84 2 -0.60974 4.87589 4.23506 1.22078
85 2 -0.528473 3.03395 4.71217 13.6187
86 2 -0.74481 4.27626 2.40094 13.4249
87 2 -0.580255 4.16534 6.39842 2.43095
88 2 -0.760807 6.50325 4.93101 2.97899
89 2 -0.693184 5.96767 6.28775 0.824467
90 2 -0.821534 0.851081 0.739585 8.04567
91 2 -0.686348 1.46144 13.3818 6.30742
92 2 -0.804335 13.567 0.593483 6.19822
93 2 -0.73831 13.3347 12.716 7.41178
94 2 -0.75374 0.801051 2.96117 9.39277
95 2 -0.808155 2.42701 1.06227 9.88487
96 2 -0.685965 2.79741 2.46192 7.91463
97 2 -0.769679 1.42746 4.31577 11.5199
98 2 -0.636989 13.5715 2.58254 11.7504
99 2 -0.749626 13.2651 4.737 10.1533
100 2 -0.623442 0.571474 5.98061 13.3605
101 2 -0.752165 2.61688 6.69555 11.5266
102 2 -0.655476 4.35159 1.59672 10.7791
103 2 -0.800777 3.24024 13.1308 11.4127
104 2 -0.897978 4.29366 13.4982 9.28416
105 2 -0.640966 5.99639 1.05769 13.0497
106 2 -0.757433 6.35259 3.06836 11.9482
107 2 -0.804227 4.33899 4.65971 7.82912
108 2 -0.760949 4.53788 6.27066 9.72033
109 2 -0.690042 6.35813 4.95435 9.87092
110 2 -0.827846 6.11858 6.61222 7.85959
111 2 -0.669981 1.25419 8.24262 0.693476
112 2 -0.666052 13.1769 6.29649 1.29951
113 2 -0.733737 13.3689 7.94644 13.1444
114 2 -0.658949 0.401347 9.71519 2.27919
115 2 -0.748293 2.44264 8.13994 3.02178
116 2 -0.74351 2.72552 9.95627 0.826817
117 2 -0.823842 0.956843 11.6346 4.35194
118 2 -0.739003 13.5407 9.66722 4.37753
119 2 -0.778472 13.259 11.6569 2.60126
120 2 -0.738154 2.97291 11.3941 5.89298
121 2 -0.873902 4.78559 8.17928 4.4719
122 2 -0.795157 4.33497 9.72226 6.37056
123 2 -0.757927 6.48005 10.0666 4.94891
124 2 -0.798868 6.7644 8.20928 6.10021
125 2 -0.646291 4.60891 11.793 0.538119
126 2 -0.729948 2.72827 11.508 12.9395
127 2 -0.757778 4.75515 9.68589 13.3062
128 2 -0.714049 6.23761 13.4152 0.480535
129 2 -0.751522 6.12056 11.0604 2.43135
130 2 -0.82682 0.671994 8.07731 8.50191
131 2 -0.732842 13.0779 6.40447 8.10167
132 2 -0.854014 13.9038 7.85077 6.22471
133 2 -0.775244 0.854757 9.72896 10.2244
134 2 -0.893743 2.92293 8.36414 9.67792
135 2 -0.961871 2.45321 9.9262 8.07715
136 2 -0.719346 0.748479 12.262 11.2786
137 2 -0.620182 13.0697 10.0787 11.9353
138 2 -0.557148 13.0996 11.4633 9.71257
139 2 -0.752139 4.45101 8.06442 11.3801
140 2 -0.68244 6.7523 8.13369 12.9104
141 2 -0.82174 6.53932 9.85913 11.0786
142 2 -0.879434 4.59424 11.7095 7.6222
143 2 -0.865627 6.19979 13.4837 7.7105
144 2 -0.873212 6.19345 11.6357 9.39081
145 2 -0.82889 7.67542 1.32955 1.23097
146 2 -0.606199 8.16049 13.6227 13.2731
147 2 -0.833909 8.15866 3.14105 3.05809
148 2 -0.894067 9.44346 0.845947 3.00631
149 2 -0.754609 9.71949 2.43218 1.30658
150 2 -0.840585 8.0711 4.69885 4.88765
151 2 -0.856928 10.106 4.42103 6.25851
152 2 -0.725032 9.50623 6.43651 4.365
153 2 -0.906551 8.44389 6.31595 6.71152
154 2 -0.708794 11.3125 1.00404 4.74452
155 2 -0.671015 10.2039 13.337 5.04942
156 2 -0.769186 11.4209 13.579 2.85928
157 2 -0.788365 11.5756 2.5298 6.62355
158 2 -0.800639 11.7226 3.8984 0.721584
159 2 -0.845991 9.37275 4.18409 13.8871
160 2 -0.623217 10.9898 2.3721 12.892
161 2 -0.69631 10.9126 5.676 2.62382
162 2 -0.769245 8.53428 0.875889 7.97088
163 2 -0.584949 8.26287 13.4054 6.11737
164 2 -0.700468 7.61965 2.92696 9.49557
165 2 -0.774844 9.6999 1.23501 10.393
166 2 -0.765567 9.50196 2.96886 8.28297
167 2 -0.75012 8.3479 4.28952 11.3688
168 2 -0.772378 7.65482 5.77555 13.3926
169 2 -0.855226 9.42103 6.34676 12.1429
170 2 -0.637814 12.0854 0.671511 11.4419
171 2 -0.656036 10.3861 13.2555 11.6294
172 2 -0.763137 11.4116 13.3105 9.28945
173 2 -0.753539 11.4804 4.36118 8.32754
174 2 -0.777715 11.3725 6.68931 10.0292
175 2 -0.663558 7.88596 8.1389 0.620357
176 2 -0.733115 7.88739 9.47702 3.00858
177 2 -0.760274 10.0541 8.0229 2.60188
178 2 -0.80743 9.81862 9.98477 1.42831
179 2 -0.777707 8.19299 11.5628 4.18148
180 2 -0.853827 9.66774 10.7712 5.97908
181 2 -0.737161 12.069 7.58906 4.47043
182 2 -0.778183 11.8985 9.4533 6.26018
183 2 -0.796863 11.0376 12.0313 0.971455
184 2 -0.78226 9.40175 11.4729 13.5326
185 2 -0.75333 11.2676 9.70305 13.588
186 2 -0.634588 7.5568 8.25425 8.50958
187 2 -0.922057 8.28057 10.2697 9.32808
188 2 -0.866398 9.17726 7.94191 10.0589
189 2 -0.908602 10.1705 9.06986 8.022
190 2 -0.683192 7.95674 11.9322 11.3525
191 2 -0.689266 11.0592 8.12219 11.5877
192 2 -0.752441 11.4923 11.1653 7.6234
ITEM: TIMESTEP
45000
ITEM: NUMBER OF ATOMS
192
ITEM: BOX BOUNDS pp pp pp
3.9237134738465684e-02 1.4260762865261462e+01
3.9237134738465684e-02 1.4260762865261462e+01
3.9237134738465684e-02 1.4260762865261462e+01
ITEM: ATOMS id type q x y z
1 1 1.62691 14.1706 0.139184 13.8398
2 1 1.44213 1.65866 1.84632 1.57229
3 1 1.28169 14.0494 3.28858 3.54983
4 1 1.08151 1.57434 5.51854 5.03115
5 1 1.37286 3.20557 14.3939 3.58031
6 1 1.64501 4.93097 1.64495 5.48301
7 1 1.56824 3.86617 3.58844 0.232633
8 1 1.80611 5.5936 5.4847 1.70601
9 1 1.30454 0.0231724 13.8442 7.94596
10 1 1.32716 1.63731 1.7797 9.21761
11 1 1.28763 14.1945 3.68147 10.9122
12 1 1.54237 2.11045 5.14744 12.3772
13 1 1.55465 3.79568 0.539763 10.9335
14 1 1.53896 5.73867 1.75016 12.8769
15 1 1.38434 3.14964 3.75464 7.22264
16 1 1.33135 5.55556 5.27442 9.24759
17 1 1.33428 0.222164 6.91208 0.0788586
18 1 1.47647 1.597 8.93833 2.1769
19 1 1.49793 14.1021 10.8408 3.75434
20 1 1.44524 1.83487 12.5786 5.74792
21 1 1.45359 3.98251 7.0072 3.67173
22 1 1.78513 5.50339 8.92354 5.73847
23 1 1.52724 3.35921 10.9605 0.190316
24 1 1.33752 5.33008 12.295 2.22139
25 1 1.42764 0.0375326 7.31216 6.79209
26 1 1.51564 2.19944 8.77725 8.52021
27 1 1.46251 0.349946 10.3717 10.191
28 1 1.34811 2.13282 12.3375 11.9727
29 1 1.50067 3.74877 7.20911 10.8143
30 1 1.71164 5.00161 9.12868 12.7012
31 1 1.61752 3.94421 10.9687 7.17191
32 1 1.4859 5.47783 12.6068 9.32535
33 1 1.55341 7.18455 13.8681 0.253335
34 1 1.48659 8.55731 1.80955 1.91572
35 1 1.54188 6.9218 3.39166 3.68945
36 1 1.65132 8.85734 5.40256 5.13606
37 1 1.36082 10.7236 0.147975 3.38937
38 1 1.16946 12.7461 1.55586 5.59462
39 1 1.64127 10.121 3.74814 0.0106513
40 1 1.4953 12.2487 5.187 1.64413
41 1 1.43648 7.06126 14.2348 7.04328
42 1 1.32078 9.07471 1.89367 8.84285
43 1 1.69402 7.23621 3.38084 10.7844
44 1 1.41147 8.959 5.67347 12.1076
45 1 1.4907 10.5948 14.1898 10.6957
46 1 1.57695 12.1211 2.18454 12.6177
47 1 1.75387 10.7931 3.85066 6.71753
48 1 1.64396 12.5737 5.53985 8.6011
49 1 1.43114 7.05636 7.17546 13.8871
50 1 1.39138 8.9456 8.99657 1.52153
51 1 1.44912 7.20379 10.3309 3.64588
52 1 1.42297 8.96769 12.4828 5.11453
53 1 1.40137 10.7297 7.22133 3.3749
54 1 1.40803 12.0145 9.16987 5.45965
55 1 1.43726 11.1449 10.9428 0.0411746
56 1 1.74453 12.9486 12.6983 1.70828
57 1 1.66284 7.12765 6.93766 7.20944
58 1 1.40926 8.68605 8.99839 8.97602
59 1 1.60286 7.07331 10.7514 11.1488
60 1 1.69771 9.03024 12.4788 12.6305
61 1 1.44835 10.9701 7.38658 10.4094
62 1 1.27218 13.0822 8.84699 12.413
63 1 1.3515 10.2483 10.7968 7.11131
64 1 1.30608 12.0831 12.11 8.99744
65 2 -0.734016 0.993998 1.01058 0.295355
66 2 -0.575317 0.5713 13.4681 12.6451
67 2 -0.741515 13.3202 1.11073 12.846
68 2 -0.95679 13.6673 13.4829 0.6807
69 2 -0.649774 0.30736 2.40487 2.31139
70 2 -0.765387 2.47132 0.688938 2.2978
71 2 -0.791319 2.70059 2.88703 0.909968
72 2 -0.605145 1.08976 3.99872 3.78941
73 2 -0.621033 13.9868 2.30937 4.84836
74 2 -0.631908 12.7752 4.01719 2.37288
75 2 -0.679516 2.56628 4.6338 6.22415
76 2 -0.647796 2.82697 6.69638 4.6479
77 2 -0.676245 0.366465 6.46461 5.44331
78 2 -0.819481 4.21629 1.08833 4.25065
79 2 -0.736346 2.30591 13.7872 4.76687
80 2 -0.544374 4.57329 13.0319 3.45674
81 2 -0.721253 4.03554 2.67559 6.07787
82 2 -0.672125 6.00416 2.57125 4.82301
83 2 -0.7634 6.05822 1.10112 6.3886
84 2 -0.846423 4.56993 4.54287 1.25919
85 2 -0.718651 3.02207 4.69839 13.4817
86 2 -0.780834 5.13196 2.97751 13.7189
87 2 -0.904632 5.00155 6.3612 2.79273
88 2 -0.831346 6.42012 4.37174 2.57695
89 2 -0.868459 6.00872 6.22817 0.521906
90 2 -0.6741 1.38363 0.224503 8.56049
91 2 -0.636411 0.833656 12.7885 7.05526
92 2 -0.58894 13.5982 0.838905 6.89893
93 2 -0.706127 12.8758 13.1753 8.08308
94 2 -0.689129 0.493919 2.52115 9.96961
95 2 -0.800451 2.89182 1.40863 10.1269
96 2 -0.693647 2.16608 2.98158 8.00354
97 2 -0.7777 1.35268 3.96509 11.7784
98 2 -0.74979 12.7609 3.04536 11.6297
99 2 -0.683134 13.5287 4.61921 9.58093
100 2 -0.709635 0.903275 6.23737 13.1042
101 2 -0.822733 3.01041 6.18706 11.7717
102 2 -0.807479 4.51311 1.25419 12.1219
103 2 -0.720032 3.15634 13.2877 11.6251
104 2 -0.738533 4.77641 13.7903 10.197
105 2 -0.785318 6.40419 0.354083 13.2997
106 2 -0.811961 6.79308 2.5683 11.9622
107 2 -0.561617 4.19452 4.40565 8.57085
108 2 -0.744171 4.98393 6.54373 9.95789
109 2 -0.761333 5.93201 3.95265 10.087
110 2 -0.8042 6.57835 5.86383 8.06703
111 2 -0.712938 1.14016 7.9157 1.26443
112 2 -0.681515 13.6533 5.69704 0.76845
113 2 -0.648708 13.4333 8.0822 13.9122
114 2 -0.798393 0.549619 9.6166 3.14659
115 2 -0.572072 2.95697 7.9008 2.68235
116 2 -0.671255 2.28022 10.1555 1.3802
117 2 -0.676175 0.808954 11.4839 4.94522
118 2 -0.719797 12.6934 10.2309 4.6138
119 2 -0.893967 13.8104 11.841 2.62236
120 2 -0.810739 3.0361 11.9334 6.31843
121 2 -0.670231 4.73 8.32076 4.43201
122 2 -0.921116 4.84664 10.1224 6.25802
123 2 -0.775066 6.62508 9.43111 4.76394
124 2 -0.937631 5.90838 7.80058 6.53616
125 2 -0.695482 4.28237 11.9671 1.02654
126 2 -0.778354 2.66705 11.7391 13.3343
127 2 -0.845693 4.28007 9.86808 13.8906
128 2 -0.720494 6.31426 12.8272 1.10132
129 2 -0.694258 6.17529 11.4767 3.3748
130 2 -0.681438 1.48633 7.63534 7.70267
131 2 -0.788556 13.2604 6.51818 7.7278
132 2 -0.641198 13.386 8.48272 6.42559
133 2 -0.785344 0.929731 9.62398 9.03238
134 2 -0.740724 2.75181 7.91524 9.80593
135 2 -0.788369 3.09026 9.58975 7.6171
136 2 -0.710132 1.41319 11.0538 11.1266
137 2 -0.693308 14.145 9.29141 11.4536
138 2 -0.659835 13.3766 11.4003 9.76873
139 2 -0.831252 4.37057 8.53837 11.5174
140 2 -0.74687 5.8826 7.9946 13.2939
141 2 -0.787472 6.18569 9.93043 12.0314
142 2 -0.801146 4.38062 11.7557 8.41458
143 2 -0.773796 6.35403 13.1678 8.18261
144 2 -0.822947 6.04335 11.7229 10.4877
145 2 -0.742075 7.46376 0.69165 1.31011
146 2 -0.782756 8.52393 13.31 13.9697
147 2 -0.810006 7.49414 2.25302 2.916
148 2 -0.699003 9.90822 1.14745 2.49966
149 2 -0.80669 9.30178 2.64961 0.774098
150 2 -0.756953 8.02261 4.22175 4.57918
151 2 -0.912019 9.92371 4.61228 5.78636
152 2 -0.696945 9.62853 6.06616 3.8693
153 2 -0.848775 7.9181 6.17579 6.16105
154 2 -0.569657 12.0287 0.933809 4.30581
155 2 -0.740066 9.617 13.8164 4.35603
156 2 -0.700025 11.9728 13.7823 2.55152
157 2 -0.666563 11.4267 2.8249 5.76642
158 2 -0.817026 11.2097 4.63407 0.70741
159 2 -0.774846 9.88962 4.88421 13.1592
160 2 -0.811216 10.9957 2.80964 13.5032
161 2 -0.743747 11.6586 6.03337 2.84504
162 2 -0.696993 8.00489 0.981126 7.61656
163 2 -0.666775 7.77683 13.1127 6.05491
164 2 -0.816526 8.34117 2.75669 9.86141
165 2 -0.754596 10.1472 1.07186 9.69951
166 2 -0.678052 10.1357 3.00063 7.83523
167 2 -0.792643 7.90326 4.4519 11.4948
168 2 -0.692993 8.18294 6.84535 12.6528
169 2 -0.695327 9.75022 6.34697 10.8791
170 2 -0.614119 11.1785 1.1137 11.9041
171 2 -0.844812 9.54548 13.43 11.5904
172 2 -0.768708 11.4574 13.028 10.1554
173 2 -0.855537 11.7999 4.58498 7.55182
174 2 -0.808404 11.718 6.55172 9.2785
175 2 -0.661953 8.23861 7.97091 0.241508
176 2 -0.721078 7.65447 9.43091 2.19661
177 2 -0.765425 9.6287 8.2556 2.60341
178 2 -0.706963 10.1838 9.86021 0.712686
179 2 -0.729107 8.29463 11.0796 4.43059
180 2 -0.833107 9.86974 11.971 6.143
181 2 -0.739604 11.5073 8.04258 4.39433
182 2 -0.673306 10.7127 9.46604 6.31787
183 2 -0.86611 11.8766 11.8832 1.01823
184 2 -0.774199 10.2726 11.8865 13.2374
185 2 -0.584335 12.3425 9.95302 13.4246
186 2 -0.769362 8.18824 7.99763 7.76858
187 2 -0.708927 7.95836 9.56879 10.2871
188 2 -0.61355 10.05 8.60101 9.78769
189 2 -0.74162 9.27399 10.193 8.20541
190 2 -0.888651 8.00055 11.479 12.1277
191 2 -0.704605 11.8932 8.20519 11.2759
192 2 -0.615796 11.7238 10.8693 7.96972
ITEM: TIMESTEP
46000
ITEM: NUMBER OF ATOMS
192
ITEM: BOX BOUNDS pp pp pp
2.8962929976946938e-02 1.4271037070022935e+01
2.8962929976946938e-02 1.4271037070022935e+01
2.8962929976946938e-02 1.4271037070022935e+01
ITEM: ATOMS id type q x y z
1 1 1.57694 0.121681 14.1052 0.443815
2 1 1.46814 1.61264 2.09287 2.19368
3 1 1.53388 14.0946 3.88377 4.01098
4 1 1.62002 1.70346 5.53211 5.82752
5 1 1.38046 3.30742 14.017 3.4575
6 1 1.29139 5.68158 1.85019 5.02243
7 1 1.56438 3.53136 3.36242 0.170767
8 1 1.23505 5.23241 5.47417 1.57746
9 1 1.70839 0.178293 0.361153 7.08565
10 1 1.55784 2.02071 2.12927 8.79943
11 1 1.48066 0.210798 3.51858 10.7632
12 1 1.43904 1.8864 5.32395 12.6362
13 1 1.75284 3.46908 14.2805 10.5344
14 1 1.55233 5.26023 1.86816 12.3139
15 1 1.44997 3.9741 3.65678 6.96978
16 1 1.52595 5.48914 5.57998 8.91717
17 1 1.74965 14.0829 7.01004 14.1913
18 1 1.4804 1.85255 8.81751 1.35931
19 1 1.39255 0.191743 10.721 3.3213
20 1 1.35693 1.89166 12.3453 5.57391
21 1 1.55962 3.24173 6.92456 3.36897
22 1 1.31049 4.8147 8.88657 5.03707
23 1 1.38219 3.83332 10.4999 13.7586
24 1 1.37184 5.16977 12.569 1.27291
25 1 1.59233 14.0533 7.33015 7.4101
26 1 1.59049 1.60563 8.71367 9.35168
27 1 1.39642 14.0318 10.8164 10.9374
28 1 1.33185 1.92334 12.6155 12.5789
29 1 1.49309 3.76106 7.07467 10.7319
30 1 1.37649 5.82034 8.6883 12.2223
31 1 1.65342 3.30588 10.3625 7.31028
32 1 1.37439 5.2018 12.3321 8.91964
33 1 1.42412 7.05077 0.0979746 14.0392
34 1 1.3647 9.07942 1.5938 1.68169
35 1 1.37614 7.36669 3.85141 3.38349
36 1 1.42125 8.91195 5.43257 5.53246
37 1 1.60683 10.5833 14.213 3.73153
38 1 1.6207 12.3852 1.7478 5.29207
39 1 1.61102 10.9124 3.42773 14.1699
40 1 1.62005 12.2607 5.54551 1.89046
41 1 1.55878 7.22607 0.0846335 7.22238
42 1 1.51065 8.87712 1.95262 9.18266
43 1 1.67707 7.06561 3.73259 10.882
44 1 1.68902 8.80724 5.15516 12.8515
45 1 1.35036 10.8635 14.252 10.7048
46 1 1.37349 12.8324 1.58154 12.6221
47 1 1.40803 10.6981 3.51798 7.02173
48 1 1.47649 12.5283 5.2737 8.99224
49 1 1.4215 7.47401 7.25124 0.251216
50 1 1.32868 8.81504 8.88018 2.31691
51 1 1.53191 6.83435 10.9698 3.56686
52 1 1.54354 8.83886 12.398 5.42055
53 1 1.54676 10.6169 7.28341 3.93664
54 1 1.56259 12.7987 8.91895 5.19309
55 1 1.56543 10.4569 10.4987 0.0489413
56 1 1.63074 12.1944 12.4183 1.73379
57 1 1.2926 7.12594 7.64583 7.12161
58 1 1.56827 9.4356 8.92942 8.81241
59 1 1.45252 7.5115 10.683 10.4855
60 1 1.56437 8.91358 12.5397 12.4488
61 1 1.54368 10.7909 7.09467 10.8479
62 1 1.60311 12.3783 8.85404 12.62
63 1 1.56707 10.919 10.6623 6.86629
64 1 1.42605 12.6835 12.6122 8.61472
65 2 -0.720117 0.544636 1.00352 1.40932
66 2 -0.660611 1.34549 13.5736 13.7614
67 2 -0.732305 13.7927 0.767007 13.5024
68 2 -0.815611 13.209 13.2342 0.838467
69 2 -0.772836 0.91593 2.87018 3.35854
70 2 -0.716046 2.66638 1.00599 3.08289
71 2 -0.814346 2.36008 2.65201 1.01889
72 2 -0.793771 0.552375 4.93603 4.99601
73 2 -0.862296 13.0857 2.90881 4.65765
74 2 -0.711981 13.3446 4.91145 2.91492
75 2 -0.787166 2.8303 4.59001 6.24792
76 2 -0.708953 2.19124 6.47471 4.65215
77 2 -0.782781 1.08249 6.43921 6.90946
78 2 -0.487235 4.77461 0.845841 3.68428
79 2 -0.746564 2.79923 13.374 4.76574
80 2 -0.617062 3.62025 12.8796 2.36562
81 2 -0.662604 4.52481 2.56554 5.79127
82 2 -0.697823 6.29564 3.05055 4.27825
83 2 -0.7384 6.64313 1.00319 6.12189
84 2 -0.680956 4.61903 4.08045 1.21943
85 2 -0.784099 2.91351 4.35905 13.4848
86 2 -0.783393 4.17918 2.6174 13.2512
87 2 -0.730972 3.96242 5.97178 2.39797
88 2 -0.606847 6.41167 4.7406 2.711
89 2 -0.548772 5.62919 6.80241 0.477074
90 2 -0.786898 0.943581 1.42518 7.89965
91 2 -0.725671 1.10419 13.698 6.18116
92 2 -0.879473 13.3842 1.07725 6.32477
93 2 -0.791735 13.7444 13.6136 8.097
94 2 -0.7828 1.03124 2.53308 9.88652
95 2 -0.816186 2.98009 0.821139 9.38787
96 2 -0.786486 3.18399 2.86081 8.03781
97 2 -0.717732 1.07049 4.7633 11.3701
98 2 -0.660259 13.5935 2.35934 11.2548
99 2 -0.70755 13.4814 4.50636 9.92662
100 2 -0.834261 0.844942 6.00532 13.588
101 2 -0.717049 2.91939 6.26811 11.6914
102 2 -0.812272 4.38461 0.713614 11.4735
103 2 -0.79347 2.41028 13.7116 11.3803
104 2 -0.746789 4.45238 13.0577 10.1885
105 2 -0.729306 6.12632 1.24914 13.4885
106 2 -0.897434 6.24373 2.56538 11.3821
107 2 -0.777732 4.86203 4.7189 7.90208
108 2 -0.678139 4.07755 5.92428 9.79321
109 2 -0.75717 6.36303 5.05665 10.0699
110 2 -0.706508 6.19586 6.8418 8.13682
111 2 -0.882368 0.733316 8.01685 0.668342
112 2 -0.872777 12.9134 6.28463 0.750685
113 2 -0.844911 13.4495 7.69504 13.0323
114 2 -0.698005 1.06443 10.156 2.21747
115 2 -0.771311 2.39611 7.91617 2.54894
116 2 -0.705015 3.15453 9.3733 0.607493
117 2 -0.669619 0.839004 11.2032 4.68347
118 2 -0.712801 13.7281 9.48039 3.94431
119 2 -0.77365 13.1528 11.9004 2.72195
120 2 -0.807892 2.3767 11.3857 6.71659
121 2 -0.757678 4.3425 7.60321 4.1423
122 2 -0.774789 3.75267 9.72105 5.98981
123 2 -0.621878 5.70877 9.82355 4.12545
124 2 -0.596659 6.28674 8.57003 6.06739
125 2 -0.718721 4.8488 11.452 0.275657
126 2 -0.746724 2.72872 11.6181 13.4772
127 2 -0.768248 4.79847 9.77685 12.6631
128 2 -0.784185 5.92496 13.7856 0.729718
129 2 -0.731554 5.95861 11.7614 2.49232
130 2 -0.811357 0.518572 8.31841 8.27524
131 2 -0.787073 13.521 6.31171 8.44116
132 2 -0.791224 12.9682 8.03069 6.47662
133 2 -0.757538 0.979929 9.87416 10.2106
134 2 -0.85489 2.78912 8.00445 10.0102
135 2 -0.758335 2.5973 9.3612 8.20168
136 2 -0.59754 0.475776 11.8267 12.0991
137 2 -0.760637 13.1654 10.1437 11.958
138 2 -0.684325 13.4721 11.793 9.73103
139 2 -0.653242 5.31498 7.2889 11.3204
140 2 -0.703984 6.90985 8.07108 13.2123
141 2 -0.710903 6.69969 9.46897 11.1288
142 2 -0.775984 4.43574 11.1549 8.13476
143 2 -0.642695 5.94571 13.6255 7.82017
144 2 -0.679953 6.42397 11.6645 9.43517
145 2 -0.674665 8.54221 0.568575 0.454492
146 2 -0.745732 7.61262 13.3756 12.9219
147 2 -0.622588 7.85015 2.78405 2.1115
148 2 -0.786737 9.59122 1.03482 2.98977
149 2 -0.738469 10.2277 2.32943 0.901615
150 2 -0.690319 8.12514 5.06636 4.15593
151 2 -0.739332 9.57921 4.10675 6.20234
152 2 -0.753564 10.188 6.26562 5.06802
153 2 -0.62262 7.87657 5.89394 6.50926
154 2 -0.865324 11.7858 0.645891 4.32927
155 2 -0.904975 9.66349 13.245 4.42988
156 2 -0.765608 11.2565 13.4307 2.39504
157 2 -0.746461 11.0975 2.35634 6.18203
158 2 -0.714 11.7398 4.38841 1.01286
159 2 -0.882306 9.93968 4.43353 13.676
160 2 -0.749135 12.138 2.8467 13.5253
161 2 -0.765669 11.3332 6.14737 2.98625
162 2 -0.781285 7.9592 0.988566 8.33828
163 2 -0.794664 7.87699 13.1581 6.48036
164 2 -0.764685 7.88405 3.0319 9.74463
165 2 -0.580386 9.96138 1.39281 10.4677
166 2 -0.711378 9.7714 2.5501 8.22991
167 2 -0.933539 8.05176 4.24175 11.849
168 2 -0.854145 8.23754 6.03953 13.8667
169 2 -0.642188 9.49953 6.3693 12.0376
170 2 -0.639266 11.6026 0.984128 11.8035
171 2 -0.756604 9.82025 13.5041 11.6027
172 2 -0.69237 11.7208 13.6862 9.4299
173 2 -0.722261 12.029 4.36638 7.81821
174 2 -0.751313 11.2596 5.92466 10.1173
175 2 -0.815915 8.07045 7.72401 1.47949
176 2 -0.680337 7.55057 9.8281 2.86237
177 2 -0.798517 9.52849 8.28444 3.6269
178 2 -0.766919 9.89917 9.91929 1.29115
179 2 -0.837707 7.81913 11.4207 4.5622
180 2 -0.829788 9.91146 11.743 6.41048
181 2 -0.762826 11.9362 8.02378 4.21502
182 2 -0.83399 11.954 9.89239 5.91974
183 2 -0.760526 11.3767 11.638 0.574091
184 2 -0.812274 9.58378 11.3436 13.3065
185 2 -0.81793 11.6137 9.39048 13.7935
186 2 -0.756146 8.3877 8.31719 7.71001
187 2 -0.755565 8.74804 10.0022 9.70181
188 2 -0.774761 9.98113 7.74939 9.74828
189 2 -0.761832 10.522 9.62237 8.0165
190 2 -0.771589 8.24086 11.6726 11.381
191 2 -0.878668 11.6568 8.21632 11.4555
192 2 -0.703128 11.7963 11.365 7.91876
ITEM: TIMESTEP
47000
ITEM: NUMBER OF ATOMS
192
ITEM: BOX BOUNDS pp pp pp
2.0838979713475148e-02 1.4279161020286402e+01
2.0838979713475148e-02 1.4279161020286402e+01
2.0838979713475148e-02 1.4279161020286402e+01
ITEM: ATOMS id type q x y z
1 1 1.64834 14.156 14.1195 14.2281
2 1 1.47334 2.17146 1.45847 1.58127
3 1 1.54987 0.133789 3.53738 2.82966
4 1 1.57236 1.85411 5.10788 4.83486
5 1 1.35699 3.78234 14.2434 3.70945
6 1 1.24043 5.34071 1.86014 5.85002
7 1 1.6469 3.59016 3.77029 0.124325
8 1 1.3963 5.65168 5.43631 1.59262
9 1 1.44001 13.9036 14.1115 7.13881
10 1 1.20162 1.20276 1.71333 9.42761
11 1 1.29318 -0.490222 3.93282 11.1444
12 1 1.64031 2.06463 5.39641 12.2425
13 1 1.24523 3.42977 0.396052 10.7876
14 1 1.34789 5.51078 2.2995 12.5994
15 1 1.31047 3.18836 3.52287 7.42977
16 1 1.43315 5.12041 5.25497 8.86861
17 1 1.4389 0.449632 7.24093 13.9978
18 1 1.37986 1.72974 8.58721 2.02489
19 1 1.39572 14.0668 10.6365 3.61225
20 1 1.44378 1.89812 12.4165 5.6655
21 1 1.56239 3.8649 6.93862 3.54639
22 1 1.58024 5.43678 9.10981 5.41789
23 1 1.50788 3.36799 10.8738 0.274801
24 1 1.52945 5.35189 12.4218 2.03163
25 1 1.67273 0.0747041 6.93961 6.56153
26 1 1.58056 1.88036 8.56198 8.43098
27 1 1.27361 0.347581 10.7024 10.3499
28 1 1.33089 1.87524 12.5287 12.4616
29 1 1.57458 3.74346 7.34713 10.5935
30 1 1.41217 5.11039 8.82058 12.8084
31 1 1.52121 3.75831 10.6377 7.30347
32 1 1.46641 5.19914 12.4793 9.10884
33 1 1.32212 7.03857 0.258386 0.54091
34 1 1.72186 9.0727 2.10555 1.98828
35 1 1.28601 7.10091 3.77011 3.71215
36 1 1.52416 8.8826 5.6329 5.54058
37 1 1.30501 10.6681 14.3878 3.64552
38 1 1.37112 12.6414 1.93043 4.92022
39 1 1.48974 10.376 3.80369 14.121
40 1 1.47912 12.6473 5.63032 1.35644
41 1 1.47099 7.22612 13.9981 7.48373
42 1 1.56111 9.18035 1.76893 8.6882
43 1 1.46686 7.32687 3.46395 10.3582
44 1 1.6641 8.87317 5.40898 12.0601
45 1 1.4612 10.7311 14.2249 10.7927
46 1 1.41263 12.266 1.78005 12.6493
47 1 1.48308 10.7939 3.63236 7.0912
48 1 1.38597 12.4875 5.65861 8.58545
49 1 1.62355 7.44349 7.2933 14.0204
50 1 1.61932 9.07067 8.9791 1.90788
51 1 1.80788 7.27648 10.5909 3.57051
52 1 1.43929 9.14563 12.2597 5.42549
53 1 1.63567 10.8801 6.8649 3.49567
54 1 1.60518 12.2051 8.89512 5.34653
55 1 1.56344 10.45 10.8681 -0.0333065
56 1 1.66548 12.4436 12.3531 1.67467
57 1 1.43367 7.16975 7.28922 7.37744
58 1 1.66679 8.82073 8.94792 9.19896
59 1 1.33914 7.18931 10.7922 10.9518
60 1 1.40473 8.97768 12.9535 12.779
61 1 1.37588 10.8112 7.36663 10.7536
62 1 1.17355 12.5568 9.1045 12.5302
63 1 1.70418 10.7562 10.2708 7.44043
64 1 1.43619 12.2335 12.3318 8.97563
65 2 -0.754026 0.846178 0.455859 0.899189
66 2 -0.794128 0.935931 13.5022 13.262
67 2 -0.757605 12.9765 0.837779 13.7887
68 2 -0.816684 13.4785 12.8658 0.675736
69 2 -0.660114 0.999174 2.11987 2.35491
70 2 -0.793405 3.09405 0.998847 2.61616
71 2 -0.857764 2.81398 2.78812 0.83902
72 2 -0.759193 1.19727 4.16686 3.69915
73 2 -0.708402 13.2881 2.96842 3.74457
74 2 -0.745902 13.7976 4.64371 1.9857
75 2 -0.690001 2.39954 4.12326 5.92571
76 2 -0.838868 2.70343 6.08842 3.90828
77 2 -0.795781 0.738892 5.88926 5.53704
78 2 -0.621936 4.32606 0.935749 5.0084
79 2 -0.694146 2.76261 13.2709 4.67087
80 2 -0.807757 4.98603 13.5332 3.00696
81 2 -0.650145 4.37027 2.66785 6.94012
82 2 -0.59647 5.73544 3.1831 4.96023
83 2 -0.64137 6.01643 0.751774 6.85298
84 2 -0.824455 4.72406 4.45816 0.783293
85 2 -0.782135 2.74828 4.96325 13.5021
86 2 -0.748677 4.14922 2.86499 13.1601
87 2 -0.771636 4.86689 6.66403 2.55326
88 2 -0.699139 6.45789 4.30414 2.41109
89 2 -0.669352 6.6659 6.19945 0.441394
90 2 -0.60325 0.344813 0.785034 8.19134
91 2 -0.763993 0.669722 13.0802 6.52341
92 2 -0.700128 13.1939 0.861672 5.97731
93 2 -0.730712 12.9422 13.503 8.26097
94 2 -0.589457 0.149384 2.71443 10.3943
95 2 -0.69455 1.9866 0.588611 10.3127
96 2 -0.645023 2.38452 2.52991 8.56133
97 2 -0.733447 1.0476 4.20688 11.8309
98 2 -0.736804 12.9002 3.0983 12.0417
99 2 -0.628127 12.9134 4.65873 9.75044
100 2 -0.804729 1.25374 6.47735 12.854
101 2 -0.819523 2.95059 6.24453 11.3257
102 2 -0.56776 4.72256 1.09262 11.8626
103 2 -0.559381 3.22233 13.3978 11.7864
104 2 -0.596829 4.44953 13.9783 9.70723
105 2 -0.57038 6.21971 1.65004 13.9765
106 2 -0.705427 6.68781 2.82362 11.6392
107 2 -0.794209 3.82924 4.80656 8.13332
108 2 -0.707327 4.94728 6.45634 9.94369
109 2 -0.708745 6.09336 4.39282 9.76777
110 2 -0.651693 6.38799 5.8916 8.18954
111 2 -0.708571 1.30286 8.32761 0.482192
112 2 -0.798469 13.7856 6.51502 0.771608
113 2 -0.714139 13.4429 8.00258 13.0475
114 2 -0.619638 0.725829 9.20657 3.19025
115 2 -0.709549 2.85986 7.79598 2.55947
116 2 -0.535978 2.38388 10.0048 1.37055
117 2 -0.587285 1.05888 11.407 4.44968
118 2 -0.78792 13.05 9.94113 4.51299
119 2 -0.797144 13.1403 11.184 2.46837
120 2 -0.743705 2.7581 11.3377 6.14871
121 2 -0.706353 4.61998 7.86131 4.83947
122 2 -0.816748 4.94712 10.2057 6.43878
123 2 -0.875331 6.4973 9.64599 4.38801
124 2 -0.699252 6.04871 8.21819 6.50592
125 2 -0.69858 3.88574 11.4454 1.56648
126 2 -0.803811 2.69981 11.7868 13.5026
127 2 -0.715049 4.13307 9.6951 13.9105
128 2 -0.776313 6.06333 13.2264 0.99815
129 2 -0.863208 6.19645 11.3325 2.69322
130 2 -0.853481 1.21154 7.42139 7.40208
131 2 -0.774236 13.3053 6.0727 7.18326
132 2 -0.760191 13.4172 8.13601 6.13923
133 2 -0.706848 1.06917 9.64863 9.15221
134 2 -0.851537 2.63816 7.97951 9.6103
135 2 -0.79408 2.76051 9.49698 7.53738
136 2 -0.591314 1.52603 11.482 10.8813
137 2 -0.563757 13.7032 10.2913 11.7632
138 2 -0.642053 13.5986 11.8325 9.87702
139 2 -0.821936 4.29963 8.0545 11.8277
140 2 -0.760852 6.12387 7.92158 13.5339
141 2 -0.572392 6.55025 10.0531 12.1715
142 2 -0.821653 4.213 11.4834 8.61051
143 2 -0.810227 6.40151 12.9758 8.35038
144 2 -0.692191 6.03515 11.5688 10.3144
145 2 -0.765338 8.08788 0.994098 1.4553
146 2 -0.621133 7.958 13.9523 13.553
147 2 -0.800897 8.31102 3.05091 2.95477
148 2 -0.794343 9.96391 1.15118 2.64251
149 2 -0.811073 9.9472 2.78372 0.929334
150 2 -0.689204 7.78461 4.83922 4.71803
151 2 -0.783959 9.66171 4.64708 6.65189
152 2 -0.782078 9.86071 6.02464 4.23138
153 2 -0.79471 7.99293 6.52934 6.25452
154 2 -0.686674 11.9569 0.999698 3.97532
155 2 -0.781973 10.0192 13.1216 4.64603
156 2 -0.663458 11.8384 13.3455 2.61838
157 2 -0.663252 11.3549 2.67559 5.86872
158 2 -0.733193 11.5535 4.74819 0.146963
159 2 -0.770766 9.11831 4.69039 13.3338
160 2 -0.636724 10.9572 2.61335 13.2716
161 2 -0.84839 11.8812 6.04692 2.52894
162 2 -0.805082 8.11689 0.610289 8.26309
163 2 -0.678368 7.77703 13.3363 6.10807
164 2 -0.767728 8.00953 2.39836 9.36153
165 2 -0.706078 9.8968 0.933132 10.0285
166 2 -0.851205 10.2897 2.55111 8.12036
167 2 -0.779158 8.48402 4.25434 11.2045
168 2 -0.740435 7.85901 6.49283 12.6753
169 2 -0.849805 9.97684 6.28262 11.3579
170 2 -0.669797 11.9799 0.801593 11.3611
171 2 -0.71649 10.1906 13.8347 12.2895
172 2 -0.739162 11.0112 12.9444 9.86592
173 2 -0.670899 11.9607 4.25145 7.84528
174 2 -0.694808 12.0018 6.78975 9.38487
175 2 -0.793514 8.37002 7.8585 0.789962
176 2 -0.956524 8.11337 9.67374 2.78375
177 2 -0.739491 9.83892 7.76568 2.50663
178 2 -0.832988 10.1132 9.82715 1.04924
179 2 -0.829757 8.37498 11.4145 4.43454
180 2 -0.765461 9.80375 11.2594 6.62461
181 2 -0.876844 11.6103 7.71367 4.44396
182 2 -0.918964 11.2637 9.25395 6.52898
183 2 -0.804296 11.3127 11.8388 0.74815
184 2 -0.721012 9.2928 11.9748 13.9521
185 2 -0.692042 11.2048 10.1066 13.1304
186 2 -0.86632 8.10711 8.28934 8.04653
187 2 -0.778883 7.93584 9.37569 10.3445
188 2 -0.714026 9.67373 7.77667 9.66908
189 2 -0.834477 9.92515 9.94346 8.80301
190 2 -0.661246 8.16976 11.9001 11.8053
191 2 -0.671038 11.3856 8.67849 11.3473
192 2 -0.848348 11.7829 11.2293 7.9165
ITEM: TIMESTEP
48000
ITEM: NUMBER OF ATOMS
192
ITEM: BOX BOUNDS pp pp pp
1.4143134142930336e-02 1.4285856865856996e+01
1.4143134142930336e-02 1.4285856865856996e+01
1.4143134142930336e-02 1.4285856865856996e+01
ITEM: ATOMS id type q x y z
1 1 1.64036 14.3206 0.15676 0.0837089
2 1 1.73542 1.56561 2.03601 1.8619
3 1 1.63667 14.2448 3.49578 3.99713
4 1 1.51838 2.03068 5.35031 5.44053
5 1 1.67941 3.41506 0.191928 3.4094
6 1 1.55037 5.34489 1.78066 5.3616
7 1 1.55981 3.79403 3.2842 0.0915363
8 1 1.37552 5.33232 5.36009 1.88299
9 1 1.51104 0.156611 -0.0286311 7.29283
10 1 1.37212 1.83648 2.02908 8.76316
11 1 1.40524 14.3841 3.58653 10.7302
12 1 1.53668 1.82663 4.89222 12.8616
13 1 1.27564 3.66802 -0.00394254 10.2326
14 1 1.27898 5.49397 1.51103 12.4005
15 1 1.75982 3.91589 3.726 7.11655
16 1 1.71071 5.40362 5.44855 9.05814
17 1 1.33988 14.149 6.80148 0.600759
18 1 1.46656 1.59587 9.10031 1.53809
19 1 1.35589 0.254451 11.0735 3.49044
20 1 1.50282 1.96509 12.6795 5.48846
21 1 1.47579 3.35941 7.24121 3.49103
22 1 1.71057 5.09982 8.83001 5.20209
23 1 1.34844 3.33181 10.6884 13.7685
24 1 1.22839 4.93991 12.6791 1.29656
25 1 1.55755 14.107 7.08333 6.87759
26 1 1.38567 1.6947 8.9791 8.9061
27 1 1.42168 0.125757 10.597 10.912
28 1 1.67466 1.74565 12.896 12.316
29 1 1.39996 3.27323 6.83697 10.7279
30 1 1.41501 5.41582 8.83834 12.245
31 1 1.47133 3.64985 10.703 7.23191
32 1 1.46146 5.89572 12.381 9.0267
33 1 1.37861 7.39142 14.1028 14.0388
34 1 1.55182 9.05288 1.99973 1.6325
35 1 1.44708 7.0353 3.40071 3.42457
36 1 1.37184 8.6866 5.12993 5.29846
37 1 1.613 10.6697 0.254097 3.80413
38 1 1.70555 12.4978 1.55285 5.74475
39 1 1.29456 11.1694 3.67894 0.212437
40 1 1.54375 12.4285 5.39941 2.63005
41 1 1.41814 7.10931 14.1335 6.90292
42 1 1.33747 8.48945 1.89689 8.63215
43 1 1.51572 7.15702 3.61897 10.8682
44 1 1.43384 8.88087 5.22393 12.8273
45 1 1.17844 10.653 0.160139 10.4506
46 1 1.18664 12.4068 1.87995 12.4723
47 1 1.35669 10.8055 3.55388 7.08793
48 1 1.15985 12.7081 5.37455 8.88754
49 1 1.51588 7.15416 7.34117 0.0236265
50 1 1.25879 8.76098 9.03942 2.02305
51 1 1.38958 6.56881 10.8628 3.3069
52 1 1.37758 8.7817 12.3696 5.06313
53 1 1.22348 10.2632 7.13244 3.68541
54 1 1.32896 12.3935 9.00326 5.31814
55 1 1.36527 11.0252 10.7455 0.0368507
56 1 1.45044 12.3927 12.8214 1.92678
57 1 1.6782 6.91524 7.05623 6.94942
58 1 1.3808 8.90572 8.80884 8.42684
59 1 1.19812 7.53997 10.484 10.5723
60 1 1.6364 9.30556 12.2938 12.4332
61 1 1.37361 10.3589 6.91361 10.7142
62 1 1.37872 12.606 8.56898 12.7912
63 1 1.49134 10.7165 11.0781 7.11687
64 1 1.18234 12.5714 12.4985 9.24651
65 2 -0.892791 0.569833 1.26181 0.957269
66 2 -0.932979 1.08213 13.7566 13.32
67 2 -0.63914 13.0643 0.922266 13.6385
68 2 -0.743869 13.3364 13.5871 0.847831
69 2 -0.852483 0.6975 3.00531 2.68562
70 2 -0.882245 2.19879 1.00726 2.77719
71 2 -0.801297 2.80057 2.75302 1.26359
72 2 -0.776628 0.933187 4.19249 4.99963
73 2 -0.795032 13.5795 2.46632 4.94939
74 2 -0.821378 13.2322 4.62429 3.57893
75 2 -0.813583 2.82086 4.63393 6.60249
76 2 -0.856163 2.91587 6.18071 4.54413
77 2 -0.735942 1.15447 6.46728 6.35699
78 2 -0.785226 4.12212 1.14468 4.39052
79 2 -0.838805 2.91263 13.4136 4.28341
80 2 -0.742334 4.38358 13.9161 2.3131
81 2 -0.860304 4.69385 3.13878 6.01656
82 2 -0.694789 6.47058 2.155 4.32905
83 2 -0.790896 5.99264 0.950349 6.36792
84 2 -0.712359 4.27362 4.46624 0.916452
85 2 -0.829741 2.70691 3.76592 13.466
86 2 -0.728168 5.04812 2.49321 13.8146
87 2 -0.619187 4.19251 6.3386 2.34064
88 2 -0.836578 6.14515 4.54367 2.99649
89 2 -0.621596 6.05087 6.55694 0.996334
90 2 -0.802379 0.671938 1.22567 8.05226
91 2 -0.817956 0.726371 13.4331 6.20115
92 2 -0.788892 13.0084 0.54289 6.80115
93 2 -0.550053 14.0342 12.94 8.25257
94 2 -0.680627 1.37803 3.1354 9.88437
95 2 -0.64495 2.99423 0.824528 9.01821
96 2 -0.754716 2.9484 2.80469 7.93228
97 2 -0.759027 0.922247 4.12273 11.9362
98 2 -0.667483 13.4539 2.32791 11.3469
99 2 -0.661535 14.0313 4.82946 9.79191
100 2 -0.625111 0.703064 5.45579 13.823
101 2 -0.695849 2.87548 5.89007 12.0421
102 2 -0.709276 4.5253 0.937372 11.3717
103 2 -0.710564 2.28467 13.4665 10.958
104 2 -0.703859 4.6082 13.13 9.62791
105 2 -0.626893 6.52976 0.175978 12.6675
106 2 -0.736914 6.08014 2.75833 11.6439
107 2 -0.856774 4.98709 4.30681 8.06672
108 2 -0.775063 4.13618 5.96526 9.59126
109 2 -0.755114 6.33582 4.86618 10.1518
110 2 -0.804658 6.12904 6.54963 8.18825
111 2 -0.72098 1.03561 7.92838 0.727679
112 2 -0.736176 13.6175 6.27719 2.06645
113 2 -0.739333 13.431 7.70884 13.9649
114 2 -0.731024 1.10735 10.3722 2.44411
115 2 -0.716271 2.54398 8.22729 2.46418
116 2 -0.704238 2.2221 10.1773 0.541416
117 2 -0.675787 1.27816 11.5452 4.77914
118 2 -0.531134 13.8668 9.61825 4.29998
119 2 -0.717695 13.5901 12.1583 3.02072
120 2 -0.788507 2.7825 11.8122 6.54534
121 2 -0.839957 4.46397 8.24458 4.04535
122 2 -0.75145 4.19239 9.51124 6.22592
123 2 -0.749773 5.92211 9.96477 4.42014
124 2 -0.851813 5.9222 7.73027 5.99574
125 2 -0.719292 4.33575 11.6909 0.122583
126 2 -0.715689 2.61471 11.6786 12.7823
127 2 -0.648642 4.19471 9.58799 12.4872
128 2 -0.636392 6.43052 13.301 0.64621
129 2 -0.67154 5.63646 11.8261 2.61779
130 2 -0.613286 0.708983 8.08581 7.97412
131 2 -0.718996 13.2364 6.66293 8.05373
132 2 -0.791767 13.3293 8.06312 6.10697
133 2 -0.762445 1.15026 10.0278 9.97043
134 2 -0.643349 2.65831 7.98108 9.82667
135 2 -0.626557 3.01574 9.54644 8.13278
136 2 -0.707576 0.838549 11.8436 11.8506
137 2 -0.638213 13.7794 9.66997 12.1746
138 2 -0.670222 13.2429 11.1579 9.97509
139 2 -0.605021 4.46398 7.5704 11.4696
140 2 -0.776042 6.44516 8.43531 13.4521
141 2 -0.657209 6.42281 9.7507 11.3484
142 2 -0.639406 4.95497 11.0467 7.99952
143 2 -0.863101 6.75241 13.2365 8.15066
144 2 -0.716576 6.76083 11.9076 10.1126
145 2 -0.701233 8.06599 1.11689 0.651084
146 2 -0.739087 8.1381 12.9717 13.2751
147 2 -0.836849 8.11613 2.74834 2.48251
148 2 -0.724535 10.0064 1.18985 2.71966
149 2 -0.756181 10.2171 2.50848 0.694415
150 2 -0.631322 8.12388 3.74066 4.72925
151 2 -0.658775 9.97583 4.72331 5.96435
152 2 -0.669758 9.00622 6.21414 3.96638
153 2 -0.782554 7.87528 5.88502 6.4195
154 2 -0.908086 11.7304 0.74932 4.74367
155 2 -0.668428 9.84956 13.1064 3.99814
156 2 -0.72045 11.5981 13.9224 2.79928
157 2 -0.834271 11.7506 2.77292 6.27653
158 2 -0.76768 11.9578 4.7295 1.36506
159 2 -0.656338 9.98962 4.75076 14.0802
160 2 -0.627705 12.0803 3.37843 13.1456
161 2 -0.742626 11.4457 6.19265 3.71128
162 2 -0.662171 8.02357 1.15608 7.28583
163 2 -0.694913 7.94158 13.6288 5.6685
164 2 -0.77049 7.8843 2.95059 9.60709
165 2 -0.607633 9.39707 0.718202 9.50806
166 2 -0.602299 9.90285 2.40013 8.16817
167 2 -0.782188 8.15192 4.25892 11.9114
168 2 -0.838018 7.97084 6.28184 13.5692
169 2 -0.730388 9.48054 6.05809 11.517
170 2 -0.536244 10.8274 1.10342 11.6491
171 2 -0.670017 10.2789 13.1921 11.7045
172 2 -0.608337 12.2134 13.9244 10.0717
173 2 -0.644693 11.7783 4.16119 8.1312
174 2 -0.605216 11.1567 6.03248 9.86331
175 2 -0.704151 7.61234 7.90254 1.34695
176 2 -0.664172 7.84875 9.90295 3.03187
177 2 -0.718427 9.89527 8.51451 2.89435
178 2 -0.580554 9.59434 10.1904 1.08584
179 2 -0.614039 7.52592 12.0822 4.2792
180 2 -0.831523 9.8421 11.641 6.06581
181 2 -0.57409 11.0905 8.26826 5.08577
182 2 -0.623232 11.9676 10.2586 6.26208
183 2 -0.727059 11.9668 11.656 0.98598
184 2 -0.749218 10.3073 11.8664 13.4932
185 2 -0.790517 11.6565 9.54572 13.4614
186 2 -0.773577 7.89046 8.11343 7.49005
187 2 -0.610888 7.66164 9.38894 9.23801
188 2 -0.676761 9.54113 7.8752 9.66401
189 2 -0.743436 10.0799 9.81126 7.80946
190 2 -0.749732 8.87292 11.1116 11.6778
191 2 -0.64375 11.8423 7.51542 11.9173
192 2 -0.72407 11.3711 12.0087 8.24833
ITEM: TIMESTEP
49000
ITEM: NUMBER OF ATOMS
192
ITEM: BOX BOUNDS pp pp pp
9.3101938881279267e-03 1.4290689806111825e+01
9.3101938881279267e-03 1.4290689806111825e+01
9.3101938881279267e-03 1.4290689806111825e+01
ITEM: ATOMS id type q x y z
1 1 1.45918 0.167641 14.1332 0.424466
2 1 1.53804 1.82736 2.01026 1.9751
3 1 1.80342 14.0877 4.0098 3.26353
4 1 1.64642 1.74495 5.35795 5.22935
5 1 1.45128 3.58795 0.17193 3.74576
6 1 1.53658 5.36574 1.8341 5.6464
7 1 1.62715 3.25118 3.97959 14.3327
8 1 1.52806 5.47014 5.36875 1.84853
9 1 1.51378 14.3098 0.261163 6.84446
10 1 1.41827 1.83677 1.73647 9.06202
11 1 1.50565 14.1896 3.58097 10.7169
12 1 1.703 1.62317 5.50385 12.3652
13 1 1.57484 3.61314 -0.0405172 11.0181
14 1 1.39148 5.11285 1.95728 12.8165
15 1 1.72671 3.29994 3.73431 7.08352
16 1 1.31713 5.04893 5.43315 8.7821
17 1 1.5248 14.325 7.594 13.8883
18 1 1.47869 1.93229 8.86945 1.8788
19 1 1.3517 14.1457 10.4554 3.40303
20 1 1.40078 1.62129 12.4413 5.16425
21 1 1.42739 3.63409 7.20748 3.70213
22 1 1.17018 5.67964 8.93195 5.84615
23 1 1.54779 3.99847 10.4548 0.219986
24 1 1.4712 5.48103 12.3809 2.31383
25 1 1.51757 -0.0001108 6.84642 7.15418
26 1 1.48827 1.57319 9.09401 8.77298
27 1 1.36422 0.152909 10.9797 10.8414
28 1 1.49341 2.05322 12.4129 12.9956
29 1 1.71822 3.42929 7.4108 10.6441
30 1 1.21551 5.57163 8.95583 12.1885
31 1 1.54573 3.26883 10.6833 6.93201
32 1 1.28396 4.64642 12.5547 8.81662
33 1 1.48481 6.94416 0.284388 0.385079
34 1 1.69977 9.1844 2.0162 1.92188
35 1 1.51444 7.19064 3.35564 3.62038
36 1 1.44577 9.11156 5.01031 5.20165
37 1 1.66805 10.5453 0.0956394 3.77331
38 1 1.81426 12.4806 2.12348 5.01222
39 1 1.69103 10.8126 3.48744 14.04
40 1 1.60137 12.5745 5.66051 1.13568
41 1 1.27688 7.18156 14.0802 7.35387
42 1 1.6432 8.9118 1.72479 9.18561
43 1 1.32336 7.01771 3.60191 10.8706
44 1 1.50371 8.94378 5.24222 12.4038
45 1 1.57043 10.8877 14.0842 10.8445
46 1 1.83085 12.7155 1.58635 12.5182
47 1 1.62004 10.6047 3.21002 7.13081
48 1 1.28061 12.4113 5.24257 8.56729
49 1 1.11907 7.19148 7.22604 -0.15799
50 1 1.35375 8.77246 8.65454 1.98421
51 1 1.29564 7.49003 10.4066 4.07293
52 1 1.28541 9.28074 12.2882 5.75517
53 1 1.63368 10.7218 6.59135 3.2007
54 1 1.53674 12.4261 8.28055 5.02005
55 1 1.46691 10.2879 10.7606 -0.127894
56 1 1.32163 12.2943 12.4669 1.6002
57 1 1.3213 7.36516 6.88388 7.33043
58 1 1.43709 9.00999 9.02932 8.88684
59 1 1.12145 7.16657 11.1194 10.3945
60 1 1.42167 8.73359 12.9393 12.7211
61 1 1.33804 10.7444 7.17884 10.8206
62 1 1.24137 12.5533 9.25997 12.2527
63 1 1.29269 11.3707 10.1916 7.21244
64 1 1.378 12.6287 12.6637 8.82542
65 2 -0.736862 0.907717 0.885901 1.46319
66 2 -0.7969 1.19124 13.0871 14.1013
67 2 -0.75279 13.6657 1.28969 13.5595
68 2 -0.812154 13.3423 13.4411 1.0153
69 2 -0.818012 0.730803 2.84458 2.85471
70 2 -0.787419 2.95223 1.13424 2.79221
71 2 -0.856661 2.61763 3.06247 1.10817
72 2 -0.849104 0.504505 4.85083 4.23436
73 2 -0.910836 13.1595 3.15782 4.14228
74 2 -0.894445 13.2326 4.89632 2.3258
75 2 -0.863281 2.23631 4.12276 6.07037
76 2 -0.788438 3.00176 6.07791 4.58436
77 2 -0.838711 1.0112 6.24947 6.11832
78 2 -0.809691 4.61263 0.84704 4.85016
79 2 -0.665843 2.37785 13.7987 4.52004
80 2 -0.68494 4.48473 13.0066 3.29932
81 2 -0.762067 4.55618 2.90178 6.55081
82 2 -0.749243 6.1094 2.81974 4.69306
83 2 -0.602494 6.67439 0.960082 6.2322
84 2 -0.809711 4.49305 4.5148 0.793685
85 2 -0.92266 2.23753 4.71064 13.5644
86 2 -0.727726 3.96484 3.00984 13.083
87 2 -0.736115 4.72541 6.33205 2.75861
88 2 -0.735907 6.51349 4.37913 2.56051
89 2 -0.668388 6.32621 6.2005 0.857388
90 2 -0.719753 1.02279 0.708238 7.85436
91 2 -0.716126 0.478892 13.3147 6.04315
92 2 -0.761844 13.4732 1.30163 5.89994
93 2 -0.657922 13.1022 13.6767 7.76901
94 2 -0.74395 0.67695 2.70431 9.6173
95 2 -0.717033 2.58613 0.761909 10.0404
96 2 -0.767949 2.67734 2.70481 8.03239
97 2 -0.837003 0.868311 4.4877 11.4045
98 2 -0.855554 13.5253 2.58829 11.785
99 2 -0.609912 12.8481 4.53204 9.90302
100 2 -0.774299 0.588228 6.48465 12.7774
101 2 -0.808872 2.70623 6.42406 11.6814
102 2 -0.709082 4.61141 1.09685 11.6771
103 2 -0.826988 2.72928 13.4322 11.891
104 2 -0.721831 4.38902 13.742 9.8181
105 2 -0.743614 5.69015 0.962233 13.9528
106 2 -0.55539 6.41048 2.28117 11.8271
107 2 -0.822044 3.9748 4.87384 7.74469
108 2 -0.7878 4.37787 6.46111 9.96045
109 2 -0.570678 5.76767 4.10054 9.77545
110 2 -0.698717 6.44673 5.75762 8.03652
111 2 -0.701166 1.23775 8.01106 0.444991
112 2 -0.874717 13.3077 6.79496 0.530948
113 2 -0.749955 13.8567 8.59388 12.7655
114 2 -0.772749 0.817944 9.73212 2.26926
115 2 -0.785377 2.31593 7.95483 3.0546
116 2 -0.808536 3.21427 9.58593 1.09127
117 2 -0.646795 0.861358 11.8128 4.01182
118 2 -0.761523 13.3118 9.47725 4.24361
119 2 -0.638562 13.1428 11.3922 2.41934
120 2 -0.798413 2.65076 11.3154 5.61979
121 2 -0.58541 4.68722 8.07962 4.46993
122 2 -0.725741 4.62663 9.81578 6.65015
123 2 -0.630271 7.16129 9.93139 5.50386
124 2 -0.677823 6.47824 7.61525 6.33729
125 2 -0.714272 4.60321 11.8309 1.11574
126 2 -0.707844 3.20272 11.3232 13.442
127 2 -0.626265 4.48152 9.61374 13.3914
128 2 -0.726506 6.21345 13.6063 1.66793
129 2 -0.69961 6.18973 11.2274 3.14813
130 2 -0.682076 0.552539 8.24343 7.71541
131 2 -0.736068 13.8526 5.77961 8.2871
132 2 -0.735629 13.3494 7.53864 6.1618
133 2 -0.793547 0.905463 10.0532 9.78883
134 2 -0.798263 2.56842 7.9462 9.51953
135 2 -0.829801 2.55114 9.71725 7.74518
136 2 -0.678784 1.03789 11.7188 12.0061
137 2 -0.647007 13.1604 10.8421 11.6296
138 2 -0.54447 14.1268 12.3603 9.7685
139 2 -0.774999 4.18356 8.29645 11.5356
140 2 -0.644752 6.42636 8.58178 13.4004
141 2 -0.615372 6.57203 9.75466 10.972
142 2 -0.745537 3.41432 11.8013 8.03308
143 2 -0.660671 5.86586 13.4943 8.03285
144 2 -0.598296 5.55357 11.5637 9.75774
145 2 -0.71426 7.85592 1.40933 0.881109
146 2 -0.805321 7.92404 13.7647 13.8085
147 2 -0.853178 8.48842 2.56537 3.14351
148 2 -0.88422 9.78988 0.877214 2.63057
149 2 -0.884377 9.89102 2.80724 0.911223
150 2 -0.739689 7.91665 4.43006 4.45614
151 2 -0.80348 9.64129 4.12132 6.41391
152 2 -0.74657 10.3728 5.39168 4.01031
153 2 -0.560274 8.54032 6.23435 6.02546
154 2 -0.82857 11.7625 0.901587 4.3943
155 2 -0.716667 9.91495 13.4613 4.79977
156 2 -0.641333 11.1215 13.3451 2.86451
157 2 -0.884898 11.4455 2.462 6.02346
158 2 -0.826985 11.8418 4.49402 0.211636
159 2 -0.764143 9.69761 4.0362 13.1319
160 2 -0.799711 11.6189 2.37675 13.2787
161 2 -0.804297 11.1988 6.34656 1.84978
162 2 -0.743032 8.17667 0.718581 8.1364
163 2 -0.620254 7.93414 13.1691 6.05511
164 2 -0.725683 7.92233 2.4603 10.1119
165 2 -0.746225 9.72043 0.717842 9.95714
166 2 -0.858094 9.90397 2.61271 8.42244
167 2 -0.892179 7.87675 4.59554 11.6558
168 2 -0.706919 8.47371 6.36392 13.426
169 2 -0.704984 10.3759 6.06816 11.899
170 2 -0.857879 11.6871 0.833285 11.7291
171 2 -0.696893 10.2507 13.451 12.07
172 2 -0.831067 11.6926 13.483 9.68844
173 2 -0.74685 11.7642 4.26104 7.54042
174 2 -0.531572 11.436 6.67916 9.42712
175 2 -0.590074 7.50559 8.3722 1.19494
176 2 -0.675717 8.10102 9.26173 3.25338
177 2 -0.711317 9.50107 7.51648 3.04093
178 2 -0.694138 9.79244 9.55034 1.02263
179 2 -0.615644 8.80824 11.323 4.52499
180 2 -0.618014 10.5846 11.72 6.48002
181 2 -0.828081 11.9525 7.25687 4.09895
182 2 -0.719248 11.5312 9.10029 6.07285
183 2 -0.703591 11.251 11.8007 0.363133
184 2 -0.728236 9.37898 11.6029 13.1282
185 2 -0.648045 11.1225 9.95051 13.252
186 2 -0.738776 8.43529 7.74659 8.18866
187 2 -0.716497 8.38958 10.2538 9.56536
188 2 -0.659973 9.81885 8.12964 10.0202
189 2 -0.671246 10.3636 9.44881 8.09899
190 2 -0.625328 7.78716 12.3949 11.5469
191 2 -0.647348 11.9076 8.28647 11.2341
192 2 -0.659011 12.1562 11.1311 8.38268
ITEM: TIMESTEP
50000
ITEM: NUMBER OF ATOMS
192
ITEM: BOX BOUNDS pp pp pp
5.0984093644110828e-03 1.4294901590635565e+01
5.0984093644110828e-03 1.4294901590635565e+01
5.0984093644110828e-03 1.4294901590635565e+01
ITEM: ATOMS id type q x y z
1 1 1.29217 0.203732 14.0326 14.1672
2 1 1.27514 2.41757 1.55885 1.43076
3 1 1.22814 0.263799 3.14005 3.68617
4 1 1.57126 1.75902 5.23898 5.30467
5 1 1.66744 3.93836 14.1439 3.43684
6 1 1.27027 5.27576 1.75395 5.29286
7 1 1.68226 3.73149 3.80154 14.1378
8 1 1.61265 5.27068 5.37189 1.87959
9 1 1.56982 0.0692716 14.1301 7.19033
10 1 1.59549 1.61686 1.71978 9.16945
11 1 1.35208 13.8632 3.70387 10.7304
12 1 1.44421 1.55281 5.1107 12.6036
13 1 1.43018 3.76852 0.0650102 10.749
14 1 1.6632 5.52977 2.09704 12.3006
15 1 1.30253 3.40705 3.64703 7.31959
16 1 1.41788 5.40565 5.46213 8.88837
17 1 1.25922 14.2236 7.08691 0.206388
18 1 1.27831 1.26092 9.10261 1.98084
19 1 1.37181 -0.00229735 11.007 4.19221
20 1 1.56573 2.15439 12.7817 5.43084
21 1 1.52289 3.35657 7.25335 3.45076
22 1 1.66914 5.29276 9.04821 5.11648
23 1 1.61109 3.24174 10.4695 14.1804
24 1 1.46761 5.41075 12.3895 1.33586
25 1 1.60112 0.1967 7.0571 7.09953
26 1 1.60652 1.98555 8.76665 8.57702
27 1 1.57712 14.1991 10.507 10.2924
28 1 1.34832 1.75073 12.1888 12.1783
29 1 1.38315 3.48248 6.93199 10.7862
30 1 1.62644 5.24661 8.79655 12.5812
31 1 1.33241 3.79605 10.8964 7.22292
32 1 1.247 5.55595 12.5204 9.01875
33 1 1.6314 7.02594 -0.0337922 13.8769
34 1 1.50605 8.55284 1.53373 1.65093
35 1 1.53826 7.14661 3.55604 3.51757
36 1 1.60575 8.71315 5.60204 5.14567
37 1 1.42081 10.6707 -0.061684 3.46676
38 1 1.63624 12.4218 1.6463 5.6752
39 1 1.29712 10.5432 3.56768 0.602038
40 1 1.29641 12.4732 5.05613 2.29643
41 1 1.17608 7.17323 14.3788 7.19742
42 1 1.39886 9.11132 1.83006 8.98859
43 1 1.45314 7.56074 3.89753 10.9274
44 1 1.339 9.17745 5.60462 12.8934
45 1 1.5502 10.7308 14.3319 10.8147
46 1 1.43677 12.3916 1.73383 12.8416
47 1 1.36305 10.7886 3.8775 7.11647
48 1 1.39853 12.4872 5.78986 8.9222
49 1 1.37155 6.93022 7.2387 0.0425726
50 1 1.40459 9.1249 9.28833 1.66578
51 1 1.78766 7.02027 10.7441 3.25732
52 1 1.60725 8.81886 12.3185 5.13277
53 1 1.34797 10.7489 7.38455 3.73425
54 1 1.54161 12.6428 8.94337 5.76826
55 1 1.52261 11.1581 11.1542 14.2113
56 1 1.35146 12.7081 12.6485 1.94119
57 1 1.60604 6.89674 7.18366 6.85724
58 1 1.60006 8.65093 8.71157 8.68849
59 1 1.50635 7.38758 10.2334 11.0418
60 1 1.53597 8.9731 12.5451 12.4055
61 1 1.47661 10.5399 7.4299 10.6732
62 1 1.34515 12.7278 9.00593 12.376
63 1 1.80729 10.3933 10.5249 6.9216
64 1 1.51064 12.112 12.3661 8.84504
65 2 -0.559976 1.16125 0.788589 0.518452
66 2 -0.603866 1.20362 13.5308 12.8524
67 2 -0.689916 13.4838 0.71152 13.3109
68 2 -0.61872 14.2203 13.5639 1.30488
69 2 -0.550993 1.51033 2.54199 2.61677
70 2 -0.693101 2.82203 0.438825 2.45346
71 2 -0.75418 3.45125 2.5648 0.588795
72 2 -0.775848 1.05226 4.03988 4.83238
73 2 -0.620483 13.6622 1.97589 4.80743
74 2 -0.70882 13.2874 3.93534 3.00632
75 2 -0.713376 2.79352 4.95469 6.46277
76 2 -0.70575 2.21983 6.41814 4.44271
77 2 -0.747654 0.526667 6.10713 5.92081
78 2 -0.878366 4.86587 0.816386 4.13873
79 2 -0.810458 2.90587 13.7765 4.48937
80 2 -0.762877 4.41818 13.0481 2.53236
81 2 -0.611555 4.19833 2.57874 6.38651
82 2 -0.638459 6.53325 3.07389 4.85276
83 2 -0.580446 6.00012 1.12406 6.59646
84 2 -0.840939 4.26339 4.79788 0.925846
85 2 -0.754695 2.32433 4.06713 13.4102
86 2 -0.809903 4.84397 3.15974 13.3195
87 2 -0.785489 4.23917 6.18733 2.81141
88 2 -0.793745 5.85684 4.08397 2.65847
89 2 -0.770779 6.00877 6.48966 1.18888
90 2 -0.786319 1.07228 0.741922 8.00597
91 2 -0.773638 1.06939 13.6121 5.97873
92 2 -0.785715 13.304 0.733592 6.60119
93 2 -0.694115 13.2213 13.2787 7.86691
94 2 -0.654511 0.357309 2.35682 9.84937
95 2 -0.711933 2.42642 1.11334 10.2306
96 2 -0.703849 2.39033 2.86321 8.51189
97 2 -0.780403 0.656793 4.30256 11.6399
98 2 -0.646472 13.1287 2.65681 11.8649
99 2 -0.734761 12.8104 4.66471 9.90309
100 2 -0.669854 1.16454 6.15673 13.7503
101 2 -0.70125 2.87404 6.00601 11.8558
102 2 -0.771056 4.42365 1.01613 11.716
103 2 -0.634662 2.99573 13.1645 11.3867
104 2 -0.715542 4.56815 13.7126 9.44693
105 2 -0.888632 6.39928 1.07911 13.0097
106 2 -0.850795 6.47909 2.95965 11.5175
107 2 -0.621481 4.4255 4.26936 8.38576
108 2 -0.695288 4.54404 5.85058 10.0657
109 2 -0.607736 6.72385 4.91765 9.76496
110 2 -0.688715 5.80824 6.10218 7.46614
111 2 -0.682887 0.413404 7.68449 1.49738
112 2 -0.52874 13.3755 5.68931 1.00179
113 2 -0.724165 13.3329 7.88972 13.4048
114 2 -0.543142 1.13234 10.367 3.04291
115 2 -0.671578 2.29873 8.20321 2.77773
116 2 -0.703208 2.37013 9.90071 1.16356
117 2 -0.751755 1.14788 11.5737 5.07272
118 2 -0.776938 13.648 9.76827 4.92532
119 2 -0.666046 13.3526 11.6329 2.98194
120 2 -0.746559 3.15298 12.1967 6.60585
121 2 -0.784506 4.36358 8.03813 4.40261
122 2 -0.722188 4.49557 10.1347 5.75214
123 2 -0.894878 6.11568 9.76668 3.88603
124 2 -0.882911 6.10635 8.3074 6.2226
125 2 -0.64382 4.09537 11.6079 0.66562
126 2 -0.825063 2.38109 11.176 13.205
127 2 -0.831512 4.25326 9.83239 13.2884
128 2 -0.781413 5.8353 13.575 0.257287
129 2 -0.872843 6.33114 11.4955 2.14284
130 2 -0.835933 1.4749 7.57453 7.72456
131 2 -0.802512 13.8797 6.29146 8.17621
132 2 -0.759162 13.5787 8.40733 7.08897
133 2 -0.830244 1.0762 9.49038 9.46586
134 2 -0.586005 3.14786 7.92154 9.4534
135 2 -0.716009 3.13836 9.54738 8.14321
136 2 -0.73645 0.610647 11.5785 11.0902
137 2 -0.805589 13.861 9.60744 11.4451
138 2 -0.797837 13.1564 11.4073 9.59549
139 2 -0.704377 4.09627 8.11584 11.4881
140 2 -0.808182 5.71976 7.72128 13.5387
141 2 -0.85834 6.40169 9.48268 11.9743
142 2 -0.648663 4.86165 11.2428 8.22734
143 2 -0.632107 6.41685 12.9503 7.86752
144 2 -0.532004 6.15851 11.3692 10.3819
145 2 -0.827043 8.19268 0.528836 0.54641
146 2 -0.789033 7.80994 13.0723 13.4932
147 2 -0.813291 7.96271 2.5762 2.75612
148 2 -0.708553 9.50406 0.872058 2.67772
149 2 -0.792178 9.48156 2.54143 0.837625
150 2 -0.783486 8.13483 4.67681 4.02038
151 2 -0.666792 9.95965 4.80866 6.04848
152 2 -0.789162 9.47492 6.64698 4.35762
153 2 -0.89928 7.62459 6.37373 5.79163
154 2 -0.667705 11.521 0.714028 4.78496
155 2 -0.750615 9.60529 13.5296 4.30763
156 2 -0.810524 11.9108 13.4769 2.95181
157 2 -0.781969 11.6686 2.81353 6.07416
158 2 -0.686699 11.0402 4.6415 1.62936
159 2 -0.655998 10.1932 4.9671 13.659
160 2 -0.646889 11.795 2.87081 13.8682
161 2 -0.606622 11.972 6.48879 3.0746
162 2 -0.677279 7.99552 1.09659 8.002
163 2 -0.545185 7.56834 13.0731 5.93584
164 2 -0.687121 8.24601 2.975 9.80096
165 2 -0.772092 10.0948 0.734154 9.58934
166 2 -0.684174 9.82462 2.80291 7.94909
167 2 -0.764121 8.65147 4.47369 11.8822
168 2 -0.689747 7.55766 6.08792 13.5497
169 2 -0.665904 9.69204 7.0025 12.1229
170 2 -0.82437 11.4106 0.715631 11.9872
171 2 -0.857591 9.50464 13.4978 11.3161
172 2 -0.751915 11.6698 13.5109 9.68397
173 2 -0.72402 11.7408 4.99637 7.70997
174 2 -0.764677 11.6866 6.71824 10.1072
175 2 -0.67345 8.04757 8.60912 0.752413
176 2 -0.781638 8.24548 10.2805 2.36837
177 2 -0.685943 10.096 8.58127 2.77069
178 2 -0.644767 10.3407 10.4221 1.07849
179 2 -0.898223 7.85855 11.5578 4.29821
180 2 -0.960258 9.60383 11.6288 6.19139
181 2 -0.719523 11.8233 8.0085 4.87302
182 2 -0.909281 11.4669 9.84781 6.16268
183 2 -0.843682 12.2621 11.7054 0.751545
184 2 -0.794012 10.1422 11.9953 13.3627
185 2 -0.711611 11.8547 10.0395 13.2117
186 2 -0.828096 7.75995 7.54671 8.14045
187 2 -0.848192 7.96252 9.36284 9.89247
188 2 -0.754597 9.64483 7.77096 9.43656
189 2 -0.907766 9.70605 9.63406 7.87746
190 2 -0.780681 8.28973 11.2817 11.8356
191 2 -0.632704 11.3595 8.60698 11.2492
192 2 -0.76994 11.2632 11.2913 8.02985
ITEM: TIMESTEP
51000
ITEM: NUMBER OF ATOMS
192
ITEM: BOX BOUNDS pp pp pp
3.0914434251005929e-04 1.4299690855657483e+01
3.0914434251005929e-04 1.4299690855657483e+01
3.0914434251005929e-04 1.4299690855657483e+01
ITEM: ATOMS id type q x y z
1 1 1.55762 14.0998 -0.0325785 14.3236
2 1 1.61952 1.62145 1.8273 1.83374
3 1 1.38338 0.0785223 3.78979 3.57887
4 1 1.48857 2.01439 5.50098 5.22205
5 1 1.45822 3.51029 0.0713746 3.45183
6 1 1.62208 5.31758 1.92572 5.55483
7 1 1.56374 3.42975 3.66304 14.3464
8 1 1.45885 5.34758 5.0909 1.86427
9 1 1.57748 0.14096 14.3307 7.10582
10 1 1.46708 2.07434 1.72658 8.80465
11 1 1.37329 0.25428 3.81768 10.2697
12 1 1.49286 1.89492 5.46404 12.1368
13 1 1.36381 3.45944 -0.0533196 11.0292
14 1 1.61239 5.30211 1.81699 12.6948
15 1 1.59722 3.34173 3.60325 7.0549
16 1 1.4876 5.17702 5.1613 8.6728
17 1 1.37698 0.233953 7.18309 14.1161
18 1 1.28947 1.91254 9.00002 1.87372
19 1 1.41279 13.9655 10.6074 3.31668
20 1 1.29101 1.48476 12.3542 5.02262
21 1 1.45671 3.85456 7.24937 3.56993
22 1 1.66809 5.66852 9.05449 5.32988
23 1 1.10496 3.62293 10.9846 0.181235
24 1 1.52352 5.548 12.6779 2.14189
25 1 1.57821 0.191159 7.25855 7.10082
26 1 1.41969 1.61312 9.00621 9.00344
27 1 1.64979 -0.244501 10.6746 10.8391
28 1 1.50985 1.48671 12.4306 12.7365
29 1 1.46088 3.51675 7.16858 10.3442
30 1 1.20024 5.33218 9.15183 12.4508
31 1 1.35849 3.60923 10.7515 7.00908
32 1 1.74796 5.19211 12.6149 8.90228
33 1 1.73076 7.01345 14.3838 0.110902
34 1 1.10893 8.79181 1.7162 2.08908
35 1 1.44001 7.12326 3.76249 3.8784
36 1 1.52863 9.05471 5.19158 5.51153
37 1 1.55532 10.8124 14.264 3.98987
38 1 1.38762 12.8155 1.84868 5.24718
39 1 1.52721 10.5696 3.53776 14.4721
40 1 1.4353 12.4826 5.33225 1.57081
41 1 1.59539 7.09187 14.1633 7.0726
42 1 1.53535 8.99145 1.60588 8.92071
43 1 1.64034 7.03226 3.48213 10.4177
44 1 1.25582 8.79409 5.10716 12.372
45 1 1.67551 10.9201 0.0133113 10.6061
46 1 1.18158 12.5501 2.13881 12.1494
47 1 1.50071 11.112 3.25299 7.3514
48 1 1.33298 12.6626 5.56215 8.74123
49 1 1.46991 6.74835 6.99759 14.0086
50 1 1.339 8.67115 8.913 1.54255
51 1 1.76193 7.31911 10.8467 3.68782
52 1 1.72978 9.06329 12.4402 5.51008
53 1 1.25131 10.5203 7.14957 3.49936
54 1 1.55945 12.3486 8.66361 5.50244
55 1 1.40654 10.3847 10.5318 14.0264
56 1 1.37143 11.9985 12.6281 1.57028
57 1 1.41792 7.21919 6.90655 7.31021
58 1 1.38436 8.8548 8.98518 9.18255
59 1 1.4474 6.92688 11.0239 10.7946
60 1 1.29738 8.9014 12.7712 12.4348
61 1 1.27442 10.944 6.7783 10.9715
62 1 1.4777 12.4892 8.80087 12.5878
63 1 1.64153 10.6642 10.5292 7.23337
64 1 1.53037 12.5347 12.4781 8.83862
65 2 -0.725982 0.622802 0.76504 1.39238
66 2 -0.89392 0.764399 13.3722 13.6183
67 2 -0.622651 13.7458 1.22102 13.4661
68 2 -0.782871 13.1121 13.316 0.619142
69 2 -0.759455 0.688274 2.53484 2.85282
70 2 -0.805371 2.50938 1.07488 2.76578
71 2 -0.802886 2.50745 2.94004 1.01028
72 2 -0.691416 0.870813 5.19605 4.2548
73 2 -0.70773 13.2281 3.34313 4.60688
74 2 -0.665612 13.5965 4.63938 2.45701
75 2 -0.76624 2.33024 3.99613 5.96094
76 2 -0.783017 3.15038 6.13778 4.44232
77 2 -0.721033 1.58163 6.66704 6.16366
78 2 -0.595848 4.21702 1.27465 4.49524
79 2 -0.67069 2.56111 13.2639 4.27456
80 2 -0.821494 4.7197 13.6107 3.01998
81 2 -0.798387 4.4686 2.96861 6.1643
82 2 -0.717823 6.00027 2.68925 4.3624
83 2 -0.842573 6.28649 1.01809 6.28598
84 2 -0.733835 4.29368 4.10354 1.35296
85 2 -0.735489 2.69955 4.5235 13.2438
86 2 -0.838916 4.49767 2.71951 13.5847
87 2 -0.662979 4.99044 6.46193 2.48803
88 2 -0.824355 6.35547 4.51805 2.78121
89 2 -0.601466 5.735 5.92559 0.163117
90 2 -0.742729 1.2972 0.947488 7.70155
91 2 -0.700464 0.533921 13.3784 5.98641
92 2 -0.710951 13.8405 1.05431 6.08472
93 2 -0.736792 13.4739 13.6143 8.1792
94 2 -0.682992 0.622226 2.52826 9.32754
95 2 -0.704882 2.6629 0.779109 9.92931
96 2 -0.820772 3.22833 2.40571 8.13362
97 2 -0.744878 1.52518 4.32067 11.0994
98 2 -0.652944 13.5155 3.24114 11.3532
99 2 -0.717266 13.7323 5.05648 9.86082
100 2 -0.764852 0.76995 6.33275 12.8355
101 2 -0.76833 3.03473 6.25093 11.395
102 2 -0.780229 4.29727 0.792939 12.148
103 2 -0.729076 2.39053 13.3084 11.5131
104 2 -0.693472 4.72484 13.7831 9.70975
105 2 -0.943121 6.22144 0.870091 13.4637
106 2 -0.723704 6.36463 2.45185 11.3837
107 2 -0.873482 4.09873 4.76048 7.54838
108 2 -0.719305 4.63585 6.05351 9.72375
109 2 -0.764931 5.88654 4.19436 9.74449
110 2 -0.708586 6.6474 5.7759 8.13928
111 2 -0.598808 1.36182 7.63395 0.725612
112 2 -0.693067 13.4769 6.43286 0.749176
113 2 -0.647535 13.7357 8.61839 13.674
114 2 -0.73784 0.701044 9.97064 2.33966
115 2 -0.726398 2.88367 7.96443 2.61579
116 2 -0.589309 3.12416 9.69194 1.03629
117 2 -0.758671 0.687678 11.1506 4.33939
118 2 -0.655647 13.0559 9.67294 4.44743
119 2 -0.622283 12.9155 11.4884 2.40432
120 2 -0.596597 2.65491 11.9579 6.35715
121 2 -0.821859 4.87672 8.10255 4.56395
122 2 -0.808217 4.73715 10.032 6.1051
123 2 -0.906714 6.79962 9.70409 4.51433
124 2 -0.715899 6.38883 8.0048 6.41113
125 2 -0.665171 4.28807 11.7561 1.57245
126 2 -0.66149 2.17378 11.2834 13.586
127 2 -0.60416 4.87758 10.461 13.3832
128 2 -0.857796 6.3155 13.3851 1.0741
129 2 -0.806586 6.47504 12.0543 3.41576
130 2 -0.875741 0.876401 7.82037 8.25584
131 2 -0.690601 13.8996 5.86549 7.66359
132 2 -0.902662 13.3137 7.89951 6.57727
133 2 -0.652704 1.10068 10.1167 10.2063
134 2 -0.768654 2.73772 8.45741 9.73648
135 2 -0.658087 2.62407 9.70515 7.84795
136 2 -0.74413 0.606957 11.4776 11.8062
137 2 -0.845502 13.2803 9.59355 11.3846
138 2 -0.743248 13.7004 11.6799 9.67016
139 2 -0.576848 4.32165 8.04713 11.3134
140 2 -0.738175 6.09295 8.10646 13.2677
141 2 -0.63178 6.82473 9.92635 11.8772
142 2 -0.796783 4.53319 11.4871 8.10293
143 2 -0.846683 6.03508 13.4815 7.92006
144 2 -0.895773 5.97309 11.8518 9.90026
145 2 -0.742422 7.83731 0.571583 1.27388
146 2 -0.726813 7.80862 13.4583 13.4301
147 2 -0.62872 8.48915 2.93927 3.36855
148 2 -0.645053 9.69416 0.608299 2.99185
149 2 -0.690231 10.134 2.40949 1.08857
150 2 -0.756964 7.71965 4.7371 4.98098
151 2 -0.679766 9.90067 4.07963 6.39863
152 2 -0.696509 9.4516 6.14336 4.37272
153 2 -0.696491 8.38957 6.21332 6.43811
154 2 -0.771361 12.0659 0.701119 4.50893
155 2 -0.809942 10.2296 13.5066 5.11352
156 2 -0.666071 11.4309 13.0956 3.14306
157 2 -0.730021 11.7994 2.17777 6.66568
158 2 -0.838339 11.5713 4.18644 0.997172
159 2 -0.746941 9.61405 4.54034 13.8963
160 2 -0.668774 11.5772 3.02114 13.1392
161 2 -0.658857 11.7056 6.26884 2.59738
162 2 -0.737441 8.22316 0.480076 8.10766
163 2 -0.857796 7.99762 13.314 6.01567
164 2 -0.795447 8.07368 2.96462 9.44686
165 2 -0.895788 9.97419 0.717364 9.71122
166 2 -0.720458 9.89963 2.43318 8.01065
167 2 -0.748582 7.76599 4.25297 11.5804
168 2 -0.574718 7.50684 5.73812 13.3485
169 2 -0.692227 9.55261 6.29405 11.6198
170 2 -0.705055 12.0448 0.751074 11.4923
171 2 -0.722476 9.96811 14.0203 11.8057
172 2 -0.848362 11.8531 13.4079 9.88133
173 2 -0.81539 11.8414 4.33522 8.2086
174 2 -0.661026 11.7606 6.68954 9.56157
175 2 -0.682798 7.67113 7.85104 0.817081
176 2 -0.739191 7.93349 10.3026 2.44986
177 2 -0.609477 9.42074 8.36718 2.88589
178 2 -0.74799 9.6772 9.2821 0.431287
179 2 -0.828413 8.51981 11.3629 4.52552
180 2 -0.866943 9.67932 11.5144 6.56807
181 2 -0.761705 11.5439 7.80286 4.53379
182 2 -0.823068 11.6431 9.81225 6.28305
183 2 -0.668203 11.1367 11.7831 0.650384
184 2 -0.670403 9.4433 11.7192 13.5293
185 2 -0.780535 11.4552 9.80871 13.0884
186 2 -0.63362 8.04317 7.68602 8.56479
187 2 -0.643828 7.98923 10.1731 9.84176
188 2 -0.478788 9.66369 8.00482 10.2205
189 2 -0.782781 9.94397 9.73322 8.3981
190 2 -0.668331 8.17372 11.9253 11.2131
191 2 -0.773382 11.9265 7.50284 11.8489
192 2 -0.779536 11.6776 11.3125 8.1793
ITEM: TIMESTEP
52000
ITEM: NUMBER OF ATOMS
192
ITEM: BOX BOUNDS pp pp pp
-3.6456596117790951e-03 1.4303645659611771e+01
-3.6456596117790951e-03 1.4303645659611771e+01
-3.6456596117790951e-03 1.4303645659611771e+01
ITEM: ATOMS id type q x y z
1 1 1.41029 0.145427 14.1344 14.2173
2 1 1.55913 1.48737 1.69525 1.75436
3 1 1.57317 14.1616 3.42414 3.64084
4 1 1.41461 1.49389 5.40512 5.37563
5 1 1.52381 3.38877 14.2424 3.4716
6 1 1.39652 5.52529 1.73907 4.9926
7 1 1.31292 3.19243 3.17743 14.1286
8 1 1.43778 5.24255 5.11417 1.80838
9 1 1.6387 0.112596 0.284897 7.21531
10 1 1.51578 2.12105 1.78092 9.10797
11 1 1.50432 0.0730831 3.47788 10.6981
12 1 1.48085 1.52601 5.13578 12.767
13 1 1.27015 3.79164 14.0153 10.6943
14 1 1.52798 5.71757 1.78425 12.4888
15 1 1.15944 3.64331 3.44926 6.94648
16 1 1.41031 5.245 5.30852 8.88082
17 1 1.52252 0.222179 7.06066 0.174765
18 1 1.46922 1.7645 9.30784 1.88152
19 1 1.61937 0.0610606 10.9911 3.77827
20 1 1.61352 1.94345 12.4796 5.79406
21 1 1.40464 3.25516 7.00736 3.37463
22 1 1.76673 5.11251 8.79107 5.52402
23 1 1.49882 3.62975 10.4356 14.0385
24 1 1.22769 5.47734 12.3678 1.51817
25 1 1.52781 14.0689 7.14759 7.54861
26 1 1.5441 1.62885 9.09259 9.13707
27 1 1.32218 13.7911 10.6173 10.6315
28 1 1.47405 1.74637 12.3779 12.3125
29 1 1.27808 3.02262 6.93845 10.8577
30 1 1.30658 5.27469 8.31037 12.5682
31 1 1.89637 3.641 10.5831 7.38519
32 1 1.39945 5.42922 12.1334 9.09211
33 1 1.51351 7.498 14.2134 14.2255
34 1 1.31484 9.24456 2.02449 1.56271
35 1 1.39222 7.2774 3.65781 3.60685
36 1 1.24916 8.95599 5.76154 5.31218
37 1 1.41707 10.7811 0.336852 3.53391
38 1 1.44225 12.3565 1.73138 5.52633
39 1 1.46461 10.8702 3.75502 13.8953
40 1 1.35909 12.4653 5.34282 1.8612
41 1 1.39631 7.05553 14.0799 7.11761
42 1 1.71123 8.68845 1.84101 8.62158
43 1 1.47957 7.23755 3.80966 10.7752
44 1 1.41341 8.9092 5.62948 12.5071
45 1 1.35736 10.7153 0.166745 10.3751
46 1 1.40863 12.5297 1.84774 12.227
47 1 1.2952 10.4573 3.63114 6.85705
48 1 1.57971 12.4746 5.16295 9.15024
49 1 1.3233 7.22483 7.15388 0.426198
50 1 1.52923 8.85717 9.15344 1.87249
51 1 1.5195 6.91867 10.4936 3.70333
52 1 1.31535 8.8716 12.5841 4.8918
53 1 1.36858 10.8143 7.51842 3.42638
54 1 1.26408 12.8522 9.03292 5.34544
55 1 1.30672 11.0437 10.4541 0.289853
56 1 1.45225 12.8096 12.9083 2.09653
57 1 1.37706 7.18601 7.29666 7.39563
58 1 1.60759 9.01649 9.37581 8.7654
59 1 1.50314 7.24535 10.5032 10.9752
60 1 1.4294 9.22434 12.5446 12.3954
61 1 1.36515 10.8353 7.58206 10.5106
62 1 1.68807 12.5499 8.61273 12.8751
63 1 1.66406 11.0805 10.8295 6.97256
64 1 1.48839 12.6193 12.752 8.76543
65 2 -0.792208 0.320727 0.812653 1.21854
66 2 -0.740257 0.926466 13.0817 13.5808
67 2 -0.607905 13.6477 0.738422 13.0057
68 2 -0.631427 13.3344 13.2298 0.603622
69 2 -0.830062 0.871867 2.80667 2.74218
70 2 -0.784811 2.3988 0.708092 2.65875
71 2 -0.856892 2.43983 2.16722 0.638617
72 2 -0.770201 0.407708 4.2688 4.82293
73 2 -0.70175 13.3176 2.17508 4.18435
74 2 -0.766517 13.4044 4.43247 2.62912
75 2 -0.586325 2.4626 4.72633 6.60658
76 2 -0.790663 2.43897 6.03759 4.42838
77 2 -0.677797 0.630005 6.45393 6.25781
78 2 -0.716554 4.31452 1.10932 4.04033
79 2 -0.658912 2.5517 13.6492 4.8185
80 2 -0.65036 3.98097 13.1048 2.68838
81 2 -0.635882 4.91378 2.44669 6.13783
82 2 -0.751461 6.79251 2.60953 4.55729
83 2 -0.614395 6.18091 0.335591 5.84211
84 2 -0.627603 4.28704 4.21037 1.0399
85 2 -0.749121 2.78471 4.31781 13.0339
86 2 -0.64631 4.3375 2.34453 13.2194
87 2 -0.737402 4.37859 5.98776 2.66064
88 2 -0.68779 5.89965 3.87833 2.98528
89 2 -0.751028 6.24717 6.06335 1.07094
90 2 -0.718889 0.892245 1.14387 8.3052
91 2 -0.853255 1.07369 13.5193 6.53262
92 2 -0.832966 13.4217 1.11856 6.4884
93 2 -0.736294 13.4046 14.0065 8.23805
94 2 -0.755582 1.31608 2.89751 10.0188
95 2 -0.711041 2.96851 0.8828 9.98837
96 2 -0.668962 3.02917 2.2107 7.88384
97 2 -0.713542 0.283583 4.12081 12.28
98 2 -0.68859 13.3549 2.27861 10.937
99 2 -0.841377 13.6165 4.37827 9.76107
100 2 -0.861293 1.19087 6.04903 13.9044
101 2 -0.710601 1.89049 6.11716 11.496
102 2 -0.64477 5.16965 0.725035 11.4714
103 2 -0.734261 2.49817 13.4465 11.5353
104 2 -0.648275 3.8934 12.9585 9.57652
105 2 -0.77784 6.52859 0.994277 13.6231
106 2 -0.804849 6.31484 2.72355 11.5421
107 2 -0.659795 4.80718 4.30245 7.73126
108 2 -0.598423 3.95667 6.01444 9.54286
109 2 -0.769749 6.25539 4.53235 9.86585
110 2 -0.703605 6.0502 6.57997 8.22669
111 2 -0.735306 0.843008 8.36138 0.858639
112 2 -0.770698 13.2644 6.35048 0.973138
113 2 -0.763231 13.6029 7.5178 13.2577
114 2 -0.740022 0.846165 10.3834 2.58987
115 2 -0.771373 2.7241 8.28316 2.80203
116 2 -0.776882 2.80893 9.9799 0.879879
117 2 -0.774972 1.28628 11.6202 4.57603
118 2 -0.748908 14.0967 9.65172 4.55249
119 2 -0.871851 13.4434 11.9185 3.05561
120 2 -0.899256 2.95297 11.7422 6.60119
121 2 -0.683974 4.3554 7.80998 4.53793
122 2 -0.933137 4.2347 9.62256 6.34805
123 2 -0.855364 5.93287 9.68871 4.58971
124 2 -0.743117 6.18075 8.31873 6.50898
125 2 -0.651516 4.76501 11.4913 0.188637
126 2 -0.720009 2.63451 11.3265 13.0901
127 2 -0.707074 4.17165 9.23396 13.0669
128 2 -0.676326 6.61253 12.9336 0.684874
129 2 -0.650792 6.04059 11.3575 2.65239
130 2 -0.676889 0.995981 7.75621 8.4458
131 2 -0.852767 13.1603 6.27279 8.40676
132 2 -0.71668 13.3966 8.30373 6.88776
133 2 -0.763796 0.276136 9.57715 9.84772
134 2 -0.708184 2.49367 8.49538 10.1582
135 2 -0.878398 2.45384 9.88081 8.00196
136 2 -0.610101 0.535003 11.6698 11.4938
137 2 -0.637415 13.3837 9.71043 12.2874
138 2 -0.76706 13.3012 11.7442 9.64747
139 2 -0.630277 4.24076 7.26151 11.9103
140 2 -0.558124 5.82915 7.83678 14.1018
141 2 -0.663497 6.37349 9.1837 11.5074
142 2 -0.870997 4.72365 11.0195 8.28174
143 2 -0.685993 6.08882 12.953 7.93479
144 2 -0.773911 6.30893 11.5333 10.2886
145 2 -0.658611 8.00107 0.900764 0.91519
146 2 -0.804586 8.59383 13.5715 13.3633
147 2 -0.634666 8.40026 2.50019 2.70105
148 2 -0.714887 10.4341 1.40241 2.41786
149 2 -0.70001 9.69954 3.10276 0.21343
150 2 -0.741983 8.178 4.82145 4.07045
151 2 -0.689106 9.84829 5.12588 6.5005
152 2 -0.600415 9.57178 7.07768 4.35832
153 2 -0.659087 8.06348 6.80261 5.97044
154 2 -0.835944 11.4877 0.684286 4.84744
155 2 -0.657975 9.3431 13.645 3.94161
156 2 -0.738423 11.5095 13.519 2.63706
157 2 -0.71389 11.6834 3.21663 5.98871
158 2 -0.637614 11.4871 4.29152 1.17739
159 2 -0.782834 10.0072 4.99739 13.4057
160 2 -0.817537 11.9649 2.88932 13.2746
161 2 -0.667176 11.4307 6.14117 3.22522
162 2 -0.8295 7.69572 0.84267 8.12072
163 2 -0.623045 8.2135 13.2899 6.42883
164 2 -0.734153 8.17188 2.57097 9.84217
165 2 -0.74788 9.68544 0.946575 9.32314
166 2 -0.834514 9.53928 2.55155 7.50936
167 2 -0.841675 8.216 4.84459 11.5117
168 2 -0.683438 7.69202 6.46941 13.4453
169 2 -0.608962 9.86225 6.98076 11.6136
170 2 -0.679525 11.3113 1.29827 11.4328
171 2 -0.721871 9.80244 13.3271 11.1994
172 2 -0.663429 12.041 13.7088 9.9948
173 2 -0.596696 11.4404 4.20879 8.41969
174 2 -0.665957 11.4101 6.14686 10.0186
175 2 -0.754348 8.00024 8.54676 0.695069
176 2 -0.809472 8.22786 10.0679 2.92201
177 2 -0.823292 10.0366 8.31608 2.1463
178 2 -0.60248 9.44973 10.3053 0.974028
179 2 -0.687097 7.68735 11.7723 4.32513
180 2 -0.606125 10.1085 11.6862 5.94615
181 2 -0.720746 11.7149 8.47796 4.28679
182 2 -0.752371 12.1097 10.3911 6.00845
183 2 -0.437931 12.2801 11.6044 1.11741
184 2 -0.556755 10.5927 11.5659 13.6609
185 2 -0.87825 11.8012 9.28967 13.9503
186 2 -0.729226 8.11162 8.07755 8.3282
187 2 -0.860234 8.07919 10.0349 9.83743
188 2 -0.740977 10.1335 8.51433 9.21386
189 2 -0.873241 9.97277 10.1584 7.80129
190 2 -0.761452 8.1922 11.5786 11.9122
191 2 -0.804349 11.858 8.19874 11.5455
192 2 -0.853695 11.9708 11.7955 7.6457
ITEM: TIMESTEP
53000
ITEM: NUMBER OF ATOMS
192
ITEM: BOX BOUNDS pp pp pp
-4.8739088360427729e-03 1.4304873908836056e+01
-4.8739088360427729e-03 1.4304873908836056e+01
-4.8739088360427729e-03 1.4304873908836056e+01
ITEM: ATOMS id type q x y z
1 1 1.64924 0.167311 0.040935 0.270504
2 1 1.60864 2.06623 1.8164 1.86793
3 1 1.44013 14.2647 3.5317 3.24879
4 1 1.19962 1.62326 5.53217 5.12898
5 1 1.30864 3.51261 14.2014 3.93382
6 1 1.38411 5.21492 1.86463 5.34144
7 1 1.40411 3.64453 3.7967 0.0587884
8 1 1.14247 5.9327 5.55689 1.67263
9 1 1.32224 14.0625 14.2421 6.90517
10 1 1.54566 1.16778 1.73853 8.96254
11 1 1.60197 14.2246 3.54219 11.0853
12 1 1.5296 1.69938 5.49892 12.3463
13 1 1.43645 3.35774 0.230066 10.5155
14 1 1.36783 5.28037 1.98532 12.5819
15 1 1.22541 3.08356 3.6376 7.32907
16 1 1.32669 5.32743 5.2878 8.73896
17 1 1.40751 14.1108 7.04919 -0.082542
18 1 1.2757 1.7572 8.67922 1.54607
19 1 1.32121 14.0254 10.3315 3.41866
20 1 1.20061 1.62036 12.1916 4.99951
21 1 1.37925 3.91109 7.31654 3.42649
22 1 1.51603 5.63918 8.97345 5.44767
23 1 1.28791 3.43141 10.9047 14.2802
24 1 1.40251 5.35146 12.5862 2.03013
25 1 1.40092 14.2707 7.14728 7.22489
26 1 1.34022 1.95698 9.18494 8.55731
27 1 1.42617 14.4009 10.8218 10.3711
28 1 1.42974 1.52648 12.7663 12.3586
29 1 1.31271 3.31946 7.11559 10.466
30 1 1.35979 5.18335 8.94359 12.2344
31 1 1.22016 3.83688 10.9198 6.79816
32 1 1.47196 5.32611 12.9456 8.8714
33 1 1.31697 6.8944 -0.194322 14.1742
34 1 1.27668 8.88661 1.52063 2.1694
35 1 1.16516 7.02395 3.76158 3.91114
36 1 1.37577 9.21766 5.27356 5.79418
37 1 1.21249 10.5099 13.9596 4.00551
38 1 1.66562 12.5773 1.90243 5.13942
39 1 1.37625 10.6043 3.3215 0.27294
40 1 1.48777 12.3615 5.3638 1.74991
41 1 1.40726 7.56506 0.00878186 6.98795
42 1 1.45372 9.36604 1.48572 9.1685
43 1 1.4482 7.46112 3.37782 10.8149
44 1 1.42825 9.1577 5.2807 12.4731
45 1 1.46871 11.0726 -0.229968 10.9243
46 1 1.64748 12.5802 1.68545 12.7547
47 1 1.58461 11.0005 3.3887 7.34216
48 1 1.58337 12.6004 5.33071 9.14471
49 1 1.60393 7.45194 7.55647 13.8149
50 1 1.37912 9.25047 9.06646 1.64041
51 1 1.5593 7.26612 10.7332 3.36196
52 1 1.27313 8.79473 11.8707 5.6064
53 1 1.40717 10.6817 7.03267 3.71309
54 1 1.31895 12.3369 9.02336 5.60575
55 1 1.36296 11.0786 10.9111 14.1242
56 1 1.7417 12.4881 12.6556 2.02848
57 1 1.50943 7.25028 6.99017 7.2345
58 1 1.43745 8.83399 8.62454 9.1585
59 1 1.38911 6.82721 10.8679 10.5345
60 1 1.61443 8.96981 12.4996 12.5611
61 1 1.58642 10.6826 6.97188 10.5935
62 1 1.40076 12.541 8.80338 12.3053
63 1 1.67995 10.6017 10.4176 7.55081
64 1 1.56256 12.4168 12.4346 8.86457
65 2 -0.830608 1.19183 1.0925 0.918222
66 2 -0.808713 0.617912 13.5546 13.3802
67 2 -0.736924 13.6486 1.12525 13.8991
68 2 -0.791396 13.7547 13.4012 1.31526
69 2 -0.758788 0.9003 2.32707 2.98998
70 2 -0.662156 3.08157 0.937824 2.64838
71 2 -0.798617 2.74824 2.84737 0.997647
72 2 -0.607696 0.783277 4.82313 3.82198
73 2 -0.81664 13.1203 3.05434 4.31946
74 2 -0.760156 13.5959 4.59764 2.33098
75 2 -0.59426 2.6922 5.03622 6.51218
76 2 -0.585302 2.38684 6.65569 4.41951
77 2 -0.698516 0.517419 6.11434 6.19167
78 2 -0.723519 4.03517 1.10622 4.78752
79 2 -0.609006 1.95623 13.5646 4.21425
80 2 -0.764164 4.65114 13.4618 3.04627
81 2 -0.564224 4.32455 2.66014 6.25674
82 2 -0.659108 5.64549 3.10814 4.34505
83 2 -0.618005 6.56597 1.08798 6.12583
84 2 -0.568774 4.2201 4.70829 1.11611
85 2 -0.663212 2.89776 5.06931 13.3903
86 2 -0.752313 4.82135 3.04459 13.6876
87 2 -0.666463 5.14199 6.50366 2.77914
88 2 -0.59423 6.97885 4.71195 2.50702
89 2 -0.683484 6.62952 6.5533 0.317497
90 2 -0.737316 0.15811 0.85143 8.11131
91 2 -0.537529 1.1157 13.068 6.46637
92 2 -0.813121 13.492 0.928831 5.6863
93 2 -0.719782 12.8425 13.4799 7.54457
94 2 -0.771635 0.150689 2.45376 9.90639
95 2 -0.773525 2.3478 1.06384 9.65197
96 2 -0.715964 2.1334 2.53338 7.93706
97 2 -0.901298 1.15314 4.37703 11.4829
98 2 -0.85615 13.5541 2.71154 12.1798
99 2 -0.778052 13.0915 4.3313 10.2936
100 2 -0.73216 0.501723 5.96793 13.3386
101 2 -0.755474 2.17531 6.687 11.6163
102 2 -0.634303 4.11782 1.48787 11.4662
103 2 -0.760472 2.64063 13.8156 11.6898
104 2 -0.800597 4.10312 13.6469 9.40607
105 2 -0.685616 6.31026 0.710182 13.0034
106 2 -0.696139 6.21975 2.87535 11.8014
107 2 -0.619957 4.21693 4.11599 8.38606
108 2 -0.715723 4.46314 6.3017 9.4375
109 2 -0.560909 6.37591 4.303 9.88605
110 2 -0.776898 6.31105 5.84924 7.5512
111 2 -0.732198 0.884065 7.51653 1.13481
112 2 -0.677556 12.8793 6.09921 0.462995
113 2 -0.762627 13.4207 8.22289 13.4335
114 2 -0.682572 0.937112 9.53331 2.68363
115 2 -0.632621 3.23606 8.23733 2.50066
116 2 -0.634446 2.90477 9.81466 0.887622
117 2 -0.665006 0.365572 11.5435 4.11481
118 2 -0.664752 12.7308 9.48629 4.12676
119 2 -0.755029 13.1299 11.5615 2.75111
120 2 -0.698168 3.00465 11.6502 5.4058
121 2 -0.71725 4.50986 8.0753 4.59612
122 2 -0.736469 4.78588 9.59366 6.53369
123 2 -0.838282 6.38176 9.83333 4.4416
124 2 -0.766524 6.71419 7.91456 6.17018
125 2 -0.640399 4.45077 11.8969 0.871322
126 2 -0.670384 2.22622 11.5883 13.2753
127 2 -0.552274 4.5128 9.87339 13.5815
128 2 -0.667138 5.7484 13.6497 0.724102
129 2 -0.792289 6.60459 11.5972 2.35009
130 2 -0.657434 0.730781 8.56056 7.42985
131 2 -0.753729 13.5992 6.28853 8.44372
132 2 -0.628988 13.0711 8.07782 6.73379
133 2 -0.684468 1.26469 9.77205 9.81096
134 2 -0.682995 2.55438 7.93893 9.40448
135 2 -0.655086 2.86732 10.3571 8.04037
136 2 -0.713277 0.57272 11.9247 11.3837
137 2 -0.586118 13.2599 9.97992 11.2509
138 2 -0.769881 13.6267 11.6083 9.26242
139 2 -0.68825 4.04962 8.22583 11.5245
140 2 -0.798222 6.48708 8.3868 12.9415
141 2 -0.675319 5.56762 10.3141 11.3336
142 2 -0.614297 4.72858 11.9643 7.76904
143 2 -0.679856 6.33883 13.7203 7.96509
144 2 -0.750978 6.45553 11.8605 9.51221
145 2 -0.52549 8.06723 0.911145 0.985051
146 2 -0.721898 8.19933 13.2624 13.6639
147 2 -0.56515 7.79983 2.65084 2.77677
148 2 -0.624248 9.2695 0.226475 3.1107
149 2 -0.615654 10.1093 2.06248 1.244
150 2 -0.614841 8.07352 4.17765 5.20335
151 2 -0.805152 9.99098 4.34362 6.75375
152 2 -0.694013 9.78809 5.79165 4.30874
153 2 -0.71735 8.77982 6.44344 6.75713
154 2 -0.687841 11.3705 0.900618 4.56487
155 2 -0.508828 10.236 12.28 4.5847
156 2 -0.730521 11.5717 13.5926 2.78715
157 2 -0.828866 11.6734 2.55816 6.24889
158 2 -0.752665 11.3572 4.29771 1.19808
159 2 -0.688929 9.52001 4.33171 13.6328
160 2 -0.718652 11.45 2.32079 13.5778
161 2 -0.70044 11.2948 6.4265 2.43669
162 2 -0.769735 8.5254 0.828278 8.00574
163 2 -0.717994 7.74271 13.2871 5.99934
164 2 -0.72355 8.13041 2.23569 9.97499
165 2 -0.731253 10.4367 1.0862 10.3656
166 2 -0.775125 10.2531 2.41512 8.39094
167 2 -0.815604 8.37281 4.44503 11.3763
168 2 -0.747488 8.43449 6.7134 13.0328
169 2 -0.74689 10.4621 6.0812 11.7835
170 2 -0.769808 11.8236 0.557125 12.094
171 2 -0.791357 9.83579 13.429 11.6599
172 2 -0.785273 12.0506 12.9831 10.2448
173 2 -0.769273 12.1838 4.27036 8.24324
174 2 -0.778127 11.4133 6.40934 9.29927
175 2 -0.749488 8.29982 8.40402 0.624782
176 2 -0.735528 8.49893 10.1036 2.5454
177 2 -0.685142 10.1136 8.12982 2.94564
178 2 -0.632863 10.3989 9.57095 0.492793
179 2 -0.740701 8.0324 11.6681 4.31602
180 2 -0.831145 9.48113 11.1874 6.80839
181 2 -0.613669 11.7026 7.60004 5.00709
182 2 -0.800777 11.6213 10.1735 6.4741
183 2 -0.77697 11.7369 12.062 0.900039
184 2 -0.773238 9.94675 11.4737 13.1443
185 2 -0.578844 12.2694 10.2313 13.2529
186 2 -0.719353 7.4776 7.91591 8.46804
187 2 -0.663964 7.79975 9.76551 9.91913
188 2 -0.851989 9.62095 7.97745 10.2854
189 2 -0.845161 9.865 9.26281 8.08967
190 2 -0.680162 7.7492 11.8763 11.8144
191 2 -0.756349 11.7715 7.84597 11.4172
192 2 -0.828727 11.4053 11.3892 8.62221
ITEM: TIMESTEP
54000
ITEM: NUMBER OF ATOMS
192
ITEM: BOX BOUNDS pp pp pp
-2.8497859915077584e-03 1.4302849785991594e+01
-2.8497859915077584e-03 1.4302849785991594e+01
-2.8497859915077584e-03 1.4302849785991594e+01
ITEM: ATOMS id type q x y z
1 1 1.38571 13.9042 14.0901 13.8788
2 1 1.38287 1.41634 1.37065 1.78761
3 1 1.52645 14.2543 3.59678 3.65294
4 1 1.36229 1.82196 5.42043 5.45566
5 1 1.26632 3.45917 14.2915 3.68909
6 1 1.1836 5.6895 1.90331 5.40471
7 1 1.44464 3.22876 3.19536 14.2272
8 1 1.37882 5.08407 5.19079 1.62925
9 1 1.55271 0.27277 0.0459224 7.34404
10 1 1.57767 2.09544 1.83351 8.90317
11 1 1.76115 0.209079 3.73861 10.4061
12 1 1.44105 1.81019 5.25345 12.6342
13 1 1.5907 3.41224 13.9915 10.4071
14 1 1.32696 5.00738 1.29892 12.5107
15 1 1.49282 3.90895 3.59114 7.23085
16 1 1.41206 5.31669 5.69172 9.05918
17 1 1.49461 14.3789 6.98345 14.2613
18 1 1.40242 1.91817 8.85734 1.65698
19 1 1.3056 0.102426 11.0823 3.51973
20 1 1.49151 1.98385 12.398 5.65504
21 1 1.42087 3.45951 7.21221 3.59065
22 1 1.54405 5.21393 8.9218 5.46441
23 1 1.31329 3.76785 10.9187 13.7555
24 1 1.25274 5.31221 12.8825 1.56982
25 1 1.39404 14.2601 7.26798 7.07844
26 1 1.31814 1.65769 8.96642 9.16777
27 1 1.5211 13.8922 10.5918 10.9963
28 1 1.64338 1.59728 12.4328 12.1343
29 1 1.19227 3.46434 7.45217 11.0747
30 1 1.18161 5.88073 8.92662 13.0009
31 1 1.45421 3.77285 10.7444 7.48322
32 1 1.54275 5.67593 12.3499 9.43693
33 1 1.24485 7.4245 0.155152 14.1709
34 1 1.56607 8.89311 2.30508 1.45457
35 1 1.38517 6.99703 3.81383 3.50991
36 1 1.22846 9.09297 5.70518 5.41054
37 1 1.22434 10.6065 0.271096 3.47736
38 1 1.37401 12.5865 1.72444 5.54906
39 1 1.47053 10.8691 3.79574 13.7878
40 1 1.30251 12.3628 5.18377 1.85546
41 1 1.24101 7.09629 13.9529 7.3929
42 1 1.46288 8.57027 1.61386 9.14118
43 1 1.19069 6.81703 3.55556 11.0257
44 1 1.40539 9.01504 5.70283 12.432
45 1 1.47794 10.5897 14.1488 10.44
46 1 1.32211 12.7154 1.87348 11.9214
47 1 1.34491 10.6251 3.3372 7.13694
48 1 1.47299 12.556 5.28389 8.68985
49 1 1.74923 7.2925 6.85265 0.339292
50 1 1.54034 8.75516 8.83052 2.12953
51 1 1.34213 6.87425 10.8092 3.77462
52 1 1.24638 8.82818 12.5601 5.18132
53 1 1.50979 11.014 7.37719 3.59859
54 1 1.76401 12.8468 9.20637 5.17251
55 1 1.42232 10.6058 10.4809 0.232942
56 1 1.37332 12.5023 12.5486 1.74165
57 1 1.50028 7.37456 7.39674 7.42734
58 1 1.80887 9.37882 9.18456 8.94279
59 1 1.32169 7.34164 10.4182 11.018
60 1 1.29028 9.09805 12.4678 12.4626
61 1 1.39658 10.7889 6.99047 10.4058
62 1 1.39966 12.2366 8.52467 12.6652
63 1 1.4584 10.9076 10.7553 6.94398
64 1 1.50293 12.6481 12.5026 8.89252
65 2 -0.635492 0.385518 0.447074 0.703355
66 2 -0.707002 0.809695 13.7205 12.7473
67 2 -0.632775 13.2704 1.05472 13.2595
68 2 -0.675925 12.71 13.4237 0.462877
69 2 -0.69817 0.511769 2.31129 2.8562
70 2 -0.619519 2.01308 0.534566 3.01807
71 2 -0.723512 2.2535 2.22984 0.851733
72 2 -0.736465 0.795241 4.59883 4.56085
73 2 -0.676066 13.4757 2.95882 4.84054
74 2 -0.806188 13.142 4.37357 3.03057
75 2 -0.660883 2.81074 4.55941 6.64526
76 2 -0.735992 2.83881 6.4225 4.79796
77 2 -0.681671 0.637795 6.02887 6.49405
78 2 -0.586316 4.41951 1.096 4.19259
79 2 -0.686542 3.04295 13.339 5.06168
80 2 -0.665121 4.09165 13.7824 2.27627
81 2 -0.703035 4.88114 3.02503 6.18435
82 2 -0.663646 6.90821 2.6943 4.44138
83 2 -0.641449 6.46348 0.692457 6.40973
84 2 -0.687058 4.16208 3.98897 1.12064
85 2 -0.777835 2.15951 4.09205 13.7264
86 2 -0.719874 4.1034 2.54845 13.1141
87 2 -0.694657 4.30931 6.23826 2.59276
88 2 -0.640506 5.62757 4.21762 2.91771
89 2 -0.858774 6.34642 5.92866 1.00438
90 2 -0.696379 1.06048 1.38614 7.7762
91 2 -0.804757 1.01879 13.5766 6.34666
92 2 -0.637331 13.4718 0.841333 6.53556
93 2 -0.743067 13.511 13.7168 8.33415
94 2 -0.86762 1.14792 2.9066 9.55212
95 2 -0.811447 2.56915 0.350298 9.3545
96 2 -0.809241 3.26165 2.42065 8.1956
97 2 -0.784745 1.05375 4.39974 11.577
98 2 -0.796653 13.81 2.77706 11.3655
99 2 -0.875564 13.4454 4.40825 9.58645
100 2 -0.751189 1.29617 6.58454 13.3663
101 2 -0.666608 2.79531 6.09294 11.6763
102 2 -0.724617 3.79076 0.805686 11.5896
103 2 -0.837181 2.308 13.0548 10.8689
104 2 -0.895464 4.74455 13.4712 9.80973
105 2 -0.638806 6.4191 0.791533 12.7592
106 2 -0.566841 5.82726 2.32916 11.4912
107 2 -0.631441 4.94235 4.5873 7.86856
108 2 -0.640147 4.49135 6.89608 9.56821
109 2 -0.641049 5.88349 4.5632 9.91653
110 2 -0.675251 6.5254 6.39114 8.1696
111 2 -0.734726 0.893696 7.87642 0.991265
112 2 -0.652864 13.3029 5.95814 0.584764
113 2 -0.745174 13.4426 7.78706 13.3515
114 2 -0.640753 1.09132 9.90065 2.1496
115 2 -0.775936 2.29997 8.09674 2.97943
116 2 -0.610033 3.07131 9.74019 0.384665
117 2 -0.745846 1.1939 11.6871 4.42312
118 2 -0.853164 13.4007 10.3881 4.44858
119 2 -0.6517 13.8959 12.3878 2.50308
120 2 -0.847181 2.8717 11.569 6.64213
121 2 -0.703149 4.70448 7.87658 4.37933
122 2 -0.819469 4.26129 9.62693 6.29997
123 2 -0.774311 6.30392 9.81056 4.8367
124 2 -0.620018 6.2367 7.8203 6.29324
125 2 -0.642172 4.56376 11.7995 0.616738
126 2 -0.78655 2.613 11.9217 13.1339
127 2 -0.637253 4.74337 10.355 12.6822
128 2 -0.713298 6.24886 13.7946 0.592464
129 2 -0.611501 6.18637 11.6473 2.4008
130 2 -0.689797 0.770672 7.78559 8.26054
131 2 -0.72346 13.021 6.61801 8.03956
132 2 -0.788292 13.9681 8.23953 5.73801
133 2 -0.718283 0.364872 9.64545 10.0274
134 2 -0.653812 2.28564 8.28933 10.4651
135 2 -0.68194 2.8676 9.71651 8.4729
136 2 -0.907704 0.577329 11.417 11.8324
137 2 -0.756466 12.7651 9.71053 11.8071
138 2 -0.801346 12.9383 11.6496 10.1548
139 2 -0.512734 4.71637 7.86449 12.2919
140 2 -0.78256 6.27397 7.88361 14.0003
141 2 -0.650779 7.0462 9.09264 11.827
142 2 -0.704616 4.62789 11.4388 8.69066
143 2 -0.813149 6.62405 12.7712 8.29927
144 2 -0.724333 6.14066 11.0485 10.2663
145 2 -0.693251 7.84139 1.4095 0.692861
146 2 -0.596659 8.88316 13.5855 13.5208
147 2 -0.714019 7.85337 2.79702 2.34176
148 2 -0.704113 9.82694 1.55308 2.38924
149 2 -0.723633 9.55333 3.09951 0.201
150 2 -0.617147 7.88335 5.0107 4.21425
151 2 -0.601537 10.2137 4.55243 6.05028
152 2 -0.728592 10.1255 6.85003 4.73541
153 2 -0.640294 8.24901 6.22558 6.60022
154 2 -0.685844 11.6174 0.70419 4.63399
155 2 -0.623225 9.46043 13.3707 4.04486
156 2 -0.600029 11.5332 13.5394 2.62499
157 2 -0.702183 11.7828 2.42127 6.71726
158 2 -0.71609 11.6375 4.23832 0.873807
159 2 -0.737939 10.2763 5.08702 12.9863
160 2 -0.644615 11.6783 2.97183 12.8297
161 2 -0.689488 11.4479 6.53198 2.26123
162 2 -0.661681 8.0982 0.942461 7.86839
163 2 -0.510537 8.5104 13.1264 6.99878
164 2 -0.602289 7.59309 2.80722 9.7604
165 2 -0.749771 9.49347 1.07085 10.2084
166 2 -0.61121 9.47362 2.41758 8.23605
167 2 -0.551224 7.95913 4.36659 12.0563
168 2 -0.823953 7.85804 6.12226 13.4549
169 2 -0.678792 9.39437 6.50369 11.0492
170 2 -0.603744 11.3682 0.786547 11.4096
171 2 -0.796103 9.89763 13.0617 11.4129
172 2 -0.749093 11.5987 13.6299 9.46085
173 2 -0.659431 11.4483 4.40933 7.80917
174 2 -0.643194 11.3764 5.66086 9.82802
175 2 -0.899571 8.17539 7.6696 1.29667
176 2 -0.691152 7.69153 9.54066 3.06625
177 2 -0.713855 10.0825 8.29526 2.90421
178 2 -0.734481 9.56536 9.92269 1.24773
179 2 -0.740842 7.63393 12.0558 4.4021
180 2 -0.620707 9.82939 11.342 5.84954
181 2 -0.821711 12.0345 8.50471 4.14593
182 2 -0.824619 12.0099 9.71146 6.29778
183 2 -0.672542 11.6051 11.2685 1.19456
184 2 -0.638542 10.2239 11.6791 13.5123
185 2 -0.689467 11.1906 9.1315 13.8346
186 2 -0.848212 8.28854 8.42021 8.13606
187 2 -0.819193 8.58188 9.81791 10.1144
188 2 -0.845205 10.459 8.29765 9.32265
189 2 -0.876127 9.92602 10.0866 7.88467
190 2 -0.666502 7.50119 11.6899 12.1138
191 2 -0.699388 11.4894 7.29299 11.7392
192 2 -0.752459 12.0098 11.8971 7.6667
ITEM: TIMESTEP
55000
ITEM: NUMBER OF ATOMS
192
ITEM: BOX BOUNDS pp pp pp
4.9189616043143758e-04 1.4299508103839582e+01
4.9189616043143758e-04 1.4299508103839582e+01
4.9189616043143758e-04 1.4299508103839582e+01
ITEM: ATOMS id type q x y z
1 1 1.46372 14.1763 14.1521 0.266544
2 1 1.28225 1.87824 1.66138 1.72253
3 1 1.4187 14.2372 3.6713 3.37593
4 1 1.46641 1.7035 5.49843 5.63068
5 1 1.38418 3.40218 13.9361 3.45346
6 1 1.22273 5.0954 1.78697 5.37506
7 1 1.50685 3.80032 3.55827 14.4903
8 1 1.45278 5.52558 5.45927 1.81648
9 1 1.61979 -0.20005 -0.0494477 7.333
10 1 1.53994 1.72498 1.82021 9.02597
11 1 1.62043 0.159311 3.75215 11.0556
12 1 1.75539 2.04445 5.33666 12.652
13 1 1.44655 3.79977 0.0144052 10.7715
14 1 1.62254 5.43055 1.66225 12.6658
15 1 1.56608 3.43775 3.69137 7.28428
16 1 1.48222 5.2101 5.29633 9.2046
17 1 1.54741 0.222969 7.15498 -0.104764
18 1 1.4336 1.75375 9.11546 1.88965
19 1 1.51172 13.9491 10.341 3.83593
20 1 1.4285 1.55895 12.3446 5.20925
21 1 1.59232 3.49225 7.06389 3.62098
22 1 1.75988 5.41543 8.74539 5.12946
23 1 1.31068 3.63986 10.8236 -0.0310035
24 1 1.49069 5.42281 12.5772 1.68819
25 1 1.72116 14.0668 7.22536 6.98873
26 1 1.72005 1.77576 9.04849 8.49457
27 1 1.6074 0.411625 11.1654 10.2865
28 1 1.44733 1.84946 12.662 12.6202
29 1 1.58949 3.18639 7.35601 10.6053
30 1 1.30114 5.07197 9.14414 12.2695
31 1 1.75936 3.55576 10.6025 6.66829
32 1 1.4437 5.1531 12.4147 8.50626
33 1 1.65279 7.27064 -0.00348942 0.0916298
34 1 1.2857 9.31345 1.79072 2.18097
35 1 1.32399 7.11846 3.4942 3.55632
36 1 1.46784 8.79866 5.31216 5.4134
37 1 1.54509 11.1206 -0.0117102 3.92515
38 1 1.45849 12.6136 1.97104 5.63178
39 1 1.40881 10.9458 3.65436 14.4768
40 1 1.60136 12.5907 5.59138 1.75034
41 1 1.59263 7.0166 0.109055 7.00665
42 1 1.32298 8.81218 1.75912 8.89975
43 1 1.50288 7.09912 3.54915 10.8481
44 1 1.35819 9.10326 5.5804 12.4688
45 1 1.29903 10.4807 0.0229113 10.7471
46 1 1.6311 12.6587 1.85714 12.5427
47 1 1.34575 10.645 3.59661 7.18825
48 1 1.33583 12.8148 5.28176 9.05417
49 1 1.29515 7.3216 7.3629 14.1253
50 1 1.45031 9.07242 9.21245 1.53653
51 1 1.80079 7.21017 10.6802 3.76044
52 1 1.36041 8.92528 12.661 5.28205
53 1 1.56401 10.5143 7.2118 3.50002
54 1 1.81292 11.982 8.8169 5.52965
55 1 1.11835 10.9469 10.8447 14.0228
56 1 1.39908 12.4612 12.2845 1.96401
57 1 1.41362 7.00969 6.94331 7.27258
58 1 1.25201 8.68232 8.55083 9.15734
59 1 1.33651 7.10806 10.7175 10.4382
60 1 1.54013 8.78264 12.5088 12.4542
61 1 1.62696 11.0318 7.23485 10.671
62 1 1.27431 13.0692 9.10059 12.0293
63 1 1.54146 10.5534 10.7314 7.38998
64 1 1.54936 12.4476 12.4914 8.98082
65 2 -0.731851 1.02975 0.690071 0.727971
66 2 -0.718025 0.685639 13.1228 13.5955
67 2 -0.769661 13.521 0.948368 13.3992
68 2 -0.71313 13.461 13.4996 1.51477
69 2 -0.640456 0.916762 2.64129 2.87065
70 2 -0.589673 3.17371 0.78772 2.50222
71 2 -0.750441 2.86784 2.62527 0.812956
72 2 -0.573091 1.03976 4.30507 4.27239
73 2 -0.682718 13.4734 2.6462 4.53138
74 2 -0.843807 13.6628 4.67213 2.26777
75 2 -0.852978 2.40296 4.63411 6.71068
76 2 -0.806878 2.50136 6.48099 4.74833
77 2 -0.808477 0.35409 6.06633 6.11234
78 2 -0.637433 4.19947 0.700618 4.36019
79 2 -0.648689 1.95047 13.4302 3.85593
80 2 -0.708211 4.11488 13.0326 2.33577
81 2 -0.73361 4.2289 2.78209 6.16612
82 2 -0.595134 5.81174 2.92862 4.21267
83 2 -0.729267 6.64008 1.20469 6.01765
84 2 -0.689625 5.10189 4.25826 0.672093
85 2 -0.764337 2.97268 4.79986 13.7338
86 2 -0.701451 4.26838 2.64975 13.1854
87 2 -0.748337 4.60505 5.83309 2.94968
88 2 -0.650202 6.63912 4.48596 2.26042
89 2 -0.685497 6.41265 6.47535 1.00822
90 2 -0.733148 0.703903 0.77398 8.29759
91 2 -0.679644 0.952789 13.3083 6.41993
92 2 -0.73206 13.6666 1.17297 6.58917
93 2 -0.833719 12.9567 13.7782 8.11197
94 2 -0.802089 0.978004 2.84284 10.0098
95 2 -0.697669 2.91347 0.986441 9.78182
96 2 -0.752187 2.57084 2.63933 8.04501
97 2 -0.924027 1.27615 4.31321 11.9008
98 2 -0.7895 13.368 3.11879 11.9222
99 2 -0.708636 13.408 4.81431 10.5979
100 2 -0.790001 1.0779 6.02256 13.7627
101 2 -0.892925 2.63101 6.44062 11.7951
102 2 -0.882692 4.74086 0.614711 11.8234
103 2 -0.67496 2.65043 13.5469 11.4941
104 2 -0.667479 4.24779 13.0143 9.74486
105 2 -0.839628 6.32318 0.955218 13.7948
106 2 -0.777046 6.47752 2.57751 11.9842
107 2 -0.733607 4.2431 4.0603 8.56102
108 2 -0.780911 4.30479 6.57652 9.90274
109 2 -0.757884 5.93347 4.39796 10.1699
110 2 -0.781776 6.26089 5.80556 8.28351
111 2 -0.740258 1.35847 8.1815 0.74514
112 2 -0.749326 13.3592 6.47038 0.623422
113 2 -0.725361 13.7765 7.94549 13.1004
114 2 -0.68703 0.77553 9.26196 3.19135
115 2 -0.76057 2.79074 8.02779 2.78677
116 2 -0.648288 2.37149 10.3645 1.38156
117 2 -0.793233 0.564359 11.3218 4.71523
118 2 -0.884195 12.797 9.37777 4.44909
119 2 -0.763021 13.3856 11.2546 2.78613
120 2 -0.810599 2.82631 11.6011 5.72227
121 2 -0.877634 4.62201 7.79354 4.29589
122 2 -0.901455 4.4171 9.78374 5.69872
123 2 -0.935354 6.50832 9.65176 4.54061
124 2 -0.72595 6.06704 7.65591 6.12595
125 2 -0.766466 4.68373 11.5774 0.86528
126 2 -0.730921 2.85757 11.5303 13.0463
127 2 -0.679824 4.27422 9.4945 13.6006
128 2 -0.785989 6.17565 13.7674 1.16932
129 2 -0.786217 6.21018 11.3484 3.01731
130 2 -0.907295 0.792907 8.17948 7.58365
131 2 -0.772937 13.5189 6.30638 8.12401
132 2 -0.903492 12.8288 7.7943 6.32339
133 2 -0.88788 1.17261 10.1897 9.41689
134 2 -0.83788 2.25966 7.87229 9.55145
135 2 -0.954793 2.77285 9.63539 7.62916
136 2 -0.685136 1.01981 12.0774 11.3395
137 2 -0.726577 13.847 10.2947 11.5394
138 2 -0.837921 13.8956 12.1217 9.43822
139 2 -0.67506 3.89473 8.67823 11.3032
140 2 -0.585236 6.5654 8.22842 13.1444
141 2 -0.622097 5.74612 10.1339 11.3017
142 2 -0.8174 4.13393 11.6873 7.5241
143 2 -0.836466 6.09704 13.3645 7.72532
144 2 -0.65193 6.26041 11.3355 9.10467
145 2 -0.666146 8.29024 0.590308 1.0462
146 2 -0.844933 7.67189 13.1161 13.522
147 2 -0.650387 8.24843 2.16993 3.27772
148 2 -0.751947 10.2893 0.681964 2.68365
149 2 -0.714953 10.0469 3.00122 1.42189
150 2 -0.778211 8.04918 4.35257 4.484
151 2 -0.749318 9.66781 4.71325 6.54658
152 2 -0.684928 10.0091 6.07369 4.41399
153 2 -0.674758 7.7751 6.39811 5.92536
154 2 -0.800897 12.0775 0.512066 4.88239
155 2 -0.726928 10.1412 13.4549 4.96273
156 2 -0.726324 11.6071 13.1266 3.14619
157 2 -0.775905 11.9364 3.07355 6.34757
158 2 -0.758628 11.8326 4.84514 0.699487
159 2 -0.603744 9.86067 4.60037 13.7213
160 2 -0.767886 11.792 2.58697 13.5747
161 2 -0.799258 11.5401 6.17855 2.8028
162 2 -0.790403 8.15978 0.751453 7.73362
163 2 -0.747816 7.64802 13.317 6.11927
164 2 -0.703806 7.5162 2.64008 9.67242
165 2 -0.743057 9.3752 0.789723 10.1309
166 2 -0.744259 9.84576 2.7622 8.36698
167 2 -0.667768 8.18379 4.4897 11.608
168 2 -0.64645 7.84959 6.21557 12.8727
169 2 -0.697186 10.4067 6.4583 11.9637
170 2 -0.711901 11.7021 1.21856 11.5237
171 2 -0.78336 9.62391 13.3286 11.5333
172 2 -0.652209 11.535 12.8443 10.1859
173 2 -0.560524 11.8609 4.2947 8.069
174 2 -0.719345 11.6049 6.19676 9.63717
175 2 -0.693295 8.47542 8.36944 0.242675
176 2 -0.697384 7.96159 9.76591 2.57583
177 2 -0.78062 9.87619 8.20048 2.5307
178 2 -0.707509 9.8741 10.2978 0.807381
179 2 -0.803048 8.41264 11.3992 4.2643
180 2 -0.612012 9.98443 11.6139 6.16615
181 2 -0.784342 10.84 8.29889 4.61431
182 2 -0.836441 11.507 9.71965 6.6194
183 2 -0.675831 12.2014 11.5883 0.565579
184 2 -0.664504 9.8299 12.2086 13.3792
185 2 -0.493804 11.6116 9.59212 12.7959
186 2 -0.751605 8.11071 7.53696 8.13164
187 2 -0.650192 7.3192 9.32665 9.92236
188 2 -0.751345 9.89905 8.04398 10.1987
189 2 -0.655944 9.37593 9.86867 7.99069
190 2 -0.744656 8.1166 11.2679 11.4931
191 2 -0.722941 11.9089 8.37242 11.0019
192 2 -0.85577 11.6247 11.5292 8.12769
ITEM: TIMESTEP
56000
ITEM: NUMBER OF ATOMS
192
ITEM: BOX BOUNDS pp pp pp
5.0740798652979535e-03 1.4294925920134700e+01
5.0740798652979535e-03 1.4294925920134700e+01
5.0740798652979535e-03 1.4294925920134700e+01
ITEM: ATOMS id type q x y z
1 1 1.48747 0.0588586 14.3001 14.1444
2 1 1.39577 2.12598 1.65505 1.65582
3 1 1.47356 -0.153744 3.06536 3.42465
4 1 1.37823 1.72863 5.25628 5.02164
5 1 1.47825 4.00738 14.1785 3.41036
6 1 1.24596 5.62193 1.67302 5.37706
7 1 1.24072 3.73237 3.97566 14.3401
8 1 1.63055 5.14405 5.84326 1.95213
9 1 1.44713 -0.00781122 -0.00629532 6.8975
10 1 1.22165 1.84727 1.92001 8.77116
11 1 1.31346 13.9585 3.83851 10.3448
12 1 1.53892 1.45846 5.20442 12.4883
13 1 1.22525 3.7166 14.1425 10.6225
14 1 1.41155 5.34602 1.94744 12.4758
15 1 1.23896 3.80695 3.80084 7.09207
16 1 1.40301 5.39501 5.8394 9.20543
17 1 1.89678 14.1459 6.9235 0.180604
18 1 1.56731 1.57863 8.70672 1.92182
19 1 1.24993 -0.0839847 10.9531 3.47729
20 1 1.35151 1.96466 12.6313 5.06111
21 1 1.46377 3.4511 7.50839 3.84221
22 1 1.58329 5.25563 9.22119 5.68754
23 1 1.6723 3.31343 10.5156 0.00596401
24 1 1.37269 5.31142 12.402 1.39971
25 1 1.37855 0.396635 7.53868 7.14572
26 1 1.69241 1.86023 9.04816 9.42118
27 1 1.48827 14.1052 10.6123 11.1331
28 1 1.30371 1.92458 12.4653 12.4367
29 1 1.63621 3.4365 7.10724 11.0909
30 1 1.59687 5.27483 8.79679 12.7189
31 1 1.53961 3.25167 10.6523 7.35239
32 1 1.35028 5.5641 12.2483 8.93415
33 1 1.44394 7.20272 0.238874 14.2459
34 1 1.64755 8.61417 2.05321 1.77528
35 1 1.4021 6.90881 3.78213 3.63293
36 1 1.52815 8.70615 5.40538 5.61499
37 1 1.64099 10.3532 0.127504 3.19702
38 1 1.42056 12.2616 1.50921 5.18244
39 1 1.48385 10.6318 3.19851 -0.111081
40 1 1.50768 12.3911 4.85976 1.69778
41 1 1.42981 7.49059 14.2543 7.32719
42 1 1.48664 9.26942 1.86172 8.92479
43 1 1.2191 7.04968 3.57773 10.5029
44 1 1.58782 9.2554 5.19824 12.3781
45 1 1.28849 10.7162 13.9459 10.7604
46 1 1.09225 12.6698 2.06031 12.401
47 1 1.49629 10.6776 3.4977 6.87343
48 1 1.36127 12.3774 5.47202 8.44932
49 1 1.48438 7.08701 6.89886 14.2385
50 1 1.29666 8.79968 8.65836 1.96311
51 1 1.44781 6.8614 10.7169 3.66497
52 1 1.58756 8.90569 12.5487 5.12431
53 1 1.3856 10.783 6.90896 3.95408
54 1 1.60679 12.3762 8.98258 5.4654
55 1 1.59947 10.5699 10.4504 0.298999
56 1 1.59129 12.2961 12.6387 1.54748
57 1 1.29951 7.31929 7.46514 7.42376
58 1 1.4034 9.53102 9.09282 9.17903
59 1 1.224 7.28779 10.7403 10.853
60 1 1.60013 9.09847 12.3725 12.7638
61 1 1.67976 11.0841 7.09969 10.7585
62 1 1.89536 12.4463 8.8775 12.8406
63 1 1.48942 10.6385 10.9515 6.92663
64 1 1.33712 12.7171 12.151 8.76593
65 2 -0.623075 1.33601 0.344117 0.812464
66 2 -0.650268 0.663864 13.3194 13.2666
67 2 -0.687235 13.9318 1.39055 13.49
68 2 -0.742247 13.296 13.3269 0.621273
69 2 -0.726336 0.960356 2.27614 2.34839
70 2 -0.688461 2.86772 0.787992 2.80372
71 2 -0.682942 2.81916 2.86529 0.808223
72 2 -0.648632 0.619722 4.2004 4.32272
73 2 -0.7199 13.3727 2.40532 4.53293
74 2 -0.803377 13.0601 3.98592 2.69581
75 2 -0.63495 2.70724 4.51996 5.89208
76 2 -0.690417 2.72362 5.95145 4.11578
77 2 -0.66966 1.25092 6.46662 6.28014
78 2 -0.638613 4.52669 1.28209 4.24981
79 2 -0.719953 3.30014 13.2781 4.35976
80 2 -0.746484 4.38065 13.0337 2.49266
81 2 -0.677996 4.74395 2.78995 6.3192
82 2 -0.668697 6.64575 2.40362 4.21807
83 2 -0.723971 6.57163 0.682548 6.23947
84 2 -0.709408 4.00983 5.02197 1.20398
85 2 -0.745401 2.598 4.50635 13.1604
86 2 -0.676062 5.12326 2.90479 13.6206
87 2 -0.696063 4.74869 7.12021 2.80553
88 2 -0.751038 5.52144 4.76624 2.86926
89 2 -0.90026 6.05435 6.13307 0.793719
90 2 -0.633501 0.848304 1.18763 7.54066
91 2 -0.688526 0.710846 13.5731 5.6869
92 2 -0.710667 13.0254 0.820179 6.42292
93 2 -0.688261 13.6844 13.1937 7.93002
94 2 -0.574231 0.797149 2.65637 9.79399
95 2 -0.574712 2.79971 0.670932 9.52937
96 2 -0.637332 2.88233 3.07492 8.1731
97 2 -0.740728 0.761766 4.46952 11.1878
98 2 -0.706385 12.8116 3.14511 11.2838
99 2 -0.672694 13.1785 4.23292 8.89123
100 2 -0.910749 0.612249 6.29434 13.3883
101 2 -0.775885 2.29442 6.19465 11.6142
102 2 -0.5853 4.24835 1.46966 11.2261
103 2 -0.737245 2.80256 13.5896 11.7608
104 2 -0.72034 4.42612 12.8914 9.74321
105 2 -0.738257 6.46897 1.03062 12.968
106 2 -0.70652 6.15309 2.7592 11.4703
107 2 -0.639516 4.58404 5.1547 8.11522
108 2 -0.776925 4.0964 6.43726 9.8899
109 2 -0.647754 6.73546 5.1427 9.95575
110 2 -0.695596 6.26418 6.94215 8.51439
111 2 -0.914077 0.688694 7.72668 1.21069
112 2 -0.87936 13.3803 5.86742 0.921572
113 2 -0.927971 13.142 7.86909 13.8125
114 2 -0.612002 1.09137 10.208 2.73167
115 2 -0.830553 2.27695 7.95214 3.00317
116 2 -0.742502 2.69528 9.40777 0.988432
117 2 -0.633871 1.01172 11.7965 4.06125
118 2 -0.689155 13.4159 9.76731 4.5138
119 2 -0.559647 13.5917 12.3836 2.58239
120 2 -0.680555 2.45974 11.8061 6.44722
121 2 -0.731655 4.39079 8.43595 4.53931
122 2 -0.814577 3.89018 9.65594 6.38811
123 2 -0.7942 5.88127 10.2948 4.77583
124 2 -0.748086 6.2063 8.19351 6.12734
125 2 -0.792504 4.43619 11.2615 0.735521
126 2 -0.825183 2.3201 11.4739 13.6156
127 2 -0.843723 4.24778 9.586 13.5768
128 2 -0.710632 6.08901 13.5937 0.460064
129 2 -0.672596 6.36102 11.8369 2.63388
130 2 -0.789894 0.889794 8.22893 8.32155
131 2 -0.565171 13.2498 6.77961 7.96813
132 2 -0.692174 13.4659 8.45503 6.45114
133 2 -0.759186 0.929258 9.62228 10.5774
134 2 -0.820547 2.86364 8.39788 10.2776
135 2 -0.894348 2.3945 10.067 8.5076
136 2 -0.581511 0.522021 12.0531 11.4937
137 2 -0.891584 13.5573 9.73416 12.3587
138 2 -0.728361 13.574 11.2738 9.9005
139 2 -0.885747 4.39819 7.84385 12.0817
140 2 -0.795049 6.53923 8.15466 13.5443
141 2 -0.619004 5.75704 9.65714 11.4019
142 2 -0.721982 4.6347 11.2398 7.89129
143 2 -0.690467 6.47398 13.4666 8.3877
144 2 -0.698435 6.85336 11.79 9.78055
145 2 -0.834066 7.57233 0.96273 1.22614
146 2 -0.746061 8.08471 13.2088 13.565
147 2 -0.728267 8.01217 3.21331 2.63415
148 2 -0.848807 9.46971 1.27657 2.80555
149 2 -0.812709 9.69069 2.23077 0.772186
150 2 -0.718944 7.92439 4.52009 4.47287
151 2 -0.775677 9.54915 4.14875 6.15474
152 2 -0.804261 9.56928 6.30073 4.5848
153 2 -0.784153 7.95151 6.20495 6.6744
154 2 -0.711145 11.6757 0.47714 4.04287
155 2 -0.85177 9.76192 13.4614 4.12605
156 2 -0.781807 11.3943 13.706 2.07801
157 2 -0.693254 11.6536 2.85295 5.73136
158 2 -0.833135 11.3803 4.05151 1.01095
159 2 -0.832884 9.87345 4.48151 13.5247
160 2 -0.678272 11.2681 2.09321 13.3529
161 2 -0.54299 11.7021 6.48542 2.60473
162 2 -0.733461 8.53186 1.03045 7.72737
163 2 -0.757302 8.46428 13.3182 6.40398
164 2 -0.696173 8.29279 2.50718 9.93447
165 2 -0.650423 9.7288 0.421393 9.6486
166 2 -0.838427 10.1272 2.84627 8.26216
167 2 -0.610846 8.11535 4.3309 11.721
168 2 -0.641242 8.17236 6.12038 13.144
169 2 -0.861864 10.0715 6.1796 11.5091
170 2 -0.551269 11.6174 0.64815 11.7188
171 2 -0.747135 9.89455 12.7252 11.5829
172 2 -0.625057 11.5143 13.0032 9.80295
173 2 -0.701972 11.4996 4.82284 7.31022
174 2 -0.742737 11.853 5.99039 9.9712
175 2 -0.7001 8.2683 7.5781 0.911867
176 2 -0.647843 7.91888 9.56007 3.03874
177 2 -0.486595 10.2225 8.35797 3.19868
178 2 -0.770137 9.51983 9.79122 1.2646
179 2 -0.788788 7.90211 11.5775 4.60396
180 2 -0.748062 10.2396 11.8364 5.75296
181 2 -0.772141 11.8217 7.76434 4.67987
182 2 -0.763437 11.2006 9.70403 6.03226
183 2 -0.819645 11.7012 11.3186 1.09526
184 2 -0.786459 9.93065 11.7059 14.0091
185 2 -0.931837 11.3534 9.58694 13.471
186 2 -0.646742 8.6197 8.22392 8.17083
187 2 -0.627687 8.39174 9.60157 10.2833
188 2 -0.771397 10.6804 8.04262 9.58743
189 2 -0.744386 9.91883 10.2141 8.10226
190 2 -0.724651 8.28558 11.3807 11.9488
191 2 -0.925648 11.7634 8.06858 11.7047
192 2 -0.728148 12.0416 11.2706 7.67457
ITEM: TIMESTEP
57000
ITEM: NUMBER OF ATOMS
192
ITEM: BOX BOUNDS pp pp pp
1.0713505000611079e-02 1.4289286494999352e+01
1.0713505000611079e-02 1.4289286494999352e+01
1.0713505000611079e-02 1.4289286494999352e+01
ITEM: ATOMS id type q x y z
1 1 1.46493 13.9696 0.0538974 0.294
2 1 1.58871 1.45609 1.56239 2.22958
3 1 1.44367 13.7936 3.57675 3.75472
4 1 1.44757 1.59071 5.42645 5.17241
5 1 1.48031 3.63211 14.1853 3.56735
6 1 1.4425 5.35687 1.66823 5.26372
7 1 1.3637 3.50424 3.19529 0.660399
8 1 1.24784 5.77319 5.53926 2.17154
9 1 1.37684 0.0216715 0.102732 7.18619
10 1 1.57583 1.62155 2.20677 8.94564
11 1 1.39354 0.259058 4.11486 10.8589
12 1 1.39828 2.30603 5.68722 12.9023
13 1 1.45702 3.162 0.23239 10.7655
14 1 1.48887 4.89611 1.43358 12.918
15 1 1.46383 3.68804 3.34148 7.08406
16 1 1.58938 5.32522 5.08482 9.0432
17 1 1.54271 0.316894 7.69311 13.9567
18 1 1.58174 1.97119 9.1389 1.69558
19 1 1.61598 0.236155 10.5047 3.76048
20 1 1.33401 1.74885 12.5907 5.32514
21 1 1.75703 3.40846 7.15634 3.33444
22 1 1.32914 5.34565 8.98549 5.04656
23 1 1.66466 3.98082 10.8051 0.0531099
24 1 1.58984 5.45737 12.723 1.84289
25 1 1.44965 13.9085 7.14588 7.07056
26 1 1.31704 1.75564 8.78457 9.07269
27 1 1.43188 14.1862 11.0464 10.473
28 1 1.24672 1.7248 12.3095 12.8424
29 1 1.58717 3.67468 7.15707 10.6197
30 1 1.69693 5.50644 9.03206 12.3341
31 1 1.22899 3.48738 10.4856 6.89175
32 1 1.13917 4.78271 12.4008 8.98093
33 1 1.52177 7.29479 14.1039 14.1591
34 1 1.19877 9.40428 1.52759 1.40405
35 1 1.17377 7.42739 3.36835 3.49197
36 1 1.48954 9.08441 5.27168 5.26186
37 1 1.72932 10.7968 0.0873994 3.50359
38 1 1.48572 12.0979 1.93653 5.48448
39 1 1.1679 11.3183 3.75866 14.2186
40 1 1.28347 12.8789 5.77319 1.69725
41 1 1.19777 6.8412 14.145 7.28069
42 1 1.36783 8.8291 1.58498 9.14565
43 1 1.27044 6.8958 3.16388 10.9896
44 1 1.5097 8.96563 4.89453 12.5251
45 1 1.41863 10.9964 0.192479 10.8441
46 1 1.59041 12.985 1.71058 12.3952
47 1 1.37485 10.5911 3.68418 7.55723
48 1 1.4333 12.415 5.54111 9.30536
49 1 1.63492 7.18022 6.93087 14.04
50 1 1.52789 9.00095 8.78829 1.23782
51 1 1.36596 7.3617 10.6812 3.11293
52 1 1.35343 8.89583 12.5936 5.18924
53 1 1.40875 10.7645 7.28372 3.43022
54 1 1.38656 12.4147 9.03315 5.28078
55 1 1.26753 10.9215 10.8133 14.0298
56 1 1.33767 12.4104 12.3186 2.08675
57 1 1.18943 7.10904 7.00424 7.08568
58 1 1.51439 8.72963 9.03478 8.83362
59 1 1.54234 6.99908 10.9489 10.5383
60 1 1.63718 8.97781 12.4806 12.2693
61 1 1.62913 10.2029 7.16126 10.7646
62 1 1.29692 12.3958 8.99676 12.0653
63 1 1.19933 10.6435 10.8412 7.20819
64 1 1.43547 12.3502 12.7561 8.78933
65 2 -0.847425 0.747565 0.74052 1.14601
66 2 -0.628799 1.04184 13.4987 13.7
67 2 -0.891973 13.0776 0.56888 13.4575
68 2 -0.776547 13.3713 13.16 1.21871
69 2 -0.756976 0.369807 2.21712 3.00298
70 2 -0.840922 2.42567 0.806263 3.13045
71 2 -0.753197 2.28467 2.93023 1.47604
72 2 -0.640077 0.602601 4.40521 4.90128
73 2 -0.747459 12.9691 3.23016 4.8788
74 2 -0.767886 13.6153 4.73154 2.77139
75 2 -0.584374 2.83397 4.2448 5.98704
76 2 -0.854376 2.33025 6.30445 4.09441
77 2 -0.701571 0.651959 6.21095 6.14155
78 2 -0.803051 4.70365 0.837475 4.0399
79 2 -0.672316 3.14009 13.3492 4.81452
80 2 -0.774867 4.06794 12.9257 2.55131
81 2 -0.738032 4.10868 2.31442 5.96439
82 2 -0.654447 6.29369 2.85164 4.49138
83 2 -0.719283 6.46871 1.15589 6.14182
84 2 -0.522104 4.82425 3.84898 1.60741
85 2 -0.600073 2.98573 4.18877 13.5499
86 2 -0.801497 4.16456 2.10437 14.1505
87 2 -0.809133 4.46828 6.34107 2.70869
88 2 -0.630561 6.94678 4.97386 2.98637
89 2 -0.72759 6.28776 6.19986 0.658549
90 2 -0.74469 0.630511 1.41038 8.08634
91 2 -0.726409 0.671859 13.2306 6.26419
92 2 -0.57363 13.283 0.934186 5.85135
93 2 -0.792061 13.1517 13.72 7.89575
94 2 -0.730202 0.997127 3.6171 9.54757
95 2 -0.788796 2.45099 1.45141 9.95655
96 2 -0.750358 2.84325 2.41951 8.01488
97 2 -0.617451 1.05652 4.8263 12.1179
98 2 -0.715396 14.0646 2.54903 11.645
99 2 -0.796753 13.4614 5.02396 10.2906
100 2 -0.786399 1.4038 6.88675 13.3814
101 2 -0.747227 2.8901 6.31806 11.7072
102 2 -0.811284 3.9701 0.632685 12.0499
103 2 -0.59071 2.47196 13.1946 11.183
104 2 -0.592685 4.03432 13.9526 9.55771
105 2 -0.697251 6.31204 0.536099 13.1325
106 2 -0.636649 5.688 2.58017 12.0369
107 2 -0.851858 4.53052 4.33017 8.01762
108 2 -0.812427 4.26595 5.99214 9.58009
109 2 -0.769176 6.22331 4.41335 10.0744
110 2 -0.639866 6.3841 6.22763 8.29371
111 2 -0.761009 1.0213 8.84038 0.464266
112 2 -0.650833 13.8006 6.95647 0.850975
113 2 -0.647847 13.4105 8.06653 12.7453
114 2 -0.837405 1.21902 9.55496 2.91117
115 2 -0.783487 2.80588 7.7465 2.10237
116 2 -0.842485 3.05959 9.92795 0.856744
117 2 -0.78015 1.34137 11.1761 4.65176
118 2 -0.787847 13.7953 9.403 4.50257
119 2 -0.767383 13.4804 11.4156 3.24627
120 2 -0.565712 2.69903 12.0933 6.49689
121 2 -0.81868 4.12543 8.23738 4.09326
122 2 -0.681356 4.70551 10.0317 6.06911
123 2 -0.644087 6.4036 9.58858 4.11864
124 2 -0.616178 6.32756 8.01398 6.18172
125 2 -0.82724 5.02219 11.6406 0.897573
126 2 -0.714983 3.04986 11.6935 13.29
127 2 -0.837737 4.70442 9.95086 13.3041
128 2 -0.859567 6.32068 13.4943 0.861226
129 2 -0.745227 6.50818 11.9794 2.82635
130 2 -0.687844 0.491086 8.12805 7.95269
131 2 -0.70739 13.0527 6.23755 7.98063
132 2 -0.641201 12.7293 7.57142 6.136
133 2 -0.675636 0.901604 9.89674 9.88282
134 2 -0.735984 2.47089 8.01123 10.2654
135 2 -0.635069 2.78665 9.28355 7.96041
136 2 -0.594081 0.949341 11.3131 11.8297
137 2 -0.695438 13.1529 10.4293 11.387
138 2 -0.783199 13.5875 12.0905 9.53219
139 2 -0.826902 4.55439 8.07004 11.4534
140 2 -0.801294 6.23374 7.98743 13.1074
141 2 -0.827982 6.65377 9.81829 11.6086
142 2 -0.557131 4.23383 10.894 8.1695
143 2 -0.617868 5.79717 13.1336 7.90053
144 2 -0.676202 5.77606 11.8065 10.262
145 2 -0.687057 7.92607 0.998943 0.819749
146 2 -0.852899 8.45373 13.1939 13.4519
147 2 -0.484837 8.76632 2.21993 2.98255
148 2 -0.831831 10.3796 0.4754 2.07998
149 2 -0.61972 10.224 2.82901 0.823828
150 2 -0.560723 8.61734 4.16665 4.0444
151 2 -0.702019 9.7823 4.30205 6.2049
152 2 -0.715186 9.97689 5.99424 4.25054
153 2 -0.699956 8.02195 5.59791 6.26289
154 2 -0.869778 11.38 1.12727 4.32591
155 2 -0.824969 9.9515 13.6131 4.49016
156 2 -0.709812 11.9924 13.3279 3.20759
157 2 -0.680038 11.433 2.47462 6.77984
158 2 -0.565168 11.8706 5.43616 0.538302
159 2 -0.668709 10.1089 4.52495 13.4758
160 2 -0.750333 12.2457 2.84417 13.2107
161 2 -0.6579 12.0193 6.80101 2.61713
162 2 -0.657771 7.73648 0.691402 8.54859
163 2 -0.617619 7.9757 13.106 6.33472
164 2 -0.69102 8.19793 2.11404 10.4384
165 2 -0.582942 10.3005 0.79621 9.32838
166 2 -0.680464 9.50159 2.83285 8.24393
167 2 -0.721575 7.78942 4.02526 11.9949
168 2 -0.723317 8.24839 5.90849 13.4921
169 2 -0.813428 9.45743 6.15277 11.5276
170 2 -0.841417 12.0895 1.19128 11.3284
171 2 -0.745924 9.77995 13.6771 11.5503
172 2 -0.705612 11.5853 13.3082 10.11
173 2 -0.70345 11.5848 4.30446 8.72255
174 2 -0.763731 11.2711 6.77408 9.83377
175 2 -0.797912 7.99038 7.80019 0.700719
176 2 -0.714753 7.84344 9.60123 2.03356
177 2 -0.676071 9.81297 7.83719 2.25069
178 2 -0.685603 10.1105 9.60346 0.439292
179 2 -0.644155 8.39508 11.5118 4.03099
180 2 -0.572557 9.54887 11.2862 6.02829
181 2 -0.719702 11.2259 8.48398 4.42391
182 2 -0.669892 11.9818 9.78998 6.51618
183 2 -0.623295 11.0819 11.6162 1.51771
184 2 -0.757711 9.94784 11.3101 12.8712
185 2 -0.620512 11.9967 9.9081 13.4968
186 2 -0.651805 7.65806 8.32148 8.1719
187 2 -0.734074 7.99957 10.42 9.46195
188 2 -0.814473 9.30926 7.87576 9.64315
189 2 -0.651765 9.70268 9.67082 7.72466
190 2 -0.786164 7.91412 12.041 11.3289
191 2 -0.709216 11.1449 8.00371 11.7882
192 2 -0.668448 11.1349 11.6332 8.53809
ITEM: TIMESTEP
58000
ITEM: NUMBER OF ATOMS
192
ITEM: BOX BOUNDS pp pp pp
1.6653642772751276e-02 1.4283346357227259e+01
1.6653642772751276e-02 1.4283346357227259e+01
1.6653642772751276e-02 1.4283346357227259e+01
ITEM: ATOMS id type q x y z
1 1 1.31489 14.2956 0.118993 14.1354
2 1 1.51917 1.89684 2.06682 1.36848
3 1 1.46367 0.290549 3.85342 3.3763
4 1 1.45384 2.14604 5.39784 5.59855
5 1 1.6285 3.05182 0.201591 3.43598
6 1 1.58817 5.03029 1.63572 5.38415
7 1 1.38999 3.87222 3.92707 13.9432
8 1 1.67126 5.36538 5.62161 1.82635
9 1 1.43263 -0.012483 14.0287 7.21065
10 1 1.13583 2.06088 1.40431 9.20704
11 1 1.39375 14.0733 3.37061 10.7517
12 1 1.38315 1.75692 5.46511 11.9525
13 1 1.38998 4.17823 14.0829 10.8332
14 1 1.40999 5.70695 2.08634 12.4758
15 1 1.55595 3.43514 3.27979 7.35587
16 1 1.47198 5.38952 5.50364 8.91007
17 1 1.41804 -0.169026 7.13855 13.8758
18 1 1.35388 1.58172 8.53548 1.9657
19 1 1.62998 14.3133 10.5115 3.7958
20 1 1.62954 1.75028 12.5217 5.14932
21 1 1.41791 3.65621 7.22016 3.56129
22 1 1.26919 5.4998 9.17505 5.46951
23 1 1.37196 3.38142 10.6488 0.612953
24 1 1.31945 5.06694 12.835 2.077
25 1 1.5694 0.0424352 7.17349 6.96455
26 1 1.48266 1.44226 9.29075 8.69591
27 1 1.58999 -0.00555445 10.8187 10.9523
28 1 1.56585 2.11827 12.3965 12.5738
29 1 1.44764 3.49478 7.43089 10.3689
30 1 1.35835 5.20309 8.76973 12.9445
31 1 1.51391 3.47155 10.9303 6.95914
32 1 1.33943 5.57239 12.0785 9.01992
33 1 1.41362 7.07489 14.0894 0.162357
34 1 1.53829 8.67661 1.72092 2.00106
35 1 1.46691 6.89707 3.85653 3.68388
36 1 1.33538 8.70503 5.41351 5.39385
37 1 1.28846 11.0707 -0.0263442 3.8228
38 1 1.26063 12.7861 1.85274 5.45566
39 1 1.20977 10.6437 3.24718 0.219514
40 1 1.33165 12.4709 5.41602 1.69319
41 1 1.39136 6.95786 14.3197 7.02909
42 1 1.27843 8.90233 1.79172 8.90388
43 1 1.53612 7.3263 3.80082 10.4399
44 1 1.45716 9.00565 5.46402 12.5451
45 1 1.34909 10.5907 13.872 10.6456
46 1 1.51568 12.2578 1.64256 12.3513
47 1 1.52844 10.6343 3.52828 6.84326
48 1 1.3789 12.6364 5.18847 8.72803
49 1 1.50292 7.23245 7.32863 0.177817
50 1 1.63619 8.94303 9.26377 1.92909
51 1 1.39981 7.19094 11.1468 3.57626
52 1 1.5887 9.05532 12.5893 5.36889
53 1 1.55068 10.6735 7.17016 3.53541
54 1 1.74773 12.4709 8.90345 5.35975
55 1 1.58451 10.6591 10.7992 14.1557
56 1 1.43297 12.7925 12.3809 1.64079
57 1 1.52034 7.38143 7.38712 7.35613
58 1 1.42109 9.03699 8.81605 9.42146
59 1 1.55921 7.07848 10.3963 11.0515
60 1 1.48389 8.71022 12.4242 12.4782
61 1 1.47661 11.0708 7.09378 10.9967
62 1 1.68143 12.5331 9.21004 12.632
63 1 1.6007 10.6682 10.5385 7.02047
64 1 1.48034 12.5129 12.134 8.92772
65 2 -0.729907 1.1606 0.940769 0.728901
66 2 -0.713373 1.08673 13.2682 13.1694
67 2 -0.705879 13.4432 1.01011 13.1303
68 2 -0.6617 13.2141 13.799 1.0157
69 2 -0.723352 0.781809 2.6795 2.24168
70 2 -0.845201 2.84619 1.0665 2.22846
71 2 -0.741018 2.78287 3.06885 0.355872
72 2 -0.685208 1.3793 4.49183 4.13506
73 2 -0.591111 14.1791 2.77617 4.47385
74 2 -0.734111 13.6115 4.83633 2.57024
75 2 -0.818297 2.53795 4.49201 6.72953
76 2 -0.827515 2.9145 6.33828 4.59261
77 2 -0.773895 0.871139 6.2711 6.07121
78 2 -0.77816 3.95226 0.844198 4.61223
79 2 -0.84356 2.02067 13.846 4.39849
80 2 -0.817316 3.97085 13.2769 3.06464
81 2 -0.811152 4.2354 2.18272 6.71124
82 2 -0.733179 5.6988 2.77115 4.60152
83 2 -0.801418 5.97884 0.613418 5.93774
84 2 -0.778 4.35111 4.85252 0.786998
85 2 -0.632144 2.73832 4.4173 12.5279
86 2 -0.72925 5.25808 3.23274 13.3994
87 2 -0.759006 4.97109 6.80114 2.60148
88 2 -0.812798 5.89053 4.55877 2.81854
89 2 -0.794169 6.50633 6.28669 1.06765
90 2 -0.633239 0.442831 0.901988 8.1952
91 2 -0.763533 0.833818 13.0208 6.35124
92 2 -0.651348 13.0771 0.474534 6.18476
93 2 -0.66436 13.468 12.9281 7.897
94 2 -0.527794 1.20467 2.3278 10.4434
95 2 -0.666408 2.99143 0.358906 9.92925
96 2 -0.670515 3.13383 2.52647 8.68334
97 2 -0.727467 0.545759 4.46296 11.4346
98 2 -0.820035 12.8487 2.65195 11.3669
99 2 -0.611388 13.6683 4.00013 9.19439
100 2 -0.636682 0.77987 6.0312 13.2534
101 2 -0.738926 2.41049 6.71885 11.1655
102 2 -0.775294 4.96516 0.925458 11.7037
103 2 -0.712721 3.2733 12.8098 11.6321
104 2 -0.715041 5.07453 13.3148 9.72935
105 2 -0.542794 6.66255 1.46374 13.6145
106 2 -0.696202 6.75606 2.54944 11.3197
107 2 -0.652286 4.45634 4.18268 7.8433
108 2 -0.720261 4.05098 6.14358 9.68005
109 2 -0.865525 6.20058 4.56811 9.70114
110 2 -0.743969 6.27346 6.57278 8.29808
111 2 -0.685201 0.692788 7.82613 0.860683
112 2 -0.67732 12.9931 6.11811 0.239478
113 2 -0.867665 13.6075 8.17541 12.8344
114 2 -0.744376 0.37988 9.25073 2.98932
115 2 -0.789305 2.81837 7.61715 2.42387
116 2 -0.706404 2.12289 9.79067 1.10056
117 2 -0.89992 1.19607 11.2898 4.29973
118 2 -0.953069 13.1763 9.93846 4.58553
119 2 -0.724531 13.7686 11.6714 2.54255
120 2 -0.824756 2.93276 11.8147 5.86284
121 2 -0.610651 4.49965 8.64192 3.97509
122 2 -0.682143 4.6168 9.89868 6.57697
123 2 -0.61969 6.39371 10.3325 5.15137
124 2 -0.659068 6.1431 8.2431 6.58671
125 2 -0.639603 4.50866 11.7354 1.02417
126 2 -0.725294 2.67819 11.5656 13.8473
127 2 -0.685492 4.43119 9.57488 14.0417
128 2 -0.65726 5.77249 13.4755 0.569705
129 2 -0.705412 6.432 12.2852 2.79031
130 2 -0.706314 1.13827 7.7843 7.93852
131 2 -0.723579 13.6735 6.12584 7.86364
132 2 -0.88109 13.2525 8.2837 6.6081
133 2 -0.832205 0.526754 9.8581 9.73866
134 2 -0.629631 2.91506 8.65985 9.47009
135 2 -0.769876 2.11572 10.1658 7.75721
136 2 -0.810096 0.998269 11.5925 11.6803
137 2 -0.845365 12.9233 10.3559 11.6484
138 2 -0.731758 13.6376 11.8955 9.94244
139 2 -0.647106 4.25025 8.09096 11.6975
140 2 -0.715986 6.20689 7.56957 13.2802
141 2 -0.700448 6.42499 9.70031 12.3277
142 2 -0.632429 4.20401 11.7098 8.07605
143 2 -0.507685 5.9941 12.9862 7.52375
144 2 -0.790719 6.16602 10.9439 10.0083
145 2 -0.765641 7.8897 0.772655 1.04943
146 2 -0.728617 7.84191 12.8997 13.7612
147 2 -0.741203 7.71761 2.66768 2.79517
148 2 -0.634877 9.84476 0.90986 2.65309
149 2 -0.639607 9.22613 2.79319 1.00725
150 2 -0.758779 7.43242 4.98991 4.44674
151 2 -0.803708 9.65967 4.26296 5.90914
152 2 -0.719399 9.5704 6.37901 4.17517
153 2 -0.757923 7.78304 6.15793 6.54812
154 2 -0.663553 11.8979 1.27283 4.34221
155 2 -0.736411 10.245 13.5609 4.91818
156 2 -0.555905 11.7471 12.9651 2.84218
157 2 -0.677189 11.8926 3.13134 6.00503
158 2 -0.597995 11.3669 4.09175 1.31647
159 2 -0.582553 10.0632 4.51103 13.4007
160 2 -0.650411 11.6422 2.00595 13.7668
161 2 -0.679361 11.6797 6.04494 2.92893
162 2 -0.695246 8.10656 0.575623 7.88595
163 2 -0.674014 7.90032 13.2945 6.28987
164 2 -0.793678 8.49381 3.00984 9.71894
165 2 -0.574142 10.0502 0.726507 9.45442
166 2 -0.684733 9.87117 2.43397 7.64845
167 2 -0.765934 8.06425 4.69041 11.5125
168 2 -0.686443 8.2855 6.34232 13.7456
169 2 -0.766155 10.1786 6.30487 12.0033
170 2 -0.714944 11.5155 0.411346 11.5651
171 2 -0.699306 9.36677 13.6983 11.8023
172 2 -0.750538 11.4299 12.9667 9.63206
173 2 -0.707704 11.5968 4.43467 7.75028
174 2 -0.689652 11.8561 5.93252 9.93343
175 2 -0.772759 7.87198 8.62235 0.943014
176 2 -0.815352 8.1189 10.0223 2.93734
177 2 -0.807534 10.0032 8.32626 2.64064
178 2 -0.838216 9.75059 10.0518 0.804359
179 2 -0.780445 8.25581 12.0261 4.2112
180 2 -0.789143 9.85417 11.501 6.16891
181 2 -0.812526 11.7273 7.82946 4.50425
182 2 -0.854367 11.2582 9.54587 6.02725
183 2 -0.711866 11.6206 11.7566 0.840361
184 2 -0.811824 10.0841 11.7158 13.0292
185 2 -0.893471 11.8558 9.78355 13.7848
186 2 -0.809325 8.40597 8.13035 8.09305
187 2 -0.793764 7.80568 9.213 10.2971
188 2 -0.741488 9.81619 7.64363 10.0418
189 2 -0.670857 9.83513 10.064 8.57994
190 2 -0.864444 7.72984 11.7307 11.6144
191 2 -0.850931 11.7606 8.24581 11.5847
192 2 -0.755077 11.6663 11.4052 7.60997
ITEM: TIMESTEP
59000
ITEM: NUMBER OF ATOMS
192
ITEM: BOX BOUNDS pp pp pp
2.2311557424377959e-02 1.4277688442575645e+01
2.2311557424377959e-02 1.4277688442575645e+01
2.2311557424377959e-02 1.4277688442575645e+01
ITEM: ATOMS id type q x y z
1 1 1.58312 0.0865919 14.2007 0.524986
2 1 1.19613 1.76767 1.76715 2.23081
3 1 1.39729 14.0676 3.65039 3.79896
4 1 1.53665 1.94213 5.22644 5.37687
5 1 1.22904 3.6037 13.9623 3.91553
6 1 1.54774 5.74484 1.89045 5.13186
7 1 1.60539 3.44161 3.29956 -0.00442829
8 1 1.67444 5.17211 5.2936 1.26575
9 1 1.40206 14.1174 0.216086 7.05702
10 1 1.28493 1.83495 2.04604 8.91726
11 1 1.34689 14.2397 3.73346 10.7404
12 1 1.61758 1.53943 5.37322 12.7289
13 1 1.42176 3.56531 0.242349 10.6566
14 1 1.69123 5.23296 1.63312 12.5686
15 1 1.56317 3.82086 3.47515 6.8994
16 1 1.61827 5.48773 5.22513 9.09651
17 1 1.57359 13.8706 7.46988 13.932
18 1 1.64809 1.51443 8.94641 1.55072
19 1 1.59722 0.0382362 10.5684 3.59623
20 1 1.51351 1.69055 12.3694 5.50217
21 1 1.55456 3.24415 6.93614 2.96695
22 1 1.33559 5.25386 8.38084 4.88755
23 1 1.39117 3.43235 10.8206 14.1258
24 1 1.30619 5.50736 12.7646 1.65958
25 1 1.61243 0.533019 6.97243 7.42526
26 1 1.44076 2.03071 8.84755 9.16946
27 1 1.39822 14.1429 10.3995 10.8165
28 1 1.35091 1.52802 12.6527 12.382
29 1 1.31064 3.53094 6.94123 11.0231
30 1 1.40799 5.50977 9.02887 12.4904
31 1 1.31328 3.52801 10.2483 7.04111
32 1 1.41633 5.1172 12.6721 8.65673
33 1 1.56863 7.31102 0.27429 0.017019
34 1 1.65963 9.05205 2.11734 1.74637
35 1 1.43743 7.36059 3.967 3.31819
36 1 1.51224 8.79587 5.46316 5.51932
37 1 1.63083 10.7576 0.226168 3.6179
38 1 1.77351 12.2087 2.06361 5.53132
39 1 1.61871 11.0987 3.6452 14.2802
40 1 1.42674 12.6462 5.75024 1.93206
41 1 1.38896 7.23137 14.1391 7.07677
42 1 1.42692 9.10344 1.5602 8.94498
43 1 1.33972 7.06166 3.33471 10.9491
44 1 1.36205 9.15942 5.27536 12.2901
45 1 1.48068 10.9601 14.1716 10.804
46 1 1.52704 12.7955 1.60951 12.6759
47 1 1.47025 10.3586 3.67203 7.26604
48 1 1.31794 12.4705 5.48063 9.26016
49 1 1.27132 7.18772 7.1033 0.0296926
50 1 1.38003 9.38428 8.86575 1.80489
51 1 1.28888 7.05779 10.4384 3.35766
52 1 1.43196 9.06389 12.3682 4.97571
53 1 1.54608 10.867 7.15823 4.03243
54 1 1.54457 12.9083 8.75213 5.59695
55 1 1.57473 10.5673 10.7046 14.0607
56 1 1.43256 12.2804 12.4161 1.99053
57 1 1.34297 7.20066 7.29509 7.41345
58 1 1.4545 8.79063 9.29601 8.92824
59 1 1.34999 7.03933 11.1626 10.6121
60 1 1.58185 8.8562 12.6667 12.521
61 1 1.68514 10.5854 7.44594 10.4943
62 1 1.7695 12.0693 9.02185 12.3664
63 1 1.31183 10.968 10.725 6.93654
64 1 1.39903 12.6916 12.3593 8.82685
65 2 -0.71538 0.874928 0.35084 1.72302
66 2 -0.737792 0.897984 13.1526 13.7339
67 2 -0.808343 13.8456 0.865232 13.6973
68 2 -0.768589 13.2314 13.5138 1.30785
69 2 -0.668114 0.639329 2.41492 3.21713
70 2 -0.608796 3.02505 1.08475 3.28792
71 2 -0.728471 2.73293 2.3673 1.04098
72 2 -0.76266 0.862615 4.16163 4.84485
73 2 -0.77564 12.7308 3.09892 4.4235
74 2 -0.668663 13.5811 4.52895 2.37597
75 2 -0.848782 2.79147 4.3518 6.37395
76 2 -0.767879 2.40141 6.01192 4.00351
77 2 -0.770022 1.39203 6.31169 6.32673
78 2 -0.613663 4.85861 0.688097 4.69642
79 2 -0.724617 2.89599 12.718 4.65285
80 2 -0.609712 4.88989 13.384 3.01063
81 2 -0.856353 4.86346 2.71793 6.07181
82 2 -0.796831 6.55683 2.98133 4.38615
83 2 -0.684403 6.58681 0.799125 6.05486
84 2 -0.903749 4.56319 4.04762 0.516759
85 2 -0.77956 2.20271 4.23108 13.5131
86 2 -0.865802 4.11403 2.12329 13.3924
87 2 -0.801784 3.94625 5.95726 1.85779
88 2 -0.712505 6.2625 4.74015 2.17124
89 2 -0.769191 5.83445 6.48918 0.548008
90 2 -0.664989 0.603432 1.35346 7.96515
91 2 -0.796017 0.716347 13.3089 6.37506
92 2 -0.83363 13.316 1.2918 6.10785
93 2 -0.685903 13.1394 13.7865 8.22765
94 2 -0.623295 1.03814 3.4482 9.55391
95 2 -0.757764 2.4777 1.25804 10.065
96 2 -0.677861 3.08632 2.88023 8.22842
97 2 -0.747555 0.899725 4.7239 11.4811
98 2 -0.720335 13.6699 2.70936 11.966
99 2 -0.700732 13.042 4.80725 10.5499
100 2 -0.79375 0.443878 6.26688 13.3034
101 2 -0.682738 2.85399 6.18513 12.376
102 2 -0.788626 4.59959 0.377758 11.853
103 2 -0.627461 2.38132 13.4631 11.2481
104 2 -0.695191 3.94638 13.5369 9.51088
105 2 -0.836422 6.49657 1.31827 13.4403
106 2 -0.828953 5.93047 2.37675 11.4784
107 2 -0.643925 4.77329 4.63058 7.69995
108 2 -0.730469 4.5391 5.70048 10.1557
109 2 -0.7835 6.17955 4.13429 9.73458
110 2 -0.713395 6.175 6.46502 8.4894
111 2 -0.834047 0.841331 8.22339 0.343541
112 2 -0.750574 13.2996 6.81778 1.08434
113 2 -0.833866 12.6654 7.71225 13.0865
114 2 -0.810182 0.47416 9.55214 2.54798
115 2 -0.865927 2.39491 8.14359 2.37607
116 2 -0.721021 2.47889 10.217 1.01885
117 2 -0.792059 0.784336 11.7691 4.41498
118 2 -0.780674 13.6187 9.49253 4.4649
119 2 -0.715257 13.0985 11.1631 2.81116
120 2 -0.660793 2.5908 11.1549 6.17017
121 2 -0.736857 4.52225 7.49381 3.57098
122 2 -0.617934 4.2513 9.19163 5.82336
123 2 -0.678162 6.33185 9.47316 4.50419
124 2 -0.591824 5.67372 7.53737 6.08447
125 2 -0.647082 4.491 11.8139 0.783049
126 2 -0.639863 2.90295 11.6273 12.9277
127 2 -0.651592 4.40523 9.66446 13.5968
128 2 -0.751779 6.78766 13.321 0.822907
129 2 -0.585998 6.42601 11.7933 2.57398
130 2 -0.803237 1.60465 7.80986 7.93831
131 2 -0.713297 13.6222 6.03401 8.06572
132 2 -0.737968 14.1184 8.05761 6.56495
133 2 -0.725283 0.936414 9.60869 9.82012
134 2 -0.7153 2.44268 7.90881 10.4181
135 2 -0.713235 3.02163 9.97017 8.51115
136 2 -0.714972 0.624322 11.4982 11.9339
137 2 -0.879635 13.1545 9.36776 11.3233
138 2 -0.765255 13.5787 11.4782 9.61373
139 2 -0.660743 4.37492 8.03672 11.7662
140 2 -0.677807 6.72152 8.28269 13.2092
141 2 -0.685895 6.05038 10.1945 11.6954
142 2 -0.579522 4.40456 11.5973 7.46397
143 2 -0.771844 5.93387 13.6664 7.83772
144 2 -0.765546 6.08806 11.9925 9.65861
145 2 -0.753948 8.26454 1.17227 0.882303
146 2 -0.735323 8.50966 13.7617 13.5598
147 2 -0.826163 7.98499 3.16174 2.23351
148 2 -0.808033 9.98183 1.00704 2.49122
149 2 -0.775008 9.82028 2.97284 0.800222
150 2 -0.735576 7.99753 5.1851 4.11059
151 2 -0.837942 9.4786 4.27314 6.08398
152 2 -0.807869 9.65161 6.56023 4.87203
153 2 -0.736555 8.18116 6.17462 6.89015
154 2 -0.886227 11.3052 1.09403 4.78858
155 2 -0.78956 9.75368 13.4239 4.17108
156 2 -0.733161 11.7748 13.3462 3.09022
157 2 -0.860496 11.4289 2.91959 6.51912
158 2 -0.702923 11.6635 4.71615 0.873749
159 2 -0.680006 10.2726 4.66488 13.3518
160 2 -0.791513 11.9238 2.48868 13.7684
161 2 -0.731575 11.6155 6.0656 3.1599
162 2 -0.716251 8.53859 0.828367 7.59275
163 2 -0.634842 8.02134 13.0503 6.01841
164 2 -0.563209 8.09734 2.13798 10.0119
165 2 -0.72244 10.1364 1.05575 9.85734
166 2 -0.674094 9.67869 3.02476 8.59692
167 2 -0.64319 8.41232 4.03533 11.5326
168 2 -0.600765 7.87613 5.89985 13.2146
169 2 -0.676311 9.6475 6.14024 11.1067
170 2 -0.826249 11.8878 0.691504 11.8315
171 2 -0.739818 9.74774 13.6018 11.6045
172 2 -0.668383 11.4306 12.9816 9.87945
173 2 -0.567269 11.5063 4.58955 8.15032
174 2 -0.812449 11.378 6.62721 9.59176
175 2 -0.595257 8.33472 7.62791 1.2153
176 2 -0.690627 8.42255 9.78269 2.73124
177 2 -0.724479 10.3276 8.08867 2.75718
178 2 -0.800173 9.7294 9.68089 0.441272
179 2 -0.595299 7.82893 11.2455 4.47752
180 2 -0.677564 10.2869 11.769 5.77598
181 2 -0.856463 11.9653 7.93668 4.72907
182 2 -0.789386 12.0055 9.68385 6.60452
183 2 -0.703911 11.1037 11.9508 0.965111
184 2 -0.793647 9.81262 11.3481 12.8832
185 2 -0.951188 11.7041 9.84798 13.5457
186 2 -0.819308 7.72537 8.4837 8.09245
187 2 -0.77449 8.20692 10.2228 9.90358
188 2 -0.71092 9.32073 7.98974 9.748
189 2 -0.635589 10.1711 10.1275 8.39507
190 2 -0.759995 7.68317 12.2573 11.8022
191 2 -0.971372 11.0699 8.46299 11.4391
192 2 -0.650723 11.6301 11.9408 7.70716
ITEM: TIMESTEP
60000
ITEM: NUMBER OF ATOMS
192
ITEM: BOX BOUNDS pp pp pp
2.7100849176871833e-02 1.4272899150823124e+01
2.7100849176871833e-02 1.4272899150823124e+01
2.7100849176871833e-02 1.4272899150823124e+01
ITEM: ATOMS id type q x y z
1 1 1.32504 0.0167389 14.0904 13.8545
2 1 1.39871 1.60603 1.65589 1.71105
3 1 1.47872 13.8437 3.73804 3.43707
4 1 1.23563 1.55483 5.60823 5.12783
5 1 1.3336 3.57424 0.164212 3.67462
6 1 1.5838 5.30502 1.96145 5.51041
7 1 1.50384 3.44057 3.73207 14.225
8 1 1.38334 5.25052 5.14207 1.88092
9 1 1.53089 14.2097 0.0678194 6.97357
10 1 1.4617 1.80111 1.64849 8.84885
11 1 1.35306 14.1967 3.45898 11.0239
12 1 1.41437 1.88224 5.57098 12.1694
13 1 1.42279 3.84938 0.117739 10.7436
14 1 1.3511 5.60387 2.15882 12.4875
15 1 1.4745 3.35787 3.89807 7.0408
16 1 1.4362 5.27635 5.47035 8.74926
17 1 1.64365 0.200957 7.14392 0.176407
18 1 1.48295 2.01533 9.05672 1.62206
19 1 1.28135 0.375103 11.0082 3.53111
20 1 1.42501 1.96461 12.7512 5.42335
21 1 1.35801 3.54632 7.26705 3.62092
22 1 1.48716 5.45793 8.6831 5.57845
23 1 1.35111 3.84777 10.8752 14.1444
24 1 1.54108 5.29953 12.6218 1.8773
25 1 1.61193 14.0266 7.18978 6.98138
26 1 1.44818 1.51826 8.93471 8.80154
27 1 1.56042 14.1151 10.565 10.593
28 1 1.29178 1.67817 12.3242 12.0615
29 1 1.4875 3.6702 7.69082 10.5469
30 1 1.49483 5.2746 8.94425 12.4947
31 1 1.16007 3.76138 10.5099 7.28232
32 1 1.39477 5.8069 12.4897 9.1177
33 1 1.3749 7.14264 14.1348 13.9871
34 1 1.46283 8.96253 1.72598 1.7968
35 1 1.60749 7.26711 3.53046 3.75582
36 1 1.43437 9.16578 5.17447 5.56997
37 1 1.10468 10.8696 13.9372 3.40081
38 1 1.42395 12.2688 1.73868 5.36048
39 1 1.58995 10.4604 3.58969 14.0347
40 1 1.35674 12.2859 5.51674 1.44735
41 1 1.61913 6.81294 0.159033 7.16559
42 1 1.49554 8.76085 1.39411 8.90757
43 1 1.51229 7.44068 3.74936 10.4856
44 1 1.35101 8.98073 5.70712 12.3768
45 1 1.81941 10.7913 14.0943 10.6406
46 1 1.45762 12.261 1.64581 12.525
47 1 1.36032 10.5727 3.26792 7.38126
48 1 1.53657 12.4441 5.32272 8.80803
49 1 1.33707 6.9709 6.99328 0.317909
50 1 1.33498 8.93886 8.7757 1.88942
51 1 1.43121 7.03524 10.626 3.81485
52 1 1.48624 8.49131 12.7156 5.55076
53 1 1.50563 10.711 6.98814 3.77873
54 1 1.36186 12.3225 9.07507 5.27252
55 1 1.56266 11.0495 10.2926 0.159578
56 1 1.45644 12.6809 12.3608 1.5686
57 1 1.62595 7.59289 7.29397 7.32671
58 1 1.66669 9.43324 8.90362 9.06091
59 1 1.52194 7.47074 10.3765 10.9385
60 1 1.32156 9.2331 12.3956 12.7863
61 1 1.41971 11.177 7.18617 10.8618
62 1 1.59999 12.8409 8.68636 12.629
63 1 1.53612 10.5894 10.8731 7.04402
64 1 1.66474 12.4166 12.2731 8.93215
65 2 -0.706337 0.988531 0.586241 0.661458
66 2 -0.763331 0.483309 13.3789 12.6123
67 2 -0.674357 12.9679 0.901382 13.7458
68 2 -0.724859 13.7351 13.3457 1.03117
69 2 -0.654746 0.728111 2.59243 2.61052
70 2 -0.65664 2.7131 1.29254 2.78146
71 2 -0.677221 2.61173 2.75454 1.08261
72 2 -0.667788 0.365955 4.56293 4.4267
73 2 -0.684047 12.8937 2.9722 4.43075
74 2 -0.744024 12.8037 4.27345 2.49215
75 2 -0.652635 2.03921 4.48557 6.20589
76 2 -0.594044 2.00464 6.99532 4.07152
77 2 -0.731774 0.697879 6.6181 5.88735
78 2 -0.716884 4.43296 0.815636 4.81585
79 2 -0.660604 2.39383 14.0689 4.6991
80 2 -0.738982 4.52698 13.1773 3.20406
81 2 -0.693019 4.09639 2.98745 6.14648
82 2 -0.843967 6.04473 2.84032 4.61233
83 2 -0.808786 5.85027 1.34122 6.82713
84 2 -0.774948 4.07704 4.6886 1.15118
85 2 -0.73303 3.12693 4.72469 13.1986
86 2 -0.770984 4.49291 2.94876 13.4917
87 2 -0.600763 4.53379 6.09285 2.96308
88 2 -0.759072 6.4211 4.44102 2.92387
89 2 -0.707293 6.03301 6.5934 1.40128
90 2 -0.689056 0.641433 0.707616 8.35591
91 2 -0.784375 1.0365 13.364 6.57606
92 2 -0.793321 13.4102 1.0683 6.07704
93 2 -0.637805 13.1953 13.4432 7.96508
94 2 -0.624455 0.885293 2.68544 9.96252
95 2 -0.727576 2.71405 0.870176 9.76393
96 2 -0.676458 2.39076 2.66308 7.83753
97 2 -0.74806 0.86727 4.76538 11.5081
98 2 -0.725154 13.6436 2.76772 12.276
99 2 -0.598601 13.3974 4.27105 9.81865
100 2 -0.748067 0.946597 6.54155 13.1729
101 2 -0.738444 2.86421 6.51068 11.2893
102 2 -0.649774 4.62435 1.38916 11.3619
103 2 -0.676355 2.80901 13.433 11.4615
104 2 -0.74017 4.92865 13.3706 10.1018
105 2 -0.72877 6.41813 0.955232 13.1564
106 2 -0.721175 6.41466 2.98268 11.2956
107 2 -0.827048 4.46599 4.57905 7.7978
108 2 -0.73209 4.54842 6.85938 9.68459
109 2 -0.645048 6.18313 4.42758 9.3368
110 2 -0.681331 6.46779 6.24159 7.9792
111 2 -0.825201 1.18046 7.86813 1.02253
112 2 -0.81003 13.6526 6.21121 1.09893
113 2 -0.8379 13.3311 8.23174 13.96
114 2 -0.715912 1.36317 9.77242 2.82726
115 2 -0.608307 3.29307 8.34675 2.37683
116 2 -0.715466 2.85007 9.70326 0.437659
117 2 -0.761816 1.27908 12.0993 4.23983
118 2 -0.496622 13.2741 10.2802 4.67196
119 2 -0.701592 13.4137 11.5447 2.70201
120 2 -0.567207 3.17441 11.6706 6.16688
121 2 -0.762594 4.50895 7.79408 4.60928
122 2 -0.720908 4.27014 9.23873 6.56432
123 2 -0.818207 6.28251 9.71335 4.69428
124 2 -0.853154 6.67953 8.02962 6.4444
125 2 -0.761671 4.34402 11.5821 1.23414
126 2 -0.594393 2.69137 12.0779 13.4424
127 2 -0.762951 4.97774 10.105 13.3984
128 2 -0.780086 6.07036 13.4328 0.922255
129 2 -0.6336 6.45005 11.804 2.53626
130 2 -0.752764 0.841862 8.02715 7.82451
131 2 -0.887031 13.171 6.18207 7.8483
132 2 -0.713458 13.4256 8.48185 6.42975
133 2 -0.753253 0.125571 9.6769 9.45284
134 2 -0.776539 2.78084 8.28205 9.34859
135 2 -0.556591 2.07707 10.3161 8.08028
136 2 -0.851413 0.991291 11.0861 11.4014
137 2 -0.704649 14.014 9.11541 11.8124
138 2 -0.926791 13.0184 11.387 10.0068
139 2 -0.79748 4.07393 8.93165 11.4766
140 2 -0.603933 6.14242 7.76199 13.2209
141 2 -0.795721 6.52953 9.5306 11.7513
142 2 -0.590452 4.77529 11.4733 8.32372
143 2 -0.805939 6.03328 13.2295 7.70945
144 2 -0.704282 6.85275 11.5391 9.92399
145 2 -0.659064 8.13546 1.10479 0.744749
146 2 -0.718329 7.89825 13.3071 12.9692
147 2 -0.77954 7.9594 2.58304 2.78422
148 2 -0.656811 9.3471 0.519285 2.66246
149 2 -0.780445 9.51469 2.86101 0.760212
150 2 -0.808767 8.31526 4.18397 4.78163
151 2 -0.691573 9.28976 4.32985 6.7622
152 2 -0.789442 10.3597 5.76413 4.69072
153 2 -0.723758 8.75193 6.58947 6.74793
154 2 -0.631032 11.8822 0.332885 4.49355
155 2 -0.516448 9.62572 13.0088 4.552
156 2 -0.613053 11.5511 12.7463 2.65684
157 2 -0.746052 11.104 2.37043 6.32163
158 2 -0.713844 11.1675 4.91869 0.578334
159 2 -0.773763 9.70735 4.63627 13.2377
160 2 -0.832767 11.3148 2.53508 13.3819
161 2 -0.684218 11.1929 6.61594 2.36885
162 2 -0.895896 8.09597 0.661214 7.79011
163 2 -0.81032 7.53116 13.8418 5.85754
164 2 -0.763709 8.03657 2.60322 9.86186
165 2 -0.737133 9.42216 0.456318 10.0582
166 2 -0.699116 10.1215 2.15066 8.45259
167 2 -0.697537 8.45769 4.83563 10.9876
168 2 -0.696744 7.49287 6.12902 13.5519
169 2 -0.749076 10.0652 6.47274 11.642
170 2 -0.957815 11.461 0.721291 11.6294
171 2 -0.725654 10.087 13.109 11.5905
172 2 -0.918922 11.5415 13.221 9.75614
173 2 -0.693001 11.8954 4.18719 7.8614
174 2 -0.725051 11.5981 5.81883 9.96674
175 2 -0.606936 7.98085 8.44246 0.643857
176 2 -0.607969 8.11454 9.69992 2.83315
177 2 -0.611993 9.25102 7.66518 3.44651
178 2 -0.753704 10.0297 9.47091 1.17563
179 2 -0.711812 8.04189 11.489 4.63427
180 2 -0.660542 9.45786 11.9926 6.66138
181 2 -0.812468 11.7624 7.88603 4.30351
182 2 -0.74873 11.3172 10.1019 5.84481
183 2 -0.829852 11.69 11.5575 0.71089
184 2 -0.612353 9.86898 11.1528 13.7333
185 2 -0.834246 11.7857 9.81736 13.1614
186 2 -0.813591 8.27693 7.87229 8.6041
187 2 -0.776052 8.68441 9.84702 10.0902
188 2 -0.808859 10.7001 8.26281 9.61342
189 2 -0.855595 9.74898 9.80953 7.99135
190 2 -0.578393 8.39775 11.2318 11.9501
191 2 -0.838222 12.2329 7.49481 11.9717
192 2 -0.815342 11.4608 11.8655 7.80071
ITEM: TIMESTEP
61000
ITEM: NUMBER OF ATOMS
192
ITEM: BOX BOUNDS pp pp pp
2.9098501227709406e-02 1.4270901498772300e+01
2.9098501227709406e-02 1.4270901498772300e+01
2.9098501227709406e-02 1.4270901498772300e+01
ITEM: ATOMS id type q x y z
1 1 1.48848 0.315457 0.464556 0.247675
2 1 1.51094 1.93725 2.09148 2.0777
3 1 1.45691 0.175437 3.86479 3.96338
4 1 1.55143 2.25052 5.56089 5.78459
5 1 1.40848 3.44367 14.1142 3.48074
6 1 1.56466 5.35344 1.63907 5.17639
7 1 1.54164 3.87933 3.4819 0.0532332
8 1 1.41764 5.31627 5.37443 1.80574
9 1 1.70928 0.320468 14.2358 7.18749
10 1 1.76635 1.9425 1.56102 9.13932
11 1 1.42712 0.233151 3.49082 10.5498
12 1 1.39892 2.03827 5.29664 12.2817
13 1 1.6174 3.85399 14.2616 10.7333
14 1 1.60453 5.5092 1.55325 12.5821
15 1 1.74038 3.75268 3.33506 7.07823
16 1 1.27612 5.28614 4.95639 8.96734
17 1 1.59516 0.0922086 7.02816 14.0094
18 1 1.76854 1.56238 8.92782 1.54701
19 1 1.38677 14.0508 10.5082 3.75102
20 1 1.42968 1.61545 12.1918 5.39718
21 1 1.48024 3.3795 7.22538 3.37863
22 1 1.42929 5.35189 8.89962 5.38247
23 1 1.47436 3.3514 10.5858 14.0064
24 1 1.68281 5.1071 12.0171 1.78584
25 1 1.58357 0.0365195 7.03667 7.1363
26 1 1.23533 1.67783 9.20311 9.07069
27 1 1.35962 13.8813 11.0654 10.7271
28 1 1.25241 1.82465 12.6938 12.3938
29 1 1.36525 3.53627 7.09316 10.3071
30 1 1.42075 5.45157 8.79847 12.476
31 1 1.68388 3.92367 10.5588 7.41433
32 1 1.74094 5.62474 12.4568 9.10681
33 1 1.30212 6.99439 13.9662 0.285146
34 1 1.725 8.85687 1.49904 1.88354
35 1 1.43784 7.25926 3.53013 3.67515
36 1 1.39665 8.98938 5.47097 5.24277
37 1 1.33622 10.8998 0.28471 3.90567
38 1 1.57468 12.7855 1.95833 5.63723
39 1 1.48222 10.6101 3.449 0.104349
40 1 1.3796 12.492 5.33079 1.78617
41 1 1.47198 7.09685 0.0275451 7.10604
42 1 1.40913 8.75837 2.33319 8.54483
43 1 1.45182 7.11437 3.37002 10.8556
44 1 1.52967 8.87415 5.42905 12.3864
45 1 1.32925 10.7064 0.348449 10.2147
46 1 1.5046 12.2825 1.82566 12.4856
47 1 1.35328 10.9331 4.0184 7.09416
48 1 1.71173 12.6678 5.65205 9.33912
49 1 1.54246 7.10987 6.99518 14.1978
50 1 1.45568 8.79989 9.08424 1.56206
51 1 1.62883 7.14938 10.7603 3.73338
52 1 1.54277 8.96871 12.4914 5.50225
53 1 1.47814 10.6589 7.3134 3.31151
54 1 1.5342 12.3328 8.79135 5.61861
55 1 1.35728 10.632 11.1273 0.0966431
56 1 1.34108 12.8007 12.7835 1.80405
57 1 1.2697 6.79572 6.92873 7.21728
58 1 1.45396 8.56904 8.82028 8.66319
59 1 1.52996 7.28649 10.5324 10.7801
60 1 1.47203 8.80764 12.6688 12.2839
61 1 1.54565 10.4133 7.4523 10.5826
62 1 1.33288 12.3883 8.96441 12.5114
63 1 1.63588 10.5238 10.5439 7.21377
64 1 1.64208 12.4395 12.4736 8.5249
65 2 -0.779674 1.00795 1.68154 0.82634
66 2 -0.68697 1.03205 13.6349 13.6945
67 2 -0.632716 13.2274 0.831891 13.6462
68 2 -0.711641 13.5976 13.9996 1.42336
69 2 -0.740022 1.30856 3.2975 2.97153
70 2 -0.784008 2.42727 0.868374 2.90207
71 2 -0.692773 3.05494 2.40671 1.03277
72 2 -0.635165 0.835828 4.72633 5.08665
73 2 -0.781722 13.8396 2.64206 4.52058
74 2 -0.662577 13.2094 4.88711 3.14037
75 2 -0.926028 3.07824 4.44432 6.3766
76 2 -0.759441 2.46335 6.5092 4.53322
77 2 -0.815243 1.25117 6.1183 6.76101
78 2 -0.771964 4.43969 0.807803 4.28772
79 2 -0.606964 2.50765 12.7406 4.2355
80 2 -0.739694 4.27285 13.1851 2.31807
81 2 -0.835026 4.32832 2.3973 6.05036
82 2 -0.72295 6.01835 3.00284 4.53346
83 2 -0.776668 5.92969 0.476489 6.01598
84 2 -0.833218 4.39844 4.50126 0.999433
85 2 -0.650561 3.11331 4.32373 13.2128
86 2 -0.786206 4.86471 2.29377 13.689
87 2 -0.818437 4.3882 6.34544 2.59059
88 2 -0.673804 6.33057 4.47583 2.89285
89 2 -0.732355 6.68698 5.71062 0.64129
90 2 -0.885235 1.17734 0.437833 8.38855
91 2 -0.873765 0.948838 13.4358 6.04394
92 2 -0.84222 13.6079 1.07528 6.6194
93 2 -0.861958 13.5319 13.3063 8.00174
94 2 -0.859477 0.883801 2.34283 9.79838
95 2 -0.877991 3.04841 1.24119 10.0083
96 2 -0.800511 2.70645 2.62201 8.09209
97 2 -0.687965 1.4543 3.945 11.5721
98 2 -0.626113 13.2662 2.39053 11.4385
99 2 -0.863652 13.4335 4.57896 10.0522
100 2 -0.776214 1.01231 6.00232 13.2918
101 2 -0.697527 3.04068 6.22737 11.5768
102 2 -0.915605 4.5636 0.665327 11.8421
103 2 -0.742967 2.79423 13.2107 10.9927
104 2 -0.863785 5.15531 13.5571 9.95527
105 2 -0.650882 6.82162 1.22291 13.3896
106 2 -0.737667 5.83883 2.60911 11.4077
107 2 -0.811929 5.00365 3.879 7.79805
108 2 -0.684431 3.86942 6.00322 9.24852
109 2 -0.649718 6.23339 4.59408 10.347
110 2 -0.728097 6.10736 6.15572 8.43573
111 2 -0.876527 0.879686 8.19909 0.430375
112 2 -0.768846 13.486 6.05361 0.835137
113 2 -0.769512 13.5081 7.82717 12.9889
114 2 -0.726873 0.755268 9.65474 2.65751
115 2 -0.785708 2.30243 7.80645 2.349
116 2 -0.813718 2.34862 9.94669 0.875251
117 2 -0.785991 0.922458 11.1121 4.69011
118 2 -0.796419 12.909 9.71152 4.57876
119 2 -0.588698 13.9001 11.8415 2.66284
120 2 -0.688506 3.17005 11.4628 6.56165
121 2 -0.669386 3.95686 8.45572 4.26485
122 2 -0.760366 5.10519 9.94631 6.5923
123 2 -0.791683 6.31986 9.62734 4.54086
124 2 -0.72358 5.71042 7.64384 6.22857
125 2 -0.819089 4.18564 11.5206 0.742766
126 2 -0.765468 2.46565 11.5523 13.2395
127 2 -0.713827 4.37073 9.26686 13.4028
128 2 -0.731268 6.25077 12.7136 0.852414
129 2 -0.869424 6.02085 11.3601 2.81196
130 2 -0.651267 0.53728 8.21664 8.09726
131 2 -0.847662 13.5475 6.34435 8.32657
132 2 -0.773557 13.5694 7.77277 5.98795
133 2 -0.680637 0.427057 10.1616 9.68645
134 2 -0.671908 2.49245 8.29089 10.2348
135 2 -0.833282 2.92935 9.93294 8.39299
136 2 -0.62243 0.527531 12.2678 11.3944
137 2 -0.681865 12.8881 10.1582 11.5774
138 2 -0.697197 12.6693 11.8392 9.8986
139 2 -0.612183 4.57026 7.87604 11.2958
140 2 -0.767228 6.05372 7.73591 13.4698
141 2 -0.702106 6.55496 9.96833 12.1584
142 2 -0.85427 4.71975 11.5942 8.18174
143 2 -0.710922 6.79957 13.1858 8.35932
144 2 -0.863244 6.29156 11.4552 10.0031
145 2 -0.767709 8.10487 0.332745 1.34476
146 2 -0.688605 7.71007 13.4057 13.2703
147 2 -0.815916 7.90239 2.50042 2.5107
148 2 -0.757348 9.72737 0.675163 2.74142
149 2 -0.820986 9.81356 2.47316 1.10199
150 2 -0.760041 8.28896 4.14216 4.72298
151 2 -0.632206 10.2753 5.31231 6.18976
152 2 -0.689529 9.64815 6.31854 4.03276
153 2 -0.627951 7.84333 6.36555 5.9826
154 2 -0.799692 11.9896 0.943621 4.87845
155 2 -0.674606 9.73811 13.7902 4.71998
156 2 -0.58939 11.7298 13.2749 3.1066
157 2 -0.760917 11.8076 3.14703 6.05611
158 2 -0.700126 11.3922 4.37914 1.07859
159 2 -0.618226 10.1254 4.6779 13.3212
160 2 -0.862956 11.6025 2.78227 13.3118
161 2 -0.679162 11.1071 6.29393 2.33718
162 2 -0.763663 7.92374 1.17481 7.72011
163 2 -0.751654 7.86003 13.1934 6.37187
164 2 -0.846278 8.07448 2.71109 9.77923
165 2 -0.65993 10.0279 1.39931 9.25398
166 2 -0.716163 9.57027 3.28787 7.37321
167 2 -0.774538 8.11721 4.1813 11.8607
168 2 -0.788005 8.19655 6.53301 13.0149
169 2 -0.728787 9.95097 6.27707 11.5641
170 2 -0.702977 11.5707 0.813573 11.4206
171 2 -0.617921 9.491 13.8014 11.4775
172 2 -0.678123 11.3701 13.5124 9.11599
173 2 -0.709672 11.8125 4.65913 8.3528
174 2 -0.816366 11.712 6.67505 9.94013
175 2 -0.791146 7.93114 8.23271 0.520091
176 2 -0.715785 8.13029 9.97912 2.69817
177 2 -0.710271 9.80453 8.51778 2.54145
178 2 -0.663857 9.93756 10.2395 1.15137
179 2 -0.797899 7.95435 11.6742 4.63681
180 2 -0.834109 9.92373 11.3965 6.10696
181 2 -0.694412 11.6147 7.86714 4.4834
182 2 -0.778097 11.45 9.1866 6.82307
183 2 -0.669428 11.9426 11.9034 0.783573
184 2 -0.725532 9.8067 12.0432 13.4075
185 2 -0.58275 11.6862 9.70011 13.7001
186 2 -0.672503 7.95334 8.16625 7.4312
187 2 -0.760878 7.48461 9.30996 9.96802
188 2 -0.849991 9.52066 7.86974 9.49043
189 2 -0.791049 9.28496 10.095 8.0436
190 2 -0.76385 8.46981 11.3694 11.4992
191 2 -0.649532 10.9635 8.58464 11.606
192 2 -0.868528 11.6788 11.3723 7.67182
ITEM: TIMESTEP
62000
ITEM: NUMBER OF ATOMS
192
ITEM: BOX BOUNDS pp pp pp
3.0315148512826795e-02 1.4269684851487224e+01
3.0315148512826795e-02 1.4269684851487224e+01
3.0315148512826795e-02 1.4269684851487224e+01
ITEM: ATOMS id type q x y z
1 1 1.45866 0.461252 13.9827 0.123947
2 1 1.56586 2.08654 1.57449 2.06818
3 1 1.70117 0.189172 3.11651 3.80673
4 1 1.56203 1.7959 5.03553 5.58462
5 1 1.69271 3.95136 0.0276879 3.9224
6 1 1.64772 5.70508 2.03373 5.38481
7 1 1.461 3.12655 3.72942 14.2517
8 1 1.30592 5.07968 5.66769 1.52862
9 1 1.39236 14.1262 -0.0257915 7.27361
10 1 1.54051 1.59514 1.88967 8.78436
11 1 1.56137 14.1556 3.75772 10.5163
12 1 1.68551 1.67414 5.66286 12.3264
13 1 1.38899 3.27929 0.0671829 10.7453
14 1 1.3985 4.97996 1.99241 12.4149
15 1 1.44349 3.71299 3.42658 7.10852
16 1 1.48508 5.40786 5.40626 8.95704
17 1 1.51052 0.104603 7.53344 14.2029
18 1 1.50266 1.95384 9.21256 1.95744
19 1 1.54516 0.0759697 11.0906 3.27916
20 1 1.71076 1.65957 12.8265 5.19129
21 1 1.66318 3.28076 6.96704 3.75222
22 1 1.22932 4.91652 9.13791 5.08967
23 1 1.59615 4.04121 10.9373 0.281265
24 1 1.62548 5.82742 12.6286 2.07751
25 1 1.49462 0.121734 6.86958 7.20524
26 1 1.45862 1.87132 8.75008 8.96213
27 1 1.39924 0.211491 10.4887 10.8997
28 1 1.43377 2.03844 12.242 12.5386
29 1 1.5555 3.6902 7.18505 10.785
30 1 1.32518 5.74061 8.93958 12.8185
31 1 1.66251 3.22229 10.9371 7.05264
32 1 1.40944 5.16781 12.8774 8.80807
33 1 1.52497 6.84026 0.392537 14.2002
34 1 1.34194 8.74169 1.94935 1.63342
35 1 1.61856 7.23593 4.014 3.3057
36 1 1.44763 9.00627 5.28715 5.33136
37 1 1.124 10.2049 0.0111677 3.37607
38 1 1.50921 12.2004 1.50231 5.15465
39 1 1.62534 10.9741 3.35595 14.2526
40 1 1.36488 12.9021 5.10877 1.60634
41 1 1.5343 7.23722 14.3266 7.13585
42 1 1.59051 8.90391 1.55487 9.05729
43 1 1.5414 7.0184 3.3388 10.5408
44 1 1.28208 8.9583 4.9626 12.1749
45 1 1.30035 10.8012 14.1428 10.9274
46 1 1.59139 12.9038 1.73117 12.4241
47 1 1.47433 10.5739 3.34068 7.12759
48 1 1.49653 12.2124 5.45483 8.92664
49 1 1.24797 7.63732 7.13868 -0.172327
50 1 1.70567 9.05985 8.51222 2.04075
51 1 1.52724 7.54452 10.6086 3.73376
52 1 1.37202 9.10528 12.3929 5.8613
53 1 1.55371 11.1668 6.98221 3.50104
54 1 1.42559 12.8577 8.91738 5.25436
55 1 1.34774 10.0263 10.5551 14.3566
56 1 1.23273 12.188 12.4035 1.53873
57 1 1.52408 6.86988 7.2234 6.94881
58 1 1.48442 8.74556 8.99545 8.76032
59 1 1.4592 7.01346 10.9959 10.4413
60 1 1.32509 8.67733 12.8869 12.8133
61 1 1.36589 10.4608 7.21748 10.6897
62 1 1.50832 12.1921 9.16434 12.554
63 1 1.465 11.0298 10.5623 7.31795
64 1 1.39471 12.7068 12.1909 9.17778
65 2 -0.771965 1.06673 0.818565 1.10195
66 2 -0.786004 1.40387 13.4132 13.3984
67 2 -0.664376 13.8419 0.914027 13.359
68 2 -0.582569 13.5509 12.8782 0.255013
69 2 -0.886497 1.27046 2.06384 3.22298
70 2 -0.725811 3.23224 0.539214 2.65789
71 2 -0.733266 2.78958 2.47991 1.01801
72 2 -0.779608 0.577316 4.17918 4.79378
73 2 -0.832319 13.3703 2.32631 4.52205
74 2 -0.732595 13.8833 3.97604 2.6943
75 2 -0.783593 3.15136 4.54728 6.20899
76 2 -0.786843 2.1481 6.12623 4.52632
77 2 -0.796271 0.973561 5.70969 6.63305
78 2 -0.889032 4.67298 1.22396 4.43248
79 2 -0.931676 2.79886 13.4111 4.37536
80 2 -0.784014 5.17045 13.5856 3.08502
81 2 -0.860659 4.94231 2.65077 6.46937
82 2 -0.735347 6.33114 3.24451 4.46569
83 2 -0.819104 6.8088 1.24398 6.10018
84 2 -0.697603 4.04268 4.47092 1.02039
85 2 -0.819434 2.44755 4.97878 13.5027
86 2 -0.730239 3.70379 2.75342 13.1684
87 2 -0.777834 4.12656 6.2474 2.71187
88 2 -0.741069 6.2947 4.83745 2.48766
89 2 -0.586938 6.06807 6.57961 0.519129
90 2 -0.817925 0.624837 0.782743 8.34537
91 2 -0.784689 1.07532 13.9287 6.08122
92 2 -0.680024 12.9302 0.706738 6.33887
93 2 -0.682678 13.2894 12.9591 7.81145
94 2 -0.776565 0.539234 2.91955 9.34948
95 2 -0.743191 2.45034 1.26864 10.0666
96 2 -0.808296 2.49451 2.63871 7.72507
97 2 -0.810886 0.702773 5.09102 11.3768
98 2 -0.876229 13.6771 2.7746 11.6605
99 2 -0.800897 13.0391 4.51556 9.8906
100 2 -0.767904 1.03218 6.96653 13.0771
101 2 -0.872211 2.8053 6.16121 11.5318
102 2 -0.593805 4.78027 0.67999 11.4874
103 2 -0.801024 2.84143 13.0002 11.3152
104 2 -0.655553 4.05994 14.0071 9.44089
105 2 -0.682614 5.53691 1.22093 13.6599
106 2 -0.808482 6.17855 2.66481 11.6749
107 2 -0.578578 4.08491 4.75836 8.25216
108 2 -0.748857 4.70225 6.22205 10.1173
109 2 -0.748894 6.10162 3.96756 9.3787
110 2 -0.794968 6.12576 6.24534 7.92452
111 2 -0.76096 1.10616 8.30239 0.817849
112 2 -0.72206 13.7155 6.18914 0.673189
113 2 -0.760323 13.0327 8.30946 13.6429
114 2 -0.866327 1.26873 10.3938 2.5655
115 2 -0.78375 2.54524 8.05778 2.97752
116 2 -0.720776 3.27093 9.81108 1.18803
117 2 -0.841604 0.581499 12.1394 4.30362
118 2 -0.688009 13.7304 9.89233 4.36918
119 2 -0.77148 13.0356 11.5547 2.55072
120 2 -0.872154 2.32515 11.7161 6.0876
121 2 -0.767044 4.06797 7.77498 4.74799
122 2 -0.713035 4.12075 10.3708 5.93934
123 2 -0.563443 6.42488 9.38721 4.49524
124 2 -0.570139 5.9076 8.26217 6.35753
125 2 -0.851592 4.87642 11.8434 1.12482
126 2 -0.773005 2.90994 11.4332 13.5511
127 2 -0.735431 5.02706 10.1065 13.5453
128 2 -0.800213 6.34355 13.6337 0.985609
129 2 -0.849079 6.59268 11.5157 3.0423
130 2 -0.714504 1.07357 7.5559 8.51572
131 2 -0.737767 13.1139 6.27743 7.81014
132 2 -0.721484 13.8571 8.10825 6.25116
133 2 -0.814039 0.921783 9.52623 10.0439
134 2 -0.721953 3.18764 8.0687 9.52635
135 2 -0.77253 2.57158 10.0655 8.09978
136 2 -0.605897 0.756005 11.2441 12.4319
137 2 -0.669273 13.0213 10.153 11.6749
138 2 -0.759502 13.7554 11.6612 10.1496
139 2 -0.648759 4.62484 8.12349 11.6727
140 2 -0.756376 7.09022 8.3824 13.3407
141 2 -0.5411 6.18314 9.82125 11.336
142 2 -0.711072 4.25572 11.6474 7.97079
143 2 -0.779871 5.87653 13.7652 7.82819
144 2 -0.738392 6.13316 12.1022 9.87059
145 2 -0.756884 8.12726 1.34249 0.405675
146 2 -0.697207 7.28799 13.7199 13.0871
147 2 -0.749132 8.23895 3.06677 2.80723
148 2 -0.614977 9.20406 0.383286 2.08632
149 2 -0.738869 9.97721 2.81924 0.971401
150 2 -0.742159 8.42296 4.64054 4.04857
151 2 -0.755748 9.59306 4.44167 6.49485
152 2 -0.629185 10.383 5.99553 4.53076
153 2 -0.716109 7.83065 6.21566 6.04059
154 2 -0.586976 10.814 1.37443 4.49616
155 2 -0.600596 9.54507 13.8121 4.71307
156 2 -0.651757 11.4858 13.5665 2.65199
157 2 -0.679422 11.4589 2.49755 6.06031
158 2 -0.792011 11.77 4.29786 0.874636
159 2 -0.694321 10.1959 4.3146 13.2098
160 2 -0.776482 11.8556 2.23918 13.5704
161 2 -0.737348 11.9707 6.06713 2.59658
162 2 -0.784192 8.37833 0.326925 8.14322
163 2 -0.753069 7.87821 13.1261 6.38159
164 2 -0.860022 8.03627 2.3225 10.0191
165 2 -0.719432 9.79151 0.904364 10.185
166 2 -0.773549 9.71514 2.26094 7.93773
167 2 -0.70771 7.91394 4.57304 10.8934
168 2 -0.659196 8.08949 5.65655 13.2953
169 2 -0.760215 9.69877 6.10898 11.3042
170 2 -0.73411 11.9354 0.78069 11.6373
171 2 -0.613222 9.98202 13.6548 12.5401
172 2 -0.683009 11.3816 12.9764 9.92469
173 2 -0.682377 11.4077 4.16432 8.29085
174 2 -0.718976 11.3958 6.64989 9.38351
175 2 -0.75486 8.11906 7.55905 1.3499
176 2 -0.831165 8.21016 9.57602 2.75694
177 2 -0.861143 9.94782 7.86555 3.1175
178 2 -0.886425 9.71062 9.33232 0.908298
179 2 -0.719186 8.24011 11.1083 4.94723
180 2 -0.796435 10.1973 11.6467 6.55844
181 2 -0.762285 12.2182 7.93404 4.29925
182 2 -0.66031 11.4718 9.68066 6.12723
183 2 -0.650985 11.3997 11.4573 0.61468
184 2 -0.709021 9.03618 11.8712 13.8541
185 2 -0.680119 10.9302 9.87328 13.0281
186 2 -0.727857 7.55386 8.24889 7.90518
187 2 -0.712892 7.94634 10.2453 9.38999
188 2 -0.709795 9.42173 8.28753 10.0378
189 2 -0.760905 9.89672 9.69862 7.99344
190 2 -0.591309 7.69477 11.7803 11.5952
191 2 -0.673039 11.7591 8.14997 11.4457
192 2 -0.691897 12.4163 11.0122 8.22664
ITEM: TIMESTEP
63000
ITEM: NUMBER OF ATOMS
192
ITEM: BOX BOUNDS pp pp pp
3.0624053437966481e-02 1.4269375946562064e+01
3.0624053437966481e-02 1.4269375946562064e+01
3.0624053437966481e-02 1.4269375946562064e+01
ITEM: ATOMS id type q x y z
1 1 1.4032 13.9994 0.219704 14.1316
2 1 1.29384 1.87779 1.82905 1.39531
3 1 1.58446 0.207599 3.45692 3.49977
4 1 1.58831 1.53187 5.53428 5.34813
5 1 1.51568 3.2854 14.2617 3.42822
6 1 1.37261 4.92324 2.09422 5.17523
7 1 1.60841 4.12021 3.42045 14.1819
8 1 1.52209 5.67568 5.3275 1.77493
9 1 1.44295 0.457114 14.235 7.45591
10 1 1.49198 2.3053 1.73314 9.04582
11 1 1.59901 0.269014 3.38783 10.7884
12 1 1.53779 1.99128 4.92396 12.772
13 1 1.41728 4.01426 14.0734 10.9503
14 1 1.33431 6.18249 1.49376 12.6304
15 1 1.23398 3.60879 3.82383 7.18532
16 1 1.70668 5.20848 5.79127 9.01241
17 1 1.35204 0.0805227 6.73141 0.25709
18 1 1.69078 1.72309 8.82764 1.89629
19 1 1.59885 14.2589 10.673 3.61982
20 1 1.39813 1.97783 12.1881 5.35362
21 1 1.29418 3.52942 6.96322 3.43031
22 1 1.17661 5.61863 8.75116 5.27109
23 1 1.53817 3.27193 10.9224 -0.0276276
24 1 1.3332 5.57015 12.3484 1.81241
25 1 1.40424 13.7001 7.06234 6.93842
26 1 1.25911 1.4353 8.68195 8.85454
27 1 1.47278 14.0029 10.7338 10.3743
28 1 1.55907 1.51303 12.5269 12.197
29 1 1.64374 3.25423 7.17767 10.7948
30 1 1.28996 5.02322 8.96456 12.427
31 1 1.2746 3.67383 10.3754 7.29084
32 1 1.35058 5.59931 12.3689 9.23573
33 1 1.38807 7.78801 14.065 0.378765
34 1 1.57842 8.96842 2.21699 2.0362
35 1 1.60871 7.09675 3.72286 3.78743
36 1 1.6274 9.10512 5.23191 5.50309
37 1 1.37344 10.62 0.264558 3.69343
38 1 1.61093 13.0662 1.5028 5.39373
39 1 1.68069 10.594 3.89636 0.200539
40 1 1.41219 12.3246 5.30094 2.34
41 1 1.49638 6.61356 0.05311 6.98266
42 1 1.39527 8.43657 1.86712 8.59909
43 1 1.63858 7.0391 3.7435 10.4066
44 1 1.63292 8.84093 5.52593 12.3696
45 1 1.50259 10.5017 0.32087 10.786
46 1 1.56155 12.2859 2.21349 12.6926
47 1 1.28487 10.989 3.45136 7.06232
48 1 1.34079 12.6985 5.00688 8.93608
49 1 1.47416 7.21747 7.34471 14.052
50 1 1.59021 9.09378 9.10981 1.62992
51 1 1.35306 7.12129 10.6613 3.56401
52 1 1.58058 8.7971 12.7884 5.34225
53 1 1.5951 10.4888 7.12507 3.67709
54 1 1.57947 12.0276 8.99651 5.19018
55 1 1.76111 10.9699 10.5497 14.1965
56 1 1.33526 12.4328 12.5455 1.76132
57 1 1.64818 7.37763 6.98341 7.26365
58 1 1.44366 9.00318 9.26433 8.77784
59 1 1.53472 7.29983 10.5038 11.0463
60 1 1.58364 9.3123 12.3615 12.631
61 1 1.13516 10.6623 7.2739 10.6368
62 1 1.27569 13.0245 8.87255 12.5599
63 1 1.52061 10.5766 11.0565 6.92402
64 1 1.39569 12.3477 12.9366 8.96985
65 2 -0.744803 1.00745 1.00528 0.377626
66 2 -0.607916 0.395322 13.8186 12.5691
67 2 -0.834077 12.8939 1.16914 13.5716
68 2 -0.771007 13.4331 13.2095 0.695945
69 2 -0.62433 0.97834 3.19874 2.08193
70 2 -0.738339 2.20958 0.825115 2.6173
71 2 -0.709742 3.23531 2.32687 0.458114
72 2 -0.803235 0.746445 4.47166 4.41234
73 2 -0.743965 14.1891 2.30901 4.52743
74 2 -0.70902 13.3077 3.91184 2.60724
75 2 -0.70152 2.45974 4.6837 6.22915
76 2 -0.732005 2.23937 6.392 4.33695
77 2 -0.734272 0.305167 6.44768 5.78687
78 2 -0.69318 4.09499 1.24669 4.08067
79 2 -0.778406 2.56177 13.2101 4.25798
80 2 -0.589735 4.58917 13.5416 2.94388
81 2 -0.633734 3.63811 2.78197 5.79219
82 2 -0.816362 6.07734 2.7087 4.44393
83 2 -0.681341 5.70496 1.45309 6.55301
84 2 -0.801936 4.74188 4.23579 1.06046
85 2 -0.823658 3.37102 4.24435 13.1065
86 2 -0.69115 5.06256 2.24756 13.5991
87 2 -0.689266 4.33665 5.95792 2.29754
88 2 -0.875011 6.7273 4.77748 2.8068
89 2 -0.711078 6.504 6.15691 0.705413
90 2 -0.82315 1.34598 1.02923 8.03632
91 2 -0.589567 0.969152 12.9565 6.45436
92 2 -0.784722 13.8424 0.50397 6.05796
93 2 -0.740824 13.6108 13.2827 8.19025
94 2 -0.755141 1.23591 2.36371 10.0577
95 2 -0.650957 2.6495 0.568181 9.94979
96 2 -0.736782 2.84549 3.09114 8.31246
97 2 -0.787704 0.918539 4.36347 11.7304
98 2 -0.754893 13.4187 2.95862 11.9651
99 2 -0.771752 13.4673 4.16894 9.97319
100 2 -0.676941 1.28461 5.3752 14.0609
101 2 -0.713813 2.53356 6.03591 11.8138
102 2 -0.739159 5.0807 0.75899 11.4347
103 2 -0.686553 2.84779 13.2524 11.7613
104 2 -0.718347 4.37766 13.1213 9.87644
105 2 -0.733584 7.35399 0.786421 13.4036
106 2 -0.647929 6.83858 2.48872 11.5663
107 2 -0.783092 4.77135 4.9509 7.84144
108 2 -0.917166 4.16013 6.41088 9.85868
109 2 -0.842185 6.02105 4.70996 9.95473
110 2 -0.797423 6.43002 6.58661 8.42414
111 2 -0.756422 0.930396 7.66485 1.14035
112 2 -0.634174 13.2367 6.34649 1.44485
113 2 -0.674707 -0.0828815 7.76699 13.3775
114 2 -0.819868 0.855983 9.69001 2.78133
115 2 -0.734969 2.69989 8.10669 2.82732
116 2 -0.767354 2.54007 9.90038 1.19028
117 2 -0.774167 0.993065 11.1901 4.68576
118 2 -0.692725 13.3385 9.69213 4.68433
119 2 -0.755687 13.4129 11.4056 2.61221
120 2 -0.637295 3.27037 11.5914 6.31494
121 2 -0.583264 4.8887 7.94369 3.80675
122 2 -0.590741 4.38185 9.42234 6.03378
123 2 -0.617619 6.6741 9.94137 4.97248
124 2 -0.730469 6.4159 7.6842 6.3997
125 2 -0.702879 4.30369 11.7679 0.744736
126 2 -0.80184 2.26768 11.833 13.3224
127 2 -0.759202 4.11964 10.0897 13.3517
128 2 -0.754314 6.56546 13.2972 1.24036
129 2 -0.726161 5.87532 11.3905 3.01238
130 2 -0.565936 0.817962 8.07316 7.52991
131 2 -0.767485 13.5694 5.96085 8.03548
132 2 -0.704179 12.7017 8.17416 6.45722
133 2 -0.666974 0.186427 9.74703 9.25137
134 2 -0.720092 2.07931 7.50076 9.99474
135 2 -0.642677 2.76203 9.50803 8.22889
136 2 -0.844974 0.931472 11.5996 11.2682
137 2 -0.777957 13.4083 9.67876 11.3574
138 2 -0.701561 12.7824 11.5535 9.8235
139 2 -0.730161 3.90743 8.4911 11.2206
140 2 -0.684202 5.6918 7.88107 13.3369
141 2 -0.718436 6.35216 9.43087 11.4303
142 2 -0.517597 4.65574 11.1974 8.52317
143 2 -0.714494 5.83475 13.4711 8.10164
144 2 -0.638783 6.0792 11.322 10.4242
145 2 -0.673682 8.84647 0.652305 1.31181
146 2 -0.746356 8.5318 12.8895 13.8705
147 2 -0.771021 7.72357 2.69587 2.89423
148 2 -0.73941 9.85831 1.55131 3.06832
149 2 -0.865679 9.39972 3.16002 0.996806
150 2 -0.752458 8.41601 4.09209 4.7582
151 2 -0.805832 10.3204 4.47537 6.01351
152 2 -0.832724 9.39828 6.09332 4.25416
153 2 -0.961189 8.08151 5.9193 6.47074
154 2 -0.666701 12.1264 1.12103 4.22189
155 2 -0.821676 9.82467 13.8734 4.91523
156 2 -0.700115 11.2945 13.4434 2.70484
157 2 -0.668615 12.1222 2.50793 6.04056
158 2 -0.842348 11.3802 4.52941 1.22981
159 2 -0.748405 9.75943 5.11594 13.4954
160 2 -0.857499 11.2133 3.25028 13.2633
161 2 -0.850589 11.7019 6.38619 3.26828
162 2 -0.761238 7.56685 0.692682 7.91484
163 2 -0.752341 7.55208 13.4536 6.06629
164 2 -0.88244 7.58326 2.80336 9.35303
165 2 -0.630368 9.65691 1.16174 9.8852
166 2 -0.643777 9.85231 2.46464 7.81739
167 2 -0.776311 7.93068 4.57878 11.3875
168 2 -0.82812 7.94695 6.51595 13.0548
169 2 -0.705018 9.45578 6.47524 11.2559
170 2 -0.696812 11.0864 1.22161 11.9188
171 2 -0.793015 9.63913 13.4553 11.4824
172 2 -0.725575 11.7242 14.2164 9.72467
173 2 -0.687011 12.2692 3.88472 7.94899
174 2 -0.579476 11.1867 6.15416 9.5636
175 2 -0.772621 8.18221 8.1852 0.767382
176 2 -0.778574 8.03175 10.1719 2.4103
177 2 -0.81506 9.94697 8.2333 2.45979
178 2 -0.815614 9.60692 9.90296 0.425656
179 2 -0.661603 7.91729 11.7776 4.62162
180 2 -0.786602 9.31551 11.7324 6.33203
181 2 -0.935596 10.9233 8.19506 4.65541
182 2 -0.776808 11.5383 10.2812 6.04062
183 2 -0.795729 11.5261 11.3814 1.12642
184 2 -0.932732 10.4048 11.4987 13.1948
185 2 -0.824583 11.8867 9.53872 13.713
186 2 -0.721737 7.85867 8.26948 8.12433
187 2 -0.690403 8.05321 10.4268 9.72471
188 2 -0.655711 9.90118 8.7736 9.89602
189 2 -0.784552 9.97605 9.95697 7.8824
190 2 -0.745906 8.00951 11.5928 11.9212
191 2 -0.5217 12.1208 7.61887 11.7734
192 2 -0.646265 11.2768 12.314 7.8981
ITEM: TIMESTEP
64000
ITEM: NUMBER OF ATOMS
192
ITEM: BOX BOUNDS pp pp pp
2.9561467805246266e-02 1.4270438532194785e+01
2.9561467805246266e-02 1.4270438532194785e+01
2.9561467805246266e-02 1.4270438532194785e+01
ITEM: ATOMS id type q x y z
1 1 1.36725 0.386194 14.2653 14.0036
2 1 1.56594 1.83381 1.91602 1.55631
3 1 1.13885 14.0713 3.4717 3.4944
4 1 1.46641 1.77501 5.36302 5.4203
5 1 1.74014 3.43439 0.0895001 3.47935
6 1 1.78008 5.39847 1.62443 5.09761
7 1 1.40085 3.54179 3.97541 0.12889
8 1 1.45956 5.4408 5.76592 2.06459
9 1 1.51149 14.2179 14.2738 7.23838
10 1 1.4521 1.72947 2.13406 9.01924
11 1 1.67865 13.931 3.68449 10.5775
12 1 1.54575 1.30111 5.28521 12.5605
13 1 1.20866 3.78667 0.403924 10.7446
14 1 1.37713 5.48224 2.09019 12.5524
15 1 1.5726 3.63404 3.33193 6.82008
16 1 1.34418 5.46652 5.33794 8.88558
17 1 1.37068 14.0929 7.04131 0.542932
18 1 1.59514 1.93741 9.0693 1.86069
19 1 1.53909 14.1153 10.7184 3.57453
20 1 1.45169 1.57798 12.6535 5.26084
21 1 1.64721 3.51678 7.3959 3.77922
22 1 1.7333 5.31243 9.14411 5.41461
23 1 1.72468 3.98686 10.3858 0.121072
24 1 1.45499 5.05328 12.7034 1.62597
25 1 1.45275 14.1607 7.05546 7.25137
26 1 1.22543 2.23332 8.71734 9.14451
27 1 1.34722 0.306465 10.574 10.8357
28 1 1.4033 2.46308 12.3312 12.5505
29 1 1.53075 3.48362 6.76058 10.9409
30 1 1.70085 5.39422 8.65467 12.3018
31 1 1.4368 3.59642 10.9698 7.32491
32 1 1.3242 5.60862 12.841 8.81661
33 1 1.70059 7.05987 0.182025 0.173233
34 1 1.68271 8.88038 1.84852 1.82991
35 1 1.44827 7.16568 3.59023 3.6296
36 1 1.68891 8.77472 5.2689 5.51295
37 1 1.40002 10.8584 14.2226 3.23176
38 1 1.45197 12.3915 1.78247 5.41773
39 1 1.54147 10.523 3.2349 13.932
40 1 1.41472 12.0761 5.17165 1.97212
41 1 1.4514 7.57779 0.194872 6.71283
42 1 1.53164 9.31151 1.43856 8.92339
43 1 1.20874 7.35072 3.54294 10.6111
44 1 1.26964 8.91508 5.39582 12.5711
45 1 1.43673 10.788 13.8784 10.9535
46 1 1.84274 12.604 1.75291 12.4048
47 1 1.67488 10.5363 3.48841 7.25523
48 1 1.50346 12.1171 5.46552 9.11259
49 1 1.6346 7.27906 7.25969 0.102306
50 1 1.57001 8.97922 9.09705 1.93287
51 1 1.45934 6.99527 10.9029 3.39933
52 1 1.41885 9.11645 12.1456 5.24141
53 1 1.31848 10.4799 7.19917 3.71134
54 1 1.52627 12.6611 8.55768 5.19202
55 1 1.61932 10.565 10.6726 0.114072
56 1 1.4091 12.7185 12.2392 1.3738
57 1 1.55056 7.19738 7.33388 6.99943
58 1 1.53869 8.93888 9.14617 8.78217
59 1 1.27857 7.07672 10.841 10.6683
60 1 1.22447 8.83452 12.513 12.9557
61 1 1.5597 10.5141 7.64335 10.9276
62 1 1.43625 12.5917 9.03868 12.634
63 1 1.48339 10.9846 10.3094 6.93308
64 1 1.61933 12.505 12.1193 8.82748
65 2 -0.756819 0.936808 0.761188 0.936524
66 2 -0.707613 1.55637 13.49 13.2434
67 2 -0.822081 13.3376 0.998404 13.4269
68 2 -0.656144 13.8787 12.7572 0.579506
69 2 -0.627725 0.673291 2.253 2.48045
70 2 -0.782935 2.70863 1.21284 2.84893
71 2 -0.881119 2.74397 2.85061 0.917302
72 2 -0.624909 0.987669 4.44273 4.27943
73 2 -0.62859 13.4116 2.74446 4.8762
74 2 -0.711814 12.5222 4.15387 2.9332
75 2 -0.777689 2.8227 4.16689 5.95971
76 2 -0.769763 2.41371 6.52632 4.53093
77 2 -0.780486 1.02436 6.02842 6.56986
78 2 -0.998398 4.4839 0.658183 4.36217
79 2 -0.802219 2.35111 13.479 4.26943
80 2 -0.794893 3.77162 13.2135 2.41994
81 2 -0.846094 4.73776 2.3832 6.27313
82 2 -0.852413 6.36428 2.4779 4.34888
83 2 -0.795655 6.57876 0.889814 5.88522
84 2 -0.691239 4.19989 5.09833 0.888446
85 2 -0.689205 2.29492 4.24947 13.1753
86 2 -0.677343 4.60673 3.13529 13.3829
87 2 -0.826516 4.41735 6.72275 2.7878
88 2 -0.749735 5.93302 4.43832 2.79332
89 2 -0.806584 6.24054 6.67779 1.16433
90 2 -0.714967 0.665333 1.00704 8.18614
91 2 -0.784073 0.72846 13.1285 6.40801
92 2 -0.73721 13.3227 0.859842 6.24977
93 2 -0.715371 12.9922 13.3404 7.85582
94 2 -0.767474 1.07053 2.86065 10.1137
95 2 -0.637316 2.46581 0.9903 9.58393
96 2 -0.740714 2.39295 2.83576 7.60802
97 2 -0.838661 0.220902 4.54421 11.6682
98 2 -0.89701 13.4823 2.3773 11.355
99 2 -0.919669 13.231 4.55955 9.59214
100 2 -0.693522 0.911318 6.46589 13.5531
101 2 -0.782899 2.26042 6.1077 11.6484
102 2 -0.596903 4.13518 1.88272 11.4685
103 2 -0.638753 2.93259 13.4772 11.5154
104 2 -0.654182 4.88346 13.9516 9.84756
105 2 -0.780755 6.08405 0.810649 13.3243
106 2 -0.726312 6.63397 2.77982 11.8867
107 2 -0.589823 4.7142 4.40582 7.55398
108 2 -0.716964 4.40806 5.54895 10.0102
109 2 -0.645023 6.63099 4.43046 9.30184
110 2 -0.728144 6.14378 6.50356 7.92074
111 2 -0.740784 0.897442 7.9084 1.45694
112 2 -0.764985 13.3849 6.08193 1.43014
113 2 -0.684366 13.0523 8.09002 13.8379
114 2 -0.724011 1.14416 10.292 2.597
115 2 -0.817122 2.81016 8.51266 2.96295
116 2 -0.898346 2.9072 9.68907 0.766488
117 2 -0.679351 0.293485 11.8383 4.46913
118 2 -0.75257 13.7516 9.50254 4.53395
119 2 -0.78393 13.0929 11.4569 2.71798
120 2 -0.634514 2.78683 11.4837 6.13094
121 2 -0.826054 4.29499 8.09705 5.02005
122 2 -0.738285 4.60541 9.99102 6.54802
123 2 -0.782129 5.94183 9.94693 4.28829
124 2 -0.818087 6.46268 8.38179 5.99559
125 2 -0.744616 4.53886 11.2826 1.34911
126 2 -0.778911 3.6055 11.546 13.3301
127 2 -0.84186 4.87777 9.63098 13.3928
128 2 -0.815081 6.08572 13.3832 0.631735
129 2 -0.618311 6.32432 12.2883 2.57841
130 2 -0.573369 0.880253 7.83735 8.28144
131 2 -0.699148 13.0767 6.55407 8.25464
132 2 -0.791807 13.5993 8.20735 6.41627
133 2 -0.631126 1.32154 9.65898 10.303
134 2 -0.765916 3.15836 8.03393 10.2212
135 2 -0.683175 2.83854 9.74327 7.96344
136 2 -0.672279 1.40329 11.4339 11.6686
137 2 -0.670704 13.9522 9.49511 11.9748
138 2 -0.772488 13.3502 11.3246 9.71787
139 2 -0.839902 4.59118 7.47912 11.7454
140 2 -0.832939 6.39374 7.97337 13.3613
141 2 -0.710732 5.9493 9.55959 11.2367
142 2 -0.677256 4.5197 12.2323 7.67533
143 2 -0.623267 6.40053 13.6975 7.73303
144 2 -0.709255 6.06689 11.6942 9.84273
145 2 -0.906367 7.6732 1.11077 1.20292
146 2 -0.769981 8.2497 13.5926 13.8048
147 2 -0.837432 8.41888 2.9513 2.82408
148 2 -0.810432 9.78574 0.779421 2.3647
149 2 -0.843839 9.7523 2.31194 0.553902
150 2 -0.731702 7.50146 4.48485 4.94001
151 2 -0.880271 9.52506 4.34264 6.51396
152 2 -0.730662 9.44427 5.60675 4.29356
153 2 -0.83175 8.28933 6.50805 6.20823
154 2 -0.725135 11.696 0.794222 4.31741
155 2 -0.633166 10.2147 13.0375 4.12597
156 2 -0.539865 12.0019 13.6993 2.04717
157 2 -0.785187 11.6697 3.04912 6.32701
158 2 -0.634254 11.5922 4.51914 0.579979
159 2 -0.76552 9.55283 4.11614 13.1356
160 2 -0.901251 11.5297 2.61383 12.867
161 2 -0.64924 10.9305 6.20662 2.43714
162 2 -0.816528 8.30948 0.962204 7.98279
163 2 -0.74386 8.70503 13.4716 5.95083
164 2 -0.5532 8.22725 2.3269 10.2065
165 2 -0.768049 9.98666 0.503255 10.0183
166 2 -0.915604 10.1864 2.57706 8.35629
167 2 -0.571585 8.23272 5.03777 10.9876
168 2 -0.771667 8.25153 6.18974 13.7592
169 2 -0.611253 10.2249 6.63546 12.1503
170 2 -0.794534 11.7294 0.555353 11.8383
171 2 -0.644254 9.45534 13.1467 11.3972
172 2 -0.711325 11.8397 12.7514 10.0048
173 2 -0.737141 11.0651 4.73176 8.24335
174 2 -0.692355 11.4474 6.62776 10.1305
175 2 -0.782997 8.38017 8.14602 0.871085
176 2 -0.741897 7.68223 10.0616 2.27702
177 2 -0.724587 9.41611 8.32619 3.28508
178 2 -0.844168 10.1936 9.72873 1.40237
179 2 -0.782518 7.87664 11.523 4.47445
180 2 -0.699404 9.68912 11.0329 6.19955
181 2 -0.851283 11.7834 7.6843 4.25838
182 2 -0.812152 11.5313 9.53578 5.73146
183 2 -0.825488 11.4006 11.8008 0.552117
184 2 -0.780764 9.30884 11.2386 13.8033
185 2 -0.763688 11.4547 10.0646 13.1774
186 2 -0.81056 8.23327 8.20179 7.77939
187 2 -0.717876 8.17166 10.3189 9.61654
188 2 -0.803948 9.42772 8.25473 10.0735
189 2 -0.723805 10.2072 9.80703 8.31893
190 2 -0.467925 7.19236 11.4684 12.2213
191 2 -0.754314 11.6082 8.51988 11.4936
192 2 -0.787366 11.5114 11.4053 7.83462
ITEM: TIMESTEP
65000
ITEM: NUMBER OF ATOMS
192
ITEM: BOX BOUNDS pp pp pp
2.7538036095560159e-02 1.4272461963904480e+01
2.7538036095560159e-02 1.4272461963904480e+01
2.7538036095560159e-02 1.4272461963904480e+01
ITEM: ATOMS id type q x y z
1 1 1.55066 14.0797 14.1865 0.0870344
2 1 1.58329 1.92157 1.25139 1.82186
3 1 1.5042 0.404626 3.4206 3.36631
4 1 1.58443 2.04102 5.35765 5.18123
5 1 1.58801 3.66806 14.0756 3.81156
6 1 1.64922 5.42199 1.5805 5.49871
7 1 1.45494 3.43969 3.33698 0.18783
8 1 1.43674 5.50362 5.42243 1.90415
9 1 1.60853 14.0695 0.240144 6.85599
10 1 1.40833 1.52052 1.72502 8.98937
11 1 1.67291 0.179261 3.65913 10.9839
12 1 1.65488 1.97097 5.29856 12.7534
13 1 1.401 3.19366 13.9987 10.7706
14 1 1.46925 4.78371 1.6388 12.3954
15 1 1.41442 3.49611 3.34976 7.07713
16 1 1.28859 5.49898 5.15267 9.24984
17 1 1.39679 0.0138008 7.3942 -0.00601714
18 1 1.45357 1.80391 9.42317 1.66765
19 1 1.64863 14.2828 10.8348 3.64537
20 1 1.55001 1.64533 12.5431 5.51743
21 1 1.56924 3.34383 7.22138 3.22761
22 1 1.57293 5.2284 8.61684 5.09974
23 1 1.57236 3.88555 10.7301 14.1452
24 1 1.4363 5.36632 12.5445 1.86527
25 1 1.41225 0.175565 6.87561 6.98948
26 1 1.52604 1.98439 8.69271 8.8961
27 1 1.46456 14.154 10.8764 10.6848
28 1 1.35874 1.6097 12.3074 12.7289
29 1 1.62664 3.80589 7.17337 10.9668
30 1 1.51211 5.67601 8.95466 12.4372
31 1 1.69556 3.52094 10.5259 7.07753
32 1 1.6086 5.22812 12.3449 8.95777
33 1 1.48795 6.84715 0.237109 14.2576
34 1 1.30147 8.75432 1.68734 1.87643
35 1 1.43031 7.07579 3.65265 3.82549
36 1 1.30701 8.92438 5.80285 5.01412
37 1 1.44606 10.4192 0.246095 4.00063
38 1 1.70766 12.4587 2.22661 5.13729
39 1 1.19006 10.5436 3.36463 0.12467
40 1 1.45417 12.5775 5.20611 1.74481
41 1 1.65122 6.96793 14.1523 7.43956
42 1 1.40867 9.06782 2.01638 8.66199
43 1 1.37315 7.05417 3.39028 10.9299
44 1 1.37378 8.99971 5.1908 12.2147
45 1 1.54593 10.7378 0.224125 10.5248
46 1 1.56345 12.5969 1.70884 12.4379
47 1 1.41512 10.7585 4.24819 6.92842
48 1 1.63538 12.8187 5.33266 8.98484
49 1 1.28813 7.22979 6.98564 14.1232
50 1 1.31697 8.99441 8.79109 1.97547
51 1 1.30526 7.07096 10.6374 3.61655
52 1 1.48373 8.63738 12.4925 5.65517
53 1 1.66834 11.0913 7.22326 3.41063
54 1 1.53355 12.7308 8.90502 5.47851
55 1 1.42864 10.6968 10.9796 14.0693
56 1 1.29314 12.2399 12.5401 1.86404
57 1 1.43034 7.02889 7.09457 7.20263
58 1 1.25667 9.04726 8.862 8.70649
59 1 1.45005 7.32319 10.6383 10.5858
60 1 1.61568 8.71572 12.7911 12.3732
61 1 1.39445 10.8954 7.05251 10.6075
62 1 1.49686 12.4716 9.03566 12.4668
63 1 1.26058 10.6896 10.8464 7.02651
64 1 1.41754 12.6864 12.6547 8.83936
65 2 -0.872012 0.836369 0.84838 0.855231
66 2 -0.808844 0.345778 13.0071 13.4408
67 2 -0.773455 12.9334 0.726963 13.6061
68 2 -0.713012 13.2868 13.6779 1.31848
69 2 -0.717854 1.30093 2.16477 3.11207
70 2 -0.776452 3.13927 0.478347 2.43757
71 2 -0.784448 2.79998 2.13781 0.999681
72 2 -0.743978 1.26484 4.22373 4.4892
73 2 -0.835918 13.4426 2.80002 4.05484
74 2 -0.680423 13.8635 4.14823 2.0981
75 2 -0.777256 2.83611 4.62811 6.515
76 2 -0.796547 2.54462 5.92954 3.90276
77 2 -0.798656 0.970118 6.21457 5.70191
78 2 -0.848709 4.52899 0.969615 4.49723
79 2 -0.787531 2.43449 13.728 4.49944
80 2 -0.768431 4.6318 12.9109 3.26
81 2 -0.74211 4.68253 2.88331 6.07913
82 2 -0.7179 6.36854 2.36211 4.42234
83 2 -0.911857 6.01895 0.618939 6.51842
84 2 -0.623206 4.98918 4.45757 0.80701
85 2 -0.840732 2.38711 4.28387 13.8299
86 2 -0.816338 3.87364 2.51146 13.2647
87 2 -0.765592 4.23851 6.20259 2.47502
88 2 -0.802455 6.11154 4.48962 3.06883
89 2 -0.727516 6.76456 6.14307 1.06565
90 2 -0.743984 0.749299 0.785126 8.06687
91 2 -0.825991 0.890739 13.4484 6.55591
92 2 -0.842649 13.219 1.18888 5.98883
93 2 -0.725762 12.9961 13.8205 7.74184
94 2 -0.71101 1.1096 3.18297 9.83175
95 2 -0.72403 2.43706 0.957172 9.9007
96 2 -0.701297 2.79584 2.34344 7.89118
97 2 -0.848065 1.16402 4.74935 11.5816
98 2 -0.928386 13.6079 2.62246 11.6425
99 2 -0.785277 13.4585 4.42582 9.99856
100 2 -0.700561 1.20472 6.3807 13.5482
101 2 -0.755799 2.95052 6.31575 12.0113
102 2 -0.753533 4.36879 0.40665 11.3632
103 2 -0.718095 1.96981 13.435 11.7265
104 2 -0.691251 4.25398 12.8802 9.94934
105 2 -0.782571 5.67523 0.831711 13.2243
106 2 -0.65448 5.91954 2.88942 11.942
107 2 -0.57504 4.73551 4.00698 8.31156
108 2 -0.761408 4.74985 6.15926 10.216
109 2 -0.743621 6.2386 4.52297 10.4318
110 2 -0.664515 6.75925 5.85111 8.00679
111 2 -0.640918 0.473974 8.67583 1.03014
112 2 -0.644972 13.2912 6.28153 0.692607
113 2 -0.813767 13.5899 8.14591 13.1141
114 2 -0.850561 0.797585 10.3773 2.46993
115 2 -0.754313 2.63094 8.23545 2.24089
116 2 -0.771411 3.01274 9.69276 0.68484
117 2 -0.822383 1.20045 11.7726 4.36172
118 2 -0.901309 13.6301 9.85043 4.59415
119 2 -0.697472 13.2563 11.937 3.23359
120 2 -0.777179 2.44733 11.5116 6.40239
121 2 -0.926735 4.18024 8.1207 4.14598
122 2 -0.741969 4.48224 9.76539 6.10785
123 2 -0.687016 6.4363 9.59243 4.64711
124 2 -0.797161 5.9628 7.83359 6.1361
125 2 -0.799096 4.47184 11.8085 0.921322
126 2 -0.747874 3.01721 11.3535 13.0669
127 2 -0.762362 5.10509 10.0294 13.3884
128 2 -0.780744 6.37306 13.4009 0.928224
129 2 -0.6052 6.1409 11.0457 2.36633
130 2 -0.755192 0.92881 8.00923 8.13311
131 2 -0.82604 13.8205 5.75272 7.90752
132 2 -0.813989 13.3975 7.75967 6.17308
133 2 -0.584417 1.13389 9.85952 9.5839
134 2 -0.780941 2.63966 7.91492 10.1316
135 2 -0.861837 2.80276 9.39894 7.68481
136 2 -0.700647 1.00573 11.3046 11.644
137 2 -0.809235 13.1057 10.2235 11.4431
138 2 -0.781108 13.8587 12.0107 9.57817
139 2 -0.844977 4.64395 8.28881 11.4994
140 2 -0.666101 5.96318 7.64835 13.3007
141 2 -0.681535 7.07615 9.55637 11.7328
142 2 -0.839042 4.28187 11.5706 7.91415
143 2 -0.839773 6.20693 13.5483 8.62268
144 2 -0.769405 6.08667 11.254 9.72278
145 2 -0.768581 8.1299 0.712875 0.906297
146 2 -0.730605 7.71761 13.7952 13.1238
147 2 -0.587236 8.11077 3.05485 2.75296
148 2 -0.655283 9.36284 1.12914 3.37825
149 2 -0.615026 9.80929 2.78598 1.51444
150 2 -0.68976 8.11573 4.51531 4.94518
151 2 -0.710375 10.085 5.36008 5.95785
152 2 -0.767937 10.1098 6.18368 3.67096
153 2 -0.705252 8.08373 6.69076 6.19045
154 2 -0.82614 11.4817 1.226 4.61842
155 2 -0.760504 9.62297 13.6955 4.98281
156 2 -0.580487 11.0116 13.388 2.50354
157 2 -0.739625 11.7861 3.13045 6.23308
158 2 -0.659903 11.4811 4.509 0.961356
159 2 -0.610277 9.31013 4.35009 13.4735
160 2 -0.645847 11.7594 2.69863 13.455
161 2 -0.805362 12.2247 6.38211 2.66697
162 2 -0.750543 8.27639 0.836051 7.91676
163 2 -0.833227 7.56617 13.1241 6.4234
164 2 -0.627635 7.9376 2.62485 9.54652
165 2 -0.730004 10.0152 1.49176 9.83062
166 2 -0.645873 9.80648 3.35181 7.86175
167 2 -0.697952 8.44372 3.86355 11.5266
168 2 -0.659741 8.23085 6.4508 12.9196
169 2 -0.657625 10.2752 6.0491 11.6603
170 2 -0.78751 11.6146 0.893875 11.5465
171 2 -0.729206 9.82186 13.5308 11.7637
172 2 -0.738181 11.6426 13.5773 9.80485
173 2 -0.740853 11.8319 4.63121 8.04746
174 2 -0.799278 11.8437 6.0451 10.0851
175 2 -0.547426 7.72337 8.42259 0.82813
176 2 -0.635663 8.12389 9.41256 3.15896
177 2 -0.785373 10.2585 8.26893 2.58988
178 2 -0.489928 9.656 10.0103 1.05361
179 2 -0.655358 7.71182 11.9767 4.31996
180 2 -0.790453 9.39023 11.3681 6.47038
181 2 -0.781418 11.5213 8.20189 4.44006
182 2 -0.741276 11.7941 9.66237 6.52494
183 2 -0.791754 11.499 11.472 0.931685
184 2 -0.732941 9.51611 11.9432 13.3792
185 2 -0.726043 11.345 9.70946 13.3735
186 2 -0.712903 7.71386 8.2489 8.21935
187 2 -0.560148 8.5172 9.84609 10.0304
188 2 -0.642859 9.63929 7.81773 9.77154
189 2 -0.587823 9.94842 10.2142 8.28523
190 2 -0.743387 8.09644 11.8684 11.2044
191 2 -0.670612 11.4748 8.4413 11.4733
192 2 -0.608591 11.394 12.0613 8.18277
ITEM: TIMESTEP
66000
ITEM: NUMBER OF ATOMS
192
ITEM: BOX BOUNDS pp pp pp
2.5263470543881006e-02 1.4274736529456128e+01
2.5263470543881006e-02 1.4274736529456128e+01
2.5263470543881006e-02 1.4274736529456128e+01
ITEM: ATOMS id type q x y z
1 1 1.36678 14.154 0.530954 14.2255
2 1 1.31266 1.79457 2.29438 1.79877
3 1 1.46441 14.0603 3.64386 3.82499
4 1 1.34649 1.4644 5.61874 5.70994
5 1 1.50006 3.53744 0.0245234 3.46795
6 1 1.57041 5.49801 1.9911 5.13184
7 1 1.25055 3.96055 3.63282 0.109887
8 1 1.29412 5.62866 5.62501 1.9339
9 1 1.39091 0.212056 13.9362 7.29671
10 1 1.32214 1.79542 1.78658 9.13253
11 1 1.28448 14.1714 3.75622 10.6848
12 1 1.29499 2.23458 5.44705 12.3581
13 1 1.27744 3.61993 14.2615 10.8926
14 1 1.76069 5.39845 1.75391 12.5521
15 1 1.23826 3.65129 3.61435 7.39762
16 1 1.50708 5.39141 5.86893 8.64894
17 1 1.54998 0.351209 6.62285 0.528642
18 1 1.47613 1.98029 8.79435 1.99591
19 1 1.30579 0.299709 10.7808 3.52304
20 1 1.93683 2.05961 12.531 5.34008
21 1 1.43224 3.56989 6.97441 3.88576
22 1 1.17129 5.61575 8.53157 5.42325
23 1 1.63822 3.33977 10.9211 0.049788
24 1 1.46456 5.22962 12.9155 1.35676
25 1 1.34135 13.788 7.28782 7.50163
26 1 1.49187 1.60538 9.38687 8.71737
27 1 1.5035 14.0109 10.6365 10.8765
28 1 1.31348 1.50226 12.5727 12.4692
29 1 1.39926 3.57086 7.64883 10.5245
30 1 1.48155 5.35573 9.06025 12.7958
31 1 1.66666 3.79794 10.5344 6.8601
32 1 1.64327 5.15725 12.388 8.9381
33 1 1.47053 7.46644 14.286 13.9553
34 1 1.57345 9.26872 1.56383 1.65009
35 1 1.48012 7.34823 3.35179 3.26235
36 1 1.30293 9.10466 5.32077 5.01469
37 1 1.71869 11.0926 13.918 3.28364
38 1 1.48075 12.5544 1.26364 5.25546
39 1 1.76078 10.3497 3.80644 14.3611
40 1 1.53995 12.2464 5.50417 1.77189
41 1 1.40044 6.98283 14.0938 6.82254
42 1 1.32621 8.70016 1.88416 8.60803
43 1 1.35949 6.78683 3.512 10.3753
44 1 1.40068 8.35448 5.59914 12.3591
45 1 1.48396 10.517 -0.0724548 10.5283
46 1 1.12203 12.0419 1.94452 12.4003
47 1 1.31924 10.7181 3.17344 6.79358
48 1 1.16346 12.0629 5.02054 8.78341
49 1 1.30429 7.12813 7.35783 0.173136
50 1 1.67806 9.03323 9.16789 1.91356
51 1 1.51251 6.83707 10.6036 3.30425
52 1 1.56724 8.77559 12.5409 4.88591
53 1 1.72664 10.7488 7.44339 3.59025
54 1 1.31123 12.486 9.33302 5.63433
55 1 1.58064 11.0516 10.3549 14.2036
56 1 1.71555 12.8349 12.3002 1.41827
57 1 1.37645 7.89581 7.07158 7.27589
58 1 1.58267 9.12348 9.00637 9.28157
59 1 1.40031 6.94673 10.7389 10.7818
60 1 1.52705 9.07342 12.2278 12.6019
61 1 1.43289 10.9871 7.15222 10.9408
62 1 1.40663 13.01 8.4284 12.763
63 1 1.62906 10.2958 11.0439 7.18773
64 1 1.23186 12.444 12.2945 8.844
65 2 -0.63736 0.806194 1.14558 1.15931
66 2 -0.688309 0.827727 13.8975 13.1821
67 2 -0.589799 12.6835 1.03027 13.9582
68 2 -0.698201 13.6701 13.5806 0.774402
69 2 -0.725335 0.707719 3.09294 2.72752
70 2 -0.596003 2.48601 1.07491 2.84663
71 2 -0.700678 2.55661 3.01414 0.615872
72 2 -0.660044 0.823604 4.66668 4.76131
73 2 -0.723984 13.6067 2.58448 4.80629
74 2 -0.628451 12.8519 4.63386 3.18004
75 2 -0.518158 2.21897 4.29465 6.73507
76 2 -0.691157 2.52344 6.08074 4.54426
77 2 -0.696315 0.671205 6.78764 6.57715
78 2 -0.687023 4.43547 1.38784 4.15422
79 2 -0.960498 2.76882 13.5829 4.55181
80 2 -0.831884 4.52132 13.9238 2.31777
81 2 -0.651722 4.5977 2.62274 6.19763
82 2 -0.866588 6.48679 2.89774 4.55158
83 2 -0.747948 6.04569 1.00209 6.31601
84 2 -0.564577 5.36089 4.4829 0.848565
85 2 -0.664357 3.17869 4.65954 13.1902
86 2 -0.765131 4.87761 2.4087 13.843
87 2 -0.690612 4.34055 5.95567 2.69872
88 2 -0.786486 6.58343 4.47977 2.66388
89 2 -0.680895 5.79851 6.96904 0.977892
90 2 -0.689103 1.34026 0.525108 8.259
91 2 -0.880605 1.14544 13.2454 6.2317
92 2 -0.674308 13.19 0.261499 6.3691
93 2 -0.726473 13.6554 12.9651 8.37984
94 2 -0.607244 0.754296 3.02453 9.37389
95 2 -0.63924 2.53852 1.33095 10.4406
96 2 -0.613096 3.06889 2.65535 8.53565
97 2 -0.656799 1.09645 4.60152 11.4162
98 2 -0.648676 13.3652 2.83864 11.6757
99 2 -0.573479 12.777 4.11497 9.91863
100 2 -0.621579 1.38487 5.7374 13.9401
101 2 -0.664062 2.5042 6.85971 11.497
102 2 -0.817373 4.42272 0.812138 11.9097
103 2 -0.620751 3.08547 12.9053 11.7631
104 2 -0.757018 4.41214 13.5867 9.50014
105 2 -0.866865 6.4419 0.758934 13.123
106 2 -0.80288 5.94224 2.61393 11.4359
107 2 -0.728128 4.27834 4.92071 8.0751
108 2 -0.711278 4.50838 6.78332 9.54531
109 2 -0.627132 5.73316 4.84642 9.91945
110 2 -0.822122 6.53481 6.58533 8.03581
111 2 -0.740996 0.926135 7.84332 1.23223
112 2 -0.836622 13.6329 5.85233 1.53276
113 2 -0.741391 13.8313 7.39209 13.6575
114 2 -0.612048 0.838072 9.33707 3.07493
115 2 -0.801913 2.84501 7.98026 2.83058
116 2 -0.753824 2.7256 10.0976 1.13369
117 2 -0.860954 1.21592 11.5308 4.60581
118 2 -0.621202 13.3858 9.93078 4.51853
119 2 -0.705108 14.0067 11.4784 2.05009
120 2 -0.912489 3.06671 11.5743 5.95255
121 2 -0.761013 4.33153 7.65314 5.03505
122 2 -0.66146 4.62678 9.29345 6.52528
123 2 -0.654123 6.26126 9.92334 4.67914
124 2 -0.469259 6.92502 8.36239 6.55878
125 2 -0.870325 4.20623 12.0182 0.63279
126 2 -0.714508 2.1223 11.4187 13.5014
127 2 -0.73464 4.31175 9.65393 13.8766
128 2 -0.661594 6.60667 13.004 0.811811
129 2 -0.668251 6.0152 11.5567 2.42418
130 2 -0.706195 0.370366 8.55559 8.11632
131 2 -0.646028 13.3487 5.7573 7.98215
132 2 -0.655667 12.6097 8.12413 6.80986
133 2 -0.733139 0.867593 10.3856 9.68436
134 2 -0.703891 2.72232 8.48961 9.43695
135 2 -0.776677 2.52323 10.0186 7.57565
136 2 -0.750146 0.393836 11.7606 11.7827
137 2 -0.730231 13.9545 9.45462 11.8971
138 2 -0.721709 12.9204 11.064 9.91672
139 2 -0.656615 4.25096 8.68068 11.5953
140 2 -0.701737 6.31983 7.95636 12.995
141 2 -0.721792 6.09169 10.1298 12.0224
142 2 -0.790411 4.71951 11.3744 7.75966
143 2 -0.684382 6.15698 12.9215 8.01259
144 2 -0.803984 5.82752 11.5102 10.016
145 2 -0.74877 8.15477 0.742112 0.889537
146 2 -0.794688 8.6797 13.2882 13.5396
147 2 -0.746265 8.11974 2.15025 2.78393
148 2 -0.806324 10.4593 0.618275 2.16995
149 2 -0.952495 9.62818 2.76092 0.827316
150 2 -0.647631 8.81722 4.14048 3.90378
151 2 -0.692381 10.2361 4.51648 5.89293
152 2 -0.792647 10.0641 6.40256 4.46982
153 2 -0.759095 8.11989 6.36524 5.89824
154 2 -0.879285 12.0741 0.493474 4.06074
155 2 -0.834547 10.0558 13.0817 4.12609
156 2 -0.875368 12.0115 13.004 2.44823
157 2 -0.713012 11.3692 2.01444 6.01421
158 2 -0.939994 11.3411 4.72403 0.834725
159 2 -0.668085 9.4169 4.43694 13.3745
160 2 -0.653324 11.0602 3.05332 13.1423
161 2 -0.822758 11.3657 6.84761 2.39692
162 2 -0.620718 7.94446 0.417759 7.84658
163 2 -0.802019 7.96888 13.5603 5.68741
164 2 -0.791639 7.53629 2.77139 9.17509
165 2 -0.644232 9.53054 1.00094 9.76212
166 2 -0.698762 9.9492 2.1723 7.75784
167 2 -0.651961 7.73396 4.26808 11.4067
168 2 -0.735851 7.52239 6.19374 13.4118
169 2 -0.668806 9.36588 6.59645 11.9228
170 2 -0.623158 11.0111 0.772463 11.7782
171 2 -0.710224 9.82435 13.0706 11.4036
172 2 -0.667629 11.7366 13.4734 10.0854
173 2 -0.612885 11.6582 3.66161 8.01409
174 2 -0.690089 11.1276 5.96391 9.96324
175 2 -0.788408 8.20832 8.06074 1.15828
176 2 -0.865879 7.89714 9.68266 2.78846
177 2 -0.78167 9.78019 8.49509 3.17398
178 2 -0.84682 10.1326 9.57788 1.00786
179 2 -0.735896 7.77613 11.6722 4.01605
180 2 -0.75376 9.53112 11.4872 5.98936
181 2 -0.66702 11.521 8.36744 4.60824
182 2 -0.69809 11.6876 10.4609 6.63665
183 2 -0.895248 12.047 11.272 0.75069
184 2 -0.781312 9.97034 10.9025 13.1859
185 2 -0.744545 12.0413 9.20789 13.7703
186 2 -0.838275 8.56731 7.99249 8.28047
187 2 -0.742864 8.23751 9.73778 10.3278
188 2 -0.770689 10.2293 8.2607 10.213
189 2 -0.821133 9.71368 10.1774 8.30266
190 2 -0.696972 7.83746 11.7638 11.8646
191 2 -0.787247 12.2824 7.56698 11.4807
192 2 -0.658698 10.8966 12.3062 7.74397
ITEM: TIMESTEP
67000
ITEM: NUMBER OF ATOMS
192
ITEM: BOX BOUNDS pp pp pp
2.3440309276638871e-02 1.4276559690723401e+01
2.3440309276638871e-02 1.4276559690723401e+01
2.3440309276638871e-02 1.4276559690723401e+01
ITEM: ATOMS id type q x y z
1 1 1.41515 -0.0414851 14.3032 14.2891
2 1 1.70374 1.78206 1.32268 2.03992
3 1 1.52571 0.307038 3.58243 3.40548
4 1 1.41969 2.29785 5.24225 5.17395
5 1 1.47658 3.52396 13.9992 3.92209
6 1 1.49218 5.73348 1.65957 5.47825
7 1 1.52454 3.37552 3.49676 0.672084
8 1 1.2057 5.1587 5.66809 1.73514
9 1 1.3231 13.8317 0.184328 7.31246
10 1 1.28213 1.92258 1.72459 8.67246
11 1 1.12858 0.165808 3.86538 10.7273
12 1 1.62109 1.8439 5.22794 12.9466
13 1 1.38631 3.71095 14.1669 10.9579
14 1 1.29138 5.00536 2.03348 12.7526
15 1 1.52517 3.86729 3.47593 7.12049
16 1 1.10376 5.43499 5.29636 8.96681
17 1 1.75612 14.0602 7.16525 13.8416
18 1 1.27093 1.668 9.29324 1.0396
19 1 1.41641 14.1466 10.9232 3.18207
20 1 1.34512 1.60132 12.3104 5.42104
21 1 1.34818 3.16894 7.40832 3.27704
22 1 1.22318 4.74956 9.05098 5.22192
23 1 1.4856 4.10786 10.7256 0.0218169
24 1 1.49546 5.57641 12.6321 2.00305
25 1 1.29976 0.102186 7.20261 6.59457
26 1 1.41477 1.65119 8.69955 9.05348
27 1 1.37241 14.4121 10.6724 10.632
28 1 1.35551 1.91326 12.2685 12.4742
29 1 1.68426 3.34575 6.71672 10.6467
30 1 1.39682 5.57801 8.2857 12.1
31 1 1.50277 3.40503 10.6742 7.42475
32 1 1.34706 5.50415 12.3806 9.27788
33 1 1.24093 6.98291 0.279719 14.3962
34 1 1.44411 9.24258 1.96762 1.82941
35 1 1.50804 7.17815 3.71141 3.49751
36 1 1.51075 8.81267 5.6885 5.38615
37 1 1.4725 10.7505 0.300527 3.93662
38 1 1.44686 12.4333 2.52241 5.57709
39 1 1.59582 11.1397 3.24211 14.0526
40 1 1.57543 12.5792 5.27261 1.46999
41 1 1.2562 7.38198 0.175795 7.38651
42 1 1.41448 9.15821 1.86723 9.1551
43 1 1.32875 7.26248 3.58321 10.9016
44 1 1.47771 9.39379 5.09857 12.5382
45 1 1.57147 10.827 13.8711 10.7986
46 1 1.62489 12.7298 1.68242 12.0866
47 1 1.39005 10.5507 3.92532 7.40737
48 1 1.30714 12.8225 5.63853 8.6458
49 1 1.36572 7.43126 6.86383 14.1959
50 1 1.54454 8.53148 8.92449 2.04149
51 1 1.2922 7.01085 10.601 4.00835
52 1 1.61099 8.9811 12.5127 5.43086
53 1 1.54462 10.6268 6.92647 3.16207
54 1 1.50157 12.4125 8.82936 4.83641
55 1 1.26895 10.1491 10.9965 0.396127
56 1 1.55939 12.2418 12.8782 1.83464
57 1 1.33722 6.73436 7.44272 7.25
58 1 1.69866 9.07616 8.79936 8.67513
59 1 1.53283 7.27775 10.361 10.5743
60 1 1.4105 8.41945 12.5332 12.4952
61 1 1.53861 10.8125 7.28034 10.6567
62 1 1.41706 12.1061 9.22053 12.8386
63 1 1.49667 10.8697 10.5862 7.00699
64 1 1.73876 12.6443 12.2131 8.89529
65 2 -0.843193 0.867586 0.375979 1.22383
66 2 -0.620135 0.744041 13.0124 13.3205
67 2 -0.760127 13.7538 1.07957 13.1236
68 2 -0.799332 12.9253 13.5021 0.684094
69 2 -0.863776 0.853745 2.27284 2.93756
70 2 -0.863599 2.59541 0.39581 2.98393
71 2 -0.897038 2.60588 2.26657 1.17752
72 2 -0.75889 1.57251 4.44836 3.97526
73 2 -0.697894 13.4927 3.48594 4.5234
74 2 -0.714294 13.5607 4.49572 2.42365
75 2 -0.789969 3.0983 4.10473 6.0575
76 2 -0.710246 3.1526 6.44598 4.76402
77 2 -0.598277 1.11473 5.99381 6.07678
78 2 -0.735853 4.43891 1.05137 4.98883
79 2 -0.797828 2.8231 12.9393 4.76201
80 2 -0.785413 4.55315 13.4573 2.73962
81 2 -0.690051 5.1428 2.68951 6.77083
82 2 -0.747674 6.43332 2.5709 4.49508
83 2 -0.719872 6.90882 0.929797 6.17732
84 2 -0.736964 4.3876 4.69413 0.888492
85 2 -0.733944 2.29571 4.49563 14.297
86 2 -0.677481 4.03437 3.05186 13.583
87 2 -0.692519 4.13969 7.01275 2.30266
88 2 -0.73844 6.16522 4.3695 2.71954
89 2 -0.634786 6.08421 6.40277 0.582528
90 2 -0.736825 0.82127 1.15718 7.76661
91 2 -0.588802 0.576289 13.4708 6.00773
92 2 -0.682077 12.9662 1.4347 6.61028
93 2 -0.843271 13.0451 13.4154 8.18009
94 2 -0.510865 1.41845 2.74892 9.86048
95 2 -0.576407 3.19488 0.649891 9.58604
96 2 -0.739623 3.03616 2.77454 8.30452
97 2 -0.659513 1.04179 4.20022 12.1991
98 2 -0.667367 13.6919 2.74025 11.4025
99 2 -0.599464 13.1208 4.40788 9.63071
100 2 -0.91418 0.930544 6.4943 13.1437
101 2 -0.841028 2.61609 5.79983 11.73
102 2 -0.701133 3.96899 0.990673 12.035
103 2 -0.687271 2.431 13.4383 11.4567
104 2 -0.731778 4.59652 12.8757 10.4821
105 2 -0.671928 5.71458 0.883141 13.6642
106 2 -0.682323 6.27883 3.01973 12.1402
107 2 -0.540271 4.71388 4.73506 7.3064
108 2 -0.71336 3.82412 6.02596 9.47628
109 2 -0.566451 6.77372 4.46127 9.60205
110 2 -0.627758 5.99528 6.61405 8.34344
111 2 -0.698756 0.482441 8.19261 0.54327
112 2 -0.848894 13.4938 6.23037 0.574327
113 2 -0.859705 12.8503 8.05118 13.4533
114 2 -0.640747 0.964782 10.0764 2.13511
115 2 -0.549714 2.25063 8.02441 2.20531
116 2 -0.657548 2.92183 10.2765 1.07797
117 2 -0.711756 0.669677 11.2996 4.44561
118 2 -0.6237 13.1953 9.97573 3.80122
119 2 -0.700563 12.7702 11.7343 2.79794
120 2 -0.705402 2.5725 11.7373 6.75098
121 2 -0.611171 3.82971 8.77748 3.81483
122 2 -0.696327 3.81455 9.75315 6.20056
123 2 -0.67592 6.12054 9.93987 5.2769
124 2 -0.521086 5.28041 7.80741 6.35877
125 2 -0.783526 4.96109 11.6429 0.820248
126 2 -0.721961 3.09186 11.4474 13.3418
127 2 -0.592493 4.75429 9.46546 13.5117
128 2 -0.651373 6.83151 13.2934 1.2779
129 2 -0.704924 6.36619 11.8308 3.10807
130 2 -0.673804 1.14422 8.06362 7.64731
131 2 -0.727333 13.6323 5.95764 7.39431
132 2 -0.716656 13.6142 7.90809 5.38687
133 2 -0.775681 0.393584 9.3858 9.73142
134 2 -0.79544 2.37806 7.81028 10.1681
135 2 -0.732349 2.81942 9.716 8.53431
136 2 -0.723099 1.23418 11.0145 11.7258
137 2 -0.643267 13.0969 10.0585 12.0095
138 2 -0.886053 13.7245 11.7756 9.87333
139 2 -0.798181 4.61614 7.42228 11.1506
140 2 -0.694863 6.42692 7.3794 12.9463
141 2 -0.739876 6.03405 9.59466 11.3881
142 2 -0.646602 4.71103 11.3389 8.15204
143 2 -0.659164 5.93234 13.3337 8.19476
144 2 -0.768078 6.86027 11.6773 9.92307
145 2 -0.649333 8.09499 1.35483 0.828085
146 2 -0.64491 7.37253 13.6541 12.9642
147 2 -0.77491 8.28575 2.87403 2.59384
148 2 -0.694659 10.0706 0.773756 2.58839
149 2 -0.749355 10.5712 2.36585 0.953207
150 2 -0.753243 7.97263 4.84585 4.3608
151 2 -0.701076 9.71272 4.97765 6.42782
152 2 -0.778218 9.84845 6.26585 4.30037
153 2 -0.654852 7.67662 6.50741 6.24447
154 2 -0.666788 11.4796 1.57621 4.68125
155 2 -0.774065 10.0612 13.5082 4.75738
156 2 -0.6667 11.995 13.9497 2.9565
157 2 -0.739505 11.3026 3.22763 6.15975
158 2 -0.849695 12.0816 4.23822 0.477843
159 2 -0.804801 9.89517 3.90868 13.333
160 2 -0.802993 11.7748 2.68426 12.6972
161 2 -0.765129 11.2666 5.718 2.38553
162 2 -0.66833 8.16605 1.40783 8.06141
163 2 -0.669939 8.43744 13.707 6.41124
164 2 -0.691197 7.98315 2.71954 9.88383
165 2 -0.704462 9.62425 0.496507 10.1597
166 2 -0.72886 10.1886 2.74041 8.48754
167 2 -0.674014 8.4101 4.6004 11.3407
168 2 -0.784561 8.53468 5.9545 13.5498
169 2 -0.717961 10.4658 6.09424 11.6697
170 2 -0.833422 11.8603 0.667447 11.2756
171 2 -0.684735 9.91115 13.2463 11.8931
172 2 -0.822905 11.5802 12.9005 9.83974
173 2 -0.60367 11.408 4.9583 8.39275
174 2 -0.668353 11.9862 6.76172 9.52332
175 2 -0.782524 7.76292 8.22335 0.962921
176 2 -0.739482 7.96217 9.46977 3.41766
177 2 -0.786217 9.81221 8.06279 2.39923
178 2 -0.661817 9.14381 10.2415 1.54409
179 2 -0.757293 8.27629 11.582 4.57818
180 2 -0.799735 9.88405 11.6874 6.33268
181 2 -0.764573 11.7656 7.84763 3.87187
182 2 -0.757199 11.8143 9.67621 5.97337
183 2 -0.660426 10.9977 12.1642 1.20023
184 2 -0.649419 9.13021 12.0884 13.7122
185 2 -0.701342 11.2157 9.8703 13.933
186 2 -0.794029 8.12448 8.12686 7.71456
187 2 -0.874184 8.07122 9.50153 9.65682
188 2 -0.772456 9.70209 7.81172 9.72734
189 2 -0.871654 10.2454 9.52779 8.0192
190 2 -0.719636 8.14673 11.1901 11.7062
191 2 -0.717532 10.947 8.42868 11.4941
192 2 -0.805161 12.0487 11.3952 7.71474
ITEM: TIMESTEP
68000
ITEM: NUMBER OF ATOMS
192
ITEM: BOX BOUNDS pp pp pp
2.3013397440069028e-02 1.4276986602559909e+01
2.3013397440069028e-02 1.4276986602559909e+01
2.3013397440069028e-02 1.4276986602559909e+01
ITEM: ATOMS id type q x y z
1 1 1.39582 0.172962 0.145231 0.360768
2 1 1.25107 2.01998 2.04315 1.76151
3 1 1.72684 14.1602 3.50485 3.5673
4 1 1.52991 1.35944 5.09549 5.69807
5 1 1.38904 3.83468 0.294488 3.38185
6 1 1.62304 5.45095 1.79956 5.47196
7 1 1.51411 3.75855 3.56723 13.8472
8 1 1.34241 5.33299 5.53924 1.80752
9 1 1.57858 0.433673 0.0285176 6.96398
10 1 1.10693 1.65358 1.98976 9.02916
11 1 1.51606 14.1356 3.84519 10.8847
12 1 1.48541 1.82664 5.58027 12.5074
13 1 1.33335 3.34681 13.9404 10.2756
14 1 1.54407 5.30991 1.44907 12.0901
15 1 1.36423 3.52761 3.72379 7.31763
16 1 1.27744 5.35265 5.51239 9.28284
17 1 1.34121 0.066758 7.30047 0.104403
18 1 1.58945 1.75163 8.94843 1.99134
19 1 1.41886 14.3516 10.5164 3.94279
20 1 1.64293 2.00948 12.5321 5.15935
21 1 1.51919 3.23317 7.01129 3.80806
22 1 1.53333 5.60173 8.51621 5.16506
23 1 1.46298 3.46106 10.9604 0.0691548
24 1 1.51041 5.28845 12.5225 1.62324
25 1 1.38972 14.0117 6.99812 7.63019
26 1 1.35592 1.78713 8.94111 8.60051
27 1 1.51568 14.1726 10.6355 10.7319
28 1 1.41342 1.65238 12.6515 12.5252
29 1 1.64512 3.52106 7.55304 10.7607
30 1 1.54662 5.20986 9.26925 12.5246
31 1 1.39438 4.00799 10.6222 6.78186
32 1 1.51643 5.54765 12.2688 8.80361
33 1 1.4145 7.26741 14.3725 13.9095
34 1 1.52247 8.61634 1.99722 1.77678
35 1 1.65428 7.06727 3.79286 3.94268
36 1 1.52357 9.16896 5.34846 5.53483
37 1 1.31233 10.7139 0.183111 3.27895
38 1 1.75859 12.7097 1.48924 5.24254
39 1 1.51652 10.2461 3.86404 0.0188117
40 1 1.33787 12.3139 5.43804 1.95691
41 1 1.66187 7.10019 14.0355 6.97128
42 1 1.562 8.97971 1.30896 8.60708
43 1 1.51346 7.25711 3.28708 10.397
44 1 1.5385 8.48295 5.67609 12.3601
45 1 1.37133 11.0553 0.23951 11.0269
46 1 1.51803 12.4808 2.15708 13.0531
47 1 1.68314 10.6526 3.0392 6.83371
48 1 1.462 11.8827 4.80197 9.00353
49 1 1.60267 7.07058 7.40451 0.180754
50 1 1.63327 8.94278 8.99459 1.92993
51 1 1.43525 7.09152 10.7978 3.55012
52 1 1.60776 9.05671 12.6915 5.06697
53 1 1.46676 10.8528 7.53999 3.87439
54 1 1.61075 12.4538 8.97111 5.8781
55 1 1.24752 10.9689 10.2977 14.1908
56 1 1.39276 12.5413 12.3165 1.97757
57 1 1.50745 7.30744 6.81867 7.20795
58 1 1.40971 9.02756 8.87664 8.62249
59 1 1.51053 7.30396 10.7078 10.6731
60 1 1.44748 9.08051 12.2529 12.5121
61 1 1.48773 10.6789 7.10329 10.6781
62 1 1.266 12.6237 8.69009 12.2847
63 1 1.58759 10.8083 11.2477 6.98394
64 1 1.3948 12.7083 12.787 9.07207
65 2 -0.689619 0.957675 0.92999 1.53002
66 2 -0.725642 0.814999 13.7225 13.4003
67 2 -0.683497 13.224 1.12748 14.0084
68 2 -0.692854 13.5504 13.2818 1.44426
69 2 -0.644765 0.942765 3.13215 2.32409
70 2 -0.635314 3.29777 0.881177 2.09137
71 2 -0.71053 2.88444 2.76553 0.45904
72 2 -0.86874 0.826668 4.33833 4.38657
73 2 -0.93093 13.6677 2.35809 4.44458
74 2 -0.761935 13.2314 4.08378 2.62856
75 2 -0.828761 2.42267 4.41991 6.57036
76 2 -0.701613 2.34061 6.20693 4.8151
77 2 -0.712997 0.584693 5.80736 6.85041
78 2 -0.846602 4.44199 1.32204 4.4046
79 2 -0.746659 2.56508 13.3449 4.00381
80 2 -0.753954 4.81186 13.5922 2.58996
81 2 -0.638786 4.60742 2.73831 6.6012
82 2 -0.879816 6.12198 2.95946 4.68643
83 2 -0.89452 6.34471 1.06655 6.41256
84 2 -0.657231 4.51383 4.81524 0.538419
85 2 -0.769132 2.62896 4.28418 13.03
86 2 -0.77572 4.58948 2.66561 12.8869
87 2 -0.635857 4.49455 6.19346 3.06452
88 2 -0.659747 5.97728 4.43108 3.01275
89 2 -0.787847 6.07815 6.58452 0.98129
90 2 -0.655891 1.3214 1.38788 7.63646
91 2 -0.868916 1.24179 13.5748 5.97863
92 2 -0.881415 13.5508 0.599717 6.07501
93 2 -0.716664 13.7457 13.6095 8.11965
94 2 -0.670017 0.274238 2.88618 9.81854
95 2 -0.594648 1.94942 0.516951 9.74085
96 2 -0.593083 3.2344 2.65141 8.7544
97 2 -0.795547 0.666226 5.08413 11.6487
98 2 -0.699289 13.5603 2.98091 12.1653
99 2 -0.763767 13.0081 4.23766 9.99822
100 2 -0.694517 1.42409 6.38134 13.7478
101 2 -0.83159 2.61326 6.86087 11.6968
102 2 -0.750518 4.36945 0.361833 11.417
103 2 -0.687116 2.50474 13.0072 11.2204
104 2 -0.70943 4.27615 12.9714 9.40468
105 2 -0.848269 6.10205 0.699014 13.0817
106 2 -0.773508 6.44767 2.43949 11.4745
107 2 -0.627871 4.5908 4.67783 7.96016
108 2 -0.73211 4.59493 6.75168 9.95781
109 2 -0.727414 6.27881 4.24624 9.59111
110 2 -0.612719 6.48917 6.54352 8.45068
111 2 -0.668772 0.239481 8.15098 1.29846
112 2 -0.587496 13.3323 6.3112 1.04877
113 2 -0.664581 13.2691 7.54785 13.2593
114 2 -0.768535 1.05626 9.52791 3.26374
115 2 -0.826415 2.50965 7.90784 2.7567
116 2 -0.837408 2.455 9.69457 1.01913
117 2 -0.843439 0.942218 11.4544 4.91799
118 2 -0.684558 13.3431 9.39849 4.66908
119 2 -0.66055 13.184 10.9525 2.89948
120 2 -0.710909 2.98737 12.0473 6.22302
121 2 -0.767052 4.44279 7.8639 4.39508
122 2 -0.759223 4.68919 9.54786 5.93708
123 2 -0.759147 6.60461 9.7701 4.53691
124 2 -0.785918 6.45403 7.73382 6.2056
125 2 -0.915078 4.40773 11.8975 0.626171
126 2 -0.718081 2.36762 11.9777 13.7639
127 2 -0.806619 4.23936 10.2816 12.9937
128 2 -0.562234 6.7209 13.5251 1.00839
129 2 -0.725605 5.78456 11.4915 2.71302
130 2 -0.712213 1.03706 7.56651 8.3931
131 2 -0.662095 12.6902 5.89345 8.05451
132 2 -0.771543 13.6429 8.12738 6.7598
133 2 -0.637511 0.662325 9.88445 9.49272
134 2 -0.720266 2.76737 8.54102 9.82462
135 2 -0.582564 2.93265 9.54538 7.57961
136 2 -0.663615 0.387823 11.708 11.8208
137 2 -0.749592 13.8616 9.30142 11.2597
138 2 -0.746383 13.267 11.6289 9.9364
139 2 -0.770592 4.70028 8.24337 11.4845
140 2 -0.72113 5.92808 8.28144 13.736
141 2 -0.767809 6.41317 9.91864 11.7146
142 2 -0.651881 4.36097 11.188 8.05687
143 2 -0.859229 6.05589 13.0429 7.55608
144 2 -0.858349 6.47508 11.4927 9.71454
145 2 -0.73215 8.00572 1.01886 0.782792
146 2 -0.766225 8.3761 13.277 13.3039
147 2 -0.745607 8.02866 3.2425 2.91815
148 2 -0.730772 9.66183 1.08644 2.37559
149 2 -0.781526 9.25665 3.05488 0.825813
150 2 -0.793932 8.11798 4.84575 4.53958
151 2 -0.748613 10.2519 4.23658 5.73679
152 2 -0.689426 9.80978 6.60279 4.77479
153 2 -0.74634 8.23748 5.48092 6.78514
154 2 -0.779587 11.5987 1.15223 4.21238
155 2 -0.770026 10.0117 13.7439 4.58373
156 2 -0.687746 11.232 12.9869 2.33451
157 2 -0.887975 11.7651 2.32098 6.25531
158 2 -0.626563 11.0355 4.77909 1.22729
159 2 -0.742979 9.42884 4.81265 13.1855
160 2 -0.792526 11.5146 3.04595 13.9269
161 2 -0.706073 11.6253 6.50238 3.07221
162 2 -0.891258 8.29352 0.190519 7.89651
163 2 -0.858044 7.77099 13.2489 5.85538
164 2 -0.78098 8.10502 2.34249 9.53526
165 2 -0.674633 10.2301 0.911499 9.74924
166 2 -0.829465 9.51946 2.15969 7.47617
167 2 -0.650996 8.17792 4.28136 11.2381
168 2 -0.8313 7.60945 6.25228 13.4069
169 2 -0.724714 9.35985 6.65837 11.5324
170 2 -0.727608 11.7904 1.28889 11.893
171 2 -0.651507 10.2151 13.2953 11.8984
172 2 -0.625069 12.3276 13.8286 10.2905
173 2 -0.807025 11.0388 3.9323 8.04429
174 2 -0.697816 10.9857 5.68088 10.0908
175 2 -0.912199 8.14313 8.11778 1.07088
176 2 -0.743909 7.77349 10.0773 2.33198
177 2 -0.808187 9.90865 8.50438 2.975
178 2 -0.708023 10.2531 9.47372 1.06851
179 2 -0.724116 8.41063 11.6286 4.01461
180 2 -0.867018 10.0182 11.7884 5.79203
181 2 -0.792181 11.6437 7.88188 5.31083
182 2 -0.887487 11.8921 10.1615 6.53438
183 2 -0.562488 12.2218 11.5046 0.696357
184 2 -0.694624 9.74311 11.0345 13.1899
185 2 -0.6869 11.8438 9.98669 12.9151
186 2 -0.783548 8.24157 7.87037 7.83057
187 2 -0.642769 8.17606 9.31164 9.82788
188 2 -0.744031 10.1727 8.07024 9.59655
189 2 -0.662259 9.64638 10.3142 7.77911
190 2 -0.754921 8.1475 11.8715 11.129
191 2 -0.717129 11.7211 7.51089 11.783
192 2 -0.768459 11.4705 12.0054 8.07472
ITEM: TIMESTEP
69000
ITEM: NUMBER OF ATOMS
192
ITEM: BOX BOUNDS pp pp pp
2.3220653237159716e-02 1.4276779346762794e+01
2.3220653237159716e-02 1.4276779346762794e+01
2.3220653237159716e-02 1.4276779346762794e+01
ITEM: ATOMS id type q x y z
1 1 1.34548 14.1561 0.175537 0.124615
2 1 1.22725 1.77606 1.62434 2.23125
3 1 1.33216 14.0408 3.82242 3.50133
4 1 1.23608 1.80714 5.79439 4.89629
5 1 1.42966 3.58735 14.1018 3.67224
6 1 1.45721 5.12507 1.93585 5.41786
7 1 1.4152 3.88126 3.23774 0.225486
8 1 1.45226 5.52482 5.20277 1.90375
9 1 1.49769 0.00683099 14.2507 7.29018
10 1 1.26814 1.76065 1.72689 9.05569
11 1 1.4606 14.0098 3.63047 10.6768
12 1 1.27574 2.24086 4.80035 12.2098
13 1 1.34893 3.72985 14.0128 10.713
14 1 1.56507 5.62775 1.66008 12.4954
15 1 1.16381 3.29477 3.79273 6.9722
16 1 1.42511 5.25266 5.28422 8.88321
17 1 1.34999 14.4275 6.88043 13.7882
18 1 1.3133 1.60021 8.58977 1.72019
19 1 1.48444 14.3283 10.7277 3.33418
20 1 1.37666 1.55758 12.3701 5.62303
21 1 1.47494 3.86452 7.28367 3.29035
22 1 1.0871 5.29163 9.29491 5.48337
23 1 1.35301 3.68008 10.3794 14.3447
24 1 1.52787 5.34636 12.4369 1.57047
25 1 1.35844 0.461914 7.70769 6.72907
26 1 1.47439 1.81355 9.24334 8.98113
27 1 1.08454 14.107 11.3221 10.9145
28 1 1.4586 1.85159 12.6596 12.9818
29 1 1.48716 3.38109 7.09643 10.6749
30 1 1.58032 5.32563 8.80872 12.3181
31 1 1.41024 3.74579 11.0768 7.31412
32 1 1.61405 5.71719 12.5827 8.87369
33 1 1.51774 7.56285 14.3428 14.5171
34 1 1.37994 9.13088 1.90475 2.1834
35 1 1.66267 7.19659 3.61636 3.89352
36 1 1.72122 9.22194 5.2129 5.47993
37 1 1.32498 10.997 14.0387 4.22751
38 1 1.78101 12.7696 1.81856 5.63181
39 1 1.54692 10.3397 3.51412 13.973
40 1 1.42802 12.1108 5.2983 1.27658
41 1 1.56419 7.22068 0.508863 7.3136
42 1 1.62364 8.87736 2.22114 9.25246
43 1 1.59069 6.96609 3.84772 10.9174
44 1 1.35461 8.89848 5.72344 12.5051
45 1 1.20821 10.2906 14.1119 10.8081
46 1 1.20573 12.2959 1.67081 12.3704
47 1 1.60186 10.9687 3.45326 7.40174
48 1 1.26758 12.8892 5.6168 8.6092
49 1 1.31869 7.07371 7.42564 0.116298
50 1 1.42774 8.96992 8.87543 2.0383
51 1 1.32914 7.28565 11.0759 3.5153
52 1 1.42636 8.86203 12.5241 5.77526
53 1 1.45835 10.7463 6.93469 3.44831
54 1 1.4977 12.3183 8.94191 5.00829
55 1 1.36212 10.7954 10.5791 0.30135
56 1 1.54235 12.3265 12.5718 1.90291
57 1 1.42331 6.81965 6.88161 6.73941
58 1 1.56548 8.82659 8.7023 8.77185
59 1 1.54913 7.25695 10.5181 10.5648
60 1 1.35883 8.93773 12.0466 12.6875
61 1 1.57713 10.8218 7.11166 10.5618
62 1 1.46134 12.3393 8.86259 12.4191
63 1 1.77554 10.5485 10.2152 6.99245
64 1 1.25801 12.0801 12.4982 8.48492
65 2 -0.603666 0.830065 1.13158 0.94245
66 2 -0.853557 0.958781 13.5318 13.8568
67 2 -0.639924 13.2753 1.46215 13.6124
68 2 -0.74044 12.9995 13.8251 1.35123
69 2 -0.548749 1.18035 3.23587 2.64092
70 2 -0.750081 2.55693 0.366631 2.70295
71 2 -0.567001 2.7535 2.42634 1.12405
72 2 -0.626807 0.536726 4.51421 4.5514
73 2 -0.760036 13.2472 2.83989 4.57948
74 2 -0.626398 13.1014 4.88559 2.70338
75 2 -0.524588 2.11825 5.15388 6.53821
76 2 -0.693122 3.02906 6.09691 3.97315
77 2 -0.603486 1.36381 7.16516 5.30887
78 2 -0.754669 3.95737 1.12881 4.56653
79 2 -0.645171 2.77168 12.9875 4.49046
80 2 -0.736109 4.47622 13.1957 2.5691
81 2 -0.690762 4.28695 3.10989 5.93652
82 2 -0.812439 6.26399 2.81394 4.87332
83 2 -0.745852 5.92899 1.10588 6.6589
84 2 -0.731298 4.43535 4.21744 1.31619
85 2 -0.638767 3.10339 4.3357 13.5612
86 2 -0.77942 4.82379 2.31078 13.5353
87 2 -0.747078 4.99021 6.54502 2.49411
88 2 -0.770012 6.5098 4.76461 3.19672
89 2 -0.544595 6.32209 5.57756 0.647087
90 2 -0.668171 1.25088 0.475035 8.10125
91 2 -0.778522 0.645629 13.5286 6.08117
92 2 -0.803574 13.9163 1.29535 6.47242
93 2 -0.761162 12.9845 13.7504 8.12549
94 2 -0.673419 0.768449 2.90589 9.46179
95 2 -0.713999 2.77509 0.795994 9.88585
96 2 -0.519798 2.24621 2.52951 7.66622
97 2 -0.715564 0.816238 3.97678 11.6186
98 2 -0.688635 12.8759 3.0102 11.4273
99 2 -0.670942 13.7904 4.9361 9.7421
100 2 -0.577929 1.25778 6.08759 13.0988
101 2 -0.828241 2.75256 5.90322 11.2408
102 2 -0.704528 4.5335 0.714325 12.0371
103 2 -0.652002 2.71195 13.1633 11.6298
104 2 -0.767608 4.9288 13.2754 10.0136
105 2 -0.674692 7.02852 1.13313 13.4738
106 2 -0.841283 6.05207 2.91291 11.7023
107 2 -0.713019 4.226 4.22097 8.23489
108 2 -0.632135 4.63478 6.74941 9.47636
109 2 -0.829882 6.251 4.8587 9.86363
110 2 -0.696283 6.14962 5.72395 7.58161
111 2 -0.630752 0.862502 7.34184 0.927615
112 2 -0.580376 13.3581 5.88967 0.287287
113 2 -0.70725 13.1142 7.73904 13.0503
114 2 -0.690729 0.974404 9.52733 3.08022
115 2 -0.70678 3.00453 7.80909 2.21393
116 2 -0.679398 2.15954 9.52822 0.707142
117 2 -0.687486 0.639872 11.2525 4.64139
118 2 -0.546343 12.917 9.77554 3.73434
119 2 -0.815413 13.3878 11.6157 2.57101
120 2 -0.748687 2.42849 11.4314 6.47173
121 2 -0.546525 3.97787 8.34344 4.5889
122 2 -0.639923 4.61785 9.78003 6.90604
123 2 -0.556989 5.64633 10.6686 4.67622
124 2 -0.703786 6.04399 7.76169 5.83867
125 2 -0.819673 4.80379 11.2623 0.858731
126 2 -0.657819 2.96905 11.6154 13.3797
127 2 -0.729 4.29449 9.41894 13.3551
128 2 -0.687679 6.25133 13.7778 0.842727
129 2 -0.733331 6.50693 11.9407 2.57134
130 2 -0.743827 1.35599 8.71542 7.54468
131 2 -0.663785 14.0523 6.74497 7.71817
132 2 -0.706568 13.5704 8.2941 5.63268
133 2 -0.546715 1.02459 10.3303 9.65821
134 2 -0.714405 2.39079 8.3551 10.124
135 2 -0.596021 2.94232 10.3297 8.65503
136 2 -0.664292 0.659121 11.9542 12.1893
137 2 -0.566395 13.3516 9.76601 11.5784
138 2 -0.549413 13.1954 11.7513 9.55124
139 2 -0.763848 4.38274 7.80008 11.578
140 2 -0.853733 6.30682 8.03762 13.2693
141 2 -0.661311 5.70929 9.96887 11.3742
142 2 -0.852694 4.78727 12.1207 7.72771
143 2 -0.783659 6.71466 13.7107 8.39327
144 2 -0.822507 6.57022 11.5929 9.79108
145 2 -0.732529 8.11961 1.00279 1.30526
146 2 -0.728533 8.24517 12.9804 13.8454
147 2 -0.774452 7.93096 2.8387 2.84131
148 2 -0.653367 10.0351 0.87555 3.03255
149 2 -0.771772 9.71683 2.83662 0.877371
150 2 -0.826815 8.41395 4.17766 4.76403
151 2 -0.784216 9.91799 4.34446 6.40858
152 2 -0.823659 10.2611 5.93553 4.57815
153 2 -0.718776 8.04831 6.29337 5.83546
154 2 -0.834042 12.2496 0.700722 4.85916
155 2 -0.717301 10.0791 13.417 5.24273
156 2 -0.64873 11.5343 12.7598 3.3094
157 2 -0.890392 11.6309 2.45174 6.45625
158 2 -0.770759 11.6298 4.08615 0.449501
159 2 -0.737068 9.77971 4.66719 13.1377
160 2 -0.618599 10.8846 2.44339 12.7759
161 2 -0.782321 11.3322 6.34106 1.87525
162 2 -0.820318 8.30499 1.37158 8.03383
163 2 -0.734126 7.78676 13.8064 6.25182
164 2 -0.808064 7.87591 2.61822 10.3013
165 2 -0.690548 9.83625 1.22085 10.1469
166 2 -0.807488 9.81563 3.12697 8.51341
167 2 -0.735139 7.96051 4.67148 11.705
168 2 -0.690004 8.07715 6.28088 13.7651
169 2 -0.676008 10.1914 5.88664 11.3862
170 2 -0.579335 12.0694 0.408785 11.3668
171 2 -0.731853 9.4117 13.0549 11.5277
172 2 -0.590198 11.0122 13.0711 9.55069
173 2 -0.752734 12.0198 4.50126 7.699
174 2 -0.6897 11.6802 6.47126 9.4295
175 2 -0.713077 7.691 8.2271 1.33791
176 2 -0.647378 7.85991 9.78087 2.81507
177 2 -0.762653 9.52853 7.78297 3.10661
178 2 -0.797611 9.63133 10.0231 1.30233
179 2 -0.731808 8.27357 11.9026 4.44847
180 2 -0.821184 9.7046 11.4917 6.62739
181 2 -0.742723 11.853 7.94585 3.96138
182 2 -0.865103 11.1722 9.80966 5.72232
183 2 -0.793438 11.4987 11.8779 0.821961
184 2 -0.730223 10.1051 11.0213 13.2114
185 2 -0.661223 12.1131 9.73127 13.8877
186 2 -0.625047 7.83463 7.53534 8.00063
187 2 -0.884661 7.84801 9.31498 9.73894
188 2 -0.803574 9.87521 7.94193 9.8494
189 2 -0.994408 9.72312 9.21276 7.6915
190 2 -0.7684 7.97159 10.9815 11.7722
191 2 -0.841333 11.6647 8.23011 11.2902
192 2 -0.740475 11.6832 10.9955 7.66426
ITEM: TIMESTEP
70000
ITEM: NUMBER OF ATOMS
192
ITEM: BOX BOUNDS pp pp pp
2.3076407806028598e-02 1.4276923592193889e+01
2.3076407806028598e-02 1.4276923592193889e+01
2.3076407806028598e-02 1.4276923592193889e+01
ITEM: ATOMS id type q x y z
1 1 1.43493 0.40462 0.291198 14.1857
2 1 1.55084 1.93001 1.89953 1.83489
3 1 1.31448 0.395487 3.80137 3.68588
4 1 1.6459 1.92477 5.72501 5.6136
5 1 1.74185 3.66117 14.0372 3.43997
6 1 1.58431 5.35139 1.6399 5.27885
7 1 1.38115 3.61043 3.72628 0.116517
8 1 1.59412 5.24744 5.4188 1.87236
9 1 1.42541 0.0366032 0.33684 7.00776
10 1 1.3425 1.89128 2.2612 8.83086
11 1 1.40315 13.9875 3.71603 10.6105
12 1 1.42204 1.48968 5.32325 12.5731
13 1 1.36743 3.41916 -0.0353027 10.3988
14 1 1.40877 5.16172 1.72134 12.3191
15 1 1.69873 3.99415 3.85905 6.88627
16 1 1.53563 5.67508 5.11072 9.24313
17 1 1.39607 14.1336 7.20926 0.377641
18 1 1.73141 1.70181 8.86615 2.13038
19 1 1.38619 -0.158164 10.7164 3.96745
20 1 1.64092 1.81305 12.682 5.35039
21 1 1.56562 3.78674 7.29953 3.69408
22 1 1.63553 5.50551 9.11237 5.47034
23 1 1.69412 3.38937 10.3072 0.145813
24 1 1.4852 5.37836 12.1961 1.5723
25 1 1.55799 13.9513 6.65889 7.4025
26 1 1.36675 1.66934 8.85178 8.89887
27 1 1.72698 0.119913 10.7596 10.6292
28 1 1.46709 1.95748 12.3905 12.4744
29 1 1.41228 3.56178 6.83501 10.6524
30 1 1.38562 5.26865 8.88884 12.4146
31 1 1.60945 3.46862 10.739 7.02706
32 1 1.56106 5.25583 12.4383 8.83079
33 1 1.24556 6.99073 14.2012 14.026
34 1 1.41243 8.97451 1.93993 1.54445
35 1 1.38466 6.91973 3.61122 3.57978
36 1 1.49291 8.48403 5.2423 5.75588
37 1 1.54738 10.7422 0.314032 3.51207
38 1 1.62005 12.5028 2.11892 5.11527
39 1 1.38864 10.9212 3.72112 14.174
40 1 1.44963 12.5581 5.21851 2.0002
41 1 1.71205 7.01953 13.9192 6.91595
42 1 1.3457 8.73027 1.34786 8.90889
43 1 1.25154 7.34107 3.17774 10.8567
44 1 1.56701 8.77427 5.37759 12.7412
45 1 1.24975 11.0574 14.1826 10.7528
46 1 1.24444 12.4524 1.89588 12.4113
47 1 1.67673 10.4451 3.4184 7.12072
48 1 1.64584 11.9142 5.27831 9.07613
49 1 1.61904 6.99377 7.1543 0.122279
50 1 1.43137 9.35542 8.71549 1.48572
51 1 1.49719 7.50675 10.5751 3.21789
52 1 1.52756 9.11546 12.4691 5.00279
53 1 1.38461 10.614 7.02968 3.70468
54 1 1.44432 12.5902 8.73237 5.64261
55 1 1.43204 11.0798 11.2692 14.2641
56 1 1.1812 12.6089 12.9296 1.81455
57 1 1.45341 6.93247 7.29932 7.56893
58 1 1.52364 8.9308 8.94796 9.03262
59 1 1.2871 7.18001 10.717 10.6573
60 1 1.237 9.04592 12.4393 12.3817
61 1 1.68601 10.4734 7.21394 11.0596
62 1 1.34406 12.3873 8.94548 12.7083
63 1 1.52816 10.5207 10.7148 7.00616
64 1 1.38278 12.6966 12.3522 8.68802
65 2 -0.749735 1.6786 1.01224 0.614793
66 2 -0.729892 1.10726 13.2505 13.4397
67 2 -0.665735 13.35 1.07393 13.6735
68 2 -0.608302 14.0812 13.9102 1.1302
69 2 -0.711886 0.811744 2.68642 2.40703
70 2 -0.785634 2.80291 0.806564 2.63898
71 2 -0.735288 2.80813 3.17844 1.35324
72 2 -0.7127 1.52316 4.39172 4.67017
73 2 -0.775113 13.1787 3.09005 4.24861
74 2 -0.661011 13.9111 4.79564 2.7528
75 2 -0.85659 3.07181 4.95614 6.39997
76 2 -0.787074 2.4288 6.61015 4.51428
77 2 -0.865557 0.927139 5.85125 6.64653
78 2 -0.894138 4.61337 0.608107 4.23831
79 2 -0.885669 2.65339 13.2967 4.15462
80 2 -0.737934 4.26203 12.9096 2.3497
81 2 -0.876065 4.72348 2.9624 5.98826
82 2 -0.680368 6.50261 2.27889 4.44016
83 2 -0.827389 6.24106 0.763843 6.17182
84 2 -0.735745 4.59976 4.81957 0.552067
85 2 -0.664297 2.53151 4.77221 13.6362
86 2 -0.71077 4.41582 2.77321 13.0833
87 2 -0.885746 4.32656 6.27765 2.82701
88 2 -0.780672 5.70653 4.1372 2.71238
89 2 -0.829443 6.31973 6.37139 1.28233
90 2 -0.68601 0.717698 1.29277 8.24127
91 2 -0.802951 1.14528 13.5632 6.44286
92 2 -0.777276 13.6334 1.20473 5.80588
93 2 -0.701633 13.5134 13.4685 7.72922
94 2 -0.714476 1.03654 3.18975 9.79969
95 2 -0.659522 2.72524 1.39508 9.84328
96 2 -0.687847 2.87775 2.82982 7.5478
97 2 -0.710376 0.523732 4.9412 11.4762
98 2 -0.681376 13.7819 2.80686 11.7416
99 2 -0.750583 12.5191 4.05754 9.92592
100 2 -0.663204 0.637443 6.24564 13.5348
101 2 -0.669149 2.48047 6.5069 11.6637
102 2 -0.688702 4.21019 0.978818 11.4194
103 2 -0.721667 2.948 12.9739 11.3064
104 2 -0.741156 4.39065 13.6489 9.29759
105 2 -0.599511 5.59797 0.529897 13.5903
106 2 -0.724739 6.51477 1.9363 11.4066
107 2 -0.782572 4.85857 4.10475 8.12409
108 2 -0.742874 4.5309 5.74482 10.0774
109 2 -0.782701 6.63551 4.33473 10.1401
110 2 -0.753695 6.06887 6.5331 8.66268
111 2 -0.821969 0.897862 7.79428 1.49127
112 2 -0.703439 13.1276 6.50442 1.49494
113 2 -0.754635 13.0749 7.95476 13.5356
114 2 -0.681482 1.06371 9.79862 3.13998
115 2 -0.75269 2.90066 8.61549 2.98141
116 2 -0.858846 2.17034 9.68425 0.888403
117 2 -0.726245 0.787743 11.8944 4.54754
118 2 -0.752881 13.729 9.65741 4.8892
119 2 -0.616675 13.1192 11.683 2.7674
120 2 -0.799371 2.60802 11.4494 5.91208
121 2 -0.830733 4.67656 8.13743 4.64956
122 2 -0.85996 4.78678 10.0192 6.43314
123 2 -0.673106 6.55129 9.88899 4.46258
124 2 -0.748697 6.20016 7.97934 6.24459
125 2 -0.830047 4.4453 11.0996 0.795835
126 2 -0.724414 2.85947 11.3518 13.3227
127 2 -0.70596 3.90835 9.34093 13.3375
128 2 -0.768316 6.2758 13.2082 0.647626
129 2 -0.77161 6.29703 11.4245 2.70733
130 2 -0.705808 0.803912 7.85871 8.09018
131 2 -0.938636 13.0162 5.9356 8.32718
132 2 -0.835816 13.2729 7.59935 6.39131
133 2 -0.847998 1.06392 9.72318 10.0137
134 2 -0.571178 3.29238 8.15591 9.62603
135 2 -0.70308 2.43531 9.88215 7.83625
136 2 -0.824301 0.789378 11.7886 11.4424
137 2 -0.638875 13.2578 10.1847 11.5245
138 2 -0.761163 13.4093 11.143 9.54363
139 2 -0.627354 4.60876 7.60117 11.5713
140 2 -0.776545 6.00523 8.09278 13.6491
141 2 -0.752824 6.00504 10.0156 11.6949
142 2 -0.794547 4.05641 11.5434 8.15274
143 2 -0.833323 5.92715 13.1087 7.63892
144 2 -0.692609 6.44087 12.0271 9.7624
145 2 -0.700095 8.08741 1.34405 0.500909
146 2 -0.634018 8.02423 13.7009 12.7588
147 2 -0.598789 8.1129 2.96352 2.43989
148 2 -0.680621 9.40964 1.13404 2.84578
149 2 -0.719838 10.1989 2.96216 1.05666
150 2 -0.729695 7.59404 4.4778 4.70294
151 2 -0.849407 9.44634 4.22168 6.42803
152 2 -0.631814 9.41187 6.40821 4.71589
153 2 -0.696706 7.42318 5.98227 6.59565
154 2 -0.873278 11.5897 1.28644 4.31241
155 2 -0.800972 10.1506 13.5552 4.55237
156 2 -0.743553 11.2821 13.9632 2.2215
157 2 -0.789201 11.577 2.5108 6.52039
158 2 -0.649541 12.1469 4.13801 0.990389
159 2 -0.672212 10.0663 5.10465 13.7908
160 2 -0.700931 11.8605 3.26462 13.1376
161 2 -0.619793 11.3038 5.66865 3.17001
162 2 -0.760358 7.93086 0.577852 7.84176
163 2 -0.766848 7.97395 12.9967 6.24787
164 2 -0.632812 8.66505 2.61794 9.83216
165 2 -0.59879 9.98826 0.352069 9.59722
166 2 -0.592897 9.28711 2.4615 7.79439
167 2 -0.648849 7.76197 4.31077 12.2684
168 2 -0.838027 7.74462 6.15466 13.4695
169 2 -0.89307 9.69419 6.1194 11.773
170 2 -0.732489 11.3844 1.34132 11.4511
171 2 -0.624789 10.2983 12.9789 11.5214
172 2 -0.629586 12.377 13.3433 9.83136
173 2 -0.826308 10.9622 4.49647 7.9991
174 2 -0.782887 11.1661 6.34977 9.89166
175 2 -0.777874 8.36266 7.92558 0.668703
176 2 -0.758803 8.15351 9.47233 2.43765
177 2 -0.754132 10.245 7.8067 2.40431
178 2 -0.642145 10.22 10.0925 1.14005
179 2 -0.828368 8.56654 11.3123 4.12327
180 2 -0.771975 9.87812 11.8066 6.11156
181 2 -0.655983 11.816 7.83813 4.34965
182 2 -0.735648 11.5052 9.84171 5.98689
183 2 -0.737327 12.1963 12.0592 0.496385
184 2 -0.694177 10.0925 12.3256 13.8013
185 2 -0.733878 11.2679 10.0484 13.312
186 2 -0.802905 8.19712 7.81663 8.17123
187 2 -0.75268 7.61982 9.77448 9.40258
188 2 -0.814475 9.66314 8.25948 10.1185
189 2 -0.728517 10.1372 9.64299 8.10348
190 2 -0.71824 8.39632 11.4627 11.3236
191 2 -0.76638 11.5905 8.01119 11.5891
192 2 -0.695696 11.4687 11.5091 7.86213
ITEM: TIMESTEP
71000
ITEM: NUMBER OF ATOMS
192
ITEM: BOX BOUNDS pp pp pp
2.2524954799120422e-02 1.4277475045200813e+01
2.2524954799120422e-02 1.4277475045200813e+01
2.2524954799120422e-02 1.4277475045200813e+01
ITEM: ATOMS id type q x y z
1 1 1.21218 14.1216 14.082 14.0768
2 1 1.31728 1.5637 1.53317 1.55465
3 1 1.32269 14.0609 3.29466 3.419
4 1 1.57212 1.42823 5.39741 5.06943
5 1 1.31398 3.56156 0.358208 3.682
6 1 1.42541 5.21111 2.26052 5.91543
7 1 1.2988 3.68567 3.20308 14.0965
8 1 1.64568 5.31583 4.80626 1.57019
9 1 1.37332 0.0537932 14.1814 7.16741
10 1 1.60475 2.19074 1.71847 9.07312
11 1 1.65062 0.174044 3.48968 10.521
12 1 1.30526 1.97967 5.07158 12.3945
13 1 1.51522 3.68677 14.0521 10.8844
14 1 1.46488 5.96723 1.37906 12.4544
15 1 1.24332 3.3433 4.39976 7.28354
16 1 1.23041 5.65114 5.6811 9.03719
17 1 1.15579 0.28034 6.90089 14.0795
18 1 1.55972 1.63947 9.06801 1.61579
19 1 1.34978 0.0316184 10.9779 3.66512
20 1 1.54484 2.06062 12.6113 5.42394
21 1 1.53408 3.37791 6.74554 2.9998
22 1 1.43851 4.6774 8.70826 5.17877
23 1 1.5019 3.70985 11.0004 0.408848
24 1 1.39886 5.78861 12.8469 2.0841
25 1 1.57088 0.244002 7.3522 6.96156
26 1 1.4282 1.80007 9.1468 9.03714
27 1 1.6022 14.1917 10.7063 10.8594
28 1 1.63371 1.83494 12.2609 12.5011
29 1 1.46984 3.68533 7.25322 10.8097
30 1 1.5382 5.5208 9.02017 13.0071
31 1 1.38115 3.47771 10.7136 7.09566
32 1 1.35902 5.3332 12.5782 8.66824
33 1 1.66524 7.65434 -0.013522 0.18903
34 1 1.53096 8.9488 2.06201 2.1432
35 1 1.64841 6.93437 3.54542 3.62144
36 1 1.41449 8.8415 5.36552 5.02612
37 1 1.2537 10.5794 -0.0284124 3.78336
38 1 1.34826 12.6105 1.73724 5.59069
39 1 1.52816 10.5684 3.86827 0.243924
40 1 1.3467 12.6608 5.6959 1.87237
41 1 1.28703 7.19338 0.149605 6.97062
42 1 1.70345 8.99446 1.79149 8.88535
43 1 1.42138 7.42456 3.42071 10.8399
44 1 1.48923 9.05979 5.48926 12.4642
45 1 1.53732 10.5376 0.198069 10.8327
46 1 1.43113 12.5099 2.13601 12.4493
47 1 1.57403 10.5935 3.71856 7.18981
48 1 1.51206 12.7058 5.3486 8.69694
49 1 1.48929 6.74438 6.61371 14.143
50 1 1.38645 8.73621 8.68681 1.7937
51 1 1.48482 6.92073 10.4155 3.76591
52 1 1.47527 8.89298 12.272 5.56023
53 1 1.36573 10.7242 7.39341 3.61335
54 1 1.42047 12.678 9.09267 5.30856
55 1 1.51745 10.4003 10.2594 14.1431
56 1 1.09031 12.129 12.301 1.55721
57 1 1.41102 6.97748 7.2459 6.8545
58 1 1.29298 8.95265 8.98052 8.72621
59 1 1.16917 7.13965 10.3348 10.7932
60 1 1.64537 9.02848 12.4257 12.4877
61 1 1.31094 10.7417 7.00728 10.3035
62 1 1.38804 12.2639 8.72329 12.3637
63 1 1.34763 11.1747 10.8295 7.33394
64 1 1.63144 12.6741 12.7546 9.25438
65 2 -0.683085 0.77846 0.192646 1.01724
66 2 -0.732758 0.677996 13.1546 13.0586
67 2 -0.671774 13.4081 1.02669 12.8374
68 2 -0.531235 12.5986 13.9373 0.682534
69 2 -0.716776 0.502834 2.3265 2.35719
70 2 -0.676662 2.75627 1.22419 2.68017
71 2 -0.610277 2.4124 2.41533 0.310338
72 2 -0.737128 0.444309 4.26808 4.65924
73 2 -0.612379 13.8822 2.09503 4.55358
74 2 -0.67809 13.0814 4.34038 2.71748
75 2 -0.750517 2.37857 5.24309 6.1777
76 2 -0.756256 2.44319 6.12066 4.0237
77 2 -0.779359 0.717617 6.70201 5.70501
78 2 -0.596987 4.14529 1.36632 5.12654
79 2 -0.676756 3.24826 13.1996 4.54855
80 2 -0.60975 4.82282 14.08 2.93774
81 2 -0.709101 4.47658 3.47286 6.63922
82 2 -0.677443 5.6948 3.21885 4.71245
83 2 -0.711745 6.5019 1.47215 5.98759
84 2 -0.696044 4.38077 3.54389 1.31727
85 2 -0.744278 2.6693 4.29881 13.5054
86 2 -0.583101 4.43788 2.03967 13.1048
87 2 -0.804521 4.11427 5.61076 2.29751
88 2 -0.876736 6.47018 4.52698 2.4959
89 2 -0.927102 5.73844 5.5998 0.408209
90 2 -0.650387 1.26615 0.974986 8.17565
91 2 -0.722446 1.51134 13.7027 6.37778
92 2 -0.786729 13.0906 0.723843 6.51609
93 2 -0.815992 13.7041 13.3175 8.21567
94 2 -0.780781 0.964936 2.2671 10.0161
95 2 -0.804921 3.26745 0.893441 9.79794
96 2 -0.669473 2.79696 2.92808 8.43677
97 2 -0.843975 0.994483 4.39608 11.4371
98 2 -0.794471 13.2431 2.78784 11.3322
99 2 -0.790515 13.613 4.35836 9.49031
100 2 -0.531752 1.56096 6.81881 13.0095
101 2 -0.5846 2.86937 5.79287 11.2198
102 2 -0.710211 5.08238 0.287339 11.6494
103 2 -0.872562 2.81241 13.1772 11.7112
104 2 -0.693507 4.35486 12.9496 9.72201
105 2 -0.758307 6.9554 1.11922 13.6387
106 2 -0.771122 6.42356 2.59153 11.7951
107 2 -0.598422 4.09426 5.27682 8.43022
108 2 -0.664775 4.87781 6.55257 10.2734
109 2 -0.671212 6.47771 4.43428 9.7925
110 2 -0.727835 6.21973 6.90027 8.16835
111 2 -0.657292 1.09107 8.28329 0.473784
112 2 -0.730224 13.9336 6.17075 1.23996
113 2 -0.636636 13.3631 7.70878 13.3734
114 2 -0.719673 0.765806 9.78843 2.72506
115 2 -0.743028 2.48581 7.88592 2.25754
116 2 -0.782017 2.81516 10.0661 1.13949
117 2 -0.720615 1.1169 12.0952 4.288
118 2 -0.763507 13.6113 10.3298 4.83646
119 2 -0.615113 13.3441 11.6314 2.31461
120 2 -0.778881 2.4522 11.4061 6.2285
121 2 -0.696049 4.35903 7.64556 4.05307
122 2 -0.6995 3.53876 9.3867 5.91345
123 2 -0.736621 5.86306 9.83637 4.70836
124 2 -0.690304 5.64265 7.74345 5.93168
125 2 -0.672818 4.53642 12.1044 1.17614
126 2 -0.757733 2.58084 11.7874 13.7746
127 2 -0.783464 4.8456 9.83458 -0.220969
128 2 -0.81849 6.44253 13.7138 0.972207
129 2 -0.793596 6.36955 11.6371 2.85477
130 2 -0.742755 1.00855 7.85254 8.17071
131 2 -0.64256 13.9089 5.95172 7.80571
132 2 -0.80317 13.3216 8.18189 6.44108
133 2 -0.809945 0.746047 10.0317 9.83433
134 2 -0.723151 2.70318 8.33665 10.1958
135 2 -0.800839 2.64733 10.1787 8.17737
136 2 -0.800836 1.11135 11.0407 11.835
137 2 -0.733115 12.9978 9.94433 11.5026
138 2 -0.788025 13.5711 12.1432 10.2879
139 2 -0.618778 4.42113 7.73821 12.0368
140 2 -0.803696 6.47528 7.87893 13.1953
141 2 -0.748518 5.86415 9.97758 11.9817
142 2 -0.694621 4.69058 11.996 7.44093
143 2 -0.616558 5.79649 13.877 7.95111
144 2 -0.503352 6.68808 11.5941 9.68034
145 2 -0.783546 8.51016 0.985427 1.04769
146 2 -0.952142 8.34362 13.2831 13.4662
147 2 -0.841855 7.68992 2.41603 2.86387
148 2 -0.645251 10.2194 1.41529 3.01084
149 2 -0.777341 9.69097 3.23163 1.29992
150 2 -0.864169 7.99083 4.15636 4.39117
151 2 -0.661893 10.0051 4.54483 5.9086
152 2 -0.76117 9.66105 6.49686 4.4825
153 2 -0.686152 8.06677 6.10651 6.40194
154 2 -0.656866 11.5814 0.813135 4.66779
155 2 -0.677217 9.24511 13.4632 4.43219
156 2 -0.57911 11.1382 12.9143 2.99414
157 2 -0.681979 11.7414 3.12171 6.32725
158 2 -0.681827 11.4819 5.04243 0.947201
159 2 -0.753897 9.80585 4.88145 13.7269
160 2 -0.728654 11.676 2.84921 13.6298
161 2 -0.650622 12.1423 6.73521 3.16718
162 2 -0.786621 8.08552 0.805011 8.08504
163 2 -0.728142 7.94392 13.1138 6.37007
164 2 -0.840339 8.35504 2.39111 10.1001
165 2 -0.707618 10.1202 0.781253 9.47231
166 2 -0.907206 9.71181 2.84861 8.12612
167 2 -0.663939 8.36642 4.03846 11.9306
168 2 -0.7527 7.84995 5.96574 13.2527
169 2 -0.793764 10.085 6.00492 11.3972
170 2 -0.642129 10.9844 1.53226 11.4654
171 2 -0.780193 9.43333 13.4952 11.2859
172 2 -0.747053 11.7409 13.6075 10.1874
173 2 -0.776701 11.4378 4.51544 8.17904
174 2 -0.705608 11.943 6.58183 9.23883
175 2 -0.600096 7.81203 7.52129 1.07569
176 2 -0.760087 7.62593 9.39943 2.91172
177 2 -0.765346 9.99027 8.0255 2.33727
178 2 -0.764286 9.18404 9.5815 0.499271
179 2 -0.682497 8.10686 11.1296 4.91396
180 2 -0.642374 9.85513 11.7646 6.72074
181 2 -0.648646 11.366 8.61509 4.54268
182 2 -0.646316 11.6908 10.1939 5.99467
183 2 -0.689454 11.2193 11.066 1.01919
184 2 -0.822851 10.0428 11.5067 13.224
185 2 -0.805287 11.2153 9.1419 13.2754
186 2 -0.641507 7.65075 8.4357 7.29214
187 2 -0.685873 8.32559 9.78706 9.865
188 2 -0.675605 9.53898 7.79114 9.4945
189 2 -0.572608 10.3849 9.41193 8.00945
190 2 -0.645639 8.17031 11.3739 11.755
191 2 -0.619342 11.6924 8.26453 10.9549
192 2 -0.77768 11.684 11.8202 8.3644
ITEM: TIMESTEP
72000
ITEM: NUMBER OF ATOMS
192
ITEM: BOX BOUNDS pp pp pp
2.0451016040922809e-02 1.4279548983959030e+01
2.0451016040922809e-02 1.4279548983959030e+01
2.0451016040922809e-02 1.4279548983959030e+01
ITEM: ATOMS id type q x y z
1 1 1.38083 0.209632 0.342861 14.3104
2 1 1.49973 2.07159 2.02427 1.84456
3 1 1.61753 0.113333 3.53717 3.82316
4 1 1.32693 1.72129 5.61334 5.40216
5 1 1.23985 3.8341 14.1312 3.56375
6 1 1.29699 5.16733 1.64145 5.68993
7 1 1.39224 3.80033 3.84144 0.120368
8 1 1.82098 5.48129 5.62382 1.75041
9 1 1.45401 14.0929 0.0383736 6.9492
10 1 1.48593 1.81031 1.69982 8.70125
11 1 1.61302 0.0343377 3.67956 10.6675
12 1 1.33797 1.74433 5.77038 12.5856
13 1 1.34773 3.12083 0.0799289 10.7684
14 1 1.32996 5.05806 1.87222 12.3313
15 1 1.62566 3.54757 3.883 7.23282
16 1 1.45313 5.46962 5.43581 9.05636
17 1 1.32723 14.2553 7.34995 0.280153
18 1 1.74916 1.89238 9.06197 2.05355
19 1 1.31835 14.1937 10.81 3.73229
20 1 1.29792 1.81856 12.3781 5.41496
21 1 1.5449 3.76254 7.26347 3.67583
22 1 1.60946 5.60247 8.97792 5.14703
23 1 1.5056 3.23405 10.7489 14.1965
24 1 1.38946 5.43994 12.3239 1.59276
25 1 1.46585 14.0305 7.18265 7.17325
26 1 1.41803 1.83752 8.85145 8.72748
27 1 1.49835 -0.104227 10.7551 10.5177
28 1 1.40203 1.37631 12.4911 12.5213
29 1 1.36903 3.57967 7.08147 10.6948
30 1 1.43096 5.41365 9.11006 12.5514
31 1 1.46565 3.85142 10.5311 7.16335
32 1 1.51185 5.13529 12.6325 9.12653
33 1 1.42384 6.93537 0.0897939 14.0855
34 1 1.50575 8.70336 1.86727 1.68568
35 1 1.428 6.81166 3.33735 3.48569
36 1 1.65297 8.72281 5.01324 5.28226
37 1 1.45945 10.8111 0.144481 3.34278
38 1 1.40902 12.1122 2.21998 5.58273
39 1 1.3255 10.6438 3.74616 0.329908
40 1 1.29469 12.6273 5.4759 2.30322
41 1 1.29562 7.3087 13.6599 7.07856
42 1 1.56421 8.51786 1.53571 8.93627
43 1 1.33514 7.35907 3.58412 11.0653
44 1 1.74063 9.10571 5.40708 12.7835
45 1 1.35853 10.713 -0.000596939 10.6899
46 1 1.33427 12.4126 2.22039 12.6213
47 1 1.68074 10.1676 3.46972 7.36318
48 1 1.54023 12.3682 5.26139 8.75896
49 1 1.76238 7.20043 7.17134 -0.0594357
50 1 1.54263 9.12415 8.66617 1.54027
51 1 1.46585 7.43817 10.5015 3.43694
52 1 1.64296 9.42912 12.401 5.1629
53 1 1.57285 10.3007 6.94672 3.68278
54 1 1.39669 12.5548 8.68166 4.98961
55 1 1.50911 10.9985 10.6786 14.3898
56 1 1.3571 12.9479 12.5537 1.7093
57 1 1.5935 7.11496 7.13713 7.09617
58 1 1.32861 9.06374 9.04858 8.88326
59 1 1.53206 7.01335 10.7071 10.5515
60 1 1.43202 8.91885 12.3504 12.5232
61 1 1.54804 10.537 6.95846 10.6642
62 1 1.26742 12.3923 9.01175 12.2747
63 1 1.35762 11.0859 10.548 6.99272
64 1 1.24177 12.3264 12.604 8.87438
65 2 -0.756099 1.26298 1.31078 0.54647
66 2 -0.605563 0.775861 13.9491 12.7372
67 2 -0.592307 13.8086 1.36468 13.3295
68 2 -0.786976 14.143 13.4794 0.967698
69 2 -0.778433 1.15504 2.73711 2.93937
70 2 -0.6936 2.87603 1.23417 2.83235
71 2 -0.741033 3.2361 2.83485 1.29072
72 2 -0.755081 1.20165 4.35457 4.59051
73 2 -0.770284 13.1772 3.17043 4.90588
74 2 -0.846482 13.7139 4.48115 2.96779
75 2 -0.698282 3.02642 4.89835 6.32794
76 2 -0.719623 2.81953 6.85742 4.8728
77 2 -0.686897 0.892917 5.92763 6.60751
78 2 -0.683798 4.7948 0.441792 4.72921
79 2 -0.642394 2.96432 13.0106 4.42849
80 2 -0.705577 4.43739 12.9123 2.66174
81 2 -0.739105 4.50967 2.86215 6.50618
82 2 -0.62243 5.77948 2.76316 4.77033
83 2 -0.536276 6.53618 0.511181 6.37296
84 2 -0.878625 4.96359 4.80384 0.655913
85 2 -0.639402 2.66021 5.00006 13.5517
86 2 -0.681945 4.05959 2.70666 13.3631
87 2 -0.831001 4.33125 6.23689 2.62215
88 2 -0.789886 6.28852 4.73929 2.72953
89 2 -0.894761 6.36686 6.66975 1.23165
90 2 -0.68549 0.635716 0.953614 7.90685
91 2 -0.708742 1.01594 13.4664 6.36978
92 2 -0.660239 12.7786 0.845651 6.15765
93 2 -0.6768 13.5057 13.411 8.01407
94 2 -0.691688 0.93031 2.60061 9.76911
95 2 -0.734602 2.35303 0.408168 9.47087
96 2 -0.791634 2.45016 2.74605 7.78616
97 2 -0.699528 0.910288 4.50606 11.4784
98 2 -0.75838 13.2071 2.99154 11.4649
99 2 -0.790611 13.5167 4.63794 9.61282
100 2 -0.690398 1.32994 6.96461 13.3073
101 2 -0.654805 2.80539 5.89786 11.2595
102 2 -0.7088 4.14358 1.2512 11.1631
103 2 -0.628159 2.58981 13.0029 11.668
104 2 -0.696436 4.44912 13.3987 10.1504
105 2 -0.723569 5.83469 0.709103 13.1124
106 2 -0.635555 6.10929 3.19554 11.9979
107 2 -0.787124 4.19813 4.7377 8.26857
108 2 -0.704776 4.87753 6.32987 10.1734
109 2 -0.635321 6.48457 4.08658 9.79657
110 2 -0.805987 6.29221 6.19667 8.04404
111 2 -0.755942 0.845673 8.04417 1.44799
112 2 -0.627804 13.3218 6.29962 0.851408
113 2 -0.553644 13.2762 8.17458 13.571
114 2 -0.779409 0.73022 9.96078 2.53155
115 2 -0.904557 2.88152 8.31473 2.8785
116 2 -0.879538 2.48891 9.80217 0.940326
117 2 -0.71587 0.998584 11.1524 5.01677
118 2 -0.766657 12.9267 10.0764 4.21726
119 2 -0.717836 13.7015 12.1499 2.97325
120 2 -0.596272 2.72338 11.4515 6.63698
121 2 -0.781528 5.15639 7.90203 4.11009
122 2 -0.834016 4.59316 9.82076 5.9573
123 2 -0.77283 6.91469 9.51908 4.54717
124 2 -0.764904 6.11608 8.12389 6.341
125 2 -0.706422 4.68857 11.4621 0.39182
126 2 -0.75905 2.25361 11.3376 13.188
127 2 -0.635114 3.95064 9.70373 13.2986
128 2 -0.783231 6.31802 13.3757 0.960482
129 2 -0.708221 6.2463 11.1211 2.58286
130 2 -0.667224 0.373187 7.73091 8.47782
131 2 -0.742216 12.9622 6.31383 7.76134
132 2 -0.779569 13.4871 7.78688 5.86752
133 2 -0.659003 1.17089 9.94101 9.59581
134 2 -0.688022 2.75476 7.97687 9.67792
135 2 -0.730738 2.92947 9.48493 7.90914
136 2 -0.719466 0.304097 11.8057 11.5877
137 2 -0.691839 13.4362 9.49875 11.2021
138 2 -0.637624 13.0118 11.4274 9.91385
139 2 -0.575698 4.7379 8.38405 11.4299
140 2 -0.767487 6.21766 7.82305 13.2175
141 2 -0.797981 6.35105 10.0908 11.7128
142 2 -0.584961 4.12316 11.4719 8.5254
143 2 -0.68108 5.65142 13.0847 7.71584
144 2 -0.806223 5.9505 11.4689 9.71403
145 2 -0.701084 7.72732 1.3956 0.491297
146 2 -0.702652 7.62312 13.1973 13.3186
147 2 -0.838782 7.70303 2.47979 2.66273
148 2 -0.814852 9.84484 0.889234 2.35248
149 2 -0.773153 9.30664 2.98993 0.761732
150 2 -0.751409 7.94717 3.96999 4.54079
151 2 -0.85613 9.47602 4.07501 6.14658
152 2 -0.843502 9.69936 6.04865 4.68007
153 2 -0.751627 8.10435 6.29167 6.31428
154 2 -0.562594 11.831 1.40283 4.02679
155 2 -0.849628 10.2765 13.5543 4.43269
156 2 -0.670973 12.0548 13.8054 2.5525
157 2 -0.767207 11.049 2.34156 6.58273
158 2 -0.498242 11.7504 4.67594 1.0436
159 2 -0.75529 10.3425 4.96629 13.6878
160 2 -0.731856 11.9163 3.0199 13.7302
161 2 -0.72111 11.2521 5.92694 2.76003
162 2 -0.787515 7.64761 0.523916 8.20672
163 2 -0.759087 8.51 13.2503 6.19342
164 2 -0.677199 8.04394 2.13688 10.2643
165 2 -0.701339 9.73188 0.935598 9.96642
166 2 -0.89989 9.27634 2.49402 8.05046
167 2 -0.828931 8.43665 4.4296 11.8342
168 2 -0.947766 8.01655 6.12497 13.4963
169 2 -0.825206 9.56592 6.40613 11.7203
170 2 -0.571573 11.56 1.10407 11.4492
171 2 -0.700675 9.80541 13.5244 11.9574
172 2 -0.706413 11.9519 13.5601 10.1071
173 2 -0.786973 11.2971 4.45584 7.85859
174 2 -0.750148 11.142 5.99358 9.58221
175 2 -0.901442 8.08586 8.28498 0.50245
176 2 -0.75271 8.35484 9.64619 2.67154
177 2 -0.87348 9.55581 7.72483 2.60495
178 2 -0.781027 10.5432 9.60996 1.03452
179 2 -0.801156 8.40564 11.5947 4.49394
180 2 -0.838317 10.3864 11.6714 6.09107
181 2 -0.715262 11.6054 7.54612 4.57523
182 2 -0.629909 11.9305 9.35913 6.39315
183 2 -0.748676 12.2388 11.5672 0.721732
184 2 -0.770246 9.88537 11.5874 13.5291
185 2 -0.729261 11.9079 10.009 13.3477
186 2 -0.642674 7.8912 8.04378 8.14979
187 2 -0.749672 7.90084 9.81978 9.56407
188 2 -0.746751 9.98827 8.30411 10.0003
189 2 -0.652505 9.9939 9.47075 7.5372
190 2 -0.750722 8.36827 11.5537 11.3654
191 2 -0.622792 11.6603 7.37703 11.6267
192 2 -0.669657 11.9875 11.1892 8.18099
ITEM: TIMESTEP
73000
ITEM: NUMBER OF ATOMS
192
ITEM: BOX BOUNDS pp pp pp
1.7481926788213364e-02 1.4282518073211708e+01
1.7481926788213364e-02 1.4282518073211708e+01
1.7481926788213364e-02 1.4282518073211708e+01
ITEM: ATOMS id type q x y z
1 1 1.30571 14.2181 14.2031 0.0528909
2 1 1.38765 1.88433 1.99471 1.52779
3 1 1.29706 13.8235 3.55424 3.27175
4 1 1.45375 1.78292 5.52946 5.14406
5 1 1.37937 3.51399 0.0367158 3.38775
6 1 1.67825 5.17923 1.86197 5.3754
7 1 1.60247 3.84496 3.68006 14.1885
8 1 1.58429 5.22702 5.39838 2.0094
9 1 1.26648 0.101567 14.1744 7.36688
10 1 1.49459 2.29596 1.46516 9.1192
11 1 1.34192 0.25592 3.33808 10.8748
12 1 1.5344 1.93314 5.39118 12.5762
13 1 1.33664 4.06533 14.2564 11.0422
14 1 1.68031 5.83749 2.15087 12.3498
15 1 1.47709 3.23785 3.64579 7.03393
16 1 1.36855 5.3515 5.22387 8.53716
17 1 1.73147 14.2613 7.08255 14.2889
18 1 1.48254 1.50477 9.01342 1.97817
19 1 1.75172 13.8991 10.7635 3.60259
20 1 1.41032 1.62678 12.4782 5.19633
21 1 1.74271 3.49595 7.28513 3.47188
22 1 1.59474 5.35363 8.94885 5.25947
23 1 1.43693 3.65746 10.4404 0.0549303
24 1 1.48622 5.3442 12.4836 1.75803
25 1 1.56829 0.492802 7.39336 7.20432
26 1 1.58142 2.43304 9.17099 9.05397
27 1 1.32738 0.106088 10.4289 10.6964
28 1 1.45782 1.93587 12.3159 12.4754
29 1 1.56254 3.79884 6.91724 10.5812
30 1 1.26886 5.55769 8.66639 12.6613
31 1 1.56539 3.89375 10.932 7.06988
32 1 1.26134 5.46273 12.8104 8.85638
33 1 1.35688 7.17644 0.171777 14.1635
34 1 1.34025 8.8587 1.69464 2.05634
35 1 1.44281 6.9775 3.75788 3.95252
36 1 1.64924 9.04697 5.69233 5.33182
37 1 1.55873 10.5389 14.1596 3.89937
38 1 1.31329 12.4144 1.78293 5.37685
39 1 1.4561 10.3875 3.3474 14.1695
40 1 1.42111 11.9519 5.57702 1.52449
41 1 1.44372 7.20919 0.228387 7.02309
42 1 1.25794 9.2202 1.72366 8.64114
43 1 1.4039 7.39422 3.79651 10.3086
44 1 1.48121 9.08015 5.23484 12.1896
45 1 1.47316 10.4225 13.9106 10.7836
46 1 1.36969 12.2799 1.63429 12.2957
47 1 1.38762 10.9425 4.11792 7.19382
48 1 1.3816 13.0385 5.62409 9.10632
49 1 1.29917 7.384 6.8209 0.0966646
50 1 1.26424 8.43854 9.0136 1.94075
51 1 1.60931 6.88829 11.1108 3.90382
52 1 1.64314 8.79445 12.3805 5.70134
53 1 1.56608 10.7704 7.41973 3.54239
54 1 1.48888 12.6694 8.79547 5.45491
55 1 1.4317 10.6067 10.776 14.1127
56 1 1.38335 12.2331 12.4965 1.7954
57 1 1.612 7.14186 7.16425 7.06459
58 1 1.53575 8.65821 8.72799 9.1662
59 1 1.62279 6.75534 10.6198 10.6554
60 1 1.66136 8.67151 12.339 12.511
61 1 1.56482 10.8512 7.24994 10.9396
62 1 1.59702 12.6248 9.03825 12.7057
63 1 1.6579 10.474 10.2473 7.11192
64 1 1.47403 12.2593 12.2243 8.66869
65 2 -0.71596 0.952359 1.06827 0.660679
66 2 -0.671027 0.829632 13.134 13.2387
67 2 -0.618794 13.3176 0.821251 13.2998
68 2 -0.706026 13.4819 13.0243 1.04557
69 2 -0.616103 0.629985 2.7303 2.47986
70 2 -0.658159 2.8378 1.23814 2.58513
71 2 -0.743711 3.18125 2.61605 0.882046
72 2 -0.597744 0.846973 4.51635 4.10097
73 2 -0.666296 12.9709 2.48432 3.94845
74 2 -0.593484 12.999 4.15362 2.02404
75 2 -0.758937 2.18381 4.36881 6.07524
76 2 -0.895263 3.06517 6.26869 4.42932
77 2 -0.795046 0.871438 6.44776 5.99822
78 2 -0.764872 4.25502 1.12518 4.36706
79 2 -0.681932 2.75234 12.933 3.99302
80 2 -0.715324 4.68749 13.6502 2.60721
81 2 -0.8108 4.34728 2.72348 6.31631
82 2 -0.791665 6.0407 3.06949 4.86075
83 2 -0.800296 6.15546 1.02761 6.24023
84 2 -0.756747 4.78609 4.29469 0.912266
85 2 -0.879554 2.86603 4.7153 13.6472
86 2 -0.841427 5.02172 3.0106 13.2002
87 2 -0.806139 4.0621 6.57147 2.20081
88 2 -0.778637 5.91932 4.5474 2.98593
89 2 -0.715318 6.44935 5.96454 1.44101
90 2 -0.749477 1.27839 0.535725 8.39771
91 2 -0.727224 0.872138 13.3502 6.12256
92 2 -0.621197 13.5373 0.842826 6.03745
93 2 -0.723125 13.4032 13.0426 7.92214
94 2 -0.663146 1.26773 2.4769 9.9073
95 2 -0.850506 3.25507 1.03947 10.11
96 2 -0.715192 2.592 2.84225 8.08077
97 2 -0.730292 1.01692 4.43831 11.9212
98 2 -0.715832 13.2592 2.76077 11.7321
99 2 -0.678863 13.9196 4.4906 9.88485
100 2 -0.841633 1.0272 6.49027 13.3966
101 2 -0.716473 2.67055 5.95482 11.1811
102 2 -0.758826 5.04623 0.882032 11.9666
103 2 -0.682581 3.10695 13.1804 12.006
104 2 -0.632072 4.94673 12.9935 10.3723
105 2 -0.797945 6.7462 1.5561 13.3956
106 2 -0.751915 6.5121 2.52712 10.9943
107 2 -0.650919 3.81688 4.91644 7.9826
108 2 -0.609779 4.64271 5.72932 9.98072
109 2 -0.694609 6.34754 4.28848 9.22416
110 2 -0.694062 6.17595 6.53025 8.14319
111 2 -0.791796 0.552774 8.11239 1.04245
112 2 -0.805174 13.1844 6.27582 0.738877
113 2 -0.856597 13.7144 8.20209 13.3285
114 2 -0.846618 0.500442 9.96922 2.58769
115 2 -0.836836 2.29669 8.06388 2.99423
116 2 -0.67401 2.87215 10.0283 1.3281
117 2 -0.805337 0.749143 11.4286 4.50961
118 2 -0.888682 13.0876 9.73169 4.34245
119 2 -0.805312 12.836 11.696 3.1934
120 2 -0.71682 2.88973 11.5125 6.13871
121 2 -0.835578 4.55306 8.25657 3.96102
122 2 -0.778216 4.45978 9.68858 6.36489
123 2 -0.939133 6.03131 10.1078 4.57513
124 2 -0.8611 6.1048 8.00894 6.24091
125 2 -0.719797 4.43589 11.7384 0.602565
126 2 -0.732998 2.69292 11.1763 13.2903
127 2 -0.667088 4.43911 9.12111 13.8604
128 2 -0.58871 6.36558 13.4271 0.954149
129 2 -0.823215 6.37688 11.9544 2.75274
130 2 -0.729467 1.35116 8.2652 8.19281
131 2 -0.687117 13.9205 6.85466 8.50713
132 2 -0.810732 13.8445 8.13227 6.30339
133 2 -0.760658 1.41357 9.78752 9.99085
134 2 -0.806166 3.2343 7.92289 9.59595
135 2 -0.764048 3.4323 10.114 8.24566
136 2 -0.647178 1.11613 11.4542 11.2869
137 2 -0.735656 13.2911 10.3023 11.8076
138 2 -0.607183 13.1997 11.5319 9.52389
139 2 -0.694059 4.89197 7.52145 11.4218
140 2 -0.678331 6.35338 7.81145 13.6972
141 2 -0.732289 5.85273 9.98238 11.6136
142 2 -0.719643 4.25403 12.1063 8.16191
143 2 -0.705019 6.25346 14.1108 8.17132
144 2 -0.679492 6.48444 11.529 9.31311
145 2 -0.641832 8.30487 0.511025 0.910223
146 2 -0.738289 7.62637 13.0277 13.378
147 2 -0.576136 7.53886 2.24905 3.03866
148 2 -0.740466 9.68313 0.920706 3.12264
149 2 -0.743693 9.75043 2.70722 1.18585
150 2 -0.771955 8.02852 4.81627 4.57177
151 2 -0.714449 10.0848 4.61329 6.03457
152 2 -0.882704 9.76715 6.53685 4.4154
153 2 -0.840886 8.00727 6.0165 6.47363
154 2 -0.732438 11.4143 0.752328 4.73263
155 2 -0.829993 9.92293 13.2267 4.98587
156 2 -0.631297 11.4921 13.7353 2.51047
157 2 -0.645707 11.5593 3.00258 6.25919
158 2 -0.680475 10.9756 4.77802 0.54845
159 2 -0.776454 9.54658 3.90166 12.9204
160 2 -0.701643 11.4568 2.39119 13.4953
161 2 -0.87231 11.4123 6.68511 2.44823
162 2 -0.626447 7.87817 1.44327 7.64823
163 2 -0.769704 8.4475 13.3071 6.82396
164 2 -0.624632 8.39855 2.88266 9.60006
165 2 -0.697425 10.1068 0.810981 9.66184
166 2 -0.612913 9.96536 2.94588 7.8647
167 2 -0.746152 8.22495 5.07491 10.8581
168 2 -0.730133 8.26518 5.91195 13.3541
169 2 -0.773488 10.2563 6.25073 11.9381
170 2 -0.757062 11.6042 0.360409 11.6184
171 2 -0.894831 9.25194 13.1531 11.4167
172 2 -0.678387 11.1201 13.0795 9.57447
173 2 -0.731724 12.0595 5.06888 8.00029
174 2 -0.686614 11.8401 6.41991 9.93097
175 2 -0.67489 8.09787 8.17752 0.725006
176 2 -0.691175 7.96079 10.1201 3.15052
177 2 -0.673754 9.67827 8.3611 2.91141
178 2 -0.526023 9.57749 9.84094 0.959041
179 2 -0.890637 7.51639 12.1904 4.9323
180 2 -0.858678 9.50351 11.2035 6.48761
181 2 -0.669876 11.7343 7.52938 4.89117
182 2 -0.805161 11.2488 9.41239 6.1
183 2 -0.725809 11.082 11.9148 0.871093
184 2 -0.853007 9.88695 11.7271 13.1152
185 2 -0.789672 11.4601 9.58902 13.5684
186 2 -0.820475 8.01835 7.91774 8.04929
187 2 -0.756183 7.45448 9.30865 10.0694
188 2 -0.755833 9.67168 7.77809 10.0016
189 2 -0.771421 9.57698 9.76968 8.24801
190 2 -0.761729 7.57062 11.2489 11.7058
191 2 -0.825258 11.7091 8.2292 11.797
192 2 -0.752245 11.5852 10.9167 8.0787
ITEM: TIMESTEP
74000
ITEM: NUMBER OF ATOMS
192
ITEM: BOX BOUNDS pp pp pp
1.3887144870883716e-02 1.4286112855129122e+01
1.3887144870883716e-02 1.4286112855129122e+01
1.3887144870883716e-02 1.4286112855129122e+01
ITEM: ATOMS id type q x y z
1 1 1.433 -0.0167063 0.276337 14.2655
2 1 1.40225 1.74407 1.79509 2.00592
3 1 1.45128 0.0365147 3.59636 3.88467
4 1 1.22995 2.25833 5.0689 5.62203
5 1 1.56591 3.64599 0.112401 3.73963
6 1 1.43132 5.69395 1.87313 5.19333
7 1 1.35368 3.33219 3.851 0.18914
8 1 1.55646 5.47994 5.17551 1.82167
9 1 1.61083 13.9919 14.2026 7.28706
10 1 1.42532 1.66163 1.41207 9.18227
11 1 1.43492 -0.0969234 3.80846 10.4917
12 1 1.3294 1.80757 5.53434 11.9119
13 1 1.44476 3.31831 14.1342 11.1259
14 1 1.36092 5.18494 1.60597 12.6286
15 1 1.14496 3.78772 3.28251 7.57416
16 1 1.334 5.77533 5.43541 9.00572
17 1 1.27423 0.0829097 6.8408 0.211576
18 1 1.76879 2.06443 8.69611 1.75349
19 1 1.70516 0.349053 10.493 3.36875
20 1 1.40171 1.46961 12.6116 5.2998
21 1 1.36618 3.97377 6.96908 3.73784
22 1 1.60763 5.21111 8.99905 5.53687
23 1 1.30806 3.4923 10.6578 14.3508
24 1 1.47793 5.37728 12.4541 2.00091
25 1 1.14089 14.1226 6.6306 6.7522
26 1 1.18848 1.25681 9.08425 8.7785
27 1 1.49066 13.9872 10.6458 10.9487
28 1 1.44859 1.49326 12.276 12.6805
29 1 1.38559 3.72182 7.5053 10.5014
30 1 1.62989 5.40759 9.18671 12.2796
31 1 1.1954 3.35689 10.6983 7.05818
32 1 1.72947 5.09078 12.4901 9.05812
33 1 1.51907 7.05101 14.315 0.261305
34 1 1.52992 9.28054 1.83135 1.59427
35 1 1.22748 7.61807 3.48411 3.4654
36 1 1.3941 9.06977 5.77958 5.50054
37 1 1.08958 10.824 14.2283 3.40102
38 1 1.56512 12.4325 1.78668 5.41761
39 1 1.49635 10.6739 3.83529 -0.0617827
40 1 1.69598 12.4967 5.31194 2.01085
41 1 1.29736 6.87671 13.9863 7.04356
42 1 1.44428 8.82255 1.59311 8.73902
43 1 1.22907 7.19322 3.38755 10.9284
44 1 1.83765 8.93898 5.42311 12.2187
45 1 1.44677 10.8804 0.417303 10.8634
46 1 1.63019 12.675 2.26158 12.537
47 1 1.64677 10.4542 3.52709 6.85492
48 1 1.46965 12.2191 5.17628 8.74412
49 1 1.47703 7.04734 7.14243 13.7793
50 1 1.28809 8.64835 8.73413 1.49953
51 1 1.4342 7.12201 10.5086 3.58444
52 1 1.26978 8.94816 12.4927 5.35027
53 1 1.48716 10.773 7.43455 3.33203
54 1 1.23767 12.5766 9.01571 5.20027
55 1 1.40719 10.6359 10.7696 14.2363
56 1 1.56065 12.7409 12.2324 1.72765
57 1 1.47172 7.29431 7.67537 7.29877
58 1 1.80139 9.16075 9.34021 9.05497
59 1 1.64637 7.09531 11.0264 10.6497
60 1 1.47001 9.052 12.72 12.6779
61 1 1.66062 10.6629 7.34549 10.711
62 1 1.36697 12.5539 8.73636 12.6562
63 1 1.78503 10.8894 10.8002 7.11651
64 1 1.46372 12.5476 12.2957 9.01032
65 2 -0.712723 1.17099 0.905987 0.902437
66 2 -0.762602 0.905007 13.5586 13.5265
67 2 -0.845708 13.6454 1.42416 13.4345
68 2 -0.669526 13.0839 13.6257 0.993223
69 2 -0.736701 0.637226 2.73665 2.68549
70 2 -0.75059 2.70486 0.768226 2.73139
71 2 -0.668471 2.99764 2.88534 1.27709
72 2 -0.673387 1.44598 4.48685 4.34183
73 2 -0.83207 13.5381 2.47213 4.59118
74 2 -0.786253 13.5139 4.66403 3.07931
75 2 -0.613238 3.50132 4.27185 6.36699
76 2 -0.625745 2.84281 6.32028 4.92595
77 2 -0.549029 1.19708 5.52228 6.88968
78 2 -0.775086 4.85038 1.14571 4.18396
79 2 -0.69141 2.51176 13.9572 4.60879
80 2 -0.729208 4.33401 13.0911 3.08648
81 2 -0.558687 4.59014 2.11096 6.52372
82 2 -0.686394 6.98396 2.65533 4.74585
83 2 -0.678108 6.1221 0.564125 5.92227
84 2 -0.742471 4.35283 4.86362 0.682268
85 2 -0.654236 2.86294 4.7672 13.2393
86 2 -0.567918 4.0409 2.40944 13.7355
87 2 -0.810377 4.69748 5.92349 2.79333
88 2 -0.721024 6.52704 4.04852 2.37501
89 2 -0.637874 6.29453 6.29513 1.26184
90 2 -0.782372 0.817744 0.612075 8.03834
91 2 -0.760293 0.52198 13.0462 6.3626
92 2 -0.866958 13.0391 0.779644 6.40315
93 2 -0.786686 13.4821 13.2979 8.47421
94 2 -0.610374 0.449989 2.26741 10.0452
95 2 -0.838709 2.57035 0.91033 10.2737
96 2 -0.62436 2.30873 2.63812 8.30577
97 2 -0.762797 1.11057 4.83657 10.7265
98 2 -0.82242 13.4781 3.42197 11.7364
99 2 -0.760029 13.0724 4.0489 9.27713
100 2 -0.610179 0.685217 6.21956 12.669
101 2 -0.715041 2.75272 6.79902 11.421
102 2 -0.755275 4.59004 0.488312 11.8126
103 2 -0.698245 2.67292 12.704 11.8374
104 2 -0.733752 4.0914 13.2992 9.92455
105 2 -0.697138 5.89097 0.618958 13.7552
106 2 -0.682913 6.4481 2.21877 11.99
107 2 -0.581098 4.69204 4.59662 8.16827
108 2 -0.623432 4.58411 6.3637 9.91656
109 2 -0.684747 6.15843 4.17947 9.95961
110 2 -0.676415 6.7223 6.495 8.37056
111 2 -0.785403 1.13415 8.09497 0.781303
112 2 -0.821899 13.3242 5.95688 0.997017
113 2 -0.635587 13.2694 7.75234 13.8975
114 2 -0.884687 1.2397 9.35837 2.83511
115 2 -0.701057 2.76293 7.74319 2.72964
116 2 -0.799771 3.1224 9.25496 0.918681
117 2 -0.803196 1.18055 11.4528 4.11807
118 2 -0.709578 13.9079 9.71449 4.52062
119 2 -0.910861 13.5588 11.2315 2.44083
120 2 -0.610727 2.75327 11.9237 5.88999
121 2 -0.765787 5.01182 8.0005 4.36707
122 2 -0.707629 4.03762 9.22282 6.42311
123 2 -0.798696 6.09191 10.0024 4.7142
124 2 -0.785499 6.00097 8.15933 6.53576
125 2 -0.693074 4.38295 11.8154 0.956025
126 2 -0.708328 2.02822 11.2784 13.8298
127 2 -0.717481 4.22181 9.88252 13.0792
128 2 -0.736482 6.37275 13.5719 1.54229
129 2 -0.772346 6.25646 11.2042 2.44246
130 2 -0.511604 0.489476 7.65907 7.93303
131 2 -0.625596 13.099 5.8529 7.57014
132 2 -0.531952 12.7834 7.49327 6.07789
133 2 -0.671848 0.463323 10.1464 9.56772
134 2 -0.576757 2.72633 8.23339 9.38559
135 2 -0.54333 1.84856 10.1541 7.66436
136 2 -0.79464 0.720575 11.7078 11.4634
137 2 -0.807995 13.2995 9.28133 11.4951
138 2 -0.768734 12.906 11.4609 10.3141
139 2 -0.749759 5.07937 8.48102 11.0386
140 2 -0.812629 5.96396 8.02512 13.0636
141 2 -0.794143 6.48871 10.3262 11.8653
142 2 -0.706029 4.27196 11.3593 8.14615
143 2 -0.800998 5.80186 13.4439 8.23355
144 2 -0.929618 6.03967 11.5571 9.71116
145 2 -0.781645 7.98237 1.02848 0.941232
146 2 -0.690672 7.82912 13.1621 13.5586
147 2 -0.716097 8.7862 2.50699 2.83106
148 2 -0.687723 10.5105 0.998012 2.09036
149 2 -0.752124 9.52901 3.101 0.77006
150 2 -0.524937 7.90488 5.177 4.37299
151 2 -0.755467 9.54859 4.25574 5.91399
152 2 -0.732177 10.0106 6.77152 4.58014
153 2 -0.754801 8.4479 6.69416 6.48881
154 2 -0.633018 11.7843 0.608187 4.4914
155 2 -0.610121 9.44583 13.8181 4.89094
156 2 -0.659363 11.8848 12.9359 2.78609
157 2 -0.800531 11.4136 2.96524 5.75065
158 2 -0.828181 11.4822 4.60216 1.16911
159 2 -0.805804 9.97052 4.76971 13.235
160 2 -0.786496 11.4995 2.59952 13.3746
161 2 -0.777537 11.849 6.49943 2.89524
162 2 -0.640078 7.72394 1.02585 7.7679
163 2 -0.619122 7.8557 12.7405 6.63358
164 2 -0.602596 7.79846 2.45281 9.50948
165 2 -0.746358 9.78856 0.987793 9.93067
166 2 -0.796201 9.66394 2.48058 7.69454
167 2 -0.853197 8.44929 4.18251 11.6295
168 2 -0.934169 7.9601 6.22099 13.1145
169 2 -0.915545 9.66205 6.39314 11.3615
170 2 -0.730866 11.8038 1.73465 11.4156
171 2 -0.718285 9.94648 14.0012 11.9695
172 2 -0.647914 11.8019 13.7447 10.0597
173 2 -0.788404 11.2319 4.6205 7.60371
174 2 -0.760594 11.5794 6.31789 9.73315
175 2 -0.724354 7.80145 8.29559 0.303499
176 2 -0.586592 8.42869 9.82716 3.14495
177 2 -0.721871 9.93921 8.0299 2.14587
178 2 -0.614996 9.44521 9.82352 0.728489
179 2 -0.661499 8.16321 11.2722 4.42702
180 2 -0.775482 9.98343 11.7766 6.45272
181 2 -0.572002 11.9485 8.56132 3.6278
182 2 -0.76319 11.5314 9.73284 6.09673
183 2 -0.730118 11.9045 11.6271 0.509107
184 2 -0.796494 9.65709 11.7547 13.6728
185 2 -0.645304 11.7103 10.0616 13.179
186 2 -0.7694 7.87704 8.57949 8.33267
187 2 -0.822112 8.20159 10.2436 9.8772
188 2 -0.940897 9.84317 8.39305 9.91261
189 2 -0.975788 9.93075 10.0418 7.95141
190 2 -0.677697 8.2684 11.9743 11.4894
191 2 -0.729991 11.2243 8.05241 11.96
192 2 -0.890944 12.0847 11.3837 7.81703
ITEM: TIMESTEP
75000
ITEM: NUMBER OF ATOMS
192
ITEM: BOX BOUNDS pp pp pp
1.1202544833903261e-02 1.4288797455166140e+01
1.1202544833903261e-02 1.4288797455166140e+01
1.1202544833903261e-02 1.4288797455166140e+01
ITEM: ATOMS id type q x y z
1 1 1.38001 0.147536 14.4642 14.0403
2 1 1.37492 1.68626 1.48254 1.99386
3 1 1.30025 14.0667 3.52754 3.2539
4 1 1.20526 1.724 5.25526 5.31814
5 1 1.39961 3.64889 14.4064 3.73419
6 1 1.35132 5.32203 2.20635 5.29172
7 1 1.75774 3.52376 3.16786 0.277493
8 1 1.6612 5.02025 5.31147 1.73611
9 1 1.39477 0.259913 0.351763 7.20832
10 1 1.57078 1.70015 2.00786 9.28221
11 1 1.68809 14.1718 3.73711 10.9197
12 1 1.66844 1.61504 4.96072 13.0033
13 1 1.41123 3.88281 14.4585 10.54
14 1 1.41143 5.51558 1.52577 12.7482
15 1 1.35274 3.54436 3.81005 7.48233
16 1 1.34989 5.32532 5.60529 9.07524
17 1 1.26396 14.0919 7.02452 0.161458
18 1 1.23468 1.86185 9.23148 1.79022
19 1 1.58394 14.0423 11.1524 3.65155
20 1 1.3051 1.59166 12.2893 5.73556
21 1 1.34429 3.36909 7.33727 3.55987
22 1 1.4579 5.23185 8.90653 5.47681
23 1 1.4316 4.09581 10.8049 14.1735
24 1 1.37183 5.44521 12.4865 1.8173
25 1 1.33836 14.2647 7.33223 6.78328
26 1 1.31414 1.90024 8.93232 8.92946
27 1 1.40354 -0.00731437 10.8979 10.3499
28 1 1.25903 2.21246 12.2591 12.053
29 1 1.36483 3.29608 6.91139 11.062
30 1 1.44742 5.6419 8.67433 12.5093
31 1 1.49064 3.63761 10.6998 7.21542
32 1 1.48043 5.72466 12.5158 8.58902
33 1 1.54182 7.42961 13.9456 14.306
34 1 1.55578 8.68361 1.98856 1.53454
35 1 1.56384 7.32765 3.99352 3.4215
36 1 1.60477 8.98474 5.41326 5.57608
37 1 1.58066 10.2497 14.295 3.36437
38 1 1.41115 12.3495 1.59326 4.96664
39 1 1.35155 10.8075 3.50293 14.2542
40 1 1.46382 11.9512 5.50083 1.85103
41 1 1.36815 7.12726 0.375896 6.95326
42 1 1.41205 9.00483 1.77238 8.90185
43 1 1.31782 7.27263 3.42045 10.8412
44 1 1.39416 9.10975 5.20674 12.3463
45 1 1.43852 10.6467 0.244728 10.796
46 1 1.52423 12.5896 1.78175 12.3252
47 1 1.47938 11.0139 3.63203 7.09714
48 1 1.69675 12.7185 5.41021 9.02452
49 1 1.41425 7.27462 6.79505 0.276477
50 1 1.48093 8.84049 8.69423 2.00439
51 1 1.58496 7.12497 10.3853 3.60905
52 1 1.54518 8.78402 12.2517 5.32872
53 1 1.64292 10.6184 7.1635 3.9362
54 1 1.4882 12.3418 9.20432 5.1964
55 1 1.55716 10.9045 10.4804 0.224736
56 1 1.45012 12.2557 12.9765 1.52489
57 1 1.51474 7.16223 7.16272 7.22094
58 1 1.47459 9.04556 8.87533 8.93475
59 1 1.25537 7.1858 10.6925 10.6823
60 1 1.41204 9.16519 12.1359 12.4659
61 1 1.52605 10.7971 7.02104 10.6108
62 1 1.23383 12.5371 8.75597 12.383
63 1 1.76347 10.6247 10.7178 7.15894
64 1 1.33667 12.517 12.8141 8.75606
65 2 -0.672934 1.3251 1.09171 0.286793
66 2 -0.501403 1.25237 13.2387 13.3794
67 2 -0.833561 13.5055 0.638022 12.9746
68 2 -0.724029 13.6004 13.7088 0.954071
69 2 -0.707674 0.833425 2.65085 2.47585
70 2 -0.727268 2.2738 0.757791 3.18184
71 2 -0.675847 3.09387 2.16502 1.39383
72 2 -0.59852 0.744792 4.02039 4.28544
73 2 -0.642666 13.0753 2.091 3.72156
74 2 -0.653763 13.2615 4.68082 2.14649
75 2 -0.627748 2.29593 4.65673 6.7846
76 2 -0.682472 2.25979 6.087 4.18324
77 2 -0.650976 0.364174 6.09523 6.01969
78 2 -0.698137 4.48474 1.34398 4.18623
79 2 -0.541566 2.93947 13.2374 4.83043
80 2 -0.715399 4.63254 13.6081 2.7935
81 2 -0.623984 4.0473 2.71122 6.29345
82 2 -0.66958 6.54612 2.77166 4.28326
83 2 -0.772915 6.13029 1.47264 6.34359
84 2 -0.910092 4.11155 4.18454 1.22364
85 2 -0.916507 2.62446 3.93099 13.636
86 2 -0.791282 4.22185 2.15277 13.6663
87 2 -0.703628 4.44918 6.432 2.77119
88 2 -0.755145 6.2049 4.6309 2.57905
89 2 -0.781252 6.04748 5.9285 0.911123
90 2 -0.781169 0.927258 1.37029 8.05842
91 2 -0.679395 1.33433 13.4928 6.74744
92 2 -0.638406 13.3082 0.705156 5.91869
93 2 -0.668851 13.4062 13.9462 8.2032
94 2 -0.920451 0.863049 2.72337 10.3996
95 2 -0.718397 2.836 0.960278 9.59634
96 2 -0.708976 2.62466 3.11775 8.52361
97 2 -0.889848 0.437568 4.61898 12.0555
98 2 -0.821048 12.8625 3.07928 11.6321
99 2 -0.941779 13.6241 4.50201 9.66999
100 2 -0.714096 1.20314 5.86125 14.0542
101 2 -0.734423 2.46998 5.99093 12.1184
102 2 -0.742283 4.93581 0.612863 11.5228
103 2 -0.600789 2.69168 13.4184 10.8989
104 2 -0.606826 4.68299 13.4779 9.44772
105 2 -0.725394 6.21916 0.340727 13.5424
106 2 -0.69289 6.45034 2.45061 11.8704
107 2 -0.72587 4.83529 4.60047 7.936
108 2 -0.752364 4.16186 6.21036 9.89381
109 2 -0.564281 6.08845 4.28544 9.88637
110 2 -0.704293 6.58165 6.53695 8.41053
111 2 -0.56137 0.647546 8.41458 0.841496
112 2 -0.701096 12.959 6.56794 1.11256
113 2 -0.63703 13.5814 7.50383 13.0137
114 2 -0.65714 0.588315 10.525 2.54978
115 2 -0.752389 2.90135 8.36906 2.36214
116 2 -0.589167 2.73695 10.147 0.727855
117 2 -0.80112 0.575834 12.0423 4.59374
118 2 -0.841623 13.4729 10.0163 4.48471
119 2 -0.655576 12.9958 12.1243 2.81974
120 2 -0.712646 2.18636 10.976 6.53259
121 2 -0.727123 4.05702 7.90643 4.82114
122 2 -0.863677 4.5931 10.1255 6.22185
123 2 -0.771308 6.23403 9.231 4.34901
124 2 -0.776907 6.16697 7.7842 6.28708
125 2 -0.810654 4.51735 11.557 1.05552
126 2 -0.659776 3.53456 11.84 12.8867
127 2 -0.789026 4.8836 9.70517 13.2537
128 2 -0.71004 6.79872 12.7998 0.932193
129 2 -0.650008 6.27345 11.1043 2.56702
130 2 -0.686591 1.04822 8.12752 7.52227
131 2 -0.582039 13.3224 6.77593 7.99149
132 2 -0.6718 12.799 7.87482 5.87507
133 2 -0.723406 0.878797 9.98184 9.2977
134 2 -0.65583 2.28441 7.85564 10.2502
135 2 -0.723802 3.21449 9.73378 8.45149
136 2 -0.709202 1.07868 11.5989 11.3435
137 2 -0.637269 13.5795 9.86842 11.3274
138 2 -0.68818 13.5803 12.1919 9.7156
139 2 -0.707483 4.68907 7.71776 11.6981
140 2 -0.693284 6.52811 7.79474 13.3462
141 2 -0.597831 7.00874 9.83506 12.0149
142 2 -0.744313 4.46799 11.9172 7.80275
143 2 -0.739343 6.775 13.5074 7.92166
144 2 -0.74797 6.56394 11.6267 9.47811
145 2 -0.855432 7.86698 0.947955 0.812917
146 2 -0.693407 8.46738 13.3403 13.3035
147 2 -0.742284 7.97693 3.32571 2.26628
148 2 -0.734285 9.27658 1.0487 2.7145
149 2 -0.695 10.0522 2.49371 1.12805
150 2 -0.821401 8.42158 4.64985 4.35347
151 2 -0.764536 10.1973 4.64674 6.21341
152 2 -0.823543 9.51789 6.76993 4.98404
153 2 -0.782869 7.84758 5.81971 6.53645
154 2 -0.769737 11.1819 0.798514 4.2586
155 2 -0.76264 9.44601 13.1024 4.29888
156 2 -0.786064 11.2722 13.7981 2.24879
157 2 -0.708575 11.9007 2.91816 6.0186
158 2 -0.780397 11.0946 4.72821 0.79843
159 2 -0.719587 9.67483 4.07255 13.3358
160 2 -0.657375 12.0392 2.2559 13.6982
161 2 -0.78829 11.2044 5.97586 3.20806
162 2 -0.696565 8.30084 0.899647 7.73337
163 2 -0.574392 8.49975 13.5308 6.07357
164 2 -0.733232 7.9546 2.2576 10.1266
165 2 -0.733995 10.2195 0.97453 9.49053
166 2 -0.69365 9.78557 2.87953 8.10873
167 2 -0.714555 7.84133 4.81879 11.5595
168 2 -0.614166 8.1096 5.72215 13.8016
169 2 -0.830022 10.1966 6.00197 11.6191
170 2 -0.782493 11.3046 1.42162 11.5349
171 2 -0.678568 10.0881 13.2948 11.6937
172 2 -0.615486 11.7691 13.5913 10.0219
173 2 -0.777235 11.772 4.63557 7.99958
174 2 -0.884108 11.9314 6.38238 9.75042
175 2 -0.778845 7.69502 7.94355 1.34122
176 2 -0.797357 8.37715 9.86871 2.96776
177 2 -0.768252 9.67056 7.61234 2.85311
178 2 -0.665894 10.0762 9.65928 1.35326
179 2 -0.775337 7.41113 11.5357 4.55952
180 2 -0.871588 9.45646 11.3798 6.40897
181 2 -0.743874 11.7051 8.27978 3.9888
182 2 -0.870481 11.3469 10.1407 5.92207
183 2 -0.773447 11.3229 11.7379 0.854439
184 2 -0.705551 9.78219 11.2209 13.7264
185 2 -0.755825 11.6285 9.51252 13.488
186 2 -0.723545 7.69762 8.31388 8.28136
187 2 -0.66403 8.45932 9.84907 10.0536
188 2 -0.735459 9.69179 7.55166 9.51096
189 2 -0.88897 10.0922 9.83857 8.27412
190 2 -0.654301 8.02292 11.9147 11.5474
191 2 -0.696136 11.2634 8.26866 11.5352
192 2 -0.785339 11.6811 11.627 7.63868
ITEM: TIMESTEP
76000
ITEM: NUMBER OF ATOMS
192
ITEM: BOX BOUNDS pp pp pp
9.5256939216952219e-03 1.4290474306078377e+01
9.5256939216952219e-03 1.4290474306078377e+01
9.5256939216952219e-03 1.4290474306078377e+01
ITEM: ATOMS id type q x y z
1 1 1.45577 14.0145 0.392944 0.187808
2 1 1.44176 1.85488 1.68535 2.05487
3 1 1.41826 0.166336 3.69881 3.63273
4 1 1.38062 2.16844 5.44634 5.37137
5 1 1.50265 3.78603 14.1475 3.51489
6 1 1.56962 5.4738 1.78837 5.11782
7 1 1.4899 3.54205 3.92592 0.101529
8 1 1.30118 5.54928 5.69406 2.06105
9 1 1.49253 14.3156 13.7337 7.15535
10 1 1.35197 1.76431 1.88372 8.88173
11 1 1.41462 14.28 3.58709 10.6884
12 1 1.49063 1.89082 5.30709 12.3658
13 1 1.38115 3.15294 -0.0234404 11.0538
14 1 1.71337 5.07829 2.07994 12.4755
15 1 1.56538 3.7676 3.30829 7.15796
16 1 1.47012 5.74172 5.28669 8.52539
17 1 1.48069 0.115892 7.35602 13.865
18 1 1.49068 1.93123 8.84005 1.57439
19 1 1.53141 14.4183 10.4517 3.48525
20 1 1.63062 1.77371 12.1157 5.3062
21 1 1.54463 3.83789 7.53963 3.68173
22 1 1.67296 5.58594 9.18425 5.41656
23 1 1.29849 3.59222 10.7563 14.0058
24 1 1.51264 5.19342 12.4256 1.40228
25 1 1.27789 14.3147 6.98992 7.38095
26 1 1.32115 2.0504 8.85337 9.05266
27 1 1.43351 0.0672113 10.3389 10.7845
28 1 1.39868 1.42691 12.2858 12.6802
29 1 1.49196 3.80228 6.77015 10.4414
30 1 1.57041 5.37378 8.73544 12.1499
31 1 1.34458 3.79243 10.7957 7.17023
32 1 1.37251 5.25414 12.6585 9.21188
33 1 1.49993 6.77152 0.407776 0.101414
34 1 1.50785 9.13697 1.73654 1.78244
35 1 1.63438 7.28819 3.51744 3.40625
36 1 1.49382 9.03041 5.34004 5.20811
37 1 1.67256 10.6264 0.197179 3.93642
38 1 1.57094 12.6548 1.91563 5.59085
39 1 1.50592 10.565 3.58934 14.1045
40 1 1.27398 12.5562 5.47292 1.38221
41 1 1.4651 7.27425 14.1474 7.23982
42 1 1.7721 8.965 1.64734 9.217
43 1 1.48455 7.04789 3.54255 10.7363
44 1 1.60376 8.53524 5.36924 12.6411
45 1 1.58694 10.7413 14.0301 10.6888
46 1 1.59078 12.4526 1.91461 12.4316
47 1 1.33119 10.601 3.54267 7.35632
48 1 1.29879 12.1834 5.5532 9.10446
49 1 1.52043 6.98684 7.47187 -0.0113935
50 1 1.47136 9.12164 8.91204 1.61133
51 1 1.29985 7.11748 10.9037 3.3714
52 1 1.48416 8.99786 12.295 5.32456
53 1 1.44936 10.7422 6.90469 3.20792
54 1 1.51741 12.4774 8.58018 5.31087
55 1 1.55277 10.8105 11.0967 0.358786
56 1 1.17013 12.4127 12.8207 2.14355
57 1 1.45184 7.37402 7.28987 6.91394
58 1 1.48644 8.85562 9.12307 9.05035
59 1 1.45655 7.25153 10.9098 10.9893
60 1 1.6761 8.93816 12.7086 12.8661
61 1 1.43839 10.4413 7.28965 11.0705
62 1 1.50694 12.2103 9.25378 12.7252
63 1 1.54287 10.687 10.4884 7.12436
64 1 1.71984 12.6311 11.9143 8.94672
65 2 -0.7863 0.762075 0.652316 1.26116
66 2 -0.568185 0.332118 13.3444 13.567
67 2 -0.875598 13.218 1.30121 13.5456
68 2 -0.624012 12.9135 13.6021 0.625394
69 2 -0.796156 1.01272 2.5829 2.97905
70 2 -0.788138 3.0219 0.942744 2.62952
71 2 -0.639689 2.66103 2.85482 0.949829
72 2 -0.673036 1.13023 4.39062 4.84253
73 2 -0.742369 13.5049 2.85323 4.74255
74 2 -0.663405 13.6192 4.36837 2.48888
75 2 -0.676688 2.83413 4.36882 6.54876
76 2 -0.744702 2.99476 6.61384 4.70266
77 2 -0.58958 1.11999 6.26042 6.26603
78 2 -0.776686 4.56078 0.750134 4.55851
79 2 -0.671518 2.92197 12.9457 4.50878
80 2 -0.758822 4.35736 13.2703 2.41134
81 2 -0.827555 4.36494 2.47928 5.93261
82 2 -0.86737 6.37368 2.49592 4.07054
83 2 -0.612386 6.27749 0.568953 6.06115
84 2 -0.660768 4.52362 4.91568 0.811812
85 2 -0.803475 2.51057 4.85292 13.6996
86 2 -0.857843 4.19194 2.76335 13.4492
87 2 -0.77537 4.71422 6.24196 3.18025
88 2 -0.7277 6.47162 4.32204 2.28473
89 2 -0.713572 6.19289 7.07856 1.25695
90 2 -0.652448 1.01324 0.289204 7.91663
91 2 -0.775647 0.632675 13.0018 5.99405
92 2 -0.627406 13.1554 0.555487 6.37241
93 2 -0.754553 13.4465 12.5409 7.91478
94 2 -0.649373 0.751678 3.04746 9.19614
95 2 -0.643886 2.36943 0.789999 9.78956
96 2 -0.750533 2.96141 2.50853 8.24931
97 2 -0.745046 1.15412 4.21546 11.3198
98 2 -0.794144 13.3881 2.97529 11.9501
99 2 -0.621673 13.5707 4.66577 9.92915
100 2 -0.718931 1.00385 6.52759 12.6781
101 2 -0.712317 3.10947 5.63705 11.329
102 2 -0.732058 4.03345 1.23374 11.5774
103 2 -0.747779 2.08675 13.4276 11.8113
104 2 -0.67586 4.35999 13.6163 10.0443
105 2 -0.831693 6.01195 1.26454 13.3556
106 2 -0.828652 6.21499 2.49664 11.5971
107 2 -0.727733 4.5169 4.27057 8.08491
108 2 -0.720424 5.02874 6.33405 9.61115
109 2 -0.691173 6.32276 4.06641 9.41212
110 2 -0.8212 6.4791 6.12562 7.52687
111 2 -0.752468 1.22987 7.88572 0.497453
112 2 -0.679421 13.5011 6.46754 0.57137
113 2 -0.723706 13.4043 8.39969 13.139
114 2 -0.801588 0.699406 9.46055 2.52291
115 2 -0.75928 2.97605 7.96379 2.46845
116 2 -0.736055 2.83997 9.8017 0.756982
117 2 -0.821192 1.29851 11.229 4.19687
118 2 -0.672278 13.3622 9.77616 4.60354
119 2 -0.60017 13.6479 11.7363 2.96617
120 2 -0.711267 2.35931 11.5427 6.52159
121 2 -0.847222 4.41236 8.71527 4.46169
122 2 -0.800678 4.84083 9.68282 6.59945
123 2 -0.78945 6.28425 10.3449 4.62603
124 2 -0.844267 6.5588 8.12477 5.88149
125 2 -0.674377 3.76788 11.8767 0.818461
126 2 -0.75151 2.776 11.6762 12.9189
127 2 -0.720969 4.59615 9.62679 13.0399
128 2 -0.833227 6.20576 13.3665 0.737931
129 2 -0.72396 6.00167 11.41 2.24428
130 2 -0.661282 0.793175 8.13151 8.39228
131 2 -0.688651 13.1009 6.01797 7.91478
132 2 -0.722272 13.4541 7.70813 6.16547
133 2 -0.693496 1.25659 9.35187 10.5394
134 2 -0.76476 3.03187 7.72972 9.41611
135 2 -0.597238 2.51128 9.97672 7.91774
136 2 -0.719222 0.286799 11.4792 11.9039
137 2 -0.737371 12.9714 9.64004 11.487
138 2 -0.879267 13.6783 11.152 9.6305
139 2 -0.750639 4.38049 7.62782 11.6931
140 2 -0.793095 6.34788 7.84129 12.8305
141 2 -0.729455 6.52405 9.93571 11.8774
142 2 -0.726202 4.47261 11.8929 8.02637
143 2 -0.682892 6.58665 13.3548 8.46797
144 2 -0.654416 5.92518 11.4835 10.2584
145 2 -0.720408 7.64711 1.26666 1.08755
146 2 -0.696753 8.07619 13.8713 13.4593
147 2 -0.802612 8.36222 2.79002 2.7161
148 2 -0.885253 10.0139 0.947407 2.85219
149 2 -0.835114 10.1331 2.44335 0.788968
150 2 -0.780383 7.87601 4.37766 4.63053
151 2 -0.721635 9.73105 4.33454 6.16376
152 2 -0.733419 10.1229 5.57337 4.11769
153 2 -0.770346 8.48393 6.67894 5.78062
154 2 -0.765864 11.5672 1.15556 4.75831
155 2 -0.765577 9.75309 13.6084 4.86993
156 2 -0.644203 11.8802 13.5438 3.53237
157 2 -0.710862 11.9431 2.6749 6.68388
158 2 -0.613393 11.4828 4.83537 0.00855048
159 2 -0.782043 9.4264 4.61325 13.536
160 2 -0.755875 11.2615 2.92261 12.9188
161 2 -0.755169 11.9362 6.35476 2.38589
162 2 -0.749051 8.22991 0.947059 8.07643
163 2 -0.697643 7.70555 13.1903 6.27364
164 2 -0.795647 7.87715 2.42772 9.86461
165 2 -0.933699 9.98421 0.708894 9.8479
166 2 -0.737918 9.57956 2.57369 8.18374
167 2 -0.826632 7.75649 4.80247 11.3822
168 2 -0.703329 7.79284 6.14824 13.8363
169 2 -0.715574 9.34145 6.50641 11.9077
170 2 -0.748059 11.761 0.667488 11.6155
171 2 -0.828595 9.72493 13.4149 11.6818
172 2 -0.761566 11.7987 13.1534 9.72443
173 2 -0.666816 11.2375 4.35045 8.62543
174 2 -0.73938 11.1695 6.24877 10.1589
175 2 -0.766967 8.07326 8.33406 0.710455
176 2 -0.650468 8.32984 10.1214 2.48432
177 2 -0.809246 9.85178 7.59542 2.30499
178 2 -0.746765 9.94349 9.83673 0.587266
179 2 -0.656213 8.24473 12.0438 3.95819
180 2 -0.786188 9.97154 11.4365 6.0095
181 2 -0.711489 11.6408 8.08641 4.15634
182 2 -0.723956 11.3467 9.3562 6.02937
183 2 -0.711721 11.173 11.9486 1.72175
184 2 -0.901865 9.91009 11.9094 13.5741
185 2 -0.790091 11.899 10.3886 13.8891
186 2 -0.685444 7.7243 8.08086 8.2762
187 2 -0.765374 7.96699 10.1612 9.67613
188 2 -0.833093 9.76323 8.32451 10.0318
189 2 -0.815086 9.39785 9.93304 7.83154
190 2 -0.786747 7.83133 11.9551 12.0217
191 2 -0.674828 11.3031 7.97051 12.3792
192 2 -0.904226 11.6962 11.1937 7.96682
ITEM: TIMESTEP
77000
ITEM: NUMBER OF ATOMS
192
ITEM: BOX BOUNDS pp pp pp
7.3641084017692648e-03 1.4292635891598357e+01
7.3641084017692648e-03 1.4292635891598357e+01
7.3641084017692648e-03 1.4292635891598357e+01
ITEM: ATOMS id type q x y z
1 1 1.83254 14.2007 13.9872 13.9093
2 1 1.37997 1.71881 1.5788 1.3303
3 1 1.5144 14.2584 3.34475 3.32338
4 1 1.5572 1.61065 5.18746 5.31042
5 1 1.37342 3.34072 0.00886514 3.59943
6 1 1.56756 5.16941 1.87824 5.45156
7 1 1.62684 3.80484 3.40171 -0.0235746
8 1 1.46642 5.19973 5.37672 1.70029
9 1 1.22328 0.047121 0.311931 7.33999
10 1 1.31943 1.84279 1.78576 9.20733
11 1 1.53479 0.193664 3.78334 10.9621
12 1 1.28131 1.87069 5.51105 12.7113
13 1 1.51252 3.54553 14.1 10.8771
14 1 1.4606 5.61114 1.50565 12.552
15 1 1.41578 3.36949 3.51302 7.26108
16 1 1.5572 4.98102 5.49602 9.09955
17 1 1.41672 14.2426 7.43904 0.294382
18 1 1.16349 2.14535 9.21339 1.95653
19 1 1.19723 14.1229 10.6728 3.31594
20 1 1.20302 1.49295 12.5454 5.22037
21 1 1.56026 3.3643 7.10385 3.83099
22 1 1.45174 5.25428 8.94619 5.57002
23 1 1.33593 3.94042 10.3623 -0.00111941
24 1 1.34521 5.3519 12.6539 1.91671
25 1 1.67688 0.300807 7.32136 7.06065
26 1 1.58389 1.59603 9.14033 9.09132
27 1 1.47077 0.124935 11.075 10.8146
28 1 1.74362 2.05273 12.3508 12.7416
29 1 1.48507 3.40706 7.50677 10.8223
30 1 1.31039 5.67127 8.43016 12.5253
31 1 1.39602 3.34883 10.8908 7.30072
32 1 1.34462 5.56435 12.2427 8.92723
33 1 1.41396 7.53296 14.202 0.143993
34 1 1.7665 8.76267 1.80175 1.93971
35 1 1.41425 6.98151 3.45309 3.51035
36 1 1.39681 8.7193 5.19541 5.30127
37 1 1.76839 10.6703 0.032514 3.34429
38 1 1.49713 12.3777 1.84505 5.43249
39 1 1.47556 10.5959 3.33229 0.291243
40 1 1.39418 12.5789 5.39578 1.89067
41 1 1.40098 7.04721 -0.107083 7.25009
42 1 1.40477 8.76529 2.07387 8.92462
43 1 1.64832 6.78393 3.81262 10.8653
44 1 1.63416 8.91426 5.3486 12.4566
45 1 1.66219 10.5689 0.174657 10.3882
46 1 1.25418 12.4546 1.65556 12.3557
47 1 1.56806 10.4907 3.60154 7.01907
48 1 1.29915 12.7205 5.25078 8.56106
49 1 1.59252 7.52082 6.93138 0.254191
50 1 1.30378 8.90165 9.14634 1.8732
51 1 1.39405 6.98244 10.7917 3.78052
52 1 1.18153 9.09866 12.6032 5.37871
53 1 1.38469 10.8347 7.14991 3.70531
54 1 1.59527 12.701 8.82624 5.33994
55 1 1.34437 10.588 10.6093 14.0334
56 1 1.70104 12.3467 12.4098 1.43561
57 1 1.55821 7.12643 7.13373 7.31335
58 1 1.51914 9.24331 8.73138 8.65883
59 1 1.36895 7.39769 10.3904 10.6315
60 1 1.33523 8.75209 12.5958 12.0893
61 1 1.36444 11.0596 7.03486 10.6617
62 1 1.53994 12.7926 9.0293 12.3781
63 1 1.44382 11.2784 10.6706 7.22738
64 1 1.38023 12.7814 12.7559 8.99619
65 2 -0.739115 0.607083 0.987244 0.171744
66 2 -0.988418 0.802979 12.9337 13.4123
67 2 -0.769452 13.3878 0.3396 12.8385
68 2 -0.900821 13.1915 13.3968 0.602661
69 2 -0.749923 0.870234 2.45554 2.44803
70 2 -0.673682 2.64556 0.457058 2.08272
71 2 -0.756395 2.62746 2.6687 0.592459
72 2 -0.772312 0.468259 4.15206 4.61097
73 2 -0.723557 13.1289 2.64798 4.11824
74 2 -0.748357 13.6136 4.30797 2.20614
75 2 -0.697823 2.41135 4.71414 6.55018
76 2 -0.879079 2.60434 6.05263 4.51578
77 2 -0.818959 0.820173 6.24398 6.08024
78 2 -0.70191 4.20393 0.809827 4.87268
79 2 -0.726863 2.36482 13.3177 4.07406
80 2 -0.697614 4.65139 13.7021 2.95888
81 2 -0.788225 4.00883 2.80216 6.01703
82 2 -0.815099 6.21407 2.43735 4.48348
83 2 -0.710604 6.21141 1.14208 6.31645
84 2 -0.878777 4.73055 4.28671 0.691458
85 2 -0.626937 2.84738 4.53134 13.5972
86 2 -0.742458 4.61996 2.16179 13.6637
87 2 -0.679412 3.92408 6.59349 2.49423
88 2 -0.645902 5.818 4.6529 2.91644
89 2 -0.677849 6.45417 6.05941 1.3721
90 2 -0.720494 0.564541 1.47199 8.5357
91 2 -0.555796 0.834898 14.0613 6.10124
92 2 -0.672136 13.1657 0.966306 6.32542
93 2 -0.616594 13.306 13.3577 7.61147
94 2 -0.658679 0.947236 3.41392 9.73898
95 2 -0.753652 2.42197 0.837011 10.1691
96 2 -0.698864 3.13595 2.26143 8.11175
97 2 -0.776014 1.0852 4.27809 12.0023
98 2 -0.680007 13.5319 2.83201 11.748
99 2 -0.627223 13.4148 4.65899 9.95493
100 2 -0.603311 0.873942 6.21954 14.0735
101 2 -0.731871 3.00542 6.32829 11.9394
102 2 -0.731531 4.42516 0.758907 11.5806
103 2 -0.830276 2.71413 13.5238 12.0076
104 2 -0.652891 4.69808 13.5032 9.75285
105 2 -0.714122 6.90197 0.824115 13.1951
106 2 -0.815394 6.24811 2.674 11.7283
107 2 -0.755059 4.16616 4.60433 8.23665
108 2 -0.71233 3.8212 6.6925 9.59526
109 2 -0.8744 5.73793 4.61211 10.0977
110 2 -0.772024 6.111 6.3741 8.26662
111 2 -0.643114 1.12624 8.21442 1.13872
112 2 -0.733597 13.1571 6.61679 1.21441
113 2 -0.826442 13.6153 8.21472 13.3833
114 2 -0.597639 0.989522 10.2771 1.85283
115 2 -0.641916 2.62607 8.53319 3.66466
116 2 -0.679702 3.37914 9.21077 1.00111
117 2 -0.5655 0.352147 12.1081 4.15243
118 2 -0.738949 13.6977 9.83093 4.45537
119 2 -0.725833 12.8873 11.3504 2.35932
120 2 -0.681249 2.38007 11.9045 6.50822
121 2 -0.664554 4.45263 7.56464 4.86549
122 2 -0.737234 4.18555 10.0546 6.35825
123 2 -0.767593 6.13463 9.63843 4.58967
124 2 -0.74691 6.22917 8.11561 6.51534
125 2 -0.566033 4.87515 11.2542 1.07298
126 2 -0.79979 3.08468 11.6554 13.6341
127 2 -0.676417 4.77959 9.68623 13.179
128 2 -0.701545 6.21816 13.3342 0.817499
129 2 -0.658278 5.89366 11.565 2.98445
130 2 -0.858784 1.14348 8.17365 8.02425
131 2 -0.753613 13.6529 6.40715 8.06569
132 2 -0.885202 13.8271 8.30743 6.17221
133 2 -0.730735 0.414501 10.0176 9.72787
134 2 -0.78681 2.37875 8.59044 10.5164
135 2 -0.754108 2.28437 10.093 8.18781
136 2 -0.802744 1.61084 11.6289 11.5128
137 2 -0.817857 13.3205 10.2357 11.7521
138 2 -0.784125 13.9673 12.0961 9.81841
139 2 -0.724083 4.76811 8.08391 11.188
140 2 -0.756666 6.35808 7.58438 13.7267
141 2 -0.612275 6.89418 9.14967 11.5903
142 2 -0.599241 4.40029 11.1156 8.68093
143 2 -0.75525 6.08591 13.0554 7.66
144 2 -0.730061 6.30651 11.2313 9.75775
145 2 -0.840181 8.607 0.495964 0.987947
146 2 -0.681425 8.17253 13.0608 13.4731
147 2 -0.864235 7.53442 2.57518 2.2948
148 2 -0.962112 9.82424 1.19945 2.74077
149 2 -0.897772 9.45168 2.81342 1.07907
150 2 -0.792625 7.98285 4.51091 4.11282
151 2 -0.842437 9.37551 4.47297 6.53636
152 2 -0.65242 9.84285 6.36219 4.72382
153 2 -0.67315 7.9676 6.20992 6.40918
154 2 -0.700451 11.5 0.782762 4.39436
155 2 -0.773582 9.98015 13.3486 4.16182
156 2 -0.780692 11.6483 13.4127 2.56639
157 2 -0.819797 11.2742 2.65551 6.17841
158 2 -0.59824 11.7554 4.16337 0.753625
159 2 -0.646098 9.93193 4.60153 13.3692
160 2 -0.597684 11.6016 2.56709 13.6099
161 2 -0.713519 11.2919 6.13271 2.52464
162 2 -0.715989 7.86816 0.696298 8.36231
163 2 -0.671594 7.83138 13.215 6.31494
164 2 -0.733459 7.75491 3.07462 9.74343
165 2 -0.724105 9.69812 1.42116 9.98706
166 2 -0.808878 9.93426 2.66342 8.01628
167 2 -0.848069 7.63797 4.78789 11.7285
168 2 -0.854753 8.29884 6.02627 13.5772
169 2 -0.68219 9.67136 6.52247 11.7291
170 2 -0.649513 11.0654 1.00932 11.6362
171 2 -0.781874 9.55468 13.691 11.1932
172 2 -0.855829 11.6581 13.8712 9.64264
173 2 -0.654025 12.1438 4.3493 7.38966
174 2 -0.62016 11.4169 5.78355 9.64474
175 2 -0.72131 8.13557 7.80436 1.3073
176 2 -0.643823 7.74713 10.1771 2.45799
177 2 -0.602867 10.0653 8.45288 2.84807
178 2 -0.686902 9.69171 9.54474 0.470158
179 2 -0.655475 8.08741 11.8494 4.28259
180 2 -0.496143 10.4389 12.1485 6.56824
181 2 -0.866489 11.8887 7.92148 4.56943
182 2 -0.752794 11.405 9.76506 6.03054
183 2 -0.829204 11.4012 11.728 0.496975
184 2 -0.498803 10.0988 11.4738 12.3574
185 2 -0.659906 11.7578 9.7354 13.5062
186 2 -0.836378 8.41393 8.04306 7.67894
187 2 -0.689362 8.68976 9.84454 9.55968
188 2 -0.719446 10.2486 7.83199 9.67195
189 2 -0.680383 10.2243 9.88791 8.05858
190 2 -0.726935 7.77265 11.4018 11.6726
191 2 -0.74009 12.1663 7.98667 11.2074
192 2 -0.704688 11.9697 11.473 8.28096
ITEM: TIMESTEP
78000
ITEM: NUMBER OF ATOMS
192
ITEM: BOX BOUNDS pp pp pp
5.0882272247934068e-03 1.4294911772775341e+01
5.0882272247934068e-03 1.4294911772775341e+01
5.0882272247934068e-03 1.4294911772775341e+01
ITEM: ATOMS id type q x y z
1 1 1.53591 14.0753 14.21 14.31
2 1 1.34619 1.93169 1.57254 1.66939
3 1 1.54827 0.663125 3.58235 3.78019
4 1 1.68674 2.03221 5.75694 5.52752
5 1 1.363 3.46044 0.112018 3.94015
6 1 1.34139 5.57547 2.04666 5.54397
7 1 1.14629 3.52659 3.38792 13.8832
8 1 1.35531 5.40994 5.03976 1.58171
9 1 1.11464 0.174835 13.8783 6.90734
10 1 1.46078 1.69405 1.92065 8.79249
11 1 1.46558 14.2986 3.64184 10.8845
12 1 1.46364 1.71048 5.50313 12.4712
13 1 1.56649 3.31067 14.1463 10.5155
14 1 1.39059 5.24962 1.2426 12.2943
15 1 1.30059 3.63063 3.69591 7.18137
16 1 1.4114 5.65133 5.31748 9.07407
17 1 1.45146 14.1036 7.20347 14.0467
18 1 1.6303 1.60079 8.79506 1.48511
19 1 1.42392 14.3332 10.427 3.34863
20 1 1.31884 2.29131 12.0232 5.24754
21 1 1.50533 3.62688 7.15135 3.35041
22 1 1.47251 5.7503 8.63975 5.14567
23 1 1.64482 3.12334 11.0793 14.3319
24 1 1.44046 4.93223 12.7357 1.83845
25 1 1.58055 14.077 7.31077 7.13338
26 1 1.66806 1.75577 8.99164 8.7772
27 1 1.66447 14.3156 10.5451 10.7542
28 1 1.73915 1.3858 12.7451 12.3144
29 1 1.24245 3.76689 7.51424 10.8314
30 1 1.54183 5.0946 9.23834 12.8684
31 1 1.30749 4.03558 10.2696 7.02753
32 1 1.45468 5.52802 12.3049 9.01079
33 1 1.3318 7.16153 14.2953 0.163631
34 1 1.59003 9.14058 2.03344 1.59452
35 1 1.3923 7.45895 3.73871 3.55401
36 1 1.3664 9.63809 5.2685 5.62648
37 1 1.2453 10.9667 0.107349 3.414
38 1 1.3066 12.8214 1.70954 5.3936
39 1 1.30821 10.914 4.28892 0.286744
40 1 1.50645 12.9534 5.43229 2.17651
41 1 1.41583 7.37941 14.2297 7.14331
42 1 1.45975 8.87579 1.60571 9.14101
43 1 1.30571 7.04827 3.36494 11.1084
44 1 1.25152 8.85897 5.35504 12.5677
45 1 1.73872 10.7137 14.0787 11.0806
46 1 1.38321 12.5343 2.01909 12.8335
47 1 1.34002 11.0088 3.3134 7.36997
48 1 1.4536 12.4569 5.56415 9.15599
49 1 1.47397 6.8049 7.22753 14.1625
50 1 1.41029 8.78376 8.98153 1.65196
51 1 1.42698 7.16465 10.9211 3.29235
52 1 1.42298 8.82027 12.8733 5.07999
53 1 1.28364 10.8867 7.24718 3.52207
54 1 1.60786 12.2523 9.26963 5.47698
55 1 1.48826 10.9279 10.6789 14.3191
56 1 1.66912 12.5384 12.4827 1.79016
57 1 1.68568 7.08129 6.58411 6.80049
58 1 1.51854 8.11798 8.53977 8.78746
59 1 1.53466 7.00586 10.4609 10.9921
60 1 1.41559 8.75123 12.3231 12.6417
61 1 1.48749 10.2371 7.57909 10.6912
62 1 1.81316 12.2779 9.0588 12.2557
63 1 1.44935 10.3497 10.8063 7.18123
64 1 1.29904 12.6339 12.4645 9.02672
65 2 -0.71138 0.711918 0.73938 0.845865
66 2 -0.79392 0.179794 13.6344 12.8544
67 2 -0.737875 13.1173 1.09135 14.1031
68 2 -0.793549 13.8002 13.0563 1.07452
69 2 -0.699673 1.14131 2.68412 2.53254
70 2 -0.73505 3.01254 1.13996 2.8548
71 2 -0.633309 2.74947 1.97446 0.38411
72 2 -0.847429 1.34151 4.49762 4.76714
73 2 -0.708832 13.786 2.81404 4.32837
74 2 -0.693916 14.2136 4.57852 2.73379
75 2 -0.72061 2.97466 5.0767 6.45335
76 2 -0.809782 2.89572 6.32445 4.41105
77 2 -0.812735 1.04397 6.73735 6.17935
78 2 -0.606799 4.44031 0.848812 5.06436
79 2 -0.731356 2.44019 13.2151 4.30305
80 2 -0.726681 4.45996 13.3727 3.14557
81 2 -0.703318 4.45031 3.22384 6.02012
82 2 -0.665998 6.6797 2.81561 4.71625
83 2 -0.648252 6.13961 0.97365 6.48516
84 2 -0.666767 4.66058 4.36519 0.480823
85 2 -0.57756 2.73367 4.96283 13.4802
86 2 -0.627942 4.38427 2.5084 12.8503
87 2 -0.671593 4.4972 6.21755 2.288
88 2 -0.725804 6.18836 4.23124 2.89463
89 2 -0.728799 6.49188 6.00393 0.688673
90 2 -0.626462 0.80515 1.15278 7.81578
91 2 -0.604953 1.19344 12.823 6.1999
92 2 -0.602847 13.0106 0.244994 6.1666
93 2 -0.62669 13.9292 13.118 8.21531
94 2 -0.72341 0.64363 2.68026 9.52216
95 2 -0.720233 2.68508 1.28269 9.88505
96 2 -0.717323 2.4931 2.69963 7.56104
97 2 -0.828156 0.930737 4.34983 11.7791
98 2 -0.760543 13.3479 2.86778 11.9305
99 2 -0.73342 13.3585 4.83104 10.0851
100 2 -0.810337 0.78554 6.21544 13.442
101 2 -0.547962 2.99417 6.16195 11.4669
102 2 -0.829851 4.27756 0.450337 11.4622
103 2 -0.924305 2.17487 13.4676 11.2492
104 2 -0.73235 4.40851 13.2383 9.52675
105 2 -0.691461 6.64233 0.725894 12.972
106 2 -0.609905 5.76468 2.39942 11.2673
107 2 -0.584099 4.2764 4.68602 8.72197
108 2 -0.527158 4.77343 6.47645 10.3054
109 2 -0.647304 6.2883 4.46737 10.2811
110 2 -0.899014 6.34355 5.77882 7.83534
111 2 -0.804391 0.701973 8.47953 0.340734
112 2 -0.687468 13.5411 6.15595 0.926159
113 2 -0.802896 12.8803 8.00016 13.182
114 2 -0.798361 0.75486 9.15125 2.76331
115 2 -0.760568 2.69319 7.91651 2.03539
116 2 -0.76518 2.26054 10.1726 1.07692
117 2 -0.57982 0.72742 11.2692 4.55023
118 2 -0.691573 13.055 10.1206 4.43218
119 2 -0.68251 13.482 11.1624 2.34708
120 2 -0.727137 3.545 11.4234 5.86458
121 2 -0.727925 4.37653 7.78808 4.39996
122 2 -0.737144 4.9754 9.15107 6.45186
123 2 -0.775741 6.34061 9.74752 4.28708
124 2 -0.823457 6.49312 7.34636 5.56648
125 2 -0.831437 3.97848 11.8027 1.04386
126 2 -0.814142 2.15443 12.246 13.561
127 2 -0.874338 3.86701 10.1287 13.5082
128 2 -0.710113 5.7574 13.7665 0.888959
129 2 -0.627559 6.16618 11.5147 2.11756
130 2 -0.830396 0.675827 8.15264 8.09539
131 2 -0.819067 13.4446 6.21931 7.9975
132 2 -0.807175 13.2931 8.47751 6.44218
133 2 -0.861566 1.12501 9.92871 9.79147
134 2 -0.720262 2.81903 8.04915 9.53442
135 2 -0.738316 2.61335 9.85361 7.87075
136 2 -0.862262 0.776258 11.4892 11.824
137 2 -0.936718 13.4074 9.5495 11.4668
138 2 -0.744561 13.2347 11.3418 9.89392
139 2 -0.69893 4.47621 7.94321 12.2882
140 2 -0.851909 6.30904 8.5653 13.4565
141 2 -0.766971 5.44209 10.0032 11.6236
142 2 -0.66286 4.77612 11.0638 8.33166
143 2 -0.694946 6.40606 13.1633 7.95653
144 2 -0.724661 6.45767 11.6505 10.1994
145 2 -0.793137 8.10192 1.19974 0.824938
146 2 -0.739875 7.7623 13.101 13.677
147 2 -0.747693 8.28785 2.80736 2.71812
148 2 -0.69725 10.1256 1.12936 2.45609
149 2 -0.751955 9.74301 3.21952 0.895201
150 2 -0.633288 8.84611 4.71459 4.47416
151 2 -0.688177 9.88458 3.97297 6.47083
152 2 -0.675105 10.6586 6.25167 4.72788
153 2 -0.732988 8.48412 5.99918 6.64993
154 2 -0.599101 11.7567 1.43591 4.45011
155 2 -0.673116 9.55089 13.8244 4.20147
156 2 -0.845105 12.0457 13.2477 2.92939
157 2 -0.720667 12.0421 2.61603 6.4678
158 2 -0.725087 11.8091 4.50764 1.61266
159 2 -0.650685 10.2683 5.05786 13.3808
160 2 -0.602651 11.6357 3.17138 13.4336
161 2 -0.721246 12.2269 6.66544 2.64417
162 2 -0.74776 8.48576 0.491014 8.15802
163 2 -0.734384 7.84754 13.8072 5.77208
164 2 -0.662538 7.69411 2.49744 9.8087
165 2 -0.763165 9.74276 0.50509 10.2552
166 2 -0.658791 10.0022 2.32877 8.4961
167 2 -0.678844 8.31097 4.23362 11.4577
168 2 -0.663888 7.90145 6.54652 13.1348
169 2 -0.593794 9.73633 6.49701 11.6358
170 2 -0.739738 11.5206 0.684281 11.9694
171 2 -0.768909 9.90437 12.8868 11.7389
172 2 -0.711223 11.7426 13.4836 10.2168
173 2 -0.648308 11.3663 4.56097 8.46607
174 2 -0.623629 11.3715 6.35783 10.0038
175 2 -0.670145 7.67958 7.88556 1.04201
176 2 -0.810359 8.21713 10.1586 2.46002
177 2 -0.652647 9.5192 7.98508 2.49065
178 2 -0.696121 10.2042 9.4248 0.742166
179 2 -0.732848 7.77302 12.0957 4.08148
180 2 -0.667418 9.54219 12.0738 6.51583
181 2 -0.721825 11.4791 8.19369 4.63195
182 2 -0.876557 11.1362 9.94247 6.16743
183 2 -0.873061 11.6573 11.6438 0.984898
184 2 -0.635068 9.82831 11.864 13.815
185 2 -0.810911 11.7527 10.2806 13.0375
186 2 -0.857633 7.46842 7.842 7.66646
187 2 -0.807748 7.57027 9.48326 9.86819
188 2 -0.7746 9.10239 7.66205 9.55362
189 2 -0.604367 9.41102 9.87576 8.08692
190 2 -0.796684 8.07209 11.1844 11.6983
191 2 -0.890421 11.0403 8.60645 11.4368
192 2 -0.625603 11.3436 11.6316 8.09871
ITEM: TIMESTEP
79000
ITEM: NUMBER OF ATOMS
192
ITEM: BOX BOUNDS pp pp pp
3.7555418646864069e-03 1.4296244458135497e+01
3.7555418646864069e-03 1.4296244458135497e+01
3.7555418646864069e-03 1.4296244458135497e+01
ITEM: ATOMS id type q x y z
1 1 1.69691 -0.00336517 0.0929368 14.1901
2 1 1.50462 1.72255 1.76085 1.60533
3 1 1.35793 14.2737 3.41597 3.48578
4 1 1.59494 1.62596 5.05523 5.35689
5 1 1.34427 3.46044 13.9781 3.17682
6 1 1.26718 5.18176 1.54832 4.81712
7 1 1.6889 3.87531 3.49687 0.0683201
8 1 1.48004 5.21801 5.72486 1.79761
9 1 1.27872 0.246268 0.685344 6.81678
10 1 1.30129 1.84407 2.18649 9.25886
11 1 1.29535 13.9506 3.87207 11.0062
12 1 1.31388 2.03737 5.24291 12.6066
13 1 1.43903 3.71113 0.12493 10.8578
14 1 1.25722 5.67026 1.72432 12.708
15 1 1.42051 3.40023 3.19086 6.86043
16 1 1.57439 5.07607 5.09052 8.70348
17 1 1.30799 0.259333 6.79292 0.348323
18 1 1.58143 1.87372 8.80175 1.76438
19 1 1.26245 14.3211 10.6624 3.3358
20 1 1.46201 1.72987 12.777 5.38639
21 1 1.64028 3.57064 7.16395 3.79961
22 1 1.41152 5.2665 8.85647 5.56485
23 1 1.55294 3.59892 10.4436 14.1353
24 1 1.56499 5.39884 11.88 1.76017
25 1 1.46933 0.0278771 7.11758 7.22981
26 1 1.7156 1.73573 9.00494 9.10148
27 1 1.39482 0.29855 11.1354 10.7897
28 1 1.70811 2.02937 12.6076 12.8891
29 1 1.51773 3.64125 7.1052 10.678
30 1 1.53366 5.66778 8.65812 12.3598
31 1 1.34942 3.35417 10.9921 7.46948
32 1 1.58255 5.54251 12.4845 9.28471
33 1 1.45167 7.1551 13.94 0.26076
34 1 1.51688 8.68873 1.83044 1.80845
35 1 1.41603 7.0427 3.74901 3.37631
36 1 1.34846 8.84258 5.58209 5.36015
37 1 1.36295 10.698 0.109586 3.46797
38 1 1.45814 12.1182 1.99612 5.31658
39 1 1.4673 10.5909 3.15971 0.029033
40 1 1.4513 12.0506 5.25222 1.66101
41 1 1.3782 6.92266 0.0628408 7.1012
42 1 1.55839 8.75308 1.77243 8.90235
43 1 1.37549 7.05161 3.84612 10.5896
44 1 1.3236 9.18664 5.25295 12.6584
45 1 1.2692 10.6092 -0.00300831 10.4037
46 1 1.3985 12.3922 1.61004 12.4446
47 1 1.40071 10.3522 3.94926 7.07398
48 1 1.39089 12.2994 5.44536 9.04932
49 1 1.30804 7.63681 7.24216 0.0913886
50 1 1.56263 8.90539 9.46017 1.85424
51 1 1.50946 7.22196 10.858 3.93473
52 1 1.41829 9.0697 12.5961 5.80206
53 1 1.39073 10.5418 7.45884 3.41018
54 1 1.31572 12.4771 8.86262 5.41417
55 1 1.51396 10.7996 10.6912 14.1616
56 1 1.40693 12.6251 12.6498 1.79655
57 1 1.53747 7.05673 7.06865 7.39653
58 1 1.71073 9.1016 8.87904 8.916
59 1 1.58102 7.27284 10.5092 10.659
60 1 1.43283 8.88337 12.3737 12.5741
61 1 1.53523 10.799 7.39744 10.8469
62 1 1.27227 12.8708 9.02552 12.4602
63 1 1.74991 10.9904 10.6711 7.29963
64 1 1.16632 12.6942 12.7636 8.69567
65 2 -0.868732 0.908604 1.14892 0.523967
66 2 -0.890826 0.865333 13.2174 13.5827
67 2 -0.875007 13.5789 0.952925 13.0761
68 2 -0.838667 13.5253 13.7324 1.05826
69 2 -0.772485 0.821772 2.26658 2.88986
70 2 -0.67876 2.59722 0.558009 2.10796
71 2 -0.800304 3.00306 2.66563 0.993591
72 2 -0.919926 0.737728 4.35062 4.41903
73 2 -0.716356 12.9265 2.69821 4.24373
74 2 -0.64249 12.9213 4.15259 2.362
75 2 -0.833497 2.78089 4.21368 5.89404
76 2 -0.713205 2.52038 6.25651 4.60101
77 2 -0.745327 0.89134 5.92221 6.54482
78 2 -0.687806 4.73923 0.629988 3.59881
79 2 -0.786943 2.31043 13.5139 4.30046
80 2 -0.633359 4.10085 12.6486 2.49871
81 2 -0.669668 3.94558 1.96017 6.16569
82 2 -0.65528 5.94799 2.83436 3.90111
83 2 -0.67952 6.13066 1.03676 5.86266
84 2 -0.820923 4.58644 4.7099 0.644606
85 2 -0.793159 3.14504 4.27401 13.1884
86 2 -0.809611 4.76894 2.41471 13.8305
87 2 -0.891024 4.27839 6.62845 2.60789
88 2 -0.791474 6.21748 4.91924 2.59892
89 2 -0.612164 6.27043 6.93442 1.13207
90 2 -0.665822 1.26863 1.39065 7.8461
91 2 -0.751 0.957551 13.8252 6.02191
92 2 -0.631009 13.0167 1.13391 6.427
93 2 -0.479338 13.5405 13.8155 7.8188
94 2 -0.681079 0.675329 2.8471 10.1446
95 2 -0.705601 2.84679 0.973422 9.83644
96 2 -0.676929 2.74714 3.16326 8.38253
97 2 -0.713497 0.65226 4.75699 11.8011
98 2 -0.598784 12.3825 2.94723 11.6353
99 2 -0.731424 13.3497 4.62797 9.80638
100 2 -0.690581 1.30781 5.7836 13.9551
101 2 -0.719511 2.8439 6.64388 11.8738
102 2 -0.607255 4.89323 1.048 11.2552
103 2 -0.781976 3.04975 13.6764 12.112
104 2 -0.733124 4.82234 13.415 10.2004
105 2 -0.707945 6.6662 0.656407 13.4924
106 2 -0.565806 6.67272 2.69558 11.6765
107 2 -0.666501 4.64743 4.18638 7.5687
108 2 -0.740391 4.05754 5.85093 9.64118
109 2 -0.732467 5.7961 3.98384 9.66439
110 2 -0.772127 5.94344 6.22857 8.17955
111 2 -0.743263 0.70473 8.34051 0.996676
112 2 -0.671305 13.5158 6.05801 1.11274
113 2 -0.484987 13.6 7.49149 13.3783
114 2 -0.702226 1.46299 10.0008 2.5018
115 2 -0.79428 2.71572 8.11108 2.97384
116 2 -0.701395 2.69845 9.1181 0.448377
117 2 -0.569758 0.367412 11.7198 4.42662
118 2 -0.564151 13.0749 9.61967 3.93743
119 2 -0.645184 13.5016 11.5075 2.21457
120 2 -0.768369 2.40936 11.7935 6.65632
121 2 -0.76253 4.16403 7.86639 5.08608
122 2 -0.560697 4.33136 9.84952 6.48276
123 2 -0.763919 6.19834 9.73476 4.60201
124 2 -0.677665 6.04833 8.13717 6.80328
125 2 -0.822109 4.56659 10.8308 0.968246
126 2 -0.910478 2.70524 11.5224 13.7349
127 2 -0.74012 4.8442 9.7821 13.1245
128 2 -0.836534 6.12675 13.0046 1.02891
129 2 -0.747371 6.05796 11.6576 3.14564
130 2 -0.789219 0.896275 8.21543 8.0579
131 2 -0.725224 13.0453 6.64635 8.15143
132 2 -0.714088 13.7159 7.90945 6.07762
133 2 -0.811208 0.845779 9.78093 10.0592
134 2 -0.756297 2.74728 8.17259 9.77448
135 2 -0.692405 2.91146 9.6505 8.4496
136 2 -0.80425 1.49054 11.8416 11.6988
137 2 -0.656054 13.4547 10.5222 11.7401
138 2 -0.654345 13.9956 11.8184 9.541
139 2 -0.75603 4.80283 7.91023 11.3106
140 2 -0.718092 6.65547 7.76479 12.9902
141 2 -0.681606 6.6261 9.21171 11.1031
142 2 -0.723479 4.44618 11.8719 8.30705
143 2 -0.740827 6.14323 13.5937 8.25049
144 2 -0.865323 6.12924 11.3491 10.1721
145 2 -0.668399 8.36128 0.354921 1.19729
146 2 -0.739895 8.33363 13.361 13.665
147 2 -0.845687 7.7179 2.86705 2.29375
148 2 -0.633058 9.54101 1.0626 3.09174
149 2 -0.833717 9.9342 2.3128 1.2051
150 2 -0.627627 8.00376 4.29798 4.80791
151 2 -0.811618 10.0352 5.06807 6.01027
152 2 -0.710234 9.6276 6.52082 4.26471
153 2 -0.730748 7.41048 6.18387 6.17868
154 2 -0.674708 11.773 0.774891 4.40065
155 2 -0.517709 9.68501 14.0211 4.5935
156 2 -0.665897 11.5402 13.0373 2.94243
157 2 -0.67094 10.9204 2.70308 6.03697
158 2 -0.769201 11.4667 4.45851 0.467663
159 2 -0.712012 9.53899 3.75872 13.4139
160 2 -0.733893 11.2383 1.95752 13.3936
161 2 -0.7285 11.2988 6.46318 2.11233
162 2 -0.721549 7.95544 0.988936 7.83616
163 2 -0.728649 8.27765 13.4268 6.69304
164 2 -0.664816 7.86482 2.68571 9.78903
165 2 -0.761386 9.663 1.0928 9.91488
166 2 -0.672955 9.55655 3.06818 8.00111
167 2 -0.658359 8.13741 4.7311 11.378
168 2 -0.707153 8.79156 6.41357 13.5358
169 2 -0.571664 10.2799 6.31683 11.9687
170 2 -0.623078 11.9986 0.526904 11.039
171 2 -0.587974 9.36505 13.014 11.0731
172 2 -0.617285 11.2957 13.6244 9.12479
173 2 -0.678398 11.4679 4.38042 8.22863
174 2 -0.682622 11.1592 6.12749 10.1107
175 2 -0.754788 8.26386 8.31097 0.894745
176 2 -0.82636 7.90606 10.3666 2.645
177 2 -0.808004 9.88539 8.74149 2.90442
178 2 -0.774257 9.46728 10.2032 0.655283
179 2 -0.809284 8.20112 11.6328 4.85415
180 2 -0.795411 10.1944 11.7057 6.57995
181 2 -0.624599 11.4233 7.67176 4.74192
182 2 -0.825919 11.7343 9.85583 6.2835
183 2 -0.642865 11.6931 11.3852 0.957249
184 2 -0.767402 10.1556 11.7061 13.1452
185 2 -0.718536 11.7971 9.78096 13.4024
186 2 -0.825781 8.12562 7.81304 8.22874
187 2 -0.839412 8.16558 9.95744 9.5277
188 2 -0.895645 9.75287 7.93065 9.92043
189 2 -0.955985 10.0509 9.74157 8.04767
190 2 -0.753917 8.18301 11.1492 11.9392
191 2 -0.763828 12.0745 8.15656 11.5054
192 2 -0.684016 12.2314 11.529 7.65824
ITEM: TIMESTEP
80000
ITEM: NUMBER OF ATOMS
192
ITEM: BOX BOUNDS pp pp pp
3.7150004560171368e-03 1.4296284999544151e+01
3.7150004560171368e-03 1.4296284999544151e+01
3.7150004560171368e-03 1.4296284999544151e+01
ITEM: ATOMS id type q x y z
1 1 1.23425 13.9694 13.9446 0.276553
2 1 1.42115 1.70188 1.50737 1.85593
3 1 1.57574 0.152893 3.67409 3.81908
4 1 1.53198 2.29028 5.28355 5.30943
5 1 1.38962 3.38091 0.227652 4.05089
6 1 1.30835 5.5444 1.89067 5.52292
7 1 1.66097 3.15122 3.25176 14.1639
8 1 1.4172 5.31801 5.01059 1.44001
9 1 1.68912 14.216 14.1799 7.07334
10 1 1.4845 1.80546 1.48148 8.8307
11 1 1.60106 0.140206 3.59331 10.6063
12 1 1.3801 1.76654 5.503 12.4494
13 1 1.34121 3.25638 14.1207 10.8939
14 1 1.39968 5.03797 1.82766 12.2405
15 1 1.34637 3.86961 3.5168 7.36047
16 1 1.35574 5.47359 5.68846 9.02914
17 1 1.50002 -0.0805428 7.34399 13.9264
18 1 1.75581 2.0256 8.6628 1.30584
19 1 1.25457 0.163458 10.1803 3.30749
20 1 1.52731 1.59305 12.1854 5.20396
21 1 1.47716 3.73414 7.13813 3.383
22 1 1.7243 5.46983 9.02735 5.12358
23 1 1.35611 3.43113 11.2073 0.3546
24 1 1.36307 5.22429 13.2238 1.87406
25 1 1.23219 0.280474 6.99399 6.97296
26 1 1.48602 1.54094 8.8829 8.93663
27 1 1.41442 13.9837 10.5458 10.8223
28 1 1.35787 1.32564 12.3579 12.554
29 1 1.29143 3.89239 7.77659 10.7757
30 1 1.31168 5.52121 9.39732 12.7808
31 1 1.60384 3.4771 10.2923 7.07637
32 1 1.69301 5.00924 12.2952 8.912
33 1 1.36175 7.0156 0.401145 -0.007703
34 1 1.31406 9.16065 1.88553 1.78199
35 1 1.50506 7.42438 3.76469 3.45755
36 1 1.28627 9.21715 5.22708 5.40539
37 1 1.51615 10.9835 0.297952 3.84189
38 1 1.89091 12.7378 1.96979 5.49153
39 1 1.41328 10.9226 3.76356 0.0970088
40 1 1.34746 12.9182 5.40074 1.85251
41 1 1.30432 7.01955 14.2336 7.43541
42 1 1.16474 9.04286 1.49564 9.18165
43 1 1.34024 7.03606 3.5113 10.3527
44 1 1.32082 9.18083 5.26909 12.376
45 1 1.33434 10.961 14.059 10.7932
46 1 1.17327 12.7223 1.50615 12.5826
47 1 1.31152 10.8237 3.39628 7.4376
48 1 1.32787 12.6673 5.34995 8.9928
49 1 1.245 7.08609 6.96506 14.0685
50 1 1.41098 8.40971 8.75244 1.77917
51 1 1.47353 7.03337 10.9316 3.36209
52 1 1.4636 8.74911 12.7123 5.23906
53 1 1.38051 10.7925 7.4028 3.29356
54 1 1.30194 12.4665 8.77694 5.51671
55 1 1.47369 10.3249 10.6193 0.162924
56 1 1.31407 12.196 12.0692 2.02728
57 1 1.35873 7.30959 7.23204 6.92523
58 1 1.38695 9.00993 9.09168 8.7574
59 1 1.37498 7.19164 11.1083 10.8721
60 1 1.42647 8.98507 12.8722 12.8169
61 1 1.33305 10.6321 7.21108 10.6446
62 1 1.44263 12.0186 8.84416 12.6837
63 1 1.64731 10.55 10.8749 6.83716
64 1 1.62264 12.4984 12.3496 8.8381
65 2 -0.622977 0.922238 0.126165 1.41225
66 2 -0.591599 0.643643 13.6559 13.2526
67 2 -0.588705 13.832 1.08506 13.6977
68 2 -0.696753 13.0681 12.8901 0.869406
69 2 -0.679914 0.759677 2.45604 2.80914
70 2 -0.792241 2.70098 1.10358 3.0253
71 2 -0.829684 2.30857 2.23098 0.578512
72 2 -0.794303 1.42206 4.50016 4.335
73 2 -0.984944 13.4506 3.10026 4.73293
74 2 -0.751841 13.9498 4.55649 2.60864
75 2 -0.738847 3.30467 4.64589 6.45824
76 2 -0.728604 2.84231 6.09113 4.20426
77 2 -0.642342 1.61389 6.58643 5.73369
78 2 -0.699591 4.16436 1.18286 5.10098
79 2 -0.74542 2.53438 13.3255 4.75786
80 2 -0.654043 4.72125 13.6583 3.27335
81 2 -0.778035 4.86648 2.84597 6.4994
82 2 -0.657148 6.26849 3.18181 4.25252
83 2 -0.735441 6.58945 1.17003 6.56176
84 2 -0.805687 4.20323 4.11666 0.670054
85 2 -0.714382 2.24228 4.25148 13.4077
86 2 -0.777249 3.75412 2.54271 12.9283
87 2 -0.635737 4.87723 6.16282 2.37584
88 2 -0.665411 6.71783 4.26706 2.12947
89 2 -0.626489 6.11091 5.85573 0.352893
90 2 -0.839317 0.622919 0.542224 8.14171
91 2 -0.793278 0.662266 13.0289 6.12743
92 2 -0.98114 13.459 0.865373 6.15537
93 2 -0.791075 13.2644 13.404 8.16074
94 2 -0.670607 1.14934 2.69721 9.6921
95 2 -0.748224 2.87612 0.775031 9.63283
96 2 -0.663934 2.40728 2.64198 8.00439
97 2 -0.761418 0.909085 4.5724 11.377
98 2 -0.603635 13.5262 2.34461 11.2522
99 2 -0.810352 13.5028 4.17992 9.62386
100 2 -0.704377 0.448473 6.11564 13.1093
101 2 -0.596675 2.93553 6.37905 11.6699
102 2 -0.653992 4.75887 0.551764 11.4479
103 2 -0.713876 2.08387 13.3184 11.4143
104 2 -0.673055 4.17995 13.1796 9.80458
105 2 -0.717302 6.06557 1.19111 13.2641
106 2 -0.619798 5.73372 3.02754 11.2563
107 2 -0.639639 4.30691 4.64671 8.62613
108 2 -0.630895 4.95264 7.02187 9.85168
109 2 -0.781116 6.4912 4.7657 9.79987
110 2 -0.680967 6.26078 6.64826 7.83868
111 2 -0.873038 1.37502 8.17484 14.417
112 2 -0.661045 13.7567 6.52228 0.961181
113 2 -0.880653 13.0573 8.03831 13.2783
114 2 -0.76077 0.956621 9.06426 2.3164
115 2 -0.798223 2.88928 7.80612 2.25461
116 2 -0.770403 3.06582 9.76792 1.10051
117 2 -0.722412 1.21731 11.4128 3.95311
118 2 -0.60021 13.8135 9.83334 4.66745
119 2 -0.634072 13.3399 10.9722 2.2215
120 2 -0.746573 2.5457 11.2359 6.33918
121 2 -0.782094 4.7717 8.0698 4.17869
122 2 -0.777206 4.35479 9.206 6.29895
123 2 -0.837328 5.92265 10.277 4.53661
124 2 -0.726689 6.31044 7.95386 5.66086
125 2 -0.772282 4.11077 12.4184 1.1034
126 2 -0.75514 2.45902 11.6342 13.3911
127 2 -0.601019 4.77441 10.4866 14.0023
128 2 -0.739548 6.10328 0.0861719 1.24664
129 2 -0.675611 6.49773 12.1614 2.68058
130 2 -0.749996 0.727907 7.6176 8.34737
131 2 -0.59597 13.2349 6.10156 7.75218
132 2 -0.699545 13.5688 7.78296 6.17047
133 2 -0.696122 1.02269 10.0289 9.91316
134 2 -0.693067 2.66786 8.31254 9.95108
135 2 -0.804838 2.40221 9.6815 7.98673
136 2 -0.716666 0.095897 11.4438 12.07
137 2 -0.68233 12.8769 9.40915 11.273
138 2 -0.824478 13.3635 11.5681 9.90861
139 2 -0.683128 4.87451 8.87862 11.5341
140 2 -0.626651 5.61267 8.1662 13.5535
141 2 -0.664804 6.86222 10.0261 11.8462
142 2 -0.802116 4.48409 11.0971 8.06239
143 2 -0.75077 5.68992 13.3119 8.0727
144 2 -0.733599 5.85499 11.7062 10.0555
145 2 -0.604924 8.19541 1.52478 0.481088
146 2 -0.720145 7.94667 13.4072 13.8875
147 2 -0.772788 8.49869 2.86642 2.92499
148 2 -0.687177 9.99253 0.620016 2.63931
149 2 -0.740762 10.0617 2.96986 0.982782
150 2 -0.709978 7.94006 4.86665 4.54401
151 2 -0.631178 10.1889 3.99019 6.04824
152 2 -0.581295 10.0321 6.36275 4.42953
153 2 -0.653618 8.5387 6.08178 6.56453
154 2 -0.931723 11.721 1.37998 4.55336
155 2 -0.708335 9.90768 14.049 4.69961
156 2 -0.661122 11.9686 13.2377 3.1441
157 2 -0.790212 11.8555 2.51419 6.62819
158 2 -0.687237 12.3189 4.56994 0.563804
159 2 -0.707669 9.94531 4.26575 13.3887
160 2 -0.500092 11.3332 2.53406 13.2062
161 2 -0.696434 11.6043 6.14182 2.69085
162 2 -0.671647 8.19543 0.241229 8.52751
163 2 -0.661588 7.54874 13.1871 6.23569
164 2 -0.616313 7.9857 2.18599 10.1737
165 2 -0.558352 9.87001 0.942236 10.4397
166 2 -0.600991 10.1564 2.82144 8.90724
167 2 -0.515565 8.17645 4.15426 11.4026
168 2 -0.657398 8.00739 6.41639 12.7923
169 2 -0.683836 10.2375 5.88942 11.4893
170 2 -0.628237 12.131 0.193371 12.0272
171 2 -0.750331 10.0023 13.4036 11.8618
172 2 -0.712106 11.3093 13.2829 9.46356
173 2 -0.609811 11.411 4.72443 7.84184
174 2 -0.590385 12.0842 6.30948 10.1913
175 2 -0.71367 7.57866 7.36545 1.1278
176 2 -0.786913 7.77214 9.77226 2.84822
177 2 -0.694861 9.56313 8.29259 2.71904
178 2 -0.79167 9.29967 9.63359 0.883398
179 2 -0.719794 8.31379 11.7384 4.26471
180 2 -0.850439 9.65035 11.8941 6.21111
181 2 -0.734802 11.6819 8.26132 4.17115
182 2 -0.772375 11.6024 9.96034 6.22359
183 2 -0.708022 10.789 11.6838 1.2142
184 2 -0.702011 9.63663 11.2839 13.2529
185 2 -0.732544 11.6493 9.95226 13.884
186 2 -0.738873 8.11651 8.43603 7.71182
187 2 -0.631853 7.98694 10.196 9.85976
188 2 -0.753946 9.95275 8.06313 9.54102
189 2 -0.751746 10.1555 9.93078 7.98589
190 2 -0.616389 7.75768 12.4041 11.9221
191 2 -0.716997 10.8349 7.99484 12.0624
192 2 -0.745405 11.5404 11.7579 7.80935
