ITEM: TIMESTEP
0
ITEM: NUMBER OF ATOMS
1536
ITEM: BOX BOUNDS pp pp pp
0.0000000000000000e+00 2.8600000000000001e+01
0.0000000000000000e+00 2.8600000000000001e+01
0.0000000000000000e+00 2.8600000000000001e+01
ITEM: ATOMS id type q x y z
1 1 1.82259 0 0 0
2 1 1.82259 0 3.575 3.575
3 1 1.82259 3.575 0 3.575
4 1 1.82259 3.575 3.575 0
5 1 1.82259 1.7875 1.7875 1.7875
6 1 1.82259 1.7875 5.3625 5.3625
7 1 1.82259 5.3625 1.7875 5.3625
8 1 1.82259 5.3625 5.3625 1.7875
33 1 1.82259 0 7.15 0
35 1 1.82259 3.575 7.15 3.575
129 1 1.82259 7.15 0 0
130 1 1.82259 7.15 3.575 3.575
161 1 1.82259 7.15 7.15 0
513 2 -0.911295 0.89375 0.89375 0.89375
517 2 -0.911295 0.89375 2.68125 2.68125
518 2 -0.911295 0.89375 4.46875 4.46875
521 2 -0.911295 2.68125 0.89375 2.68125
522 2 -0.911295 4.46875 0.89375 4.46875
525 2 -0.911295 2.68125 2.68125 0.89375
526 2 -0.911295 4.46875 4.46875 0.89375
530 2 -0.911295 2.68125 6.25625 4.46875
533 2 -0.911295 6.25625 2.68125 4.46875
535 2 -0.911295 4.46875 6.25625 2.68125
536 2 -0.911295 6.25625 4.46875 2.68125
537 2 -0.911295 6.25625 6.25625 0.89375
131 1 1.82259 10.725 0 3.575
132 1 1.82259 10.725 3.575 0
133 1 1.82259 8.9375 1.7875 1.7875
134 1 1.82259 8.9375 5.3625 5.3625
135 1 1.82259 12.5125 1.7875 5.3625
136 1 1.82259 12.5125 5.3625 1.7875
163 1 1.82259 10.725 7.15 3.575
833 2 -0.911295 8.04375 0.89375 0.89375
835 2 -0.911295 8.04375 2.68125 2.68125
836 2 -0.911295 8.04375 4.46875 4.46875
837 2 -0.911295 9.83125 0.89375 2.68125
838 2 -0.911295 11.6188 0.89375 4.46875
841 2 -0.911295 9.83125 2.68125 0.89375
842 2 -0.911295 11.6188 4.46875 0.89375
846 2 -0.911295 9.83125 6.25625 4.46875
849 2 -0.911295 13.4062 2.68125 4.46875
851 2 -0.911295 11.6188 6.25625 2.68125
852 2 -0.911295 13.4062 4.46875 2.68125
853 2 -0.911295 13.4062 6.25625 0.89375
34 1 1.82259 0 10.725 3.575
36 1 1.82259 3.575 10.725 0
37 1 1.82259 1.7875 8.9375 1.7875
38 1 1.82259 1.7875 12.5125 5.3625
39 1 1.82259 5.3625 8.9375 5.3625
40 1 1.82259 5.3625 12.5125 1.7875
162 1 1.82259 7.15 10.725 3.575
605 2 -0.911295 0.89375 8.04375 0.89375
608 2 -0.911295 0.89375 9.83125 2.68125
609 2 -0.911295 0.89375 11.6188 4.46875
612 2 -0.911295 2.68125 8.04375 2.68125
613 2 -0.911295 4.46875 8.04375 4.46875
614 2 -0.911295 2.68125 9.83125 0.89375
615 2 -0.911295 4.46875 11.6188 0.89375
619 2 -0.911295 2.68125 13.4062 4.46875
622 2 -0.911295 6.25625 9.83125 4.46875
624 2 -0.911295 4.46875 13.4062 2.68125
625 2 -0.911295 6.25625 11.6188 2.68125
626 2 -0.911295 6.25625 13.4062 0.89375
164 1 1.82259 10.725 10.725 0
165 1 1.82259 8.9375 8.9375 1.7875
166 1 1.82259 8.9375 12.5125 5.3625
167 1 1.82259 12.5125 8.9375 5.3625
168 1 1.82259 12.5125 12.5125 1.7875
909 2 -0.911295 8.04375 8.04375 0.89375
910 2 -0.911295 8.04375 9.83125 2.68125
911 2 -0.911295 8.04375 11.6188 4.46875
912 2 -0.911295 9.83125 8.04375 2.68125
913 2 -0.911295 11.6188 8.04375 4.46875
914 2 -0.911295 9.83125 9.83125 0.89375
915 2 -0.911295 11.6188 11.6188 0.89375
919 2 -0.911295 9.83125 13.4062 4.46875
922 2 -0.911295 13.4062 9.83125 4.46875
924 2 -0.911295 11.6188 13.4062 2.68125
925 2 -0.911295 13.4062 11.6188 2.68125
926 2 -0.911295 13.4062 13.4062 0.89375
9 1 1.82259 0 0 7.15
10 1 1.82259 0 3.575 10.725
11 1 1.82259 3.575 0 10.725
12 1 1.82259 3.575 3.575 7.15
13 1 1.82259 1.7875 1.7875 8.9375
16 1 1.82259 5.3625 5.3625 8.9375
41 1 1.82259 0 7.15 7.15
43 1 1.82259 3.575 7.15 10.725
137 1 1.82259 7.15 0 7.15
138 1 1.82259 7.15 3.575 10.725
169 1 1.82259 7.15 7.15 7.15
529 2 -0.911295 2.68125 4.46875 6.25625
531 2 -0.911295 0.89375 6.25625 6.25625
532 2 -0.911295 4.46875 2.68125 6.25625
534 2 -0.911295 6.25625 0.89375 6.25625
538 2 -0.911295 0.89375 0.89375 8.04375
542 2 -0.911295 0.89375 2.68125 9.83125
546 2 -0.911295 2.68125 0.89375 9.83125
550 2 -0.911295 2.68125 2.68125 8.04375
551 2 -0.911295 4.46875 4.46875 8.04375
558 2 -0.911295 4.46875 6.25625 9.83125
559 2 -0.911295 6.25625 4.46875 9.83125
560 2 -0.911295 6.25625 6.25625 8.04375
139 1 1.82259 10.725 0 10.725
140 1 1.82259 10.725 3.575 7.15
141 1 1.82259 8.9375 1.7875 8.9375
144 1 1.82259 12.5125 5.3625 8.9375
171 1 1.82259 10.725 7.15 10.725
845 2 -0.911295 9.83125 4.46875 6.25625
847 2 -0.911295 8.04375 6.25625 6.25625
848 2 -0.911295 11.6188 2.68125 6.25625
850 2 -0.911295 13.4062 0.89375 6.25625
854 2 -0.911295 8.04375 0.89375 8.04375
856 2 -0.911295 8.04375 2.68125 9.83125
858 2 -0.911295 9.83125 0.89375 9.83125
862 2 -0.911295 9.83125 2.68125 8.04375
863 2 -0.911295 11.6188 4.46875 8.04375
870 2 -0.911295 11.6188 6.25625 9.83125
871 2 -0.911295 13.4062 4.46875 9.83125
872 2 -0.911295 13.4062 6.25625 8.04375
42 1 1.82259 0 10.725 10.725
44 1 1.82259 3.575 10.725 7.15
45 1 1.82259 1.7875 8.9375 8.9375
48 1 1.82259 5.3625 12.5125 8.9375
170 1 1.82259 7.15 10.725 10.725
618 2 -0.911295 2.68125 11.6188 6.25625
620 2 -0.911295 0.89375 13.4062 6.25625
621 2 -0.911295 4.46875 9.83125 6.25625
623 2 -0.911295 6.25625 8.04375 6.25625
627 2 -0.911295 0.89375 8.04375 8.04375
630 2 -0.911295 0.89375 9.83125 9.83125
634 2 -0.911295 2.68125 8.04375 9.83125
636 2 -0.911295 2.68125 9.83125 8.04375
637 2 -0.911295 4.46875 11.6188 8.04375
644 2 -0.911295 4.46875 13.4062 9.83125
645 2 -0.911295 6.25625 11.6188 9.83125
646 2 -0.911295 6.25625 13.4062 8.04375
172 1 1.82259 10.725 10.725 7.15
173 1 1.82259 8.9375 8.9375 8.9375
176 1 1.82259 12.5125 12.5125 8.9375
918 2 -0.911295 9.83125 11.6188 6.25625
920 2 -0.911295 8.04375 13.4062 6.25625
921 2 -0.911295 11.6188 9.83125 6.25625
923 2 -0.911295 13.4062 8.04375 6.25625
927 2 -0.911295 8.04375 8.04375 8.04375
928 2 -0.911295 8.04375 9.83125 9.83125
930 2 -0.911295 9.83125 8.04375 9.83125
932 2 -0.911295 9.83125 9.83125 8.04375
933 2 -0.911295 11.6188 11.6188 8.04375
940 2 -0.911295 11.6188 13.4062 9.83125
941 2 -0.911295 13.4062 11.6188 9.83125
942 2 -0.911295 13.4062 13.4062 8.04375
14 1 1.82259 1.7875 5.3625 12.5125
15 1 1.82259 5.3625 1.7875 12.5125
17 1 1.82259 0 0 14.3
20 1 1.82259 3.575 3.575 14.3
21 1 1.82259 1.7875 1.7875 16.0875
24 1 1.82259 5.3625 5.3625 16.0875
49 1 1.82259 0 7.15 14.3
145 1 1.82259 7.15 0 14.3
177 1 1.82259 7.15 7.15 14.3
543 2 -0.911295 0.89375 4.46875 11.6188
547 2 -0.911295 4.46875 0.89375 11.6188
552 2 -0.911295 2.68125 4.46875 13.4062
553 2 -0.911295 2.68125 6.25625 11.6188
554 2 -0.911295 0.89375 6.25625 13.4062
555 2 -0.911295 4.46875 2.68125 13.4062
556 2 -0.911295 6.25625 2.68125 11.6188
557 2 -0.911295 6.25625 0.89375 13.4062
561 2 -0.911295 0.89375 0.89375 15.1937
565 2 -0.911295 0.89375 2.68125 16.9812
569 2 -0.911295 2.68125 0.89375 16.9812
573 2 -0.911295 2.68125 2.68125 15.1937
574 2 -0.911295 4.46875 4.46875 15.1937
581 2 -0.911295 4.46875 6.25625 16.9812
582 2 -0.911295 6.25625 4.46875 16.9812
583 2 -0.911295 6.25625 6.25625 15.1937
142 1 1.82259 8.9375 5.3625 12.5125
143 1 1.82259 12.5125 1.7875 12.5125
148 1 1.82259 10.725 3.575 14.3
149 1 1.82259 8.9375 1.7875 16.0875
152 1 1.82259 12.5125 5.3625 16.0875
857 2 -0.911295 8.04375 4.46875 11.6188
859 2 -0.911295 11.6188 0.89375 11.6188
864 2 -0.911295 9.83125 4.46875 13.4062
865 2 -0.911295 9.83125 6.25625 11.6188
866 2 -0.911295 8.04375 6.25625 13.4062
867 2 -0.911295 11.6188 2.68125 13.4062
868 2 -0.911295 13.4062 2.68125 11.6188
869 2 -0.911295 13.4062 0.89375 13.4062
873 2 -0.911295 8.04375 0.89375 15.1937
875 2 -0.911295 8.04375 2.68125 16.9812
877 2 -0.911295 9.83125 0.89375 16.9812
881 2 -0.911295 9.83125 2.68125 15.1937
882 2 -0.911295 11.6188 4.46875 15.1937
889 2 -0.911295 11.6188 6.25625 16.9812
890 2 -0.911295 13.4062 4.46875 16.9812
891 2 -0.911295 13.4062 6.25625 15.1937
46 1 1.82259 1.7875 12.5125 12.5125
47 1 1.82259 5.3625 8.9375 12.5125
52 1 1.82259 3.575 10.725 14.3
53 1 1.82259 1.7875 8.9375 16.0875
56 1 1.82259 5.3625 12.5125 16.0875
631 2 -0.911295 0.89375 11.6188 11.6188
635 2 -0.911295 4.46875 8.04375 11.6188
638 2 -0.911295 2.68125 11.6188 13.4062
639 2 -0.911295 2.68125 13.4062 11.6188
640 2 -0.911295 0.89375 13.4062 13.4062
641 2 -0.911295 4.46875 9.83125 13.4062
642 2 -0.911295 6.25625 9.83125 11.6188
643 2 -0.911295 6.25625 8.04375 13.4062
647 2 -0.911295 0.89375 8.04375 15.1937
650 2 -0.911295 0.89375 9.83125 16.9812
654 2 -0.911295 2.68125 8.04375 16.9812
656 2 -0.911295 2.68125 9.83125 15.1937
657 2 -0.911295 4.46875 11.6188 15.1937
664 2 -0.911295 4.46875 13.4062 16.9812
665 2 -0.911295 6.25625 11.6188 16.9812
666 2 -0.911295 6.25625 13.4062 15.1937
174 1 1.82259 8.9375 12.5125 12.5125
175 1 1.82259 12.5125 8.9375 12.5125
180 1 1.82259 10.725 10.725 14.3
181 1 1.82259 8.9375 8.9375 16.0875
184 1 1.82259 12.5125 12.5125 16.0875
929 2 -0.911295 8.04375 11.6188 11.6188
931 2 -0.911295 11.6188 8.04375 11.6188
934 2 -0.911295 9.83125 11.6188 13.4062
935 2 -0.911295 9.83125 13.4062 11.6188
936 2 -0.911295 8.04375 13.4062 13.4062
937 2 -0.911295 11.6188 9.83125 13.4062
938 2 -0.911295 13.4062 9.83125 11.6188
939 2 -0.911295 13.4062 8.04375 13.4062
943 2 -0.911295 8.04375 8.04375 15.1937
944 2 -0.911295 8.04375 9.83125 16.9812
946 2 -0.911295 9.83125 8.04375 16.9812
948 2 -0.911295 9.83125 9.83125 15.1937
949 2 -0.911295 11.6188 11.6188 15.1937
956 2 -0.911295 11.6188 13.4062 16.9812
957 2 -0.911295 13.4062 11.6188 16.9812
958 2 -0.911295 13.4062 13.4062 15.1937
18 1 1.82259 0 3.575 17.875
19 1 1.82259 3.575 0 17.875
22 1 1.82259 1.7875 5.3625 19.6625
23 1 1.82259 5.3625 1.7875 19.6625
25 1 1.82259 0 0 21.45
28 1 1.82259 3.575 3.575 21.45
51 1 1.82259 3.575 7.15 17.875
57 1 1.82259 0 7.15 21.45
146 1 1.82259 7.15 3.575 17.875
153 1 1.82259 7.15 0 21.45
185 1 1.82259 7.15 7.15 21.45
566 2 -0.911295 0.89375 4.46875 18.7688
570 2 -0.911295 4.46875 0.89375 18.7688
575 2 -0.911295 2.68125 4.46875 20.5562
576 2 -0.911295 2.68125 6.25625 18.7688
577 2 -0.911295 0.89375 6.25625 20.5562
578 2 -0.911295 4.46875 2.68125 20.5562
579 2 -0.911295 6.25625 2.68125 18.7688
580 2 -0.911295 6.25625 0.89375 20.5562
584 2 -0.911295 0.89375 0.89375 22.3438
596 2 -0.911295 2.68125 2.68125 22.3438
597 2 -0.911295 4.46875 4.46875 22.3438
604 2 -0.911295 6.25625 6.25625 22.3438
147 1 1.82259 10.725 0 17.875
150 1 1.82259 8.9375 5.3625 19.6625
151 1 1.82259 12.5125 1.7875 19.6625
156 1 1.82259 10.725 3.575 21.45
179 1 1.82259 10.725 7.15 17.875
876 2 -0.911295 8.04375 4.46875 18.7688
878 2 -0.911295 11.6188 0.89375 18.7688
883 2 -0.911295 9.83125 4.46875 20.5562
884 2 -0.911295 9.83125 6.25625 18.7688
885 2 -0.911295 8.04375 6.25625 20.5562
886 2 -0.911295 11.6188 2.68125 20.5562
887 2 -0.911295 13.4062 2.68125 18.7688
888 2 -0.911295 13.4062 0.89375 20.5562
892 2 -0.911295 8.04375 0.89375 22.3438
900 2 -0.911295 9.83125 2.68125 22.3438
901 2 -0.911295 11.6188 4.46875 22.3438
908 2 -0.911295 13.4062 6.25625 22.3438
50 1 1.82259 0 10.725 17.875
54 1 1.82259 1.7875 12.5125 19.6625
55 1 1.82259 5.3625 8.9375 19.6625
60 1 1.82259 3.575 10.725 21.45
178 1 1.82259 7.15 10.725 17.875
651 2 -0.911295 0.89375 11.6188 18.7688
655 2 -0.911295 4.46875 8.04375 18.7688
658 2 -0.911295 2.68125 11.6188 20.5562
659 2 -0.911295 2.68125 13.4062 18.7688
660 2 -0.911295 0.89375 13.4062 20.5562
661 2 -0.911295 4.46875 9.83125 20.5562
662 2 -0.911295 6.25625 9.83125 18.7688
663 2 -0.911295 6.25625 8.04375 20.5562
667 2 -0.911295 0.89375 8.04375 22.3438
676 2 -0.911295 2.68125 9.83125 22.3438
677 2 -0.911295 4.46875 11.6188 22.3438
684 2 -0.911295 6.25625 13.4062 22.3438
182 1 1.82259 8.9375 12.5125 19.6625
183 1 1.82259 12.5125 8.9375 19.6625
188 1 1.82259 10.725 10.725 21.45
945 2 -0.911295 8.04375 11.6188 18.7688
947 2 -0.911295 11.6188 8.04375 18.7688
950 2 -0.911295 9.83125 11.6188 20.5562
951 2 -0.911295 9.83125 13.4062 18.7688
952 2 -0.911295 8.04375 13.4062 20.5562
953 2 -0.911295 11.6188 9.83125 20.5562
954 2 -0.911295 13.4062 9.83125 18.7688
955 2 -0.911295 13.4062 8.04375 20.5562
959 2 -0.911295 8.04375 8.04375 22.3438
964 2 -0.911295 9.83125 9.83125 22.3438
965 2 -0.911295 11.6188 11.6188 22.3438
972 2 -0.911295 13.4062 13.4062 22.3438
26 1 1.82259 0 3.575 25.025
27 1 1.82259 3.575 0 25.025
29 1 1.82259 1.7875 1.7875 23.2375
30 1 1.82259 1.7875 5.3625 26.8125
31 1 1.82259 5.3625 1.7875 26.8125
32 1 1.82259 5.3625 5.3625 23.2375
59 1 1.82259 3.575 7.15 25.025
154 1 1.82259 7.15 3.575 25.025
527 2 -0.911295 2.68125 4.46875 27.7063
528 2 -0.911295 4.46875 2.68125 27.7063
588 2 -0.911295 0.89375 2.68125 24.1313
589 2 -0.911295 0.89375 4.46875 25.9187
592 2 -0.911295 2.68125 0.89375 24.1313
593 2 -0.911295 4.46875 0.89375 25.9187
598 2 -0.911295 0.89375 6.25625 27.7063
599 2 -0.911295 2.68125 6.25625 25.9187
600 2 -0.911295 6.25625 0.89375 27.7063
601 2 -0.911295 6.25625 2.68125 25.9187
602 2 -0.911295 4.46875 6.25625 24.1313
603 2 -0.911295 6.25625 4.46875 24.1313
155 1 1.82259 10.725 0 25.025
157 1 1.82259 8.9375 1.7875 23.2375
158 1 1.82259 8.9375 5.3625 26.8125
159 1 1.82259 12.5125 1.7875 26.8125
160 1 1.82259 12.5125 5.3625 23.2375
187 1 1.82259 10.725 7.15 25.025
843 2 -0.911295 9.83125 4.46875 27.7063
844 2 -0.911295 11.6188 2.68125 27.7063
894 2 -0.911295 8.04375 2.68125 24.1313
895 2 -0.911295 8.04375 4.46875 25.9187
896 2 -0.911295 9.83125 0.89375 24.1313
897 2 -0.911295 11.6188 0.89375 25.9187
902 2 -0.911295 8.04375 6.25625 27.7063
903 2 -0.911295 9.83125 6.25625 25.9187
904 2 -0.911295 13.4062 0.89375 27.7063
905 2 -0.911295 13.4062 2.68125 25.9187
906 2 -0.911295 11.6188 6.25625 24.1313
907 2 -0.911295 13.4062 4.46875 24.1313
58 1 1.82259 0 10.725 25.025
61 1 1.82259 1.7875 8.9375 23.2375
62 1 1.82259 1.7875 12.5125 26.8125
63 1 1.82259 5.3625 8.9375 26.8125
64 1 1.82259 5.3625 12.5125 23.2375
186 1 1.82259 7.15 10.725 25.025
616 2 -0.911295 2.68125 11.6188 27.7063
617 2 -0.911295 4.46875 9.83125 27.7063
670 2 -0.911295 0.89375 9.83125 24.1313
671 2 -0.911295 0.89375 11.6188 25.9187
674 2 -0.911295 2.68125 8.04375 24.1313
675 2 -0.911295 4.46875 8.04375 25.9187
678 2 -0.911295 0.89375 13.4062 27.7063
679 2 -0.911295 2.68125 13.4062 25.9187
680 2 -0.911295 6.25625 8.04375 27.7063
681 2 -0.911295 6.25625 9.83125 25.9187
682 2 -0.911295 4.46875 13.4062 24.1313
683 2 -0.911295 6.25625 11.6188 24.1313
189 1 1.82259 8.9375 8.9375 23.2375
190 1 1.82259 8.9375 12.5125 26.8125
191 1 1.82259 12.5125 8.9375 26.8125
192 1 1.82259 12.5125 12.5125 23.2375
916 2 -0.911295 9.83125 11.6188 27.7063
917 2 -0.911295 11.6188 9.83125 27.7063
960 2 -0.911295 8.04375 9.83125 24.1313
961 2 -0.911295 8.04375 11.6188 25.9187
962 2 -0.911295 9.83125 8.04375 24.1313
963 2 -0.911295 11.6188 8.04375 25.9187
966 2 -0.911295 8.04375 13.4062 27.7063
967 2 -0.911295 9.83125 13.4062 25.9187
968 2 -0.911295 13.4062 8.04375 27.7063
969 2 -0.911295 13.4062 9.83125 25.9187
970 2 -0.911295 11.6188 13.4062 24.1313
971 2 -0.911295 13.4062 11.6188 24.1313
65 1 1.82259 0 14.3 0
66 1 1.82259 0 17.875 3.575
67 1 1.82259 3.575 14.3 3.575
68 1 1.82259 3.575 17.875 0
69 1 1.82259 1.7875 16.0875 1.7875
70 1 1.82259 1.7875 19.6625 5.3625
71 1 1.82259 5.3625 16.0875 5.3625
72 1 1.82259 5.3625 19.6625 1.7875
97 1 1.82259 0 21.45 0
99 1 1.82259 3.575 21.45 3.575
193 1 1.82259 7.15 14.3 0
194 1 1.82259 7.15 17.875 3.575
225 1 1.82259 7.15 21.45 0
685 2 -0.911295 0.89375 15.1937 0.89375
688 2 -0.911295 0.89375 16.9812 2.68125
689 2 -0.911295 0.89375 18.7688 4.46875
692 2 -0.911295 2.68125 15.1937 2.68125
693 2 -0.911295 4.46875 15.1937 4.46875
694 2 -0.911295 2.68125 16.9812 0.89375
695 2 -0.911295 4.46875 18.7688 0.89375
699 2 -0.911295 2.68125 20.5562 4.46875
702 2 -0.911295 6.25625 16.9812 4.46875
704 2 -0.911295 4.46875 20.5562 2.68125
705 2 -0.911295 6.25625 18.7688 2.68125
706 2 -0.911295 6.25625 20.5562 0.89375
195 1 1.82259 10.725 14.3 3.575
196 1 1.82259 10.725 17.875 0
197 1 1.82259 8.9375 16.0875 1.7875
198 1 1.82259 8.9375 19.6625 5.3625
199 1 1.82259 12.5125 16.0875 5.3625
200 1 1.82259 12.5125 19.6625 1.7875
227 1 1.82259 10.725 21.45 3.575
973 2 -0.911295 8.04375 15.1937 0.89375
974 2 -0.911295 8.04375 16.9812 2.68125
975 2 -0.911295 8.04375 18.7688 4.46875
976 2 -0.911295 9.83125 15.1937 2.68125
977 2 -0.911295 11.6188 15.1937 4.46875
978 2 -0.911295 9.83125 16.9812 0.89375
979 2 -0.911295 11.6188 18.7688 0.89375
983 2 -0.911295 9.83125 20.5562 4.46875
986 2 -0.911295 13.4062 16.9812 4.46875
988 2 -0.911295 11.6188 20.5562 2.68125
989 2 -0.911295 13.4062 18.7688 2.68125
990 2 -0.911295 13.4062 20.5562 0.89375
98 1 1.82259 0 25.025 3.575
100 1 1.82259 3.575 25.025 0
101 1 1.82259 1.7875 23.2375 1.7875
102 1 1.82259 1.7875 26.8125 5.3625
103 1 1.82259 5.3625 23.2375 5.3625
104 1 1.82259 5.3625 26.8125 1.7875
226 1 1.82259 7.15 25.025 3.575
523 2 -0.911295 2.68125 27.7063 4.46875
524 2 -0.911295 4.46875 27.7063 2.68125
765 2 -0.911295 0.89375 22.3438 0.89375
768 2 -0.911295 0.89375 24.1313 2.68125
769 2 -0.911295 0.89375 25.9187 4.46875
772 2 -0.911295 2.68125 22.3438 2.68125
773 2 -0.911295 4.46875 22.3438 4.46875
774 2 -0.911295 2.68125 24.1313 0.89375
775 2 -0.911295 4.46875 25.9187 0.89375
780 2 -0.911295 6.25625 24.1313 4.46875
782 2 -0.911295 6.25625 27.7063 0.89375
783 2 -0.911295 6.25625 25.9187 2.68125
228 1 1.82259 10.725 25.025 0
229 1 1.82259 8.9375 23.2375 1.7875
230 1 1.82259 8.9375 26.8125 5.3625
231 1 1.82259 12.5125 23.2375 5.3625
232 1 1.82259 12.5125 26.8125 1.7875
839 2 -0.911295 9.83125 27.7063 4.46875
840 2 -0.911295 11.6188 27.7063 2.68125
1037 2 -0.911295 8.04375 22.3438 0.89375
1038 2 -0.911295 8.04375 24.1313 2.68125
1039 2 -0.911295 8.04375 25.9187 4.46875
1040 2 -0.911295 9.83125 22.3438 2.68125
1041 2 -0.911295 11.6188 22.3438 4.46875
1042 2 -0.911295 9.83125 24.1313 0.89375
1043 2 -0.911295 11.6188 25.9187 0.89375
1048 2 -0.911295 13.4062 24.1313 4.46875
1050 2 -0.911295 13.4062 27.7063 0.89375
1051 2 -0.911295 13.4062 25.9187 2.68125
73 1 1.82259 0 14.3 7.15
74 1 1.82259 0 17.875 10.725
75 1 1.82259 3.575 14.3 10.725
76 1 1.82259 3.575 17.875 7.15
77 1 1.82259 1.7875 16.0875 8.9375
80 1 1.82259 5.3625 19.6625 8.9375
105 1 1.82259 0 21.45 7.15
107 1 1.82259 3.575 21.45 10.725
201 1 1.82259 7.15 14.3 7.15
202 1 1.82259 7.15 17.875 10.725
233 1 1.82259 7.15 21.45 7.15
698 2 -0.911295 2.68125 18.7688 6.25625
700 2 -0.911295 0.89375 20.5562 6.25625
701 2 -0.911295 4.46875 16.9812 6.25625
703 2 -0.911295 6.25625 15.1937 6.25625
707 2 -0.911295 0.89375 15.1937 8.04375
710 2 -0.911295 0.89375 16.9812 9.83125
714 2 -0.911295 2.68125 15.1937 9.83125
716 2 -0.911295 2.68125 16.9812 8.04375
717 2 -0.911295 4.46875 18.7688 8.04375
724 2 -0.911295 4.46875 20.5562 9.83125
725 2 -0.911295 6.25625 18.7688 9.83125
726 2 -0.911295 6.25625 20.5562 8.04375
203 1 1.82259 10.725 14.3 10.725
204 1 1.82259 10.725 17.875 7.15
205 1 1.82259 8.9375 16.0875 8.9375
208 1 1.82259 12.5125 19.6625 8.9375
235 1 1.82259 10.725 21.45 10.725
982 2 -0.911295 9.83125 18.7688 6.25625
984 2 -0.911295 8.04375 20.5562 6.25625
985 2 -0.911295 11.6188 16.9812 6.25625
987 2 -0.911295 13.4062 15.1937 6.25625
991 2 -0.911295 8.04375 15.1937 8.04375
992 2 -0.911295 8.04375 16.9812 9.83125
994 2 -0.911295 9.83125 15.1937 9.83125
996 2 -0.911295 9.83125 16.9812 8.04375
997 2 -0.911295 11.6188 18.7688 8.04375
1004 2 -0.911295 11.6188 20.5562 9.83125
1005 2 -0.911295 13.4062 18.7688 9.83125
1006 2 -0.911295 13.4062 20.5562 8.04375
106 1 1.82259 0 25.025 10.725
108 1 1.82259 3.575 25.025 7.15
109 1 1.82259 1.7875 23.2375 8.9375
112 1 1.82259 5.3625 26.8125 8.9375
234 1 1.82259 7.15 25.025 10.725
539 2 -0.911295 0.89375 27.7063 6.25625
549 2 -0.911295 4.46875 27.7063 9.83125
778 2 -0.911295 2.68125 25.9187 6.25625
779 2 -0.911295 4.46875 24.1313 6.25625
781 2 -0.911295 6.25625 22.3438 6.25625
784 2 -0.911295 0.89375 22.3438 8.04375
787 2 -0.911295 0.89375 24.1313 9.83125
791 2 -0.911295 2.68125 22.3438 9.83125
793 2 -0.911295 2.68125 24.1313 8.04375
794 2 -0.911295 4.46875 25.9187 8.04375
799 2 -0.911295 6.25625 27.7063 8.04375
800 2 -0.911295 6.25625 25.9187 9.83125
236 1 1.82259 10.725 25.025 7.15
237 1 1.82259 8.9375 23.2375 8.9375
240 1 1.82259 12.5125 26.8125 8.9375
855 2 -0.911295 8.04375 27.7063 6.25625
861 2 -0.911295 11.6188 27.7063 9.83125
1046 2 -0.911295 9.83125 25.9187 6.25625
1047 2 -0.911295 11.6188 24.1313 6.25625
1049 2 -0.911295 13.4062 22.3438 6.25625
1052 2 -0.911295 8.04375 22.3438 8.04375
1053 2 -0.911295 8.04375 24.1313 9.83125
1055 2 -0.911295 9.83125 22.3438 9.83125
1057 2 -0.911295 9.83125 24.1313 8.04375
1058 2 -0.911295 11.6188 25.9187 8.04375
1063 2 -0.911295 13.4062 27.7063 8.04375
1064 2 -0.911295 13.4062 25.9187 9.83125
78 1 1.82259 1.7875 19.6625 12.5125
79 1 1.82259 5.3625 16.0875 12.5125
81 1 1.82259 0 14.3 14.3
84 1 1.82259 3.575 17.875 14.3
85 1 1.82259 1.7875 16.0875 16.0875
88 1 1.82259 5.3625 19.6625 16.0875
113 1 1.82259 0 21.45 14.3
209 1 1.82259 7.15 14.3 14.3
241 1 1.82259 7.15 21.45 14.3
711 2 -0.911295 0.89375 18.7688 11.6188
715 2 -0.911295 4.46875 15.1937 11.6188
718 2 -0.911295 2.68125 18.7688 13.4062
719 2 -0.911295 2.68125 20.5562 11.6188
720 2 -0.911295 0.89375 20.5562 13.4062
721 2 -0.911295 4.46875 16.9812 13.4062
722 2 -0.911295 6.25625 16.9812 11.6188
723 2 -0.911295 6.25625 15.1937 13.4062
727 2 -0.911295 0.89375 15.1937 15.1937
730 2 -0.911295 0.89375 16.9812 16.9812
734 2 -0.911295 2.68125 15.1937 16.9812
736 2 -0.911295 2.68125 16.9812 15.1937
737 2 -0.911295 4.46875 18.7688 15.1937
744 2 -0.911295 4.46875 20.5562 16.9812
745 2 -0.911295 6.25625 18.7688 16.9812
746 2 -0.911295 6.25625 20.5562 15.1937
206 1 1.82259 8.9375 19.6625 12.5125
207 1 1.82259 12.5125 16.0875 12.5125
212 1 1.82259 10.725 17.875 14.3
213 1 1.82259 8.9375 16.0875 16.0875
216 1 1.82259 12.5125 19.6625 16.0875
993 2 -0.911295 8.04375 18.7688 11.6188
995 2 -0.911295 11.6188 15.1937 11.6188
998 2 -0.911295 9.83125 18.7688 13.4062
999 2 -0.911295 9.83125 20.5562 11.6188
1000 2 -0.911295 8.04375 20.5562 13.4062
1001 2 -0.911295 11.6188 16.9812 13.4062
1002 2 -0.911295 13.4062 16.9812 11.6188
1003 2 -0.911295 13.4062 15.1937 13.4062
1007 2 -0.911295 8.04375 15.1937 15.1937
1008 2 -0.911295 8.04375 16.9812 16.9812
1010 2 -0.911295 9.83125 15.1937 16.9812
1012 2 -0.911295 9.83125 16.9812 15.1937
1013 2 -0.911295 11.6188 18.7688 15.1937
1020 2 -0.911295 11.6188 20.5562 16.9812
1021 2 -0.911295 13.4062 18.7688 16.9812
1022 2 -0.911295 13.4062 20.5562 15.1937
110 1 1.82259 1.7875 26.8125 12.5125
111 1 1.82259 5.3625 23.2375 12.5125
116 1 1.82259 3.575 25.025 14.3
117 1 1.82259 1.7875 23.2375 16.0875
120 1 1.82259 5.3625 26.8125 16.0875
548 2 -0.911295 2.68125 27.7063 11.6188
562 2 -0.911295 0.89375 27.7063 13.4062
572 2 -0.911295 4.46875 27.7063 16.9812
788 2 -0.911295 0.89375 25.9187 11.6188
792 2 -0.911295 4.46875 22.3438 11.6188
795 2 -0.911295 2.68125 25.9187 13.4062
796 2 -0.911295 4.46875 24.1313 13.4062
797 2 -0.911295 6.25625 24.1313 11.6188
798 2 -0.911295 6.25625 22.3438 13.4062
801 2 -0.911295 0.89375 22.3438 15.1937
804 2 -0.911295 0.89375 24.1313 16.9812
808 2 -0.911295 2.68125 22.3438 16.9812
810 2 -0.911295 2.68125 24.1313 15.1937
811 2 -0.911295 4.46875 25.9187 15.1937
816 2 -0.911295 6.25625 27.7063 15.1937
817 2 -0.911295 6.25625 25.9187 16.9812
238 1 1.82259 8.9375 26.8125 12.5125
239 1 1.82259 12.5125 23.2375 12.5125
244 1 1.82259 10.725 25.025 14.3
245 1 1.82259 8.9375 23.2375 16.0875
248 1 1.82259 12.5125 26.8125 16.0875
860 2 -0.911295 9.83125 27.7063 11.6188
874 2 -0.911295 8.04375 27.7063 13.4062
880 2 -0.911295 11.6188 27.7063 16.9812
1054 2 -0.911295 8.04375 25.9187 11.6188
1056 2 -0.911295 11.6188 22.3438 11.6188
1059 2 -0.911295 9.83125 25.9187 13.4062
1060 2 -0.911295 11.6188 24.1313 13.4062
1061 2 -0.911295 13.4062 24.1313 11.6188
1062 2 -0.911295 13.4062 22.3438 13.4062
1065 2 -0.911295 8.04375 22.3438 15.1937
1066 2 -0.911295 8.04375 24.1313 16.9812
1068 2 -0.911295 9.83125 22.3438 16.9812
1070 2 -0.911295 9.83125 24.1313 15.1937
1071 2 -0.911295 11.6188 25.9187 15.1937
1076 2 -0.911295 13.4062 27.7063 15.1937
1077 2 -0.911295 13.4062 25.9187 16.9812
82 1 1.82259 0 17.875 17.875
83 1 1.82259 3.575 14.3 17.875
86 1 1.82259 1.7875 19.6625 19.6625
87 1 1.82259 5.3625 16.0875 19.6625
89 1 1.82259 0 14.3 21.45
92 1 1.82259 3.575 17.875 21.45
115 1 1.82259 3.575 21.45 17.875
121 1 1.82259 0 21.45 21.45
210 1 1.82259 7.15 17.875 17.875
217 1 1.82259 7.15 14.3 21.45
249 1 1.82259 7.15 21.45 21.45
731 2 -0.911295 0.89375 18.7688 18.7688
735 2 -0.911295 4.46875 15.1937 18.7688
738 2 -0.911295 2.68125 18.7688 20.5562
739 2 -0.911295 2.68125 20.5562 18.7688
740 2 -0.911295 0.89375 20.5562 20.5562
741 2 -0.911295 4.46875 16.9812 20.5562
742 2 -0.911295 6.25625 16.9812 18.7688
743 2 -0.911295 6.25625 15.1937 20.5562
747 2 -0.911295 0.89375 15.1937 22.3438
756 2 -0.911295 2.68125 16.9812 22.3438
757 2 -0.911295 4.46875 18.7688 22.3438
764 2 -0.911295 6.25625 20.5562 22.3438
211 1 1.82259 10.725 14.3 17.875
214 1 1.82259 8.9375 19.6625 19.6625
215 1 1.82259 12.5125 16.0875 19.6625
220 1 1.82259 10.725 17.875 21.45
243 1 1.82259 10.725 21.45 17.875
1009 2 -0.911295 8.04375 18.7688 18.7688
1011 2 -0.911295 11.6188 15.1937 18.7688
1014 2 -0.911295 9.83125 18.7688 20.5562
1015 2 -0.911295 9.83125 20.5562 18.7688
1016 2 -0.911295 8.04375 20.5562 20.5562
1017 2 -0.911295 11.6188 16.9812 20.5562
1018 2 -0.911295 13.4062 16.9812 18.7688
1019 2 -0.911295 13.4062 15.1937 20.5562
1023 2 -0.911295 8.04375 15.1937 22.3438
1028 2 -0.911295 9.83125 16.9812 22.3438
1029 2 -0.911295 11.6188 18.7688 22.3438
1036 2 -0.911295 13.4062 20.5562 22.3438
114 1 1.82259 0 25.025 17.875
118 1 1.82259 1.7875 26.8125 19.6625
119 1 1.82259 5.3625 23.2375 19.6625
124 1 1.82259 3.575 25.025 21.45
242 1 1.82259 7.15 25.025 17.875
571 2 -0.911295 2.68125 27.7063 18.7688
585 2 -0.911295 0.89375 27.7063 20.5562
805 2 -0.911295 0.89375 25.9187 18.7688
809 2 -0.911295 4.46875 22.3438 18.7688
812 2 -0.911295 2.68125 25.9187 20.5562
813 2 -0.911295 4.46875 24.1313 20.5562
814 2 -0.911295 6.25625 24.1313 18.7688
815 2 -0.911295 6.25625 22.3438 20.5562
818 2 -0.911295 0.89375 22.3438 22.3438
827 2 -0.911295 2.68125 24.1313 22.3438
828 2 -0.911295 4.46875 25.9187 22.3438
831 2 -0.911295 6.25625 27.7063 22.3438
246 1 1.82259 8.9375 26.8125 19.6625
247 1 1.82259 12.5125 23.2375 19.6625
252 1 1.82259 10.725 25.025 21.45
879 2 -0.911295 9.83125 27.7063 18.7688
893 2 -0.911295 8.04375 27.7063 20.5562
1067 2 -0.911295 8.04375 25.9187 18.7688
1069 2 -0.911295 11.6188 22.3438 18.7688
1072 2 -0.911295 9.83125 25.9187 20.5562
1073 2 -0.911295 11.6188 24.1313 20.5562
1074 2 -0.911295 13.4062 24.1313 18.7688
1075 2 -0.911295 13.4062 22.3438 20.5562
1078 2 -0.911295 8.04375 22.3438 22.3438
1083 2 -0.911295 9.83125 24.1313 22.3438
1084 2 -0.911295 11.6188 25.9187 22.3438
1087 2 -0.911295 13.4062 27.7063 22.3438
90 1 1.82259 0 17.875 25.025
91 1 1.82259 3.575 14.3 25.025
93 1 1.82259 1.7875 16.0875 23.2375
94 1 1.82259 1.7875 19.6625 26.8125
95 1 1.82259 5.3625 16.0875 26.8125
96 1 1.82259 5.3625 19.6625 23.2375
123 1 1.82259 3.575 21.45 25.025
218 1 1.82259 7.15 17.875 25.025
696 2 -0.911295 2.68125 18.7688 27.7063
697 2 -0.911295 4.46875 16.9812 27.7063
750 2 -0.911295 0.89375 16.9812 24.1313
751 2 -0.911295 0.89375 18.7688 25.9187
754 2 -0.911295 2.68125 15.1937 24.1313
755 2 -0.911295 4.46875 15.1937 25.9187
758 2 -0.911295 0.89375 20.5562 27.7063
759 2 -0.911295 2.68125 20.5562 25.9187
760 2 -0.911295 6.25625 15.1937 27.7063
761 2 -0.911295 6.25625 16.9812 25.9187
762 2 -0.911295 4.46875 20.5562 24.1313
763 2 -0.911295 6.25625 18.7688 24.1313
219 1 1.82259 10.725 14.3 25.025
221 1 1.82259 8.9375 16.0875 23.2375
222 1 1.82259 8.9375 19.6625 26.8125
223 1 1.82259 12.5125 16.0875 26.8125
224 1 1.82259 12.5125 19.6625 23.2375
251 1 1.82259 10.725 21.45 25.025
980 2 -0.911295 9.83125 18.7688 27.7063
981 2 -0.911295 11.6188 16.9812 27.7063
1024 2 -0.911295 8.04375 16.9812 24.1313
1025 2 -0.911295 8.04375 18.7688 25.9187
1026 2 -0.911295 9.83125 15.1937 24.1313
1027 2 -0.911295 11.6188 15.1937 25.9187
1030 2 -0.911295 8.04375 20.5562 27.7063
1031 2 -0.911295 9.83125 20.5562 25.9187
1032 2 -0.911295 13.4062 15.1937 27.7063
1033 2 -0.911295 13.4062 16.9812 25.9187
1034 2 -0.911295 11.6188 20.5562 24.1313
1035 2 -0.911295 13.4062 18.7688 24.1313
122 1 1.82259 0 25.025 25.025
125 1 1.82259 1.7875 23.2375 23.2375
126 1 1.82259 1.7875 26.8125 26.8125
127 1 1.82259 5.3625 23.2375 26.8125
128 1 1.82259 5.3625 26.8125 23.2375
250 1 1.82259 7.15 25.025 25.025
514 2 -0.911295 0.89375 27.7063 27.7063
594 2 -0.911295 2.68125 27.7063 25.9187
595 2 -0.911295 4.46875 27.7063 24.1313
776 2 -0.911295 2.68125 25.9187 27.7063
777 2 -0.911295 4.46875 24.1313 27.7063
821 2 -0.911295 0.89375 24.1313 24.1313
822 2 -0.911295 0.89375 25.9187 25.9187
825 2 -0.911295 2.68125 22.3438 24.1313
826 2 -0.911295 4.46875 22.3438 25.9187
829 2 -0.911295 6.25625 22.3438 27.7063
830 2 -0.911295 6.25625 24.1313 25.9187
832 2 -0.911295 6.25625 25.9187 24.1313
253 1 1.82259 8.9375 23.2375 23.2375
254 1 1.82259 8.9375 26.8125 26.8125
255 1 1.82259 12.5125 23.2375 26.8125
256 1 1.82259 12.5125 26.8125 23.2375
834 2 -0.911295 8.04375 27.7063 27.7063
898 2 -0.911295 9.83125 27.7063 25.9187
899 2 -0.911295 11.6188 27.7063 24.1313
1044 2 -0.911295 9.83125 25.9187 27.7063
1045 2 -0.911295 11.6188 24.1313 27.7063
1079 2 -0.911295 8.04375 24.1313 24.1313
1080 2 -0.911295 8.04375 25.9187 25.9187
1081 2 -0.911295 9.83125 22.3438 24.1313
1082 2 -0.911295 11.6188 22.3438 25.9187
1085 2 -0.911295 13.4062 22.3438 27.7063
1086 2 -0.911295 13.4062 24.1313 25.9187
1088 2 -0.911295 13.4062 25.9187 24.1313
257 1 1.82259 14.3 0 0
258 1 1.82259 14.3 3.575 3.575
259 1 1.82259 17.875 0 3.575
260 1 1.82259 17.875 3.575 0
261 1 1.82259 16.0875 1.7875 1.7875
262 1 1.82259 16.0875 5.3625 5.3625
263 1 1.82259 19.6625 1.7875 5.3625
264 1 1.82259 19.6625 5.3625 1.7875
289 1 1.82259 14.3 7.15 0
291 1 1.82259 17.875 7.15 3.575
385 1 1.82259 21.45 0 0
386 1 1.82259 21.45 3.575 3.575
417 1 1.82259 21.45 7.15 0
1089 2 -0.911295 15.1937 0.89375 0.89375
1091 2 -0.911295 15.1937 2.68125 2.68125
1092 2 -0.911295 15.1937 4.46875 4.46875
1093 2 -0.911295 16.9812 0.89375 2.68125
1094 2 -0.911295 18.7688 0.89375 4.46875
1097 2 -0.911295 16.9812 2.68125 0.89375
1098 2 -0.911295 18.7688 4.46875 0.89375
1102 2 -0.911295 16.9812 6.25625 4.46875
1105 2 -0.911295 20.5562 2.68125 4.46875
1107 2 -0.911295 18.7688 6.25625 2.68125
1108 2 -0.911295 20.5562 4.46875 2.68125
1109 2 -0.911295 20.5562 6.25625 0.89375
387 1 1.82259 25.025 0 3.575
388 1 1.82259 25.025 3.575 0
389 1 1.82259 23.2375 1.7875 1.7875
390 1 1.82259 23.2375 5.3625 5.3625
391 1 1.82259 26.8125 1.7875 5.3625
392 1 1.82259 26.8125 5.3625 1.7875
419 1 1.82259 25.025 7.15 3.575
519 2 -0.911295 27.7063 2.68125 4.46875
520 2 -0.911295 27.7063 4.46875 2.68125
606 2 -0.911295 27.7063 6.25625 0.89375
1345 2 -0.911295 22.3438 0.89375 0.89375
1347 2 -0.911295 22.3438 2.68125 2.68125
1348 2 -0.911295 22.3438 4.46875 4.46875
1349 2 -0.911295 24.1313 0.89375 2.68125
1350 2 -0.911295 25.9187 0.89375 4.46875
1353 2 -0.911295 24.1313 2.68125 0.89375
1354 2 -0.911295 25.9187 4.46875 0.89375
1358 2 -0.911295 24.1313 6.25625 4.46875
1361 2 -0.911295 25.9187 6.25625 2.68125
290 1 1.82259 14.3 10.725 3.575
292 1 1.82259 17.875 10.725 0
293 1 1.82259 16.0875 8.9375 1.7875
294 1 1.82259 16.0875 12.5125 5.3625
295 1 1.82259 19.6625 8.9375 5.3625
296 1 1.82259 19.6625 12.5125 1.7875
418 1 1.82259 21.45 10.725 3.575
1165 2 -0.911295 15.1937 8.04375 0.89375
1166 2 -0.911295 15.1937 9.83125 2.68125
1167 2 -0.911295 15.1937 11.6188 4.46875
1168 2 -0.911295 16.9812 8.04375 2.68125
1169 2 -0.911295 18.7688 8.04375 4.46875
1170 2 -0.911295 16.9812 9.83125 0.89375
1171 2 -0.911295 18.7688 11.6188 0.89375
1175 2 -0.911295 16.9812 13.4062 4.46875
1178 2 -0.911295 20.5562 9.83125 4.46875
1180 2 -0.911295 18.7688 13.4062 2.68125
1181 2 -0.911295 20.5562 11.6188 2.68125
1182 2 -0.911295 20.5562 13.4062 0.89375
420 1 1.82259 25.025 10.725 0
421 1 1.82259 23.2375 8.9375 1.7875
422 1 1.82259 23.2375 12.5125 5.3625
423 1 1.82259 26.8125 8.9375 5.3625
424 1 1.82259 26.8125 12.5125 1.7875
610 2 -0.911295 27.7063 9.83125 4.46875
611 2 -0.911295 27.7063 11.6188 2.68125
686 2 -0.911295 27.7063 13.4062 0.89375
1405 2 -0.911295 22.3438 8.04375 0.89375
1406 2 -0.911295 22.3438 9.83125 2.68125
1407 2 -0.911295 22.3438 11.6188 4.46875
1408 2 -0.911295 24.1313 8.04375 2.68125
1409 2 -0.911295 25.9187 8.04375 4.46875
1410 2 -0.911295 24.1313 9.83125 0.89375
1411 2 -0.911295 25.9187 11.6188 0.89375
1415 2 -0.911295 24.1313 13.4062 4.46875
1418 2 -0.911295 25.9187 13.4062 2.68125
265 1 1.82259 14.3 0 7.15
266 1 1.82259 14.3 3.575 10.725
267 1 1.82259 17.875 0 10.725
268 1 1.82259 17.875 3.575 7.15
269 1 1.82259 16.0875 1.7875 8.9375
272 1 1.82259 19.6625 5.3625 8.9375
297 1 1.82259 14.3 7.15 7.15
299 1 1.82259 17.875 7.15 10.725
393 1 1.82259 21.45 0 7.15
394 1 1.82259 21.45 3.575 10.725
425 1 1.82259 21.45 7.15 7.15
1101 2 -0.911295 16.9812 4.46875 6.25625
1103 2 -0.911295 15.1937 6.25625 6.25625
1104 2 -0.911295 18.7688 2.68125 6.25625
1106 2 -0.911295 20.5562 0.89375 6.25625
1110 2 -0.911295 15.1937 0.89375 8.04375
1112 2 -0.911295 15.1937 2.68125 9.83125
1114 2 -0.911295 16.9812 0.89375 9.83125
1118 2 -0.911295 16.9812 2.68125 8.04375
1119 2 -0.911295 18.7688 4.46875 8.04375
1126 2 -0.911295 18.7688 6.25625 9.83125
1127 2 -0.911295 20.5562 4.46875 9.83125
1128 2 -0.911295 20.5562 6.25625 8.04375
395 1 1.82259 25.025 0 10.725
396 1 1.82259 25.025 3.575 7.15
397 1 1.82259 23.2375 1.7875 8.9375
400 1 1.82259 26.8125 5.3625 8.9375
427 1 1.82259 25.025 7.15 10.725
540 2 -0.911295 27.7063 0.89375 6.25625
545 2 -0.911295 27.7063 4.46875 9.83125
628 2 -0.911295 27.7063 6.25625 8.04375
1357 2 -0.911295 24.1313 4.46875 6.25625
1359 2 -0.911295 22.3438 6.25625 6.25625
1360 2 -0.911295 25.9187 2.68125 6.25625
1362 2 -0.911295 22.3438 0.89375 8.04375
1364 2 -0.911295 22.3438 2.68125 9.83125
1366 2 -0.911295 24.1313 0.89375 9.83125
1370 2 -0.911295 24.1313 2.68125 8.04375
1371 2 -0.911295 25.9187 4.46875 8.04375
1376 2 -0.911295 25.9187 6.25625 9.83125
298 1 1.82259 14.3 10.725 10.725
300 1 1.82259 17.875 10.725 7.15
301 1 1.82259 16.0875 8.9375 8.9375
304 1 1.82259 19.6625 12.5125 8.9375
426 1 1.82259 21.45 10.725 10.725
1174 2 -0.911295 16.9812 11.6188 6.25625
1176 2 -0.911295 15.1937 13.4062 6.25625
1177 2 -0.911295 18.7688 9.83125 6.25625
1179 2 -0.911295 20.5562 8.04375 6.25625
1183 2 -0.911295 15.1937 8.04375 8.04375
1184 2 -0.911295 15.1937 9.83125 9.83125
1186 2 -0.911295 16.9812 8.04375 9.83125
1188 2 -0.911295 16.9812 9.83125 8.04375
1189 2 -0.911295 18.7688 11.6188 8.04375
1196 2 -0.911295 18.7688 13.4062 9.83125
1197 2 -0.911295 20.5562 11.6188 9.83125
1198 2 -0.911295 20.5562 13.4062 8.04375
428 1 1.82259 25.025 10.725 7.15
429 1 1.82259 23.2375 8.9375 8.9375
432 1 1.82259 26.8125 12.5125 8.9375
629 2 -0.911295 27.7063 8.04375 6.25625
633 2 -0.911295 27.7063 11.6188 9.83125
708 2 -0.911295 27.7063 13.4062 8.04375
1414 2 -0.911295 24.1313 11.6188 6.25625
1416 2 -0.911295 22.3438 13.4062 6.25625
1417 2 -0.911295 25.9187 9.83125 6.25625
1419 2 -0.911295 22.3438 8.04375 8.04375
1420 2 -0.911295 22.3438 9.83125 9.83125
1422 2 -0.911295 24.1313 8.04375 9.83125
1424 2 -0.911295 24.1313 9.83125 8.04375
1425 2 -0.911295 25.9187 11.6188 8.04375
1430 2 -0.911295 25.9187 13.4062 9.83125
270 1 1.82259 16.0875 5.3625 12.5125
271 1 1.82259 19.6625 1.7875 12.5125
273 1 1.82259 14.3 0 14.3
276 1 1.82259 17.875 3.575 14.3
277 1 1.82259 16.0875 1.7875 16.0875
280 1 1.82259 19.6625 5.3625 16.0875
305 1 1.82259 14.3 7.15 14.3
401 1 1.82259 21.45 0 14.3
433 1 1.82259 21.45 7.15 14.3
1113 2 -0.911295 15.1937 4.46875 11.6188
1115 2 -0.911295 18.7688 0.89375 11.6188
1120 2 -0.911295 16.9812 4.46875 13.4062
1121 2 -0.911295 16.9812 6.25625 11.6188
1122 2 -0.911295 15.1937 6.25625 13.4062
1123 2 -0.911295 18.7688 2.68125 13.4062
1124 2 -0.911295 20.5562 2.68125 11.6188
1125 2 -0.911295 20.5562 0.89375 13.4062
1129 2 -0.911295 15.1937 0.89375 15.1937
1131 2 -0.911295 15.1937 2.68125 16.9812
1133 2 -0.911295 16.9812 0.89375 16.9812
1137 2 -0.911295 16.9812 2.68125 15.1937
1138 2 -0.911295 18.7688 4.46875 15.1937
1145 2 -0.911295 18.7688 6.25625 16.9812
1146 2 -0.911295 20.5562 4.46875 16.9812
1147 2 -0.911295 20.5562 6.25625 15.1937
398 1 1.82259 23.2375 5.3625 12.5125
399 1 1.82259 26.8125 1.7875 12.5125
404 1 1.82259 25.025 3.575 14.3
405 1 1.82259 23.2375 1.7875 16.0875
408 1 1.82259 26.8125 5.3625 16.0875
544 2 -0.911295 27.7063 2.68125 11.6188
563 2 -0.911295 27.7063 0.89375 13.4062
568 2 -0.911295 27.7063 4.46875 16.9812
648 2 -0.911295 27.7063 6.25625 15.1937
1365 2 -0.911295 22.3438 4.46875 11.6188
1367 2 -0.911295 25.9187 0.89375 11.6188
1372 2 -0.911295 24.1313 4.46875 13.4062
1373 2 -0.911295 24.1313 6.25625 11.6188
1374 2 -0.911295 22.3438 6.25625 13.4062
1375 2 -0.911295 25.9187 2.68125 13.4062
1377 2 -0.911295 22.3438 0.89375 15.1937
1379 2 -0.911295 22.3438 2.68125 16.9812
1381 2 -0.911295 24.1313 0.89375 16.9812
1385 2 -0.911295 24.1313 2.68125 15.1937
1386 2 -0.911295 25.9187 4.46875 15.1937
1391 2 -0.911295 25.9187 6.25625 16.9812
302 1 1.82259 16.0875 12.5125 12.5125
303 1 1.82259 19.6625 8.9375 12.5125
308 1 1.82259 17.875 10.725 14.3
309 1 1.82259 16.0875 8.9375 16.0875
312 1 1.82259 19.6625 12.5125 16.0875
1185 2 -0.911295 15.1937 11.6188 11.6188
1187 2 -0.911295 18.7688 8.04375 11.6188
1190 2 -0.911295 16.9812 11.6188 13.4062
1191 2 -0.911295 16.9812 13.4062 11.6188
1192 2 -0.911295 15.1937 13.4062 13.4062
1193 2 -0.911295 18.7688 9.83125 13.4062
1194 2 -0.911295 20.5562 9.83125 11.6188
1195 2 -0.911295 20.5562 8.04375 13.4062
1199 2 -0.911295 15.1937 8.04375 15.1937
1200 2 -0.911295 15.1937 9.83125 16.9812
1202 2 -0.911295 16.9812 8.04375 16.9812
1204 2 -0.911295 16.9812 9.83125 15.1937
1205 2 -0.911295 18.7688 11.6188 15.1937
1212 2 -0.911295 18.7688 13.4062 16.9812
1213 2 -0.911295 20.5562 11.6188 16.9812
1214 2 -0.911295 20.5562 13.4062 15.1937
430 1 1.82259 23.2375 12.5125 12.5125
431 1 1.82259 26.8125 8.9375 12.5125
436 1 1.82259 25.025 10.725 14.3
437 1 1.82259 23.2375 8.9375 16.0875
440 1 1.82259 26.8125 12.5125 16.0875
632 2 -0.911295 27.7063 9.83125 11.6188
649 2 -0.911295 27.7063 8.04375 13.4062
653 2 -0.911295 27.7063 11.6188 16.9812
728 2 -0.911295 27.7063 13.4062 15.1937
1421 2 -0.911295 22.3438 11.6188 11.6188
1423 2 -0.911295 25.9187 8.04375 11.6188
1426 2 -0.911295 24.1313 11.6188 13.4062
1427 2 -0.911295 24.1313 13.4062 11.6188
1428 2 -0.911295 22.3438 13.4062 13.4062
1429 2 -0.911295 25.9187 9.83125 13.4062
1431 2 -0.911295 22.3438 8.04375 15.1937
1432 2 -0.911295 22.3438 9.83125 16.9812
1434 2 -0.911295 24.1313 8.04375 16.9812
1436 2 -0.911295 24.1313 9.83125 15.1937
1437 2 -0.911295 25.9187 11.6188 15.1937
1442 2 -0.911295 25.9187 13.4062 16.9812
274 1 1.82259 14.3 3.575 17.875
275 1 1.82259 17.875 0 17.875
278 1 1.82259 16.0875 5.3625 19.6625
279 1 1.82259 19.6625 1.7875 19.6625
281 1 1.82259 14.3 0 21.45
284 1 1.82259 17.875 3.575 21.45
307 1 1.82259 17.875 7.15 17.875
313 1 1.82259 14.3 7.15 21.45
402 1 1.82259 21.45 3.575 17.875
409 1 1.82259 21.45 0 21.45
441 1 1.82259 21.45 7.15 21.45
1132 2 -0.911295 15.1937 4.46875 18.7688
1134 2 -0.911295 18.7688 0.89375 18.7688
1139 2 -0.911295 16.9812 4.46875 20.5562
1140 2 -0.911295 16.9812 6.25625 18.7688
1141 2 -0.911295 15.1937 6.25625 20.5562
1142 2 -0.911295 18.7688 2.68125 20.5562
1143 2 -0.911295 20.5562 2.68125 18.7688
1144 2 -0.911295 20.5562 0.89375 20.5562
1148 2 -0.911295 15.1937 0.89375 22.3438
1156 2 -0.911295 16.9812 2.68125 22.3438
1157 2 -0.911295 18.7688 4.46875 22.3438
1164 2 -0.911295 20.5562 6.25625 22.3438
403 1 1.82259 25.025 0 17.875
406 1 1.82259 23.2375 5.3625 19.6625
407 1 1.82259 26.8125 1.7875 19.6625
412 1 1.82259 25.025 3.575 21.45
435 1 1.82259 25.025 7.15 17.875
567 2 -0.911295 27.7063 2.68125 18.7688
586 2 -0.911295 27.7063 0.89375 20.5562
668 2 -0.911295 27.7063 6.25625 22.3438
1380 2 -0.911295 22.3438 4.46875 18.7688
1382 2 -0.911295 25.9187 0.89375 18.7688
1387 2 -0.911295 24.1313 4.46875 20.5562
1388 2 -0.911295 24.1313 6.25625 18.7688
1389 2 -0.911295 22.3438 6.25625 20.5562
1390 2 -0.911295 25.9187 2.68125 20.5562
1392 2 -0.911295 22.3438 0.89375 22.3438
1400 2 -0.911295 24.1313 2.68125 22.3438
1401 2 -0.911295 25.9187 4.46875 22.3438
306 1 1.82259 14.3 10.725 17.875
310 1 1.82259 16.0875 12.5125 19.6625
311 1 1.82259 19.6625 8.9375 19.6625
316 1 1.82259 17.875 10.725 21.45
434 1 1.82259 21.45 10.725 17.875
1201 2 -0.911295 15.1937 11.6188 18.7688
1203 2 -0.911295 18.7688 8.04375 18.7688
1206 2 -0.911295 16.9812 11.6188 20.5562
1207 2 -0.911295 16.9812 13.4062 18.7688
1208 2 -0.911295 15.1937 13.4062 20.5562
1209 2 -0.911295 18.7688 9.83125 20.5562
1210 2 -0.911295 20.5562 9.83125 18.7688
1211 2 -0.911295 20.5562 8.04375 20.5562
1215 2 -0.911295 15.1937 8.04375 22.3438
1220 2 -0.911295 16.9812 9.83125 22.3438
1221 2 -0.911295 18.7688 11.6188 22.3438
1228 2 -0.911295 20.5562 13.4062 22.3438
438 1 1.82259 23.2375 12.5125 19.6625
439 1 1.82259 26.8125 8.9375 19.6625
444 1 1.82259 25.025 10.725 21.45
652 2 -0.911295 27.7063 9.83125 18.7688
669 2 -0.911295 27.7063 8.04375 20.5562
748 2 -0.911295 27.7063 13.4062 22.3438
1433 2 -0.911295 22.3438 11.6188 18.7688
1435 2 -0.911295 25.9187 8.04375 18.7688
1438 2 -0.911295 24.1313 11.6188 20.5562
1439 2 -0.911295 24.1313 13.4062 18.7688
1440 2 -0.911295 22.3438 13.4062 20.5562
1441 2 -0.911295 25.9187 9.83125 20.5562
1443 2 -0.911295 22.3438 8.04375 22.3438
1448 2 -0.911295 24.1313 9.83125 22.3438
1449 2 -0.911295 25.9187 11.6188 22.3438
282 1 1.82259 14.3 3.575 25.025
283 1 1.82259 17.875 0 25.025
285 1 1.82259 16.0875 1.7875 23.2375
286 1 1.82259 16.0875 5.3625 26.8125
287 1 1.82259 19.6625 1.7875 26.8125
288 1 1.82259 19.6625 5.3625 23.2375
315 1 1.82259 17.875 7.15 25.025
410 1 1.82259 21.45 3.575 25.025
1099 2 -0.911295 16.9812 4.46875 27.7063
1100 2 -0.911295 18.7688 2.68125 27.7063
1150 2 -0.911295 15.1937 2.68125 24.1313
1151 2 -0.911295 15.1937 4.46875 25.9187
1152 2 -0.911295 16.9812 0.89375 24.1313
1153 2 -0.911295 18.7688 0.89375 25.9187
1158 2 -0.911295 15.1937 6.25625 27.7063
1159 2 -0.911295 16.9812 6.25625 25.9187
1160 2 -0.911295 20.5562 0.89375 27.7063
1161 2 -0.911295 20.5562 2.68125 25.9187
1162 2 -0.911295 18.7688 6.25625 24.1313
1163 2 -0.911295 20.5562 4.46875 24.1313
411 1 1.82259 25.025 0 25.025
413 1 1.82259 23.2375 1.7875 23.2375
414 1 1.82259 23.2375 5.3625 26.8125
415 1 1.82259 26.8125 1.7875 26.8125
416 1 1.82259 26.8125 5.3625 23.2375
443 1 1.82259 25.025 7.15 25.025
515 2 -0.911295 27.7063 0.89375 27.7063
590 2 -0.911295 27.7063 2.68125 25.9187
591 2 -0.911295 27.7063 4.46875 24.1313
1355 2 -0.911295 24.1313 4.46875 27.7063
1356 2 -0.911295 25.9187 2.68125 27.7063
1394 2 -0.911295 22.3438 2.68125 24.1313
1395 2 -0.911295 22.3438 4.46875 25.9187
1396 2 -0.911295 24.1313 0.89375 24.1313
1397 2 -0.911295 25.9187 0.89375 25.9187
1402 2 -0.911295 22.3438 6.25625 27.7063
1403 2 -0.911295 24.1313 6.25625 25.9187
1404 2 -0.911295 25.9187 6.25625 24.1313
314 1 1.82259 14.3 10.725 25.025
317 1 1.82259 16.0875 8.9375 23.2375
318 1 1.82259 16.0875 12.5125 26.8125
319 1 1.82259 19.6625 8.9375 26.8125
320 1 1.82259 19.6625 12.5125 23.2375
442 1 1.82259 21.45 10.725 25.025
1172 2 -0.911295 16.9812 11.6188 27.7063
1173 2 -0.911295 18.7688 9.83125 27.7063
1216 2 -0.911295 15.1937 9.83125 24.1313
1217 2 -0.911295 15.1937 11.6188 25.9187
1218 2 -0.911295 16.9812 8.04375 24.1313
1219 2 -0.911295 18.7688 8.04375 25.9187
1222 2 -0.911295 15.1937 13.4062 27.7063
1223 2 -0.911295 16.9812 13.4062 25.9187
1224 2 -0.911295 20.5562 8.04375 27.7063
1225 2 -0.911295 20.5562 9.83125 25.9187
1226 2 -0.911295 18.7688 13.4062 24.1313
1227 2 -0.911295 20.5562 11.6188 24.1313
445 1 1.82259 23.2375 8.9375 23.2375
446 1 1.82259 23.2375 12.5125 26.8125
447 1 1.82259 26.8125 8.9375 26.8125
448 1 1.82259 26.8125 12.5125 23.2375
607 2 -0.911295 27.7063 8.04375 27.7063
672 2 -0.911295 27.7063 9.83125 25.9187
673 2 -0.911295 27.7063 11.6188 24.1313
1412 2 -0.911295 24.1313 11.6188 27.7063
1413 2 -0.911295 25.9187 9.83125 27.7063
1444 2 -0.911295 22.3438 9.83125 24.1313
1445 2 -0.911295 22.3438 11.6188 25.9187
1446 2 -0.911295 24.1313 8.04375 24.1313
1447 2 -0.911295 25.9187 8.04375 25.9187
1450 2 -0.911295 22.3438 13.4062 27.7063
1451 2 -0.911295 24.1313 13.4062 25.9187
1452 2 -0.911295 25.9187 13.4062 24.1313
321 1 1.82259 14.3 14.3 0
322 1 1.82259 14.3 17.875 3.575
323 1 1.82259 17.875 14.3 3.575
324 1 1.82259 17.875 17.875 0
325 1 1.82259 16.0875 16.0875 1.7875
326 1 1.82259 16.0875 19.6625 5.3625
327 1 1.82259 19.6625 16.0875 5.3625
328 1 1.82259 19.6625 19.6625 1.7875
353 1 1.82259 14.3 21.45 0
355 1 1.82259 17.875 21.45 3.575
449 1 1.82259 21.45 14.3 0
450 1 1.82259 21.45 17.875 3.575
481 1 1.82259 21.45 21.45 0
1229 2 -0.911295 15.1937 15.1937 0.89375
1230 2 -0.911295 15.1937 16.9812 2.68125
1231 2 -0.911295 15.1937 18.7688 4.46875
1232 2 -0.911295 16.9812 15.1937 2.68125
1233 2 -0.911295 18.7688 15.1937 4.46875
1234 2 -0.911295 16.9812 16.9812 0.89375
1235 2 -0.911295 18.7688 18.7688 0.89375
1239 2 -0.911295 16.9812 20.5562 4.46875
1242 2 -0.911295 20.5562 16.9812 4.46875
1244 2 -0.911295 18.7688 20.5562 2.68125
1245 2 -0.911295 20.5562 18.7688 2.68125
1246 2 -0.911295 20.5562 20.5562 0.89375
451 1 1.82259 25.025 14.3 3.575
452 1 1.82259 25.025 17.875 0
453 1 1.82259 23.2375 16.0875 1.7875
454 1 1.82259 23.2375 19.6625 5.3625
455 1 1.82259 26.8125 16.0875 5.3625
456 1 1.82259 26.8125 19.6625 1.7875
483 1 1.82259 25.025 21.45 3.575
690 2 -0.911295 27.7063 16.9812 4.46875
691 2 -0.911295 27.7063 18.7688 2.68125
766 2 -0.911295 27.7063 20.5562 0.89375
1453 2 -0.911295 22.3438 15.1937 0.89375
1454 2 -0.911295 22.3438 16.9812 2.68125
1455 2 -0.911295 22.3438 18.7688 4.46875
1456 2 -0.911295 24.1313 15.1937 2.68125
1457 2 -0.911295 25.9187 15.1937 4.46875
1458 2 -0.911295 24.1313 16.9812 0.89375
1459 2 -0.911295 25.9187 18.7688 0.89375
1463 2 -0.911295 24.1313 20.5562 4.46875
1466 2 -0.911295 25.9187 20.5562 2.68125
354 1 1.82259 14.3 25.025 3.575
356 1 1.82259 17.875 25.025 0
357 1 1.82259 16.0875 23.2375 1.7875
358 1 1.82259 16.0875 26.8125 5.3625
359 1 1.82259 19.6625 23.2375 5.3625
360 1 1.82259 19.6625 26.8125 1.7875
482 1 1.82259 21.45 25.025 3.575
1095 2 -0.911295 16.9812 27.7063 4.46875
1096 2 -0.911295 18.7688 27.7063 2.68125
1293 2 -0.911295 15.1937 22.3438 0.89375
1294 2 -0.911295 15.1937 24.1313 2.68125
1295 2 -0.911295 15.1937 25.9187 4.46875
1296 2 -0.911295 16.9812 22.3438 2.68125
1297 2 -0.911295 18.7688 22.3438 4.46875
1298 2 -0.911295 16.9812 24.1313 0.89375
1299 2 -0.911295 18.7688 25.9187 0.89375
1304 2 -0.911295 20.5562 24.1313 4.46875
1306 2 -0.911295 20.5562 27.7063 0.89375
1307 2 -0.911295 20.5562 25.9187 2.68125
484 1 1.82259 25.025 25.025 0
485 1 1.82259 23.2375 23.2375 1.7875
486 1 1.82259 23.2375 26.8125 5.3625
487 1 1.82259 26.8125 23.2375 5.3625
488 1 1.82259 26.8125 26.8125 1.7875
516 2 -0.911295 27.7063 27.7063 0.89375
770 2 -0.911295 27.7063 24.1313 4.46875
771 2 -0.911295 27.7063 25.9187 2.68125
1351 2 -0.911295 24.1313 27.7063 4.46875
1352 2 -0.911295 25.9187 27.7063 2.68125
1501 2 -0.911295 22.3438 22.3438 0.89375
1502 2 -0.911295 22.3438 24.1313 2.68125
1503 2 -0.911295 22.3438 25.9187 4.46875
1504 2 -0.911295 24.1313 22.3438 2.68125
1505 2 -0.911295 25.9187 22.3438 4.46875
1506 2 -0.911295 24.1313 24.1313 0.89375
1507 2 -0.911295 25.9187 25.9187 0.89375
329 1 1.82259 14.3 14.3 7.15
330 1 1.82259 14.3 17.875 10.725
331 1 1.82259 17.875 14.3 10.725
332 1 1.82259 17.875 17.875 7.15
333 1 1.82259 16.0875 16.0875 8.9375
336 1 1.82259 19.6625 19.6625 8.9375
361 1 1.82259 14.3 21.45 7.15
363 1 1.82259 17.875 21.45 10.725
457 1 1.82259 21.45 14.3 7.15
458 1 1.82259 21.45 17.875 10.725
489 1 1.82259 21.45 21.45 7.15
1238 2 -0.911295 16.9812 18.7688 6.25625
1240 2 -0.911295 15.1937 20.5562 6.25625
1241 2 -0.911295 18.7688 16.9812 6.25625
1243 2 -0.911295 20.5562 15.1937 6.25625
1247 2 -0.911295 15.1937 15.1937 8.04375
1248 2 -0.911295 15.1937 16.9812 9.83125
1250 2 -0.911295 16.9812 15.1937 9.83125
1252 2 -0.911295 16.9812 16.9812 8.04375
1253 2 -0.911295 18.7688 18.7688 8.04375
1260 2 -0.911295 18.7688 20.5562 9.83125
1261 2 -0.911295 20.5562 18.7688 9.83125
1262 2 -0.911295 20.5562 20.5562 8.04375
459 1 1.82259 25.025 14.3 10.725
460 1 1.82259 25.025 17.875 7.15
461 1 1.82259 23.2375 16.0875 8.9375
464 1 1.82259 26.8125 19.6625 8.9375
491 1 1.82259 25.025 21.45 10.725
709 2 -0.911295 27.7063 15.1937 6.25625
713 2 -0.911295 27.7063 18.7688 9.83125
785 2 -0.911295 27.7063 20.5562 8.04375
1462 2 -0.911295 24.1313 18.7688 6.25625
1464 2 -0.911295 22.3438 20.5562 6.25625
1465 2 -0.911295 25.9187 16.9812 6.25625
1467 2 -0.911295 22.3438 15.1937 8.04375
1468 2 -0.911295 22.3438 16.9812 9.83125
1470 2 -0.911295 24.1313 15.1937 9.83125
1472 2 -0.911295 24.1313 16.9812 8.04375
1473 2 -0.911295 25.9187 18.7688 8.04375
1478 2 -0.911295 25.9187 20.5562 9.83125
362 1 1.82259 14.3 25.025 10.725
364 1 1.82259 17.875 25.025 7.15
365 1 1.82259 16.0875 23.2375 8.9375
368 1 1.82259 19.6625 26.8125 8.9375
490 1 1.82259 21.45 25.025 10.725
1111 2 -0.911295 15.1937 27.7063 6.25625
1117 2 -0.911295 18.7688 27.7063 9.83125
1302 2 -0.911295 16.9812 25.9187 6.25625
1303 2 -0.911295 18.7688 24.1313 6.25625
1305 2 -0.911295 20.5562 22.3438 6.25625
1308 2 -0.911295 15.1937 22.3438 8.04375
1309 2 -0.911295 15.1937 24.1313 9.83125
1311 2 -0.911295 16.9812 22.3438 9.83125
1313 2 -0.911295 16.9812 24.1313 8.04375
1314 2 -0.911295 18.7688 25.9187 8.04375
1319 2 -0.911295 20.5562 27.7063 8.04375
1320 2 -0.911295 20.5562 25.9187 9.83125
492 1 1.82259 25.025 25.025 7.15
493 1 1.82259 23.2375 23.2375 8.9375
496 1 1.82259 26.8125 26.8125 8.9375
541 2 -0.911295 27.7063 27.7063 8.04375
786 2 -0.911295 27.7063 22.3438 6.25625
790 2 -0.911295 27.7063 25.9187 9.83125
1363 2 -0.911295 22.3438 27.7063 6.25625
1369 2 -0.911295 25.9187 27.7063 9.83125
1510 2 -0.911295 24.1313 25.9187 6.25625
1511 2 -0.911295 25.9187 24.1313 6.25625
1512 2 -0.911295 22.3438 22.3438 8.04375
1513 2 -0.911295 22.3438 24.1313 9.83125
1515 2 -0.911295 24.1313 22.3438 9.83125
1517 2 -0.911295 24.1313 24.1313 8.04375
1518 2 -0.911295 25.9187 25.9187 8.04375
334 1 1.82259 16.0875 19.6625 12.5125
335 1 1.82259 19.6625 16.0875 12.5125
337 1 1.82259 14.3 14.3 14.3
340 1 1.82259 17.875 17.875 14.3
341 1 1.82259 16.0875 16.0875 16.0875
344 1 1.82259 19.6625 19.6625 16.0875
369 1 1.82259 14.3 21.45 14.3
465 1 1.82259 21.45 14.3 14.3
497 1 1.82259 21.45 21.45 14.3
1249 2 -0.911295 15.1937 18.7688 11.6188
1251 2 -0.911295 18.7688 15.1937 11.6188
1254 2 -0.911295 16.9812 18.7688 13.4062
1255 2 -0.911295 16.9812 20.5562 11.6188
1256 2 -0.911295 15.1937 20.5562 13.4062
1257 2 -0.911295 18.7688 16.9812 13.4062
1258 2 -0.911295 20.5562 16.9812 11.6188
1259 2 -0.911295 20.5562 15.1937 13.4062
1263 2 -0.911295 15.1937 15.1937 15.1937
1264 2 -0.911295 15.1937 16.9812 16.9812
1266 2 -0.911295 16.9812 15.1937 16.9812
1268 2 -0.911295 16.9812 16.9812 15.1937
1269 2 -0.911295 18.7688 18.7688 15.1937
1276 2 -0.911295 18.7688 20.5562 16.9812
1277 2 -0.911295 20.5562 18.7688 16.9812
1278 2 -0.911295 20.5562 20.5562 15.1937
462 1 1.82259 23.2375 19.6625 12.5125
463 1 1.82259 26.8125 16.0875 12.5125
468 1 1.82259 25.025 17.875 14.3
469 1 1.82259 23.2375 16.0875 16.0875
472 1 1.82259 26.8125 19.6625 16.0875
712 2 -0.911295 27.7063 16.9812 11.6188
729 2 -0.911295 27.7063 15.1937 13.4062
733 2 -0.911295 27.7063 18.7688 16.9812
802 2 -0.911295 27.7063 20.5562 15.1937
1469 2 -0.911295 22.3438 18.7688 11.6188
1471 2 -0.911295 25.9187 15.1937 11.6188
1474 2 -0.911295 24.1313 18.7688 13.4062
1475 2 -0.911295 24.1313 20.5562 11.6188
1476 2 -0.911295 22.3438 20.5562 13.4062
1477 2 -0.911295 25.9187 16.9812 13.4062
1479 2 -0.911295 22.3438 15.1937 15.1937
1480 2 -0.911295 22.3438 16.9812 16.9812
1482 2 -0.911295 24.1313 15.1937 16.9812
1484 2 -0.911295 24.1313 16.9812 15.1937
1485 2 -0.911295 25.9187 18.7688 15.1937
1490 2 -0.911295 25.9187 20.5562 16.9812
366 1 1.82259 16.0875 26.8125 12.5125
367 1 1.82259 19.6625 23.2375 12.5125
372 1 1.82259 17.875 25.025 14.3
373 1 1.82259 16.0875 23.2375 16.0875
376 1 1.82259 19.6625 26.8125 16.0875
1116 2 -0.911295 16.9812 27.7063 11.6188
1130 2 -0.911295 15.1937 27.7063 13.4062
1136 2 -0.911295 18.7688 27.7063 16.9812
1310 2 -0.911295 15.1937 25.9187 11.6188
1312 2 -0.911295 18.7688 22.3438 11.6188
1315 2 -0.911295 16.9812 25.9187 13.4062
1316 2 -0.911295 18.7688 24.1313 13.4062
1317 2 -0.911295 20.5562 24.1313 11.6188
1318 2 -0.911295 20.5562 22.3438 13.4062
1321 2 -0.911295 15.1937 22.3438 15.1937
1322 2 -0.911295 15.1937 24.1313 16.9812
1324 2 -0.911295 16.9812 22.3438 16.9812
1326 2 -0.911295 16.9812 24.1313 15.1937
1327 2 -0.911295 18.7688 25.9187 15.1937
1332 2 -0.911295 20.5562 27.7063 15.1937
1333 2 -0.911295 20.5562 25.9187 16.9812
494 1 1.82259 23.2375 26.8125 12.5125
495 1 1.82259 26.8125 23.2375 12.5125
500 1 1.82259 25.025 25.025 14.3
501 1 1.82259 23.2375 23.2375 16.0875
504 1 1.82259 26.8125 26.8125 16.0875
564 2 -0.911295 27.7063 27.7063 15.1937
789 2 -0.911295 27.7063 24.1313 11.6188
803 2 -0.911295 27.7063 22.3438 13.4062
807 2 -0.911295 27.7063 25.9187 16.9812
1368 2 -0.911295 24.1313 27.7063 11.6188
1378 2 -0.911295 22.3438 27.7063 13.4062
1384 2 -0.911295 25.9187 27.7063 16.9812
1514 2 -0.911295 22.3438 25.9187 11.6188
1516 2 -0.911295 25.9187 22.3438 11.6188
1519 2 -0.911295 24.1313 25.9187 13.4062
1520 2 -0.911295 25.9187 24.1313 13.4062
1521 2 -0.911295 22.3438 22.3438 15.1937
1522 2 -0.911295 22.3438 24.1313 16.9812
1524 2 -0.911295 24.1313 22.3438 16.9812
1526 2 -0.911295 24.1313 24.1313 15.1937
1527 2 -0.911295 25.9187 25.9187 15.1937
338 1 1.82259 14.3 17.875 17.875
339 1 1.82259 17.875 14.3 17.875
342 1 1.82259 16.0875 19.6625 19.6625
343 1 1.82259 19.6625 16.0875 19.6625
345 1 1.82259 14.3 14.3 21.45
348 1 1.82259 17.875 17.875 21.45
371 1 1.82259 17.875 21.45 17.875
377 1 1.82259 14.3 21.45 21.45
466 1 1.82259 21.45 17.875 17.875
473 1 1.82259 21.45 14.3 21.45
505 1 1.82259 21.45 21.45 21.45
1265 2 -0.911295 15.1937 18.7688 18.7688
1267 2 -0.911295 18.7688 15.1937 18.7688
1270 2 -0.911295 16.9812 18.7688 20.5562
1271 2 -0.911295 16.9812 20.5562 18.7688
1272 2 -0.911295 15.1937 20.5562 20.5562
1273 2 -0.911295 18.7688 16.9812 20.5562
1274 2 -0.911295 20.5562 16.9812 18.7688
1275 2 -0.911295 20.5562 15.1937 20.5562
1279 2 -0.911295 15.1937 15.1937 22.3438
1284 2 -0.911295 16.9812 16.9812 22.3438
1285 2 -0.911295 18.7688 18.7688 22.3438
1292 2 -0.911295 20.5562 20.5562 22.3438
467 1 1.82259 25.025 14.3 17.875
470 1 1.82259 23.2375 19.6625 19.6625
471 1 1.82259 26.8125 16.0875 19.6625
476 1 1.82259 25.025 17.875 21.45
499 1 1.82259 25.025 21.45 17.875
732 2 -0.911295 27.7063 16.9812 18.7688
749 2 -0.911295 27.7063 15.1937 20.5562
819 2 -0.911295 27.7063 20.5562 22.3438
1481 2 -0.911295 22.3438 18.7688 18.7688
1483 2 -0.911295 25.9187 15.1937 18.7688
1486 2 -0.911295 24.1313 18.7688 20.5562
1487 2 -0.911295 24.1313 20.5562 18.7688
1488 2 -0.911295 22.3438 20.5562 20.5562
1489 2 -0.911295 25.9187 16.9812 20.5562
1491 2 -0.911295 22.3438 15.1937 22.3438
1496 2 -0.911295 24.1313 16.9812 22.3438
1497 2 -0.911295 25.9187 18.7688 22.3438
370 1 1.82259 14.3 25.025 17.875
374 1 1.82259 16.0875 26.8125 19.6625
375 1 1.82259 19.6625 23.2375 19.6625
380 1 1.82259 17.875 25.025 21.45
498 1 1.82259 21.45 25.025 17.875
1135 2 -0.911295 16.9812 27.7063 18.7688
1149 2 -0.911295 15.1937 27.7063 20.5562
1323 2 -0.911295 15.1937 25.9187 18.7688
1325 2 -0.911295 18.7688 22.3438 18.7688
1328 2 -0.911295 16.9812 25.9187 20.5562
1329 2 -0.911295 18.7688 24.1313 20.5562
1330 2 -0.911295 20.5562 24.1313 18.7688
1331 2 -0.911295 20.5562 22.3438 20.5562
1334 2 -0.911295 15.1937 22.3438 22.3438
1339 2 -0.911295 16.9812 24.1313 22.3438
1340 2 -0.911295 18.7688 25.9187 22.3438
1343 2 -0.911295 20.5562 27.7063 22.3438
502 1 1.82259 23.2375 26.8125 19.6625
503 1 1.82259 26.8125 23.2375 19.6625
508 1 1.82259 25.025 25.025 21.45
587 2 -0.911295 27.7063 27.7063 22.3438
806 2 -0.911295 27.7063 24.1313 18.7688
820 2 -0.911295 27.7063 22.3438 20.5562
1383 2 -0.911295 24.1313 27.7063 18.7688
1393 2 -0.911295 22.3438 27.7063 20.5562
1523 2 -0.911295 22.3438 25.9187 18.7688
1525 2 -0.911295 25.9187 22.3438 18.7688
1528 2 -0.911295 24.1313 25.9187 20.5562
1529 2 -0.911295 25.9187 24.1313 20.5562
1530 2 -0.911295 22.3438 22.3438 22.3438
1535 2 -0.911295 24.1313 24.1313 22.3438
1536 2 -0.911295 25.9187 25.9187 22.3438
346 1 1.82259 14.3 17.875 25.025
347 1 1.82259 17.875 14.3 25.025
349 1 1.82259 16.0875 16.0875 23.2375
350 1 1.82259 16.0875 19.6625 26.8125
351 1 1.82259 19.6625 16.0875 26.8125
352 1 1.82259 19.6625 19.6625 23.2375
379 1 1.82259 17.875 21.45 25.025
474 1 1.82259 21.45 17.875 25.025
1236 2 -0.911295 16.9812 18.7688 27.7063
1237 2 -0.911295 18.7688 16.9812 27.7063
1280 2 -0.911295 15.1937 16.9812 24.1313
1281 2 -0.911295 15.1937 18.7688 25.9187
1282 2 -0.911295 16.9812 15.1937 24.1313
1283 2 -0.911295 18.7688 15.1937 25.9187
1286 2 -0.911295 15.1937 20.5562 27.7063
1287 2 -0.911295 16.9812 20.5562 25.9187
1288 2 -0.911295 20.5562 15.1937 27.7063
1289 2 -0.911295 20.5562 16.9812 25.9187
1290 2 -0.911295 18.7688 20.5562 24.1313
1291 2 -0.911295 20.5562 18.7688 24.1313
475 1 1.82259 25.025 14.3 25.025
477 1 1.82259 23.2375 16.0875 23.2375
478 1 1.82259 23.2375 19.6625 26.8125
479 1 1.82259 26.8125 16.0875 26.8125
480 1 1.82259 26.8125 19.6625 23.2375
507 1 1.82259 25.025 21.45 25.025
687 2 -0.911295 27.7063 15.1937 27.7063
752 2 -0.911295 27.7063 16.9812 25.9187
753 2 -0.911295 27.7063 18.7688 24.1313
1460 2 -0.911295 24.1313 18.7688 27.7063
1461 2 -0.911295 25.9187 16.9812 27.7063
1492 2 -0.911295 22.3438 16.9812 24.1313
1493 2 -0.911295 22.3438 18.7688 25.9187
1494 2 -0.911295 24.1313 15.1937 24.1313
1495 2 -0.911295 25.9187 15.1937 25.9187
1498 2 -0.911295 22.3438 20.5562 27.7063
1499 2 -0.911295 24.1313 20.5562 25.9187
1500 2 -0.911295 25.9187 20.5562 24.1313
378 1 1.82259 14.3 25.025 25.025
381 1 1.82259 16.0875 23.2375 23.2375
382 1 1.82259 16.0875 26.8125 26.8125
383 1 1.82259 19.6625 23.2375 26.8125
384 1 1.82259 19.6625 26.8125 23.2375
506 1 1.82259 21.45 25.025 25.025
1090 2 -0.911295 15.1937 27.7063 27.7063
1154 2 -0.911295 16.9812 27.7063 25.9187
1155 2 -0.911295 18.7688 27.7063 24.1313
1300 2 -0.911295 16.9812 25.9187 27.7063
1301 2 -0.911295 18.7688 24.1313 27.7063
1335 2 -0.911295 15.1937 24.1313 24.1313
1336 2 -0.911295 15.1937 25.9187 25.9187
1337 2 -0.911295 16.9812 22.3438 24.1313
1338 2 -0.911295 18.7688 22.3438 25.9187
1341 2 -0.911295 20.5562 22.3438 27.7063
1342 2 -0.911295 20.5562 24.1313 25.9187
1344 2 -0.911295 20.5562 25.9187 24.1313
509 1 1.82259 23.2375 23.2375 23.2375
510 1 1.82259 23.2375 26.8125 26.8125
511 1 1.82259 26.8125 23.2375 26.8125
512 1 1.82259 26.8125 26.8125 23.2375
767 2 -0.911295 27.7063 22.3438 27.7063
823 2 -0.911295 27.7063 24.1313 25.9187
824 2 -0.911295 27.7063 25.9187 24.1313
1346 2 -0.911295 22.3438 27.7063 27.7063
1398 2 -0.911295 24.1313 27.7063 25.9187
1399 2 -0.911295 25.9187 27.7063 24.1313
1508 2 -0.911295 24.1313 25.9187 27.7063
1509 2 -0.911295 25.9187 24.1313 27.7063
1531 2 -0.911295 22.3438 24.1313 24.1313
1532 2 -0.911295 22.3438 25.9187 25.9187
1533 2 -0.911295 24.1313 22.3438 24.1313
1534 2 -0.911295 25.9187 22.3438 25.9187
ITEM: TIMESTEP
1
ITEM: NUMBER OF ATOMS
1536
ITEM: BOX BOUNDS pp pp pp
0.0000000000000000e+00 2.8600000000000001e+01
0.0000000000000000e+00 2.8600000000000001e+01
0.0000000000000000e+00 2.8600000000000001e+01
ITEM: ATOMS id type q x y z
1 1 1.82259 -5.69926e-11 -5.45004e-11 2.32344e-08
2 1 1.82259 1.13296e-08 3.575 3.575
3 1 1.82259 3.575 1.13317e-08 3.575
4 1 1.82259 3.575 3.575 1.12385e-08
5 1 1.82259 1.7875 1.7875 1.7875
6 1 1.82259 1.7875 5.3625 5.3625
7 1 1.82259 5.3625 1.7875 5.3625
8 1 1.82259 5.3625 5.3625 1.7875
33 1 1.82259 4.23856e-09 7.15 1.58864e-08
35 1 1.82259 3.575 7.15 3.575
129 1 1.82259 7.15 4.24063e-09 1.58859e-08
130 1 1.82259 7.15 3.575 3.575
161 1 1.82259 7.15 7.15 9.76718e-09
513 2 -0.911295 0.89375 0.89375 0.89375
517 2 -0.911296 0.89375 2.68125 2.68125
518 2 -0.911295 0.89375 4.46875 4.46875
521 2 -0.911296 2.68125 0.89375 2.68125
522 2 -0.911295 4.46875 0.89375 4.46875
525 2 -0.911296 2.68125 2.68125 0.89375
526 2 -0.911294 4.46875 4.46875 0.89375
530 2 -0.911296 2.68125 6.25625 4.46875
533 2 -0.911296 6.25625 2.68125 4.46875
535 2 -0.911295 4.46875 6.25625 2.68125
536 2 -0.911295 6.25625 4.46875 2.68125
537 2 -0.911295 6.25625 6.25625 0.89375
131 1 1.82259 10.725 -1.96568e-08 3.575
132 1 1.82259 10.725 3.575 -4.1141e-09
133 1 1.82259 8.9375 1.7875 1.7875
134 1 1.82259 8.9375 5.3625 5.3625
135 1 1.82259 12.5125 1.7875 5.3625
136 1 1.82259 12.5125 5.3625 1.7875
163 1 1.82259 10.725 7.15 3.575
833 2 -0.911295 8.04375 0.89375 0.89375
835 2 -0.911296 8.04375 2.68125 2.68125
836 2 -0.911295 8.04375 4.46875 4.46875
837 2 -0.911297 9.83125 0.89375 2.68125
838 2 -0.911296 11.6188 0.89375 4.46875
841 2 -0.911297 9.83125 2.68125 0.89375
842 2 -0.911296 11.6188 4.46875 0.89375
846 2 -0.911295 9.83125 6.25625 4.46875
849 2 -0.911294 13.4062 2.68125 4.46875
851 2 -0.911293 11.6188 6.25625 2.68125
852 2 -0.911295 13.4062 4.46875 2.68125
853 2 -0.911297 13.4062 6.25625 0.89375
34 1 1.82259 -1.96584e-08 10.725 3.575
36 1 1.82259 3.575 10.725 -4.11389e-09
37 1 1.82259 1.7875 8.9375 1.7875
38 1 1.82259 1.7875 12.5125 5.3625
39 1 1.82259 5.3625 8.9375 5.3625
40 1 1.82259 5.3625 12.5125 1.7875
162 1 1.82259 7.15 10.725 3.575
605 2 -0.911295 0.89375 8.04375 0.89375
608 2 -0.911297 0.89375 9.83125 2.68125
609 2 -0.911296 0.89375 11.6188 4.46875
612 2 -0.911296 2.68125 8.04375 2.68125
613 2 -0.911295 4.46875 8.04375 4.46875
614 2 -0.911297 2.68125 9.83125 0.89375
615 2 -0.911296 4.46875 11.6188 0.89375
619 2 -0.911294 2.68125 13.4062 4.46875
622 2 -0.911295 6.25625 9.83125 4.46875
624 2 -0.911295 4.46875 13.4062 2.68125
625 2 -0.911293 6.25625 11.6188 2.68125
626 2 -0.911297 6.25625 13.4062 0.89375
164 1 1.82259 10.725 10.725 1.98683e-08
165 1 1.82259 8.9375 8.9375 1.7875
166 1 1.82259 8.9375 12.5125 5.3625
167 1 1.82259 12.5125 8.9375 5.3625
168 1 1.82259 12.5125 12.5125 1.7875
909 2 -0.911296 8.04375 8.04375 0.89375
910 2 -0.911295 8.04375 9.83125 2.68125
911 2 -0.911297 8.04375 11.6187 4.46875
912 2 -0.911295 9.83125 8.04375 2.68125
913 2 -0.911297 11.6187 8.04375 4.46875
914 2 -0.911296 9.83125 9.83125 0.89375
915 2 -0.911294 11.6188 11.6188 0.89375
919 2 -0.911293 9.83125 13.4063 4.46875
922 2 -0.911293 13.4063 9.83125 4.46875
924 2 -0.911294 11.6188 13.4062 2.68125
925 2 -0.911294 13.4062 11.6188 2.68125
926 2 -0.911294 13.4062 13.4062 0.89375
9 1 1.82259 1.00386e-08 1.00407e-08 7.15
10 1 1.82259 2.10532e-08 3.575 10.725
11 1 1.82259 3.575 2.1055e-08 10.725
12 1 1.82259 3.575 3.575 7.15
13 1 1.82259 1.7875 1.7875 8.9375
16 1 1.82259 5.3625 5.3625 8.9375
41 1 1.82259 2.14763e-08 7.15 7.15
43 1 1.82259 3.575 7.15 10.725
137 1 1.82259 7.15 2.14783e-08 7.15
138 1 1.82259 7.15 3.575 10.725
169 1 1.82259 7.15 7.15 7.15
529 2 -0.911295 2.68125 4.46875 6.25625
531 2 -0.911295 0.89375 6.25625 6.25625
532 2 -0.911295 4.46875 2.68125 6.25625
534 2 -0.911295 6.25625 0.89375 6.25625
538 2 -0.911294 0.89375 0.89375 8.04375
542 2 -0.911298 0.89375 2.68125 9.83125
546 2 -0.911298 2.68125 0.89375 9.83125
550 2 -0.911295 2.68125 2.68125 8.04375
551 2 -0.911297 4.46875 4.46875 8.04375
558 2 -0.911295 4.46875 6.25625 9.83125
559 2 -0.911295 6.25625 4.46875 9.83125
560 2 -0.911294 6.25625 6.25625 8.04375
139 1 1.82259 10.725 1.98328e-08 10.725
140 1 1.82259 10.725 3.575 7.15
141 1 1.82259 8.9375 1.7875 8.9375
144 1 1.82259 12.5125 5.3625 8.9375
171 1 1.82259 10.725 7.15 10.725
845 2 -0.911295 9.83125 4.46875 6.25625
847 2 -0.911296 8.04375 6.25625 6.25625
848 2 -0.911294 11.6188 2.68125 6.25625
850 2 -0.911296 13.4062 0.89375 6.25625
854 2 -0.911295 8.04375 0.89375 8.04375
856 2 -0.911296 8.04375 2.68125 9.83125
858 2 -0.911295 9.83125 0.89375 9.83125
862 2 -0.911297 9.83125 2.68125 8.04375
863 2 -0.911296 11.6188 4.46875 8.04375
870 2 -0.911295 11.6188 6.25625 9.83125
871 2 -0.911296 13.4062 4.46875 9.83125
872 2 -0.911295 13.4062 6.25625 8.04375
42 1 1.82259 1.98309e-08 10.725 10.725
44 1 1.82259 3.575 10.725 7.15
45 1 1.82259 1.7875 8.9375 8.9375
48 1 1.82259 5.3625 12.5125 8.9375
170 1 1.82259 7.15 10.725 10.725
618 2 -0.911294 2.68125 11.6188 6.25625
620 2 -0.911296 0.89375 13.4062 6.25625
621 2 -0.911295 4.46875 9.83125 6.25625
623 2 -0.911296 6.25625 8.04375 6.25625
627 2 -0.911295 0.89375 8.04375 8.04375
630 2 -0.911295 0.89375 9.83125 9.83125
634 2 -0.911296 2.68125 8.04375 9.83125
636 2 -0.911297 2.68125 9.83125 8.04375
637 2 -0.911296 4.46875 11.6188 8.04375
644 2 -0.911296 4.46875 13.4062 9.83125
645 2 -0.911295 6.25625 11.6188 9.83125
646 2 -0.911295 6.25625 13.4062 8.04375
172 1 1.82259 10.725 10.725 7.15
173 1 1.82259 8.9375 8.9375 8.9375
176 1 1.82259 12.5125 12.5125 8.9375
918 2 -0.911294 9.83125 11.6188 6.25625
920 2 -0.911299 8.04375 13.4063 6.25625
921 2 -0.911294 11.6188 9.83125 6.25625
923 2 -0.911299 13.4063 8.04375 6.25625
927 2 -0.911292 8.04375 8.04375 8.04375
928 2 -0.911295 8.04375 9.83125 9.83125
930 2 -0.911295 9.83125 8.04375 9.83125
932 2 -0.911298 9.83125 9.83125 8.04375
933 2 -0.911294 11.6188 11.6188 8.04375
940 2 -0.911292 11.6188 13.4062 9.83125
941 2 -0.911292 13.4062 11.6188 9.83125
942 2 -0.911295 13.4062 13.4062 8.04375
14 1 1.82259 1.7875 5.3625 12.5125
15 1 1.82259 5.3625 1.7875 12.5125
17 1 1.82259 4.30867e-08 4.30885e-08 14.3
20 1 1.82259 3.575 3.575 14.3
21 1 1.82259 1.7875 1.7875 16.0875
24 1 1.82259 5.3625 5.3625 16.0875
49 1 1.82259 1.98561e-08 7.15 14.3
145 1 1.82259 7.15 1.98582e-08 14.3
177 1 1.82259 7.15 7.15 14.3
543 2 -0.911294 0.89375 4.46875 11.6188
547 2 -0.911294 4.46875 0.89375 11.6188
552 2 -0.911295 2.68125 4.46875 13.4063
553 2 -0.911295 2.68125 6.25625 11.6187
554 2 -0.911297 0.89375 6.25625 13.4063
555 2 -0.911295 4.46875 2.68125 13.4063
556 2 -0.911295 6.25625 2.68125 11.6187
557 2 -0.911297 6.25625 0.89375 13.4063
561 2 -0.911293 0.89375 0.89375 15.1937
565 2 -0.911298 0.89375 2.68125 16.9813
569 2 -0.911298 2.68125 0.89375 16.9813
573 2 -0.911296 2.68125 2.68125 15.1937
574 2 -0.911293 4.46875 4.46875 15.1938
581 2 -0.911297 4.46875 6.25625 16.9812
582 2 -0.911297 6.25625 4.46875 16.9812
583 2 -0.911296 6.25625 6.25625 15.1937
142 1 1.82259 8.9375 5.3625 12.5125
143 1 1.82259 12.5125 1.7875 12.5125
148 1 1.82259 10.725 3.575 14.3
149 1 1.82259 8.9375 1.7875 16.0875
152 1 1.82259 12.5125 5.3625 16.0875
857 2 -0.911296 8.04375 4.46875 11.6188
859 2 -0.911294 11.6188 0.89375 11.6188
864 2 -0.911295 9.83125 4.46875 13.4062
865 2 -0.911295 9.83125 6.25625 11.6188
866 2 -0.911296 8.04375 6.25625 13.4062
867 2 -0.911294 11.6188 2.68125 13.4063
868 2 -0.911296 13.4062 2.68125 11.6188
869 2 -0.911296 13.4062 0.89375 13.4062
873 2 -0.911294 8.04375 0.89375 15.1938
875 2 -0.911299 8.04375 2.68125 16.9812
877 2 -0.911295 9.83125 0.89375 16.9813
881 2 -0.911296 9.83125 2.68125 15.1937
882 2 -0.911296 11.6187 4.46875 15.1937
889 2 -0.911292 11.6188 6.25625 16.9813
890 2 -0.911296 13.4063 4.46875 16.9813
891 2 -0.911296 13.4063 6.25625 15.1937
46 1 1.82259 1.7875 12.5125 12.5125
47 1 1.82259 5.3625 8.9375 12.5125
52 1 1.82259 3.575 10.725 14.3
53 1 1.82259 1.7875 8.9375 16.0875
56 1 1.82259 5.3625 12.5125 16.0875
631 2 -0.911294 0.89375 11.6188 11.6188
635 2 -0.911296 4.46875 8.04375 11.6188
638 2 -0.911294 2.68125 11.6188 13.4063
639 2 -0.911296 2.68125 13.4062 11.6188
640 2 -0.911296 0.89375 13.4062 13.4062
641 2 -0.911295 4.46875 9.83125 13.4062
642 2 -0.911295 6.25625 9.83125 11.6188
643 2 -0.911296 6.25625 8.04375 13.4062
647 2 -0.911294 0.89375 8.04375 15.1938
650 2 -0.911295 0.89375 9.83125 16.9813
654 2 -0.911299 2.68125 8.04375 16.9812
656 2 -0.911296 2.68125 9.83125 15.1937
657 2 -0.911296 4.46875 11.6187 15.1937
664 2 -0.911296 4.46875 13.4063 16.9813
665 2 -0.911292 6.25625 11.6188 16.9813
666 2 -0.911296 6.25625 13.4063 15.1937
174 1 1.82259 8.9375 12.5125 12.5125
175 1 1.82259 12.5125 8.9375 12.5125
180 1 1.82259 10.725 10.725 14.3
181 1 1.82259 8.9375 8.9375 16.0875
184 1 1.82259 12.5125 12.5125 16.0875
929 2 -0.911295 8.04375 11.6188 11.6188
931 2 -0.911295 11.6188 8.04375 11.6188
934 2 -0.911294 9.83125 11.6188 13.4062
935 2 -0.911297 9.83125 13.4062 11.6188
936 2 -0.911294 8.04375 13.4062 13.4062
937 2 -0.911294 11.6188 9.83125 13.4062
938 2 -0.911297 13.4062 9.83125 11.6188
939 2 -0.911294 13.4062 8.04375 13.4062
943 2 -0.911296 8.04375 8.04375 15.1938
944 2 -0.911295 8.04375 9.83125 16.9812
946 2 -0.911295 9.83125 8.04375 16.9812
948 2 -0.911295 9.83125 9.83125 15.1938
949 2 -0.911297 11.6188 11.6188 15.1937
956 2 -0.911294 11.6188 13.4063 16.9813
957 2 -0.911294 13.4063 11.6188 16.9813
958 2 -0.911297 13.4063 13.4063 15.1937
18 1 1.82259 -2.33137e-08 3.575 17.875
19 1 1.82259 3.575 -2.33124e-08 17.875
22 1 1.82259 1.7875 5.3625 19.6625
23 1 1.82259 5.3625 1.7875 19.6625
25 1 1.82259 -1.42181e-08 -1.42163e-08 21.45
28 1 1.82259 3.575 3.575 21.45
51 1 1.82259 3.575 7.15 17.875
57 1 1.82259 -3.67166e-08 7.15 21.45
146 1 1.82259 7.15 3.575 17.875
153 1 1.82259 7.15 -3.67154e-08 21.45
185 1 1.82259 7.15 7.15 21.45
566 2 -0.911296 0.89375 4.46875 18.7688
570 2 -0.911296 4.46875 0.89375 18.7688
575 2 -0.911293 2.68125 4.46875 20.5563
576 2 -0.911293 2.68125 6.25625 18.7687
577 2 -0.911297 0.89375 6.25625 20.5562
578 2 -0.911293 4.46875 2.68125 20.5563
579 2 -0.911293 6.25625 2.68125 18.7687
580 2 -0.911297 6.25625 0.89375 20.5562
584 2 -0.911297 0.89375 0.89375 22.3437
596 2 -0.911296 2.68125 2.68125 22.3437
597 2 -0.911295 4.46875 4.46875 22.3437
604 2 -0.911299 6.25625 6.25625 22.3437
147 1 1.82259 10.725 -5.45173e-09 17.875
150 1 1.82259 8.9375 5.3625 19.6625
151 1 1.82259 12.5125 1.7875 19.6625
156 1 1.82259 10.725 3.575 21.45
179 1 1.82259 10.725 7.15 17.875
876 2 -0.911297 8.04375 4.46875 18.7688
878 2 -0.911296 11.6187 0.89375 18.7687
883 2 -0.911295 9.83125 4.46875 20.5562
884 2 -0.911296 9.83125 6.25625 18.7688
885 2 -0.911292 8.04375 6.25625 20.5562
886 2 -0.911292 11.6187 2.68125 20.5563
887 2 -0.911294 13.4063 2.68125 18.7687
888 2 -0.911298 13.4063 0.89375 20.5563
892 2 -0.911296 8.04375 0.89375 22.3437
900 2 -0.911295 9.83125 2.68125 22.3437
901 2 -0.911294 11.6188 4.46875 22.3437
908 2 -0.911298 13.4062 6.25625 22.3438
50 1 1.82259 -5.45327e-09 10.725 17.875
54 1 1.82259 1.7875 12.5125 19.6625
55 1 1.82259 5.3625 8.9375 19.6625
60 1 1.82259 3.575 10.725 21.45
178 1 1.82259 7.15 10.725 17.875
651 2 -0.911296 0.89375 11.6187 18.7687
655 2 -0.911297 4.46875 8.04375 18.7688
658 2 -0.911292 2.68125 11.6187 20.5563
659 2 -0.911294 2.68125 13.4063 18.7687
660 2 -0.911298 0.89375 13.4063 20.5563
661 2 -0.911295 4.46875 9.83125 20.5562
662 2 -0.911296 6.25625 9.83125 18.7688
663 2 -0.911292 6.25625 8.04375 20.5562
667 2 -0.911296 0.89375 8.04375 22.3437
676 2 -0.911295 2.68125 9.83125 22.3437
677 2 -0.911294 4.46875 11.6188 22.3437
684 2 -0.911298 6.25625 13.4062 22.3438
182 1 1.82259 8.9375 12.5125 19.6625
183 1 1.82259 12.5125 8.9375 19.6625
188 1 1.82259 10.725 10.725 21.45
945 2 -0.911297 8.04375 11.6187 18.7687
947 2 -0.911297 11.6187 8.04375 18.7687
950 2 -0.911292 9.83125 11.6188 20.5562
951 2 -0.911294 9.83125 13.4063 18.7687
952 2 -0.911295 8.04375 13.4062 20.5562
953 2 -0.911292 11.6188 9.83125 20.5562
954 2 -0.911294 13.4063 9.83125 18.7687
955 2 -0.911295 13.4062 8.04375 20.5562
959 2 -0.911295 8.04375 8.04375 22.3438
964 2 -0.911295 9.83125 9.83125 22.3438
965 2 -0.911297 11.6188 11.6188 22.3437
972 2 -0.911296 13.4063 13.4063 22.3437
26 1 1.82259 -1.60076e-09 3.575 25.025
27 1 1.82259 3.575 -1.59933e-09 25.025
29 1 1.82259 1.7875 1.7875 23.2375
30 1 1.82259 1.7875 5.3625 26.8125
31 1 1.82259 5.3625 1.7875 26.8125
32 1 1.82259 5.3625 5.3625 23.2375
59 1 1.82259 3.575 7.15 25.025
154 1 1.82259 7.15 3.575 25.025
527 2 -0.911295 2.68125 4.46875 27.7063
528 2 -0.911295 4.46875 2.68125 27.7063
588 2 -0.911295 0.89375 2.68125 24.1313
589 2 -0.911297 0.89375 4.46875 25.9188
592 2 -0.911295 2.68125 0.89375 24.1313
593 2 -0.911297 4.46875 0.89375 25.9188
598 2 -0.911295 0.89375 6.25625 27.7063
599 2 -0.911294 2.68125 6.25625 25.9188
600 2 -0.911295 6.25625 0.89375 27.7063
601 2 -0.911294 6.25625 2.68125 25.9188
602 2 -0.911292 4.46875 6.25625 24.1313
603 2 -0.911292 6.25625 4.46875 24.1313
155 1 1.82259 10.725 -1.12835e-08 25.025
157 1 1.82259 8.9375 1.7875 23.2375
158 1 1.82259 8.9375 5.3625 26.8125
159 1 1.82259 12.5125 1.7875 26.8125
160 1 1.82259 12.5125 5.3625 23.2375
187 1 1.82259 10.725 7.15 25.025
843 2 -0.911295 9.83125 4.46875 27.7062
844 2 -0.911295 11.6187 2.68125 27.7063
894 2 -0.911295 8.04375 2.68125 24.1312
895 2 -0.911298 8.04375 4.46875 25.9188
896 2 -0.911294 9.83125 0.89375 24.1313
897 2 -0.911298 11.6188 0.89375 25.9188
902 2 -0.911295 8.04375 6.25625 27.7062
903 2 -0.911296 9.83125 6.25625 25.9188
904 2 -0.911297 13.4062 0.89375 27.7062
905 2 -0.911293 13.4062 2.68125 25.9188
906 2 -0.911292 11.6188 6.25625 24.1313
907 2 -0.911297 13.4062 4.46875 24.1312
58 1 1.82259 -1.12848e-08 10.725 25.025
61 1 1.82259 1.7875 8.9375 23.2375
62 1 1.82259 1.7875 12.5125 26.8125
63 1 1.82259 5.3625 8.9375 26.8125
64 1 1.82259 5.3625 12.5125 23.2375
186 1 1.82259 7.15 10.725 25.025
616 2 -0.911295 2.68125 11.6187 27.7063
617 2 -0.911295 4.46875 9.83125 27.7062
670 2 -0.911294 0.89375 9.83125 24.1313
671 2 -0.911298 0.89375 11.6188 25.9188
674 2 -0.911295 2.68125 8.04375 24.1312
675 2 -0.911298 4.46875 8.04375 25.9188
678 2 -0.911297 0.89375 13.4062 27.7062
679 2 -0.911293 2.68125 13.4062 25.9188
680 2 -0.911295 6.25625 8.04375 27.7062
681 2 -0.911296 6.25625 9.83125 25.9188
682 2 -0.911297 4.46875 13.4062 24.1312
683 2 -0.911292 6.25625 11.6188 24.1313
189 1 1.82259 8.9375 8.9375 23.2375
190 1 1.82259 8.9375 12.5125 26.8125
191 1 1.82259 12.5125 8.9375 26.8125
192 1 1.82259 12.5125 12.5125 23.2375
916 2 -0.911295 9.83125 11.6188 27.7063
917 2 -0.911295 11.6188 9.83125 27.7063
960 2 -0.911297 8.04375 9.83125 24.1312
961 2 -0.911296 8.04375 11.6188 25.9188
962 2 -0.911297 9.83125 8.04375 24.1312
963 2 -0.911296 11.6188 8.04375 25.9188
966 2 -0.911295 8.04375 13.4062 27.7062
967 2 -0.911295 9.83125 13.4062 25.9188
968 2 -0.911295 13.4062 8.04375 27.7062
969 2 -0.911295 13.4062 9.83125 25.9188
970 2 -0.911293 11.6187 13.4063 24.1313
971 2 -0.911293 13.4063 11.6187 24.1313
65 1 1.82259 4.178e-08 14.3 5.34232e-08
66 1 1.82259 -2.44277e-08 17.875 3.575
67 1 1.82259 3.575 14.3 3.575
68 1 1.82259 3.575 17.875 -1.88181e-08
69 1 1.82259 1.7875 16.0875 1.7875
70 1 1.82259 1.7875 19.6625 5.3625
71 1 1.82259 5.3625 16.0875 5.3625
72 1 1.82259 5.3625 19.6625 1.7875
97 1 1.82259 -2.01146e-08 21.45 -8.36376e-09
99 1 1.82259 3.575 21.45 3.575
193 1 1.82259 7.15 14.3 1.99122e-08
194 1 1.82259 7.15 17.875 3.575
225 1 1.82259 7.15 21.45 -1.12159e-08
685 2 -0.911292 0.89375 15.1937 0.89375
688 2 -0.911298 0.89375 16.9813 2.68125
689 2 -0.911295 0.89375 18.7687 4.46875
692 2 -0.911296 2.68125 15.1937 2.68125
693 2 -0.911293 4.46875 15.1938 4.46875
694 2 -0.911298 2.68125 16.9813 0.89375
695 2 -0.911296 4.46875 18.7688 0.89375
699 2 -0.911295 2.68125 20.5563 4.46875
702 2 -0.911296 6.25625 16.9812 4.46875
704 2 -0.91129 4.46875 20.5562 2.68125
705 2 -0.911298 6.25625 18.7688 2.68125
706 2 -0.911294 6.25625 20.5562 0.89375
195 1 1.82259 10.725 14.3 3.575
196 1 1.82259 10.725 17.875 -1.70235e-08
197 1 1.82259 8.9375 16.0875 1.7875
198 1 1.82259 8.9375 19.6625 5.3625
199 1 1.82259 12.5125 16.0875 5.3625
200 1 1.82259 12.5125 19.6625 1.7875
227 1 1.82259 10.725 21.45 3.575
973 2 -0.911294 8.04375 15.1937 0.89375
974 2 -0.911296 8.04375 16.9812 2.68125
975 2 -0.911294 8.04375 18.7688 4.46875
976 2 -0.911296 9.83125 15.1937 2.68125
977 2 -0.911297 11.6187 15.1937 4.46875
978 2 -0.911297 9.83125 16.9813 0.89375
979 2 -0.911295 11.6187 18.7687 0.89375
983 2 -0.911298 9.83125 20.5562 4.46875
986 2 -0.911297 13.4063 16.9813 4.46875
988 2 -0.911293 11.6188 20.5562 2.68125
989 2 -0.911295 13.4063 18.7687 2.68125
990 2 -0.911296 13.4063 20.5563 0.89375
98 1 1.82259 1.22843e-08 25.025 3.575
100 1 1.82259 3.575 25.025 4.24556e-09
101 1 1.82259 1.7875 23.2375 1.7875
102 1 1.82259 1.7875 26.8125 5.3625
103 1 1.82259 5.3625 23.2375 5.3625
104 1 1.82259 5.3625 26.8125 1.7875
226 1 1.82259 7.15 25.025 3.575
523 2 -0.911297 2.68125 27.7063 4.46875
524 2 -0.911294 4.46875 27.7063 2.68125
765 2 -0.911298 0.89375 22.3437 0.89375
768 2 -0.911294 0.89375 24.1313 2.68125
769 2 -0.911298 0.89375 25.9187 4.46875
772 2 -0.911296 2.68125 22.3437 2.68125
773 2 -0.911295 4.46875 22.3437 4.46875
774 2 -0.911296 2.68125 24.1313 0.89375
775 2 -0.911296 4.46875 25.9188 0.89375
780 2 -0.91129 6.25625 24.1313 4.46875
782 2 -0.911294 6.25625 27.7063 0.89375
783 2 -0.911296 6.25625 25.9188 2.68125
228 1 1.82259 10.725 25.025 1.97098e-08
229 1 1.82259 8.9375 23.2375 1.7875
230 1 1.82259 8.9375 26.8125 5.3625
231 1 1.82259 12.5125 23.2375 5.3625
232 1 1.82259 12.5125 26.8125 1.7875
839 2 -0.911294 9.83125 27.7063 4.46875
840 2 -0.911296 11.6188 27.7062 2.68125
1037 2 -0.911296 8.04375 22.3437 0.89375
1038 2 -0.911298 8.04375 24.1312 2.68125
1039 2 -0.911294 8.04375 25.9188 4.46875
1040 2 -0.911294 9.83125 22.3438 2.68125
1041 2 -0.911295 11.6188 22.3438 4.46875
1042 2 -0.911293 9.83125 24.1313 0.89375
1043 2 -0.911296 11.6188 25.9188 0.89375
1048 2 -0.911296 13.4063 24.1313 4.46875
1050 2 -0.911296 13.4062 27.7062 0.89375
1051 2 -0.911293 13.4063 25.9187 2.68125
73 1 1.82259 -6.18408e-08 14.3 7.15
74 1 1.82259 -1.7053e-08 17.875 10.725
75 1 1.82259 3.575 14.3 10.725
76 1 1.82259 3.575 17.875 7.15
77 1 1.82259 1.7875 16.0875 8.9375
80 1 1.82259 5.3625 19.6625 8.9375
105 1 1.82259 -2.30537e-08 21.45 7.15
107 1 1.82259 3.575 21.45 10.725
201 1 1.82259 7.15 14.3 7.15
202 1 1.82259 7.15 17.875 10.725
233 1 1.82259 7.15 21.45 7.15
698 2 -0.911292 2.68125 18.7688 6.25625
700 2 -0.911298 0.89375 20.5563 6.25625
701 2 -0.911296 4.46875 16.9812 6.25625
703 2 -0.911293 6.25625 15.1938 6.25625
707 2 -0.911299 0.89375 15.1938 8.04375
710 2 -0.911296 0.89375 16.9813 9.83125
714 2 -0.911292 2.68125 15.1937 9.83125
716 2 -0.911295 2.68125 16.9812 8.04375
717 2 -0.911299 4.46875 18.7688 8.04375
724 2 -0.911295 4.46875 20.5563 9.83125
725 2 -0.911295 6.25625 18.7687 9.83125
726 2 -0.911289 6.25625 20.5562 8.04375
203 1 1.82259 10.725 14.3 10.725
204 1 1.82259 10.725 17.875 7.15
205 1 1.82259 8.9375 16.0875 8.9375
208 1 1.82259 12.5125 19.6625 8.9375
235 1 1.82259 10.725 21.45 10.725
982 2 -0.911294 9.83125 18.7687 6.25625
984 2 -0.911293 8.04375 20.5562 6.25625
985 2 -0.911292 11.6187 16.9813 6.25625
987 2 -0.911295 13.4062 15.1938 6.25625
991 2 -0.911293 8.04375 15.1937 8.04375
992 2 -0.911298 8.04375 16.9813 9.83125
994 2 -0.911296 9.83125 15.1938 9.83125
996 2 -0.911296 9.83125 16.9813 8.04375
997 2 -0.911295 11.6188 18.7687 8.04375
1004 2 -0.911295 11.6188 20.5562 9.83125
1005 2 -0.911295 13.4063 18.7687 9.83125
1006 2 -0.911295 13.4063 20.5563 8.04375
106 1 1.82259 1.38209e-08 25.025 10.725
108 1 1.82259 3.575 25.025 7.15
109 1 1.82259 1.7875 23.2375 8.9375
112 1 1.82259 5.3625 26.8125 8.9375
234 1 1.82259 7.15 25.025 10.725
539 2 -0.911296 0.89375 27.7063 6.25625
549 2 -0.911295 4.46875 27.7062 9.83125
778 2 -0.911291 2.68125 25.9188 6.25625
779 2 -0.911292 4.46875 24.1313 6.25625
781 2 -0.911301 6.25625 22.3437 6.25625
784 2 -0.911296 0.89375 22.3437 8.04375
787 2 -0.911293 0.89375 24.1313 9.83125
791 2 -0.911291 2.68125 22.3437 9.83125
793 2 -0.9113 2.68125 24.1312 8.04375
794 2 -0.911296 4.46875 25.9188 8.04375
799 2 -0.911292 6.25625 27.7062 8.04375
800 2 -0.911295 6.25625 25.9188 9.83125
236 1 1.82259 10.725 25.025 7.15
237 1 1.82259 8.9375 23.2375 8.9375
240 1 1.82259 12.5125 26.8125 8.9375
855 2 -0.911297 8.04375 27.7063 6.25625
861 2 -0.911294 11.6188 27.7063 9.83125
1046 2 -0.911298 9.83125 25.9187 6.25625
1047 2 -0.911294 11.6187 24.1313 6.25625
1049 2 -0.911296 13.4063 22.3437 6.25625
1052 2 -0.911296 8.04375 22.3438 8.04375
1053 2 -0.911296 8.04375 24.1312 9.83125
1055 2 -0.911297 9.83125 22.3438 9.83125
1057 2 -0.911295 9.83125 24.1312 8.04375
1058 2 -0.911295 11.6188 25.9188 8.04375
1063 2 -0.911296 13.4062 27.7062 8.04375
1064 2 -0.911294 13.4062 25.9188 9.83125
78 1 1.82259 1.7875 19.6625 12.5125
79 1 1.82259 5.3625 16.0875 12.5125
81 1 1.82259 1.19478e-10 14.3 14.3
84 1 1.82259 3.575 17.875 14.3
85 1 1.82259 1.7875 16.0875 16.0875
88 1 1.82259 5.3625 19.6625 16.0875
113 1 1.82259 -1.19397e-08 21.45 14.3
209 1 1.82259 7.15 14.3 14.3
241 1 1.82259 7.15 21.45 14.3
711 2 -0.911296 0.89375 18.7687 11.6187
715 2 -0.911298 4.46875 15.1937 11.6188
718 2 -0.911293 2.68125 18.7687 13.4063
719 2 -0.911295 2.68125 20.5562 11.6187
720 2 -0.911297 0.89375 20.5563 13.4063
721 2 -0.911297 4.46875 16.9813 13.4063
722 2 -0.911291 6.25625 16.9813 11.6188
723 2 -0.911296 6.25625 15.1937 13.4063
727 2 -0.911295 0.89375 15.1938 15.1938
730 2 -0.911294 0.89375 16.9812 16.9812
734 2 -0.911295 2.68125 15.1938 16.9812
736 2 -0.911296 2.68125 16.9812 15.1938
737 2 -0.911298 4.46875 18.7687 15.1937
744 2 -0.911297 4.46875 20.5563 16.9813
745 2 -0.911296 6.25625 18.7687 16.9813
746 2 -0.91129 6.25625 20.5562 15.1937
206 1 1.82259 8.9375 19.6625 12.5125
207 1 1.82259 12.5125 16.0875 12.5125
212 1 1.82259 10.725 17.875 14.3
213 1 1.82259 8.9375 16.0875 16.0875
216 1 1.82259 12.5125 19.6625 16.0875
993 2 -0.911294 8.04375 18.7687 11.6188
995 2 -0.911295 11.6188 15.1938 11.6188
998 2 -0.911293 9.83125 18.7687 13.4063
999 2 -0.911293 9.83125 20.5562 11.6188
1000 2 -0.911297 8.04375 20.5562 13.4062
1001 2 -0.911295 11.6187 16.9813 13.4063
1002 2 -0.911296 13.4063 16.9813 11.6187
1003 2 -0.911298 13.4063 15.1937 13.4063
1007 2 -0.911296 8.04375 15.1938 15.1938
1008 2 -0.911295 8.04375 16.9812 16.9812
1010 2 -0.911295 9.83125 15.1938 16.9812
1012 2 -0.911295 9.83125 16.9812 15.1938
1013 2 -0.911295 11.6187 18.7687 15.1937
1020 2 -0.911293 11.6188 20.5562 16.9813
1021 2 -0.911296 13.4063 18.7687 16.9813
1022 2 -0.911296 13.4063 20.5563 15.1937
110 1 1.82259 1.7875 26.8125 12.5125
111 1 1.82259 5.3625 23.2375 12.5125
116 1 1.82259 3.575 25.025 14.3
117 1 1.82259 1.7875 23.2375 16.0875
120 1 1.82259 5.3625 26.8125 16.0875
548 2 -0.911297 2.68125 27.7063 11.6188
562 2 -0.911297 0.89375 27.7062 13.4062
572 2 -0.911294 4.46875 27.7062 16.9812
788 2 -0.911297 0.89375 25.9187 11.6188
792 2 -0.911295 4.46875 22.3437 11.6188
795 2 -0.911291 2.68125 25.9187 13.4063
796 2 -0.911296 4.46875 24.1313 13.4062
797 2 -0.911292 6.25625 24.1313 11.6188
798 2 -0.911298 6.25625 22.3438 13.4062
801 2 -0.911296 0.89375 22.3437 15.1937
804 2 -0.911296 0.89375 24.1313 16.9813
808 2 -0.911291 2.68125 22.3437 16.9813
810 2 -0.911297 2.68125 24.1313 15.1938
811 2 -0.911295 4.46875 25.9188 15.1938
816 2 -0.911295 6.25625 27.7062 15.1938
817 2 -0.911294 6.25625 25.9188 16.9812
238 1 1.82259 8.9375 26.8125 12.5125
239 1 1.82259 12.5125 23.2375 12.5125
244 1 1.82259 10.725 25.025 14.3
245 1 1.82259 8.9375 23.2375 16.0875
248 1 1.82259 12.5125 26.8125 16.0875
860 2 -0.911295 9.83125 27.7063 11.6188
874 2 -0.911296 8.04375 27.7062 13.4062
880 2 -0.911293 11.6188 27.7063 16.9813
1054 2 -0.911298 8.04375 25.9188 11.6188
1056 2 -0.911298 11.6188 22.3438 11.6188
1059 2 -0.911295 9.83125 25.9188 13.4062
1060 2 -0.911294 11.6188 24.1313 13.4062
1061 2 -0.911294 13.4062 24.1313 11.6188
1062 2 -0.911293 13.4063 22.3437 13.4063
1065 2 -0.911298 8.04375 22.3438 15.1938
1066 2 -0.911291 8.04375 24.1313 16.9812
1068 2 -0.911297 9.83125 22.3438 16.9812
1070 2 -0.911295 9.83125 24.1313 15.1937
1071 2 -0.911295 11.6188 25.9187 15.1937
1076 2 -0.911296 13.4062 27.7063 15.1938
1077 2 -0.911295 13.4063 25.9187 16.9813
82 1 1.82259 -5.68356e-09 17.875 17.875
83 1 1.82259 3.575 14.3 17.875
86 1 1.82259 1.7875 19.6625 19.6625
87 1 1.82259 5.3625 16.0875 19.6625
89 1 1.82259 -4.26909e-08 14.3 21.45
92 1 1.82259 3.575 17.875 21.45
115 1 1.82259 3.575 21.45 17.875
121 1 1.82259 1.36793e-08 21.45 21.45
210 1 1.82259 7.15 17.875 17.875
217 1 1.82259 7.15 14.3 21.45
249 1 1.82259 7.15 21.45 21.45
731 2 -0.911296 0.89375 18.7687 18.7687
735 2 -0.911297 4.46875 15.1937 18.7687
738 2 -0.911293 2.68125 18.7687 20.5562
739 2 -0.911296 2.68125 20.5563 18.7687
740 2 -0.911293 0.89375 20.5563 20.5563
741 2 -0.911297 4.46875 16.9813 20.5562
742 2 -0.911295 6.25625 16.9813 18.7687
743 2 -0.911291 6.25625 15.1938 20.5562
747 2 -0.911297 0.89375 15.1937 22.3437
756 2 -0.911293 2.68125 16.9813 22.3437
757 2 -0.911298 4.46875 18.7688 22.3438
764 2 -0.911295 6.25625 20.5563 22.3437
211 1 1.82259 10.725 14.3 17.875
214 1 1.82259 8.9375 19.6625 19.6625
215 1 1.82259 12.5125 16.0875 19.6625
220 1 1.82259 10.725 17.875 21.45
243 1 1.82259 10.725 21.45 17.875
1009 2 -0.911295 8.04375 18.7687 18.7687
1011 2 -0.911296 11.6187 15.1937 18.7687
1014 2 -0.911294 9.83125 18.7688 20.5562
1015 2 -0.911298 9.83125 20.5562 18.7687
1016 2 -0.911293 8.04375 20.5563 20.5563
1017 2 -0.911296 11.6188 16.9813 20.5562
1018 2 -0.911297 13.4063 16.9813 18.7687
1019 2 -0.911292 13.4063 15.1937 20.5562
1023 2 -0.911298 8.04375 15.1938 22.3438
1028 2 -0.911296 9.83125 16.9812 22.3438
1029 2 -0.911296 11.6188 18.7688 22.3438
1036 2 -0.911294 13.4063 20.5562 22.3437
114 1 1.82259 -1.76899e-08 25.025 17.875
118 1 1.82259 1.7875 26.8125 19.6625
119 1 1.82259 5.3625 23.2375 19.6625
124 1 1.82259 3.575 25.025 21.45
242 1 1.82259 7.15 25.025 17.875
571 2 -0.911293 2.68125 27.7063 18.7687
585 2 -0.911296 0.89375 27.7063 20.5563
805 2 -0.911297 0.89375 25.9187 18.7687
809 2 -0.911296 4.46875 22.3437 18.7687
812 2 -0.911296 2.68125 25.9188 20.5562
813 2 -0.911292 4.46875 24.1312 20.5562
814 2 -0.911298 6.25625 24.1313 18.7687
815 2 -0.911294 6.25625 22.3437 20.5563
818 2 -0.911295 0.89375 22.3438 22.3438
827 2 -0.911298 2.68125 24.1312 22.3438
828 2 -0.911296 4.46875 25.9188 22.3438
831 2 -0.911293 6.25625 27.7062 22.3438
246 1 1.82259 8.9375 26.8125 19.6625
247 1 1.82259 12.5125 23.2375 19.6625
252 1 1.82259 10.725 25.025 21.45
879 2 -0.911295 9.83125 27.7063 18.7687
893 2 -0.911294 8.04375 27.7063 20.5563
1067 2 -0.911298 8.04375 25.9187 18.7687
1069 2 -0.911295 11.6188 22.3438 18.7688
1072 2 -0.911294 9.83125 25.9187 20.5562
1073 2 -0.911295 11.6188 24.1312 20.5562
1074 2 -0.911294 13.4062 24.1313 18.7688
1075 2 -0.911295 13.4063 22.3437 20.5562
1078 2 -0.911294 8.04375 22.3437 22.3437
1083 2 -0.911294 9.83125 24.1313 22.3438
1084 2 -0.911296 11.6188 25.9188 22.3438
1087 2 -0.911294 13.4063 27.7063 22.3437
90 1 1.82259 -1.73479e-08 17.875 25.025
91 1 1.82259 3.575 14.3 25.025
93 1 1.82259 1.7875 16.0875 23.2375
94 1 1.82259 1.7875 19.6625 26.8125
95 1 1.82259 5.3625 16.0875 26.8125
96 1 1.82259 5.3625 19.6625 23.2375
123 1 1.82259 3.575 21.45 25.025
218 1 1.82259 7.15 17.875 25.025
696 2 -0.911292 2.68125 18.7688 27.7062
697 2 -0.911295 4.46875 16.9812 27.7062
750 2 -0.911297 0.89375 16.9813 24.1313
751 2 -0.911295 0.89375 18.7687 25.9187
754 2 -0.911295 2.68125 15.1938 24.1313
755 2 -0.911296 4.46875 15.1938 25.9188
758 2 -0.911294 0.89375 20.5563 27.7063
759 2 -0.911298 2.68125 20.5562 25.9188
760 2 -0.911295 6.25625 15.1938 27.7062
761 2 -0.911295 6.25625 16.9812 25.9188
762 2 -0.911291 4.46875 20.5562 24.1313
763 2 -0.911299 6.25625 18.7687 24.1313
219 1 1.82259 10.725 14.3 25.025
221 1 1.82259 8.9375 16.0875 23.2375
222 1 1.82259 8.9375 19.6625 26.8125
223 1 1.82259 12.5125 16.0875 26.8125
224 1 1.82259 12.5125 19.6625 23.2375
251 1 1.82259 10.725 21.45 25.025
980 2 -0.911294 9.83125 18.7688 27.7062
981 2 -0.911294 11.6188 16.9813 27.7063
1024 2 -0.91129 8.04375 16.9812 24.1313
1025 2 -0.911297 8.04375 18.7688 25.9188
1026 2 -0.911295 9.83125 15.1938 24.1313
1027 2 -0.911296 11.6188 15.1938 25.9188
1030 2 -0.911296 8.04375 20.5562 27.7063
1031 2 -0.911296 9.83125 20.5562 25.9188
1032 2 -0.911295 13.4062 15.1938 27.7062
1033 2 -0.911296 13.4062 16.9812 25.9188
1034 2 -0.911293 11.6188 20.5562 24.1313
1035 2 -0.911294 13.4062 18.7688 24.1312
122 1 1.82259 1.35009e-08 25.025 25.025
125 1 1.82259 1.7875 23.2375 23.2375
126 1 1.82259 1.7875 26.8125 26.8125
127 1 1.82259 5.3625 23.2375 26.8125
128 1 1.82259 5.3625 26.8125 23.2375
250 1 1.82259 7.15 25.025 25.025
514 2 -0.911296 0.89375 27.7063 27.7063
594 2 -0.911294 2.68125 27.7062 25.9188
595 2 -0.911294 4.46875 27.7062 24.1312
776 2 -0.911294 2.68125 25.9188 27.7062
777 2 -0.911295 4.46875 24.1312 27.7062
821 2 -0.91129 0.89375 24.1313 24.1313
822 2 -0.911297 0.89375 25.9187 25.9187
825 2 -0.911297 2.68125 22.3438 24.1312
826 2 -0.911296 4.46875 22.3438 25.9188
829 2 -0.911294 6.25625 22.3437 27.7063
830 2 -0.911293 6.25625 24.1313 25.9188
832 2 -0.911293 6.25625 25.9188 24.1313
253 1 1.82259 8.9375 23.2375 23.2375
254 1 1.82259 8.9375 26.8125 26.8125
255 1 1.82259 12.5125 23.2375 26.8125
256 1 1.82259 12.5125 26.8125 23.2375
834 2 -0.911295 8.04375 27.7062 27.7062
898 2 -0.911298 9.83125 27.7062 25.9188
899 2 -0.911293 11.6188 27.7062 24.1312
1044 2 -0.911296 9.83125 25.9188 27.7062
1045 2 -0.911297 11.6188 24.1312 27.7062
1079 2 -0.911298 8.04375 24.1313 24.1313
1080 2 -0.911294 8.04375 25.9188 25.9188
1081 2 -0.911293 9.83125 22.3437 24.1313
1082 2 -0.911295 11.6188 22.3438 25.9188
1085 2 -0.911295 13.4062 22.3438 27.7062
1086 2 -0.911295 13.4062 24.1313 25.9188
1088 2 -0.911295 13.4063 25.9187 24.1313
257 1 1.82259 14.3 4.17817e-08 5.34231e-08
258 1 1.82259 14.3 3.575 3.575
259 1 1.82259 17.875 -2.44266e-08 3.575
260 1 1.82259 17.875 3.575 -1.8818e-08
261 1 1.82259 16.0875 1.7875 1.7875
262 1 1.82259 16.0875 5.3625 5.3625
263 1 1.82259 19.6625 1.7875 5.3625
264 1 1.82259 19.6625 5.3625 1.7875
289 1 1.82259 14.3 7.15 1.99126e-08
291 1 1.82259 17.875 7.15 3.575
385 1 1.82259 21.45 -2.01116e-08 -8.36411e-09
386 1 1.82259 21.45 3.575 3.575
417 1 1.82259 21.45 7.15 -1.12146e-08
1089 2 -0.911292 15.1937 0.89375 0.89375
1091 2 -0.911296 15.1937 2.68125 2.68125
1092 2 -0.911293 15.1938 4.46875 4.46875
1093 2 -0.911298 16.9813 0.89375 2.68125
1094 2 -0.911295 18.7687 0.89375 4.46875
1097 2 -0.911298 16.9813 2.68125 0.89375
1098 2 -0.911296 18.7688 4.46875 0.89375
1102 2 -0.911296 16.9812 6.25625 4.46875
1105 2 -0.911295 20.5563 2.68125 4.46875
1107 2 -0.911298 18.7688 6.25625 2.68125
1108 2 -0.91129 20.5562 4.46875 2.68125
1109 2 -0.911294 20.5562 6.25625 0.89375
387 1 1.82259 25.025 1.22868e-08 3.575
388 1 1.82259 25.025 3.575 4.24671e-09
389 1 1.82259 23.2375 1.7875 1.7875
390 1 1.82259 23.2375 5.3625 5.3625
391 1 1.82259 26.8125 1.7875 5.3625
392 1 1.82259 26.8125 5.3625 1.7875
419 1 1.82259 25.025 7.15 3.575
519 2 -0.911297 27.7063 2.68125 4.46875
520 2 -0.911294 27.7063 4.46875 2.68125
606 2 -0.911294 27.7063 6.25625 0.89375
1345 2 -0.911298 22.3437 0.89375 0.89375
1347 2 -0.911296 22.3437 2.68125 2.68125
1348 2 -0.911295 22.3437 4.46875 4.46875
1349 2 -0.911294 24.1313 0.89375 2.68125
1350 2 -0.911298 25.9187 0.89375 4.46875
1353 2 -0.911296 24.1313 2.68125 0.89375
1354 2 -0.911296 25.9188 4.46875 0.89375
1358 2 -0.91129 24.1313 6.25625 4.46875
1361 2 -0.911296 25.9188 6.25625 2.68125
290 1 1.82259 14.3 10.725 3.575
292 1 1.82259 17.875 10.725 -1.70222e-08
293 1 1.82259 16.0875 8.9375 1.7875
294 1 1.82259 16.0875 12.5125 5.3625
295 1 1.82259 19.6625 8.9375 5.3625
296 1 1.82259 19.6625 12.5125 1.7875
418 1 1.82259 21.45 10.725 3.575
1165 2 -0.911294 15.1937 8.04375 0.89375
1166 2 -0.911296 15.1937 9.83125 2.68125
1167 2 -0.911297 15.1937 11.6187 4.46875
1168 2 -0.911296 16.9812 8.04375 2.68125
1169 2 -0.911294 18.7688 8.04375 4.46875
1170 2 -0.911297 16.9813 9.83125 0.89375
1171 2 -0.911295 18.7687 11.6187 0.89375
1175 2 -0.911297 16.9813 13.4063 4.46875
1178 2 -0.911298 20.5562 9.83125 4.46875
1180 2 -0.911295 18.7687 13.4063 2.68125
1181 2 -0.911293 20.5562 11.6188 2.68125
1182 2 -0.911296 20.5563 13.4063 0.89375
420 1 1.82259 25.025 10.725 1.97105e-08
421 1 1.82259 23.2375 8.9375 1.7875
422 1 1.82259 23.2375 12.5125 5.3625
423 1 1.82259 26.8125 8.9375 5.3625
424 1 1.82259 26.8125 12.5125 1.7875
610 2 -0.911294 27.7063 9.83125 4.46875
611 2 -0.911296 27.7062 11.6188 2.68125
686 2 -0.911296 27.7062 13.4062 0.89375
1405 2 -0.911296 22.3437 8.04375 0.89375
1406 2 -0.911294 22.3438 9.83125 2.68125
1407 2 -0.911295 22.3438 11.6188 4.46875
1408 2 -0.911298 24.1312 8.04375 2.68125
1409 2 -0.911294 25.9188 8.04375 4.46875
1410 2 -0.911293 24.1313 9.83125 0.89375
1411 2 -0.911296 25.9188 11.6188 0.89375
1415 2 -0.911296 24.1313 13.4063 4.46875
1418 2 -0.911293 25.9187 13.4063 2.68125
265 1 1.82259 14.3 -6.18396e-08 7.15
266 1 1.82259 14.3 3.575 10.725
267 1 1.82259 17.875 -1.70523e-08 10.725
268 1 1.82259 17.875 3.575 7.15
269 1 1.82259 16.0875 1.7875 8.9375
272 1 1.82259 19.6625 5.3625 8.9375
297 1 1.82259 14.3 7.15 7.15
299 1 1.82259 17.875 7.15 10.725
393 1 1.82259 21.45 -2.30524e-08 7.15
394 1 1.82259 21.45 3.575 10.725
425 1 1.82259 21.45 7.15 7.15
1101 2 -0.911296 16.9812 4.46875 6.25625
1103 2 -0.911293 15.1938 6.25625 6.25625
1104 2 -0.911292 18.7688 2.68125 6.25625
1106 2 -0.911298 20.5563 0.89375 6.25625
1110 2 -0.911299 15.1938 0.89375 8.04375
1112 2 -0.911292 15.1937 2.68125 9.83125
1114 2 -0.911296 16.9813 0.89375 9.83125
1118 2 -0.911295 16.9812 2.68125 8.04375
1119 2 -0.911299 18.7688 4.46875 8.04375
1126 2 -0.911295 18.7687 6.25625 9.83125
1127 2 -0.911295 20.5563 4.46875 9.83125
1128 2 -0.911289 20.5562 6.25625 8.04375
395 1 1.82259 25.025 1.3823e-08 10.725
396 1 1.82259 25.025 3.575 7.15
397 1 1.82259 23.2375 1.7875 8.9375
400 1 1.82259 26.8125 5.3625 8.9375
427 1 1.82259 25.025 7.15 10.725
540 2 -0.911296 27.7063 0.89375 6.25625
545 2 -0.911295 27.7062 4.46875 9.83125
628 2 -0.911292 27.7062 6.25625 8.04375
1357 2 -0.911292 24.1313 4.46875 6.25625
1359 2 -0.911301 22.3437 6.25625 6.25625
1360 2 -0.911291 25.9188 2.68125 6.25625
1362 2 -0.911296 22.3437 0.89375 8.04375
1364 2 -0.911291 22.3437 2.68125 9.83125
1366 2 -0.911293 24.1313 0.89375 9.83125
1370 2 -0.9113 24.1312 2.68125 8.04375
1371 2 -0.911296 25.9188 4.46875 8.04375
1376 2 -0.911295 25.9188 6.25625 9.83125
298 1 1.82259 14.3 10.725 10.725
300 1 1.82259 17.875 10.725 7.15
301 1 1.82259 16.0875 8.9375 8.9375
304 1 1.82259 19.6625 12.5125 8.9375
426 1 1.82259 21.45 10.725 10.725
1174 2 -0.911292 16.9813 11.6187 6.25625
1176 2 -0.911295 15.1938 13.4062 6.25625
1177 2 -0.911294 18.7687 9.83125 6.25625
1179 2 -0.911293 20.5562 8.04375 6.25625
1183 2 -0.911293 15.1937 8.04375 8.04375
1184 2 -0.911296 15.1938 9.83125 9.83125
1186 2 -0.911298 16.9813 8.04375 9.83125
1188 2 -0.911296 16.9813 9.83125 8.04375
1189 2 -0.911295 18.7687 11.6188 8.04375
1196 2 -0.911295 18.7687 13.4063 9.83125
1197 2 -0.911295 20.5562 11.6188 9.83125
1198 2 -0.911295 20.5563 13.4063 8.04375
428 1 1.82259 25.025 10.725 7.15
429 1 1.82259 23.2375 8.9375 8.9375
432 1 1.82259 26.8125 12.5125 8.9375
629 2 -0.911297 27.7063 8.04375 6.25625
633 2 -0.911294 27.7063 11.6188 9.83125
708 2 -0.911296 27.7062 13.4062 8.04375
1414 2 -0.911294 24.1313 11.6187 6.25625
1416 2 -0.911296 22.3437 13.4063 6.25625
1417 2 -0.911298 25.9187 9.83125 6.25625
1419 2 -0.911296 22.3438 8.04375 8.04375
1420 2 -0.911297 22.3438 9.83125 9.83125
1422 2 -0.911296 24.1312 8.04375 9.83125
1424 2 -0.911295 24.1312 9.83125 8.04375
1425 2 -0.911295 25.9188 11.6188 8.04375
1430 2 -0.911294 25.9188 13.4062 9.83125
270 1 1.82259 16.0875 5.3625 12.5125
271 1 1.82259 19.6625 1.7875 12.5125
273 1 1.82259 14.3 1.2049e-10 14.3
276 1 1.82259 17.875 3.575 14.3
277 1 1.82259 16.0875 1.7875 16.0875
280 1 1.82259 19.6625 5.3625 16.0875
305 1 1.82259 14.3 7.15 14.3
401 1 1.82259 21.45 -1.19386e-08 14.3
433 1 1.82259 21.45 7.15 14.3
1113 2 -0.911298 15.1937 4.46875 11.6188
1115 2 -0.911296 18.7687 0.89375 11.6187
1120 2 -0.911297 16.9813 4.46875 13.4063
1121 2 -0.911291 16.9813 6.25625 11.6188
1122 2 -0.911296 15.1937 6.25625 13.4063
1123 2 -0.911293 18.7687 2.68125 13.4063
1124 2 -0.911295 20.5562 2.68125 11.6187
1125 2 -0.911297 20.5563 0.89375 13.4063
1129 2 -0.911295 15.1938 0.89375 15.1938
1131 2 -0.911295 15.1938 2.68125 16.9812
1133 2 -0.911294 16.9812 0.89375 16.9812
1137 2 -0.911296 16.9812 2.68125 15.1938
1138 2 -0.911298 18.7687 4.46875 15.1937
1145 2 -0.911296 18.7687 6.25625 16.9813
1146 2 -0.911297 20.5563 4.46875 16.9813
1147 2 -0.91129 20.5562 6.25625 15.1937
398 1 1.82259 23.2375 5.3625 12.5125
399 1 1.82259 26.8125 1.7875 12.5125
404 1 1.82259 25.025 3.575 14.3
405 1 1.82259 23.2375 1.7875 16.0875
408 1 1.82259 26.8125 5.3625 16.0875
544 2 -0.911297 27.7063 2.68125 11.6188
563 2 -0.911297 27.7062 0.89375 13.4062
568 2 -0.911294 27.7062 4.46875 16.9812
648 2 -0.911295 27.7062 6.25625 15.1938
1365 2 -0.911295 22.3437 4.46875 11.6188
1367 2 -0.911297 25.9187 0.89375 11.6188
1372 2 -0.911296 24.1313 4.46875 13.4062
1373 2 -0.911292 24.1313 6.25625 11.6188
1374 2 -0.911298 22.3438 6.25625 13.4062
1375 2 -0.911291 25.9187 2.68125 13.4063
1377 2 -0.911296 22.3437 0.89375 15.1937
1379 2 -0.911291 22.3437 2.68125 16.9813
1381 2 -0.911296 24.1313 0.89375 16.9813
1385 2 -0.911297 24.1313 2.68125 15.1938
1386 2 -0.911295 25.9188 4.46875 15.1938
1391 2 -0.911294 25.9188 6.25625 16.9812
302 1 1.82259 16.0875 12.5125 12.5125
303 1 1.82259 19.6625 8.9375 12.5125
308 1 1.82259 17.875 10.725 14.3
309 1 1.82259 16.0875 8.9375 16.0875
312 1 1.82259 19.6625 12.5125 16.0875
1185 2 -0.911295 15.1938 11.6188 11.6188
1187 2 -0.911294 18.7687 8.04375 11.6188
1190 2 -0.911295 16.9813 11.6187 13.4063
1191 2 -0.911296 16.9813 13.4063 11.6187
1192 2 -0.911298 15.1937 13.4063 13.4063
1193 2 -0.911293 18.7687 9.83125 13.4063
1194 2 -0.911293 20.5562 9.83125 11.6188
1195 2 -0.911297 20.5562 8.04375 13.4062
1199 2 -0.911296 15.1938 8.04375 15.1938
1200 2 -0.911295 15.1938 9.83125 16.9812
1202 2 -0.911295 16.9812 8.04375 16.9812
1204 2 -0.911295 16.9812 9.83125 15.1938
1205 2 -0.911295 18.7687 11.6187 15.1937
1212 2 -0.911296 18.7687 13.4063 16.9813
1213 2 -0.911293 20.5562 11.6188 16.9813
1214 2 -0.911296 20.5563 13.4063 15.1937
430 1 1.82259 23.2375 12.5125 12.5125
431 1 1.82259 26.8125 8.9375 12.5125
436 1 1.82259 25.025 10.725 14.3
437 1 1.82259 23.2375 8.9375 16.0875
440 1 1.82259 26.8125 12.5125 16.0875
632 2 -0.911295 27.7063 9.83125 11.6188
649 2 -0.911296 27.7062 8.04375 13.4062
653 2 -0.911293 27.7063 11.6188 16.9813
728 2 -0.911296 27.7063 13.4062 15.1937
1421 2 -0.911298 22.3438 11.6188 11.6188
1423 2 -0.911298 25.9188 8.04375 11.6188
1426 2 -0.911294 24.1313 11.6188 13.4062
1427 2 -0.911294 24.1313 13.4062 11.6188
1428 2 -0.911293 22.3437 13.4063 13.4063
1429 2 -0.911295 25.9188 9.83125 13.4062
1431 2 -0.911298 22.3438 8.04375 15.1938
1432 2 -0.911297 22.3438 9.83125 16.9812
1434 2 -0.911291 24.1313 8.04375 16.9812
1436 2 -0.911295 24.1313 9.83125 15.1937
1437 2 -0.911295 25.9187 11.6188 15.1937
1442 2 -0.911295 25.9187 13.4063 16.9813
274 1 1.82259 14.3 3.575 17.875
275 1 1.82259 17.875 -5.68235e-09 17.875
278 1 1.82259 16.0875 5.3625 19.6625
279 1 1.82259 19.6625 1.7875 19.6625
281 1 1.82259 14.3 -4.26895e-08 21.45
284 1 1.82259 17.875 3.575 21.45
307 1 1.82259 17.875 7.15 17.875
313 1 1.82259 14.3 7.15 21.45
402 1 1.82259 21.45 3.575 17.875
409 1 1.82259 21.45 1.36804e-08 21.45
441 1 1.82259 21.45 7.15 21.45
1132 2 -0.911297 15.1937 4.46875 18.7687
1134 2 -0.911296 18.7687 0.89375 18.7687
1139 2 -0.911297 16.9813 4.46875 20.5562
1140 2 -0.911295 16.9813 6.25625 18.7687
1141 2 -0.911291 15.1938 6.25625 20.5562
1142 2 -0.911293 18.7687 2.68125 20.5562
1143 2 -0.911296 20.5563 2.68125 18.7687
1144 2 -0.911293 20.5563 0.89375 20.5563
1148 2 -0.911297 15.1937 0.89375 22.3437
1156 2 -0.911293 16.9813 2.68125 22.3437
1157 2 -0.911298 18.7688 4.46875 22.3438
1164 2 -0.911295 20.5563 6.25625 22.3437
403 1 1.82259 25.025 -1.76891e-08 17.875
406 1 1.82259 23.2375 5.3625 19.6625
407 1 1.82259 26.8125 1.7875 19.6625
412 1 1.82259 25.025 3.575 21.45
435 1 1.82259 25.025 7.15 17.875
567 2 -0.911293 27.7063 2.68125 18.7687
586 2 -0.911296 27.7063 0.89375 20.5563
668 2 -0.911293 27.7062 6.25625 22.3438
1380 2 -0.911296 22.3437 4.46875 18.7687
1382 2 -0.911297 25.9187 0.89375 18.7687
1387 2 -0.911292 24.1312 4.46875 20.5562
1388 2 -0.911298 24.1313 6.25625 18.7687
1389 2 -0.911294 22.3437 6.25625 20.5563
1390 2 -0.911296 25.9188 2.68125 20.5562
1392 2 -0.911295 22.3438 0.89375 22.3438
1400 2 -0.911298 24.1312 2.68125 22.3438
1401 2 -0.911296 25.9188 4.46875 22.3438
306 1 1.82259 14.3 10.725 17.875
310 1 1.82259 16.0875 12.5125 19.6625
311 1 1.82259 19.6625 8.9375 19.6625
316 1 1.82259 17.875 10.725 21.45
434 1 1.82259 21.45 10.725 17.875
1201 2 -0.911296 15.1937 11.6187 18.7687
1203 2 -0.911295 18.7687 8.04375 18.7687
1206 2 -0.911296 16.9813 11.6188 20.5562
1207 2 -0.911297 16.9813 13.4063 18.7687
1208 2 -0.911292 15.1937 13.4063 20.5562
1209 2 -0.911294 18.7688 9.83125 20.5562
1210 2 -0.911298 20.5562 9.83125 18.7687
1211 2 -0.911293 20.5563 8.04375 20.5563
1215 2 -0.911298 15.1938 8.04375 22.3438
1220 2 -0.911296 16.9812 9.83125 22.3438
1221 2 -0.911296 18.7688 11.6188 22.3438
1228 2 -0.911294 20.5562 13.4063 22.3437
438 1 1.82259 23.2375 12.5125 19.6625
439 1 1.82259 26.8125 8.9375 19.6625
444 1 1.82259 25.025 10.725 21.45
652 2 -0.911295 27.7063 9.83125 18.7687
669 2 -0.911294 27.7063 8.04375 20.5563
748 2 -0.911294 27.7063 13.4063 22.3437
1433 2 -0.911295 22.3438 11.6188 18.7688
1435 2 -0.911298 25.9187 8.04375 18.7687
1438 2 -0.911295 24.1312 11.6188 20.5562
1439 2 -0.911294 24.1313 13.4062 18.7688
1440 2 -0.911295 22.3437 13.4063 20.5562
1441 2 -0.911294 25.9187 9.83125 20.5562
1443 2 -0.911294 22.3437 8.04375 22.3437
1448 2 -0.911294 24.1313 9.83125 22.3438
1449 2 -0.911296 25.9188 11.6188 22.3438
282 1 1.82259 14.3 3.575 25.025
283 1 1.82259 17.875 -1.73465e-08 25.025
285 1 1.82259 16.0875 1.7875 23.2375
286 1 1.82259 16.0875 5.3625 26.8125
287 1 1.82259 19.6625 1.7875 26.8125
288 1 1.82259 19.6625 5.3625 23.2375
315 1 1.82259 17.875 7.15 25.025
410 1 1.82259 21.45 3.575 25.025
1099 2 -0.911295 16.9812 4.46875 27.7062
1100 2 -0.911292 18.7688 2.68125 27.7062
1150 2 -0.911295 15.1938 2.68125 24.1313
1151 2 -0.911296 15.1938 4.46875 25.9188
1152 2 -0.911297 16.9813 0.89375 24.1313
1153 2 -0.911295 18.7687 0.89375 25.9187
1158 2 -0.911295 15.1938 6.25625 27.7062
1159 2 -0.911295 16.9812 6.25625 25.9188
1160 2 -0.911294 20.5563 0.89375 27.7063
1161 2 -0.911298 20.5562 2.68125 25.9188
1162 2 -0.911299 18.7687 6.25625 24.1313
1163 2 -0.911291 20.5562 4.46875 24.1313
411 1 1.82259 25.025 1.3503e-08 25.025
413 1 1.82259 23.2375 1.7875 23.2375
414 1 1.82259 23.2375 5.3625 26.8125
415 1 1.82259 26.8125 1.7875 26.8125
416 1 1.82259 26.8125 5.3625 23.2375
443 1 1.82259 25.025 7.15 25.025
515 2 -0.911296 27.7063 0.89375 27.7063
590 2 -0.911294 27.7062 2.68125 25.9188
591 2 -0.911294 27.7062 4.46875 24.1312
1355 2 -0.911295 24.1312 4.46875 27.7062
1356 2 -0.911294 25.9188 2.68125 27.7062
1394 2 -0.911297 22.3438 2.68125 24.1312
1395 2 -0.911296 22.3438 4.46875 25.9188
1396 2 -0.91129 24.1313 0.89375 24.1313
1397 2 -0.911297 25.9187 0.89375 25.9187
1402 2 -0.911294 22.3437 6.25625 27.7063
1403 2 -0.911293 24.1313 6.25625 25.9188
1404 2 -0.911293 25.9188 6.25625 24.1313
314 1 1.82259 14.3 10.725 25.025
317 1 1.82259 16.0875 8.9375 23.2375
318 1 1.82259 16.0875 12.5125 26.8125
319 1 1.82259 19.6625 8.9375 26.8125
320 1 1.82259 19.6625 12.5125 23.2375
442 1 1.82259 21.45 10.725 25.025
1172 2 -0.911294 16.9813 11.6188 27.7063
1173 2 -0.911294 18.7688 9.83125 27.7062
1216 2 -0.911295 15.1938 9.83125 24.1313
1217 2 -0.911296 15.1938 11.6188 25.9188
1218 2 -0.91129 16.9812 8.04375 24.1313
1219 2 -0.911297 18.7688 8.04375 25.9188
1222 2 -0.911295 15.1938 13.4062 27.7062
1223 2 -0.911296 16.9812 13.4062 25.9188
1224 2 -0.911296 20.5562 8.04375 27.7063
1225 2 -0.911296 20.5562 9.83125 25.9188
1226 2 -0.911294 18.7688 13.4062 24.1312
1227 2 -0.911293 20.5562 11.6188 24.1313
445 1 1.82259 23.2375 8.9375 23.2375
446 1 1.82259 23.2375 12.5125 26.8125
447 1 1.82259 26.8125 8.9375 26.8125
448 1 1.82259 26.8125 12.5125 23.2375
607 2 -0.911295 27.7062 8.04375 27.7062
672 2 -0.911298 27.7062 9.83125 25.9188
673 2 -0.911293 27.7062 11.6188 24.1312
1412 2 -0.911297 24.1312 11.6188 27.7062
1413 2 -0.911296 25.9188 9.83125 27.7062
1444 2 -0.911293 22.3437 9.83125 24.1313
1445 2 -0.911295 22.3438 11.6188 25.9188
1446 2 -0.911298 24.1313 8.04375 24.1313
1447 2 -0.911294 25.9188 8.04375 25.9188
1450 2 -0.911295 22.3438 13.4062 27.7062
1451 2 -0.911295 24.1313 13.4062 25.9188
1452 2 -0.911295 25.9187 13.4063 24.1313
321 1 1.82259 14.3 14.3 7.72573e-11
322 1 1.82259 14.3 17.875 3.575
323 1 1.82259 17.875 14.3 3.575
324 1 1.82259 17.875 17.875 -5.86307e-09
325 1 1.82259 16.0875 16.0875 1.7875
326 1 1.82259 16.0875 19.6625 5.3625
327 1 1.82259 19.6625 16.0875 5.3625
328 1 1.82259 19.6625 19.6625 1.7875
353 1 1.82259 14.3 21.45 -5.91637e-09
355 1 1.82259 17.875 21.45 3.575
449 1 1.82259 21.45 14.3 -5.9158e-09
450 1 1.82259 21.45 17.875 3.575
481 1 1.82259 21.45 21.45 1.94374e-08
1229 2 -0.911297 15.1938 15.1938 0.89375
1230 2 -0.911295 15.1937 16.9813 2.68125
1231 2 -0.911295 15.1937 18.7687 4.46875
1232 2 -0.911295 16.9813 15.1937 2.68125
1233 2 -0.911295 18.7687 15.1937 4.46875
1234 2 -0.911297 16.9812 16.9812 0.89375
1235 2 -0.911296 18.7687 18.7687 0.89375
1239 2 -0.911294 16.9813 20.5562 4.46875
1242 2 -0.911294 20.5562 16.9813 4.46875
1244 2 -0.911296 18.7687 20.5563 2.68125
1245 2 -0.911296 20.5563 18.7687 2.68125
1246 2 -0.911292 20.5562 20.5562 0.89375
451 1 1.82259 25.025 14.3 3.575
452 1 1.82259 25.025 17.875 -1.70355e-10
453 1 1.82259 23.2375 16.0875 1.7875
454 1 1.82259 23.2375 19.6625 5.3625
455 1 1.82259 26.8125 16.0875 5.3625
456 1 1.82259 26.8125 19.6625 1.7875
483 1 1.82259 25.025 21.45 3.575
690 2 -0.911295 27.7063 16.9813 4.46875
691 2 -0.911292 27.7063 18.7687 2.68125
766 2 -0.911294 27.7063 20.5562 0.89375
1453 2 -0.911296 22.3437 15.1938 0.89375
1454 2 -0.911295 22.3437 16.9813 2.68125
1455 2 -0.911297 22.3437 18.7687 4.46875
1456 2 -0.911295 24.1313 15.1938 2.68125
1457 2 -0.911297 25.9187 15.1937 4.46875
1458 2 -0.911297 24.1313 16.9812 0.89375
1459 2 -0.911296 25.9188 18.7688 0.89375
1463 2 -0.911291 24.1313 20.5562 4.46875
1466 2 -0.911298 25.9188 20.5562 2.68125
354 1 1.82259 14.3 25.025 3.575
356 1 1.82259 17.875 25.025 -1.7085e-10
357 1 1.82259 16.0875 23.2375 1.7875
358 1 1.82259 16.0875 26.8125 5.3625
359 1 1.82259 19.6625 23.2375 5.3625
360 1 1.82259 19.6625 26.8125 1.7875
482 1 1.82259 21.45 25.025 3.575
1095 2 -0.911295 16.9813 27.7063 4.46875
1096 2 -0.911292 18.7687 27.7063 2.68125
1293 2 -0.911296 15.1938 22.3437 0.89375
1294 2 -0.911295 15.1938 24.1313 2.68125
1295 2 -0.911297 15.1937 25.9187 4.46875
1296 2 -0.911295 16.9813 22.3437 2.68125
1297 2 -0.911297 18.7687 22.3437 4.46875
1298 2 -0.911297 16.9812 24.1313 0.89375
1299 2 -0.911296 18.7688 25.9188 0.89375
1304 2 -0.911291 20.5562 24.1313 4.46875
1306 2 -0.911294 20.5562 27.7063 0.89375
1307 2 -0.911298 20.5562 25.9188 2.68125
484 1 1.82259 25.025 25.025 2.51267e-08
485 1 1.82259 23.2375 23.2375 1.7875
486 1 1.82259 23.2375 26.8125 5.3625
487 1 1.82259 26.8125 23.2375 5.3625
488 1 1.82259 26.8125 26.8125 1.7875
516 2 -0.911293 27.7062 27.7062 0.89375
770 2 -0.911295 27.7062 24.1312 4.46875
771 2 -0.911294 27.7062 25.9188 2.68125
1351 2 -0.911295 24.1312 27.7062 4.46875
1352 2 -0.911294 25.9188 27.7062 2.68125
1501 2 -0.911295 22.3438 22.3438 0.89375
1502 2 -0.911297 22.3438 24.1312 2.68125
1503 2 -0.911297 22.3438 25.9188 4.46875
1504 2 -0.911297 24.1312 22.3438 2.68125
1505 2 -0.911297 25.9188 22.3438 4.46875
1506 2 -0.911291 24.1313 24.1313 0.89375
1507 2 -0.911296 25.9188 25.9188 0.89375
329 1 1.82259 14.3 14.3 7.15
330 1 1.82259 14.3 17.875 10.725
331 1 1.82259 17.875 14.3 10.725
332 1 1.82259 17.875 17.875 7.15
333 1 1.82259 16.0875 16.0875 8.9375
336 1 1.82259 19.6625 19.6625 8.9375
361 1 1.82259 14.3 21.45 7.15
363 1 1.82259 17.875 21.45 10.725
457 1 1.82259 21.45 14.3 7.15
458 1 1.82259 21.45 17.875 10.725
489 1 1.82259 21.45 21.45 7.15
1238 2 -0.911297 16.9813 18.7687 6.25625
1240 2 -0.911294 15.1937 20.5562 6.25625
1241 2 -0.911297 18.7687 16.9813 6.25625
1243 2 -0.911294 20.5562 15.1937 6.25625
1247 2 -0.9113 15.1938 15.1938 8.04375
1248 2 -0.911293 15.1938 16.9812 9.83125
1250 2 -0.911293 16.9812 15.1938 9.83125
1252 2 -0.911295 16.9812 16.9812 8.04375
1253 2 -0.911295 18.7688 18.7688 8.04375
1260 2 -0.911295 18.7688 20.5562 9.83125
1261 2 -0.911295 20.5562 18.7688 9.83125
1262 2 -0.911292 20.5562 20.5562 8.04375
459 1 1.82259 25.025 14.3 10.725
460 1 1.82259 25.025 17.875 7.15
461 1 1.82259 23.2375 16.0875 8.9375
464 1 1.82259 26.8125 19.6625 8.9375
491 1 1.82259 25.025 21.45 10.725
709 2 -0.911291 27.7063 15.1937 6.25625
713 2 -0.911294 27.7062 18.7688 9.83125
785 2 -0.911294 27.7063 20.5562 8.04375
1462 2 -0.911298 24.1313 18.7687 6.25625
1464 2 -0.911295 22.3437 20.5563 6.25625
1465 2 -0.911299 25.9187 16.9813 6.25625
1467 2 -0.911295 22.3437 15.1937 8.04375
1468 2 -0.911298 22.3438 16.9812 9.83125
1470 2 -0.911297 24.1313 15.1937 9.83125
1472 2 -0.911292 24.1313 16.9812 8.04375
1473 2 -0.911295 25.9188 18.7688 8.04375
1478 2 -0.911297 25.9188 20.5562 9.83125
362 1 1.82259 14.3 25.025 10.725
364 1 1.82259 17.875 25.025 7.15
365 1 1.82259 16.0875 23.2375 8.9375
368 1 1.82259 19.6625 26.8125 8.9375
490 1 1.82259 21.45 25.025 10.725
1111 2 -0.911291 15.1937 27.7063 6.25625
1117 2 -0.911294 18.7688 27.7062 9.83125
1302 2 -0.911299 16.9813 25.9187 6.25625
1303 2 -0.911298 18.7687 24.1313 6.25625
1305 2 -0.911295 20.5563 22.3437 6.25625
1308 2 -0.911295 15.1937 22.3437 8.04375
1309 2 -0.911297 15.1937 24.1313 9.83125
1311 2 -0.911298 16.9812 22.3438 9.83125
1313 2 -0.911292 16.9812 24.1313 8.04375
1314 2 -0.911295 18.7688 25.9188 8.04375
1319 2 -0.911294 20.5562 27.7063 8.04375
1320 2 -0.911297 20.5562 25.9188 9.83125
492 1 1.82259 25.025 25.025 7.15
493 1 1.82259 23.2375 23.2375 8.9375
496 1 1.82259 26.8125 26.8125 8.9375
541 2 -0.911295 27.7062 27.7062 8.04375
786 2 -0.911293 27.7063 22.3437 6.25625
790 2 -0.911297 27.7062 25.9188 9.83125
1363 2 -0.911293 22.3437 27.7063 6.25625
1369 2 -0.911297 25.9188 27.7062 9.83125
1510 2 -0.911294 24.1313 25.9188 6.25625
1511 2 -0.911294 25.9188 24.1313 6.25625
1512 2 -0.911294 22.3437 22.3437 8.04375
1513 2 -0.911294 22.3438 24.1313 9.83125
1515 2 -0.911294 24.1313 22.3438 9.83125
1517 2 -0.911297 24.1313 24.1313 8.04375
1518 2 -0.911295 25.9188 25.9188 8.04375
334 1 1.82259 16.0875 19.6625 12.5125
335 1 1.82259 19.6625 16.0875 12.5125
337 1 1.82259 14.3 14.3 14.3
340 1 1.82259 17.875 17.875 14.3
341 1 1.82259 16.0875 16.0875 16.0875
344 1 1.82259 19.6625 19.6625 16.0875
369 1 1.82259 14.3 21.45 14.3
465 1 1.82259 21.45 14.3 14.3
497 1 1.82259 21.45 21.45 14.3
1249 2 -0.911296 15.1937 18.7687 11.6187
1251 2 -0.911296 18.7687 15.1937 11.6187
1254 2 -0.911296 16.9813 18.7687 13.4063
1255 2 -0.911293 16.9813 20.5562 11.6188
1256 2 -0.911296 15.1937 20.5563 13.4063
1257 2 -0.911296 18.7687 16.9813 13.4063
1258 2 -0.911293 20.5562 16.9813 11.6188
1259 2 -0.911296 20.5563 15.1937 13.4063
1263 2 -0.911297 15.1937 15.1937 15.1937
1264 2 -0.911295 15.1937 16.9813 16.9813
1266 2 -0.911295 16.9813 15.1937 16.9813
1268 2 -0.911295 16.9813 16.9813 15.1937
1269 2 -0.911296 18.7687 18.7687 15.1937
1276 2 -0.911296 18.7687 20.5563 16.9813
1277 2 -0.911296 20.5563 18.7687 16.9813
1278 2 -0.911292 20.5562 20.5562 15.1937
462 1 1.82259 23.2375 19.6625 12.5125
463 1 1.82259 26.8125 16.0875 12.5125
468 1 1.82259 25.025 17.875 14.3
469 1 1.82259 23.2375 16.0875 16.0875
472 1 1.82259 26.8125 19.6625 16.0875
712 2 -0.911294 27.7063 16.9813 11.6188
729 2 -0.911296 27.7063 15.1937 13.4063
733 2 -0.911295 27.7063 18.7687 16.9813
802 2 -0.911295 27.7063 20.5562 15.1937
1469 2 -0.911296 22.3437 18.7687 11.6188
1471 2 -0.911295 25.9187 15.1937 11.6188
1474 2 -0.911295 24.1313 18.7687 13.4063
1475 2 -0.911292 24.1312 20.5562 11.6188
1476 2 -0.911295 22.3437 20.5562 13.4063
1477 2 -0.911295 25.9187 16.9813 13.4063
1479 2 -0.911295 22.3437 15.1937 15.1937
1480 2 -0.911296 22.3437 16.9813 16.9813
1482 2 -0.911296 24.1313 15.1938 16.9812
1484 2 -0.911296 24.1313 16.9812 15.1938
1485 2 -0.911295 25.9187 18.7687 15.1937
1490 2 -0.911295 25.9187 20.5562 16.9813
366 1 1.82259 16.0875 26.8125 12.5125
367 1 1.82259 19.6625 23.2375 12.5125
372 1 1.82259 17.875 25.025 14.3
373 1 1.82259 16.0875 23.2375 16.0875
376 1 1.82259 19.6625 26.8125 16.0875
1116 2 -0.911294 16.9813 27.7063 11.6188
1130 2 -0.911296 15.1937 27.7063 13.4063
1136 2 -0.911295 18.7687 27.7063 16.9813
1310 2 -0.911295 15.1937 25.9187 11.6188
1312 2 -0.911296 18.7687 22.3437 11.6188
1315 2 -0.911295 16.9813 25.9187 13.4063
1316 2 -0.911295 18.7687 24.1313 13.4063
1317 2 -0.911292 20.5562 24.1312 11.6188
1318 2 -0.911295 20.5562 22.3437 13.4063
1321 2 -0.911295 15.1937 22.3437 15.1937
1322 2 -0.911296 15.1938 24.1313 16.9812
1324 2 -0.911296 16.9813 22.3437 16.9813
1326 2 -0.911296 16.9812 24.1313 15.1938
1327 2 -0.911295 18.7687 25.9187 15.1937
1332 2 -0.911295 20.5562 27.7063 15.1937
1333 2 -0.911295 20.5562 25.9187 16.9813
494 1 1.82259 23.2375 26.8125 12.5125
495 1 1.82259 26.8125 23.2375 12.5125
500 1 1.82259 25.025 25.025 14.3
501 1 1.82259 23.2375 23.2375 16.0875
504 1 1.82259 26.8125 26.8125 16.0875
564 2 -0.911296 27.7062 27.7062 15.1938
789 2 -0.911295 27.7062 24.1312 11.6188
803 2 -0.911293 27.7062 22.3438 13.4062
807 2 -0.911295 27.7062 25.9188 16.9812
1368 2 -0.911295 24.1312 27.7062 11.6188
1378 2 -0.911293 22.3438 27.7062 13.4062
1384 2 -0.911295 25.9188 27.7062 16.9812
1514 2 -0.911296 22.3438 25.9188 11.6188
1516 2 -0.911296 25.9188 22.3438 11.6188
1519 2 -0.911296 24.1312 25.9188 13.4062
1520 2 -0.911296 25.9188 24.1312 13.4062
1521 2 -0.911297 22.3437 22.3437 15.1937
1522 2 -0.911296 22.3437 24.1313 16.9813
1524 2 -0.911296 24.1313 22.3437 16.9813
1526 2 -0.911294 24.1313 24.1313 15.1938
1527 2 -0.911297 25.9188 25.9188 15.1938
338 1 1.82259 14.3 17.875 17.875
339 1 1.82259 17.875 14.3 17.875
342 1 1.82259 16.0875 19.6625 19.6625
343 1 1.82259 19.6625 16.0875 19.6625
345 1 1.82259 14.3 14.3 21.45
348 1 1.82259 17.875 17.875 21.45
371 1 1.82259 17.875 21.45 17.875
377 1 1.82259 14.3 21.45 21.45
466 1 1.82259 21.45 17.875 17.875
473 1 1.82259 21.45 14.3 21.45
505 1 1.82259 21.45 21.45 21.45
1265 2 -0.911295 15.1937 18.7687 18.7687
1267 2 -0.911295 18.7687 15.1937 18.7687
1270 2 -0.911294 16.9813 18.7687 20.5562
1271 2 -0.911295 16.9813 20.5562 18.7687
1272 2 -0.911297 15.1937 20.5562 20.5562
1273 2 -0.911294 18.7687 16.9813 20.5562
1274 2 -0.911295 20.5562 16.9813 18.7687
1275 2 -0.911297 20.5562 15.1937 20.5562
1279 2 -0.911298 15.1937 15.1937 22.3437
1284 2 -0.911297 16.9813 16.9813 22.3437
1285 2 -0.911294 18.7688 18.7688 22.3438
1292 2 -0.911295 20.5562 20.5562 22.3437
467 1 1.82259 25.025 14.3 17.875
470 1 1.82259 23.2375 19.6625 19.6625
471 1 1.82259 26.8125 16.0875 19.6625
476 1 1.82259 25.025 17.875 21.45
499 1 1.82259 25.025 21.45 17.875
732 2 -0.911296 27.7063 16.9813 18.7687
749 2 -0.911291 27.7063 15.1937 20.5562
819 2 -0.911295 27.7062 20.5562 22.3438
1481 2 -0.911294 22.3437 18.7687 18.7687
1483 2 -0.911297 25.9187 15.1937 18.7687
1486 2 -0.911294 24.1313 18.7687 20.5562
1487 2 -0.911294 24.1313 20.5562 18.7687
1488 2 -0.911294 22.3437 20.5562 20.5562
1489 2 -0.911296 25.9187 16.9813 20.5563
1491 2 -0.911296 22.3437 15.1938 22.3437
1496 2 -0.911295 24.1313 16.9812 22.3438
1497 2 -0.911294 25.9188 18.7687 22.3438
370 1 1.82259 14.3 25.025 17.875
374 1 1.82259 16.0875 26.8125 19.6625
375 1 1.82259 19.6625 23.2375 19.6625
380 1 1.82259 17.875 25.025 21.45
498 1 1.82259 21.45 25.025 17.875
1135 2 -0.911296 16.9813 27.7063 18.7687
1149 2 -0.911291 15.1937 27.7063 20.5562
1323 2 -0.911297 15.1937 25.9187 18.7687
1325 2 -0.911294 18.7687 22.3437 18.7687
1328 2 -0.911296 16.9813 25.9187 20.5563
1329 2 -0.911294 18.7687 24.1313 20.5562
1330 2 -0.911294 20.5562 24.1313 18.7687
1331 2 -0.911294 20.5562 22.3437 20.5562
1334 2 -0.911296 15.1937 22.3437 22.3437
1339 2 -0.911295 16.9812 24.1313 22.3438
1340 2 -0.911294 18.7687 25.9188 22.3437
1343 2 -0.911295 20.5562 27.7062 22.3438
502 1 1.82259 23.2375 26.8125 19.6625
503 1 1.82259 26.8125 23.2375 19.6625
508 1 1.82259 25.025 25.025 21.45
587 2 -0.911294 27.7063 27.7063 22.3438
806 2 -0.911295 27.7062 24.1313 18.7688
820 2 -0.911296 27.7062 22.3438 20.5562
1383 2 -0.911295 24.1313 27.7062 18.7688
1393 2 -0.911296 22.3438 27.7062 20.5562
1523 2 -0.911294 22.3438 25.9188 18.7688
1525 2 -0.911294 25.9188 22.3438 18.7688
1528 2 -0.911295 24.1313 25.9188 20.5562
1529 2 -0.911295 25.9188 24.1313 20.5562
1530 2 -0.911295 22.3437 22.3437 22.3437
1535 2 -0.911296 24.1313 24.1313 22.3438
1536 2 -0.911296 25.9188 25.9188 22.3438
346 1 1.82259 14.3 17.875 25.025
347 1 1.82259 17.875 14.3 25.025
349 1 1.82259 16.0875 16.0875 23.2375
350 1 1.82259 16.0875 19.6625 26.8125
351 1 1.82259 19.6625 16.0875 26.8125
352 1 1.82259 19.6625 19.6625 23.2375
379 1 1.82259 17.875 21.45 25.025
474 1 1.82259 21.45 17.875 25.025
1236 2 -0.911294 16.9812 18.7688 27.7062
1237 2 -0.911294 18.7688 16.9812 27.7062
1280 2 -0.911294 15.1937 16.9813 24.1313
1281 2 -0.911296 15.1938 18.7688 25.9188
1282 2 -0.911294 16.9813 15.1937 24.1313
1283 2 -0.911296 18.7688 15.1938 25.9188
1286 2 -0.911295 15.1937 20.5562 27.7063
1287 2 -0.911295 16.9813 20.5562 25.9187
1288 2 -0.911295 20.5562 15.1937 27.7063
1289 2 -0.911295 20.5562 16.9813 25.9187
1290 2 -0.911295 18.7688 20.5562 24.1313
1291 2 -0.911295 20.5562 18.7687 24.1313
475 1 1.82259 25.025 14.3 25.025
477 1 1.82259 23.2375 16.0875 23.2375
478 1 1.82259 23.2375 19.6625 26.8125
479 1 1.82259 26.8125 16.0875 26.8125
480 1 1.82259 26.8125 19.6625 23.2375
507 1 1.82259 25.025 21.45 25.025
687 2 -0.911297 27.7062 15.1938 27.7062
752 2 -0.911294 27.7062 16.9812 25.9188
753 2 -0.911294 27.7062 18.7688 24.1313
1460 2 -0.911296 24.1313 18.7688 27.7062
1461 2 -0.911296 25.9188 16.9812 27.7062
1492 2 -0.911296 22.3438 16.9812 24.1313
1493 2 -0.911295 22.3438 18.7688 25.9188
1494 2 -0.911296 24.1313 15.1938 24.1313
1495 2 -0.911295 25.9188 15.1938 25.9188
1498 2 -0.911294 22.3438 20.5562 27.7062
1499 2 -0.911295 24.1313 20.5562 25.9188
1500 2 -0.911295 25.9188 20.5562 24.1313
378 1 1.82259 14.3 25.025 25.025
381 1 1.82259 16.0875 23.2375 23.2375
382 1 1.82259 16.0875 26.8125 26.8125
383 1 1.82259 19.6625 23.2375 26.8125
384 1 1.82259 19.6625 26.8125 23.2375
506 1 1.82259 21.45 25.025 25.025
1090 2 -0.911297 15.1938 27.7062 27.7062
1154 2 -0.911294 16.9812 27.7062 25.9188
1155 2 -0.911294 18.7688 27.7062 24.1313
1300 2 -0.911296 16.9812 25.9188 27.7062
1301 2 -0.911296 18.7688 24.1313 27.7062
1335 2 -0.911296 15.1938 24.1313 24.1313
1336 2 -0.911295 15.1937 25.9187 25.9187
1337 2 -0.911296 16.9812 22.3438 24.1313
1338 2 -0.911295 18.7688 22.3438 25.9188
1341 2 -0.911294 20.5562 22.3438 27.7062
1342 2 -0.911295 20.5562 24.1313 25.9188
1344 2 -0.911295 20.5562 25.9188 24.1313
509 1 1.82259 23.2375 23.2375 23.2375
510 1 1.82259 23.2375 26.8125 26.8125
511 1 1.82259 26.8125 23.2375 26.8125
512 1 1.82259 26.8125 26.8125 23.2375
767 2 -0.911294 27.7063 22.3437 27.7063
823 2 -0.911296 27.7062 24.1312 25.9188
824 2 -0.911297 27.7062 25.9188 24.1312
1346 2 -0.911294 22.3437 27.7063 27.7063
1398 2 -0.911296 24.1312 27.7062 25.9188
1399 2 -0.911297 25.9188 27.7062 24.1312
1508 2 -0.911297 24.1312 25.9188 27.7062
1509 2 -0.911297 25.9188 24.1312 27.7062
1531 2 -0.911295 22.3438 24.1313 24.1313
1532 2 -0.911295 22.3437 25.9187 25.9187
1533 2 -0.911295 24.1313 22.3438 24.1313
1534 2 -0.911295 25.9188 22.3437 25.9187
